##TITLE=	fluroethane 1h
##JCAMP-DX=	6.0	$$ MestReNova 17.0.0-41178
##DATA TYPE=	LINK
##BLOCKS=	4    
##ORIGIN=	Mestrelab Research S.L.
##OWNER=	ctheodore
##$MNOVA/METADATA=	(DOCUMENT,BASE64)
eyJuYW1lIjoiL1VzZXJzL2N0aGVvZG9yZS9Eb2N1bWVudHMvY2xhc3Nlcy9OTVIgZXhwZXJpbWVudC9
naXRodWIgZmlsZXMvZmx1cm9ldGhhbmUgcGFydCBiL2ZsdXJvZXRoYW5lIDFoLm1ub3ZhIiwicGFnZX
MiOlt7Iml0ZW1zIjpbIjEiLCAgICAgICAgICAgICAgICAgICAgICAgICAgICAgICAgICAgICAiMyIgI
CAgICAgICAgICAgICAgICAgICAgICAgICAgICAgICAgICAgXX1dfQ==
##TITLE=	
##JCAMP-CS=	3.7	$$ MestReNova 17.0.0-41178
##BLOCK_ID=	1
##ORIGIN=	Mestrelab Research S.L.
##OWNER=	ctheodore
##$MNOVA/METADATA=	(ITEM,BASE64)
eyJhbmdsZSI6MC4wLCJwb2ludHMiOlt7IngiOjUzMjEuMCwieSI6NTgzNS4wfSx7IngiOjU1OTAuMDY
4NTAzMzUzMjE5LCJ5Ijo1ODM1LjB9LHsieCI6NTU5MC4wNjg1MDMzNTMyMTksInkiOjU5NjEuOTQ3Nz
QyMzIyNTA3fSx7IngiOjUzMjEuMCwieSI6NTk2MS45NDc3NDIzMjI1MDd9LHsieCI6NTMyMS4wLCJ5I
jo1ODM1LjB9XSwieiI6MS4wfQ==
##NAMES=	
##ATOMLIST=	
$$ AN	AS	NH
	1	C	3
	2	C	2
	3	F	 
##BONDLIST=	
$$ AN1	AN2	BT
	1	2	S
	2	3	S
##MAXRASTER=	32768
##XY_RASTER=	
$$ AN	X	Y	Z
	1	-32768	9456	0
	2	0	-9456	0
	3	32768	9456	0
##END=		$$ JCAMP-CS
##TITLE=	Predicted 1H NMR Spectrum
##JCAMP-DX=	6.0	$$ MestReNova 17.0.0-41178
##DATA TYPE=	NMR PEAK ASSIGNMENTS
##DATA CLASS=	ASSIGNMENTS
##BLOCK_ID=	2
##ORIGIN=	Mestrelab Research S.L.
##OWNER=	ctheodore
##CROSS REFERENCE=	STRUCTURE: BLOCK_ID=1                                     
NMR SPECTRUM: BLOCK_ID=3                                     
##.OBSERVE FREQUENCY=	500
##.OBSERVE NUCLEUS=	^1H
##NPOINTS=	5
##XUNITS=	PPM
##YUNITS=	ARBITRARY UNITS
##PEAKASSIGNMENTS=	(XYWA)
(1.3751701779091056732, 0.00020336540183052420616, 0.038150456877385829912, <1>)
(1.3751701779091056732, 0.00020336540183052420616, 0.038150456877385829912, <1>)
(1.3751701779091056732, 0.00020336540183052420616, 0.038150456877385829912, <1>)
(4.5377820862826316883, 2.6455092665855772793e-05, 0.06638267588538671049, <2>)
(4.5377820862826316883, 2.6455092665855772793e-05, 0.06638267588538671049, <2>)
##END=		$$ NMR PEAK ASSIGNMENTS
##TITLE=	Predicted 1H NMR Spectrum
##JCAMP-DX=	6.0	$$ MestReNova 17.0.0-41178
##DATA TYPE=	NMR SPECTRUM
##DATA CLASS=	XYDATA
##BLOCK_ID=	3
##ORIGIN=	Mestrelab Predictor, Modgraph NMRPredict Desktop
##OWNER=	ctheodore
##NUMDIM=	1
##$MNOVA/METADATA=	(ITEM,BASE64)
eyJhbmdsZSI6MC4wLCJheGVzIjp7IngiOnsibWF4IjoxMi41MDAwNzgxMjU0ODgyODUsIm1pbiI6MC4
wMDAxOTA3MzYwNTUzODE1OTYxNH0sInkiOnsibWF4IjowLjAzMzUxODU4NDQ0NTExODkwNCwibWluIj
otMC4wMDMwNDcxMzYwOTY3MjgxMzEzfX0sInBvaW50cyI6W3sieCI6NTMyMS4wLCJ5Ijo1ODM1LjB9L
HsieCI6ODcyMi4wLCJ5Ijo1ODM1LjB9LHsieCI6ODcyMi4wLCJ5Ijo4MjA4LjB9LHsieCI6NTMyMS4w
LCJ5Ijo4MjA4LjB9LHsieCI6NTMyMS4wLCJ5Ijo1ODM1LjB9XSwieiI6MC4wfQ==
##.OBSERVE FREQUENCY=	500
##.OBSERVE NUCLEUS=	^1H
##.SOLVENT NAME=	Methanol-d4
##.PULSE SEQUENCE=	
##.ACQUISITIONMODE=	SIMULTANEOUS (DQD)
##$ORIGINAL FORMAT=	Predictor
##$MNOVA/SCALES_VERSION=	9
##$PARAMETER FILE=	(parameters, ASCII, , 0)
$$ <?xml version="1.0" encoding="utf-8"?>
$$ <PredictorParameters>
$$     <Title>Predicted 1H NMR Spectrum</Title>
$$     <Origin>Mnova: NMR Prediction</Origin>
$$     <Name>Mestrelab Predictor, Modgraph NMRPredict Desktop</Name>
$$     <Version>1.7, 1.22 (5.076)</Version>
$$     <Nucleus>1H</Nucleus>
$$     <Solvent>Methanol-d4</Solvent>
$$     <From>0</From>
$$     <To>12.5</To>
$$     <Frequency>500</Frequency>
$$     <LineWidth>0.75</LineWidth>
$$     <Size>65536</Size>
$$     <DEPT>0</DEPT>
$$     <ProtonatedCarbons>0</ProtonatedCarbons>
$$     <ExcludeLabile>true</ExcludeLabile>
$$     <FastPrediction>0</FastPrediction>
$$     <ProtonDecoupled>0</ProtonDecoupled>
$$     <Reference/>
$$     <Options>
$$         <Settings>
$$             <Predictor Name="Mestrelab Predictor">
$$                 <Settings>
$$                     <Model>/Applications/MestReNova.app/Contents/Resources/data/1H.mbst</Model>
$$                 </Settings>
$$             </Predictor>
$$             <Predictor Name="Modgraph NMRPredict Desktop">
$$                 <Settings>
$$                     <Algorithm hoption="2" hsolvent="1" usnucleus="1">Fast Increments</Algorithm>
$$                     <JsAlgorithm>Fast Increments</JsAlgorithm>
$$                     <NMRSOAPDIR>/Applications/MestReNova.app/Contents/Resources/NMRPredict</NMRSOAPDIR>
$$                     <NMRTEMPDIR>/private/var/folders/3f/5b3_td5j7k3f1lyt31390d3jfxj842/T/NMRPredict-1574477954</NMRTEMPDIR>
$$                     <NMRUSDATABASEDIR>/Users/ctheodore/Library/Application Support/Mestrelab Research S.L./MestReNova/NMRPredict/NMR1HDatabase</NMRUSDATABASEDIR>
$$                     <Databases>ABCDEFGHIJKLMNOPQRSTUVWXYZ</Databases>
$$                 </Settings>
$$             </Predictor>
$$         </Settings>
$$     </Options>
$$     <MoleculeID>{8087c421-c4f5-4008-86ff-6c7c8e9ecda0}</MoleculeID>
$$ </PredictorParameters>
$$ 
##XUNITS=	HZ
##YUNITS=	ARBITRARY UNITS
##FIRSTX=	6250
##LASTX=	0.095367431640625
##DELTAX=	-0.095367431640625
##XFACTOR=	1
##YFACTOR=	1.4189370171559472146E-11
##FIRSTY=	4.1187377064488828182E-08
##MINY=	7.9437372235702241596E-09
##MAXY=	0.030471440404653549194
##NPOINTS=	65536
##XYDATA=	(X++(Y..Y))
6250B903lmkm%MmjLl%NkLj0k%JoOpLkJlL%oLNlrOnKJLmJj1J2nj0PlKjLpLJjmlPnllKNlmKj
6244B853NqKoLqOKjn%nKMjmPn%nj5J5k1jJ9ljnJ3pNkkpMNkjplLJ%mLlkPqLkkjmQllkNkkpO
6238B811lLmMnmmKPqKnNnJMmj%jk%KpMojJ1qmNqN%qNMnKJj0RkjklL%lKKomLmLnJjOj0PrRk
6232B768%kKnnJLjkJl%lkQpjMoQpjLkpKNjnjmMjpkO%KmoMJkMlnOmLkok%L%nQknlLKnJMmJJ
6225B725pKJjjm%Oj2PlOojjlNn%mmM%KlPpl%kmPLjojJkoJ0oJlKml%KKmLlM%ll%joQnmNKmK
6219B681jmKnlMkKj0NJ0lLrnOJ%jrKrRMqKnJlNkLmKnQnkLk%%m%%jLljNoNnkklJOmnLmKlkJ
6213B637koLNlj%%kkLoMkjMloJ0mrMkKmLoPllljLNoMqkMOmjpLKkJ1j1mMmlOrPMom%jMloLo
6206B592PjkKqKJj%%JnQj1L%L%Pj4kjQj0LmJ%jlNlKkJ%nKjJmNlLoPjj1kmJ7qOKKoj1M%K%l
6201B564%jJqQm%rRmnkkQ%j1NllNMk%m%Jp%KJLoKmLmQnlJ%mJ%NopOmKJlL%%j0J1J2l8LJ0J2
6195B532Jjj4OknJ2mMj6KJ7j2mjoJ2krKKj4PKPrL%k%nMNpNj1Rn%jj%LklmO%kjjmKmKmNoPp
6189B488kNqJ5j1%PokqPLpLoNpL%jNmJ%l%KqM%oJ1kq%Kl%JkLlJkqOjjOqKLqPkkLmkJjkNpL
6183B457kjJjlnKKl%QmoNnPplJPnj2J2Nj0LjllNjKqjMl%lKJlPmqJK%%MlKljqRnlL%nPjkKj1
6176B414OlKlnRPLj7jK1k7K3l0J0moRPmmnPOjnkJlOjr%NnjmOlJjKomRpLjkOj0LjkKmOmLlm
6171B385MllJLj0J3ooPlMrpLLKJ4Oj5J7l5K2j9J7rnkJ1%j3MjMmqRMj0nPOmmljJLLoKlJm%%
6165B358jLmNnKnLljNnMknKJnMJmKllL%LrJ9j9MMqNj3KJ4Lr%%p%QpkkOj1QjJlmlNM%rNlkJ
6159B327JJLj4Rnk%MMqRrLJoKMnKjjjlJLoRqmRonLkOmnLmJ0j7JPMj4MNoJNjPlj0nJ0kjljP
6153B303oOj1J0nkMqKlPj%nKlKM%oNj1LnqkK8k7J1N%nJ5ql%rNnnJ9k5J8j0POj6kK1j1pJ2j1
6148B275jlJ2j1ojRn%JJl%kJoOj%lKnJ1rkMQj2kLpjlLKj0MPk0J9K8l7J4pj2K8JpJ1m3K0qM
6143B247Kk0K4Lj2kKJmNOpqRnkkOknLJlJKjrOmLjj%J0j3jLKKjnMrJQnk%MnkkjKllPMNqj2J5
6137B228JqPj7nJ2Lj5nJ5lPj0RqOjmkjoNJpOkLLq%NOj0kKOj4LPLj0%%JpLLkLjlLlJmKkkmO
6132B194mMKpLNjjqLnlKKMkjjjmOlj%JnOj0NJlJkmNPj0lkRpJM%lJmKkKnJjlMlMjjkK%pMnQ
6125B168lqJ2Lj4NoKKjjOjjnjnNLJmkn%%JjM%qJk%K%JkJnLOnjlM%n%jKKoNj4J1MpklPj1J0
6119B138Ojj6QOklqOnLkL%MmJnjJ%PqjljJjJkQj1Ljm%KOmJkmOjnKkNqJ%JJjl%Nmlk%KKJlk
6113B108MmmLjKLojkJJJoL%mOkJLqjM%qOjMjjk%%kn%Nm%Ppk%JKljKJnNj1PmlNnkMK%nQjrR
6107B087JpkkQo%k%j%%kmOjkKmMjKkpRljJKnOpKkJ%lMp%%mLPpMjlKrRkljjLmmPkLplJ1Jj1
6100B052NljLkkOkJmlkKLJnJoN%mlJ0o%kkK%%j%nJ0jnJkqNMOmj0QrJPjqJ2j9J0kkpPOLr%O
6095B037orJ1lknLJkKKJoKJl%mJJmMk%JpKMkJkkLlMkKKnljKkM%oJK%p%OMkmnNl%KMojJjlk
6088B001kOlJKnJ%jkK%llNlKKknNqKkOnKjlk%MjKjLnKjlLjJJjkn%M%Kj0QnJj%K%%kkmKjLL
6082A983nMklnMjJ%pLKlM%jJJqLkjmOoJkMlJ%LpNnLlOJk%nMJj8LOJ3j6QqPlJ0pnLlMqNmPo
6076A954jNnNpjKmMkNj%nQnKlmKMqlNlJjOj5QjLn%oOjQpJMqNNmm%MnqJ4q%Nn%KnNmjjMkqM
6069A930lQkjjj%mLmNmJOrNoKNokJJjKkqLL%kkJkJKkoNkMjoPj%MqKKmMjqJ3pjjjmMKp%KJk
6063A907J%LnmNoPljJkKplPknKNpJj%JJJKoNnj%LlJ%nmNOLo%%pJ2j2Q%oQKj4PkNoOj3Pjjn
6057A881MLljlKJk%%JjLj0%PmpQkpjJ0knOkk%JlljNk%kNolLKRqjmOoRnqN%j%Km%jNmrJ2nk
6051A860MlJkKL%mKoQnn%MlmNmJqQ%JKmj%lKlNNlpLpJ2oNoK0j8LpqJ2j9J7lrQKoJQoJljKK
6045A845q%PpMkMmMlLlkMnjPkqOlolNMkmkMOj0KKj%KojOJnlMlOoK%OnnlPmjNmLln%jPmLmM
6038A824KqkPmJj%lNljj2J5Jj3J0kmnLJMlKJnNjljLkkjjLjkJ%KpNnKkKqJ2rKLk%j%nlJ0mL
6032A803lMnkN%JmjJjJ%p%LMjqRj0OpMJl%jKJmJj%LojPknjP%lKj%rKMk%LnLkJnOmjKJ%Kml
6026A777LlMlKJkkOkoKkMnMlkMokNJj%kJrkQ%lKjJjMj1RKmnLnLqNkLPrOpPkMnk%Jj%KnNkk
6020A759%KlNpJLnMmOoLKmJkJkl%%Oq%Jj%NkmNjnLmMjmO%rOmmRoKkKLnKJll%JKmOmjjkJNk
6013A741nJKnM%Nj0NKLpjKJlmRmkj%k%L%nKMplOqOkMqJkNnQqmJ6qL%nJmOlKLoJlPj0kNjL%
6007A723nQo%nQplMKKmJjnlRm%kKJLk%nLnjnRjKj0JNmJLkjnMM%KmnPnNpLJklKJmmPmPlKjk
6001A702%JoQj2KMpLkJ3j7JJ2oKkmLjrRJPqNj6J7j7J0mJqJ2j0lOKo%RqNMnjkJkKJjoOkj%j
5995A682nP%jKJ%mjjjKjkJjlMJjjl%%kJPrJNnJK%qPmjMrRLmKpPnlMLmj%j%K%kk%%k%jKklO
5989A666Ll%lJnMJLlkJnKL%oMl%LlKjk%jKkOj0PlnKlLL%Lj1LN%ojN%jJlLMo%lKkk%jOq%No
5982A643Lk%KoML%kjkJlKJ%lNJoOJpkllQJ1j0KlnpLQ%jMrKKlKlKOkJj1RjKqPnjjLkJ%nNjK
5976A634mpPoKNlMqkNo%J0nK%oMllLkLRj2lmMJ5mj8JJ1Rj5J0j5PJpPLljmPj2PJJj%lMlkjK
5970A615nLNkjJpMjOolRqjNlKmjJ%nMlJLJpMlOlJ3k0NLj2J4m%JoMJmpJ3jn%jjkL%lLkkkKk
5964A595MkjKkLmlPjNmlLjk%%jJnMmJkjNnkjjMJjKJlKlNLpMj7ONko%Pjjl%JQpPlkMoKk%Ll
5958A583JqNnMKkMmoJ2qMjk%nJK%jmKnOmjj3K0joMNj6QJMjqQpKlOj2PRqMqQjlPpjkQmnJkP
5952A571oKnJ0j1kRmLjjJrR%%kkqPMnmjMjpQKj6J3j1J6Qlj9LJpJ2j0KjJ1lJnlOJonPJJL%%
5947A558pKnKlJ0nllNjkOqMKnJmMLnPm%kljMmlNqOllNL%mOqjoKlPoN%JKkNj2PLrkRjklKm%
5940A531K%%jJkjNlLLnMljLmkMpQnPoKrO%JjjlklNKlnQjK%l%KpKlMrPMmlMkmMJJnMkJkkLl
5934A517MoJOklJOmnJMm%MqNkjLmlPklkKjOoQol%KnN%LnJmLkJnKJjNlLlkKlK%KljlKJkK%L
5927A508n%jNJoMklkkLPolKnMmJjMmJM%%kJ2k2MPOj5J1pkJL%jJ%m%NJj2RjJjkMl%%%lNmjM
5921A494lJLm%%jjKlkJjLlL%m%K%%nlPoOKm%pNjNjoLlKmOKljJkLKrLmRmlOoKKlJKmkLjLKo
5915A476lNkk%jjLnjLMoNlKKJqMJkJlLnoOkNLpJKjmJM%nMJlkPllkK%MpJLmK%jkM%lokJPj1
5908A452NjRpJk%%lKNJKoJlKLmKJJn%kkKNl%nKKoKjkOoKjLjMqMJKk%%kK%mLmQlKj1MnjOkJ
5902A446LlnO%kmJJoMKlRj2QojqJ2oRoMmjNlLjjpMMrNjMoKJkMn%LnRoL%lJjKjMrOpL%mK%%
5896A432llJ0njkL%lKoKJLjJ%ljKkoJ0KlqNoOMkjnK%JlK%LklKLoOmK%mJM%JmLoKLpKk%Kkl
5889A415kL%JjLqMoR%kjpJ2n%kLmQmMoKjkqJ0m%JKnOmLjlJMlpNj%mLKMknMlnPlMnLmKjkJj
5883A404JLmjKkjoMLJlMrjMMnNlPjnJmPoKjjjlKJkKjJJKoMkkJnNkQj0QrjMKKnJlj%lJ0krP
5877A393Nj1MJlNLlj1LoMjLljPlRLj0LnnP%mjkJLkjmLOn%KOolJjMlLlKnlNlL%%Mj0MmOMp%
5871A378kjkQnL%jlkLKKnLKnKJNj3jQMkmj%JoLoPlM%lkkN%j%mLL%%%Kj0PkkNlJoLlMlKmn%
5864A359JOqJ1Lmn%kL%%Qj1On%Rj1NjJjqQl%%LnMjlMmnMJJl%jKMmjLJqPmpPjKJljjOkmjoR
5858A355pM%OjLj3jKlNJ4j3KjOnmKKLmljOpJMm%MmjjLj%l%KnKLmMKm%%mj0PJKJNrLOm%Kkk
5852A341mOmJLmoJPJmjrK0oLloL%%JoJ0oJ%J%nLl%KjjNklmLJlJK%j%JjpKOjJkkj%Jjk%JJj
5846A329KJnPkJmjNk%kNrJ2j0jjLjjKkkJJlOmKl%KkKnL%jJJ%kM%pLlJnJ0o%%%%mKKjKmNqJ2
5840A326mkJ%pLJKLjpQq%m%QjkkK%kLKnMkkJkjJ%J%lnRolNMKpkKKqQoLk%%KkMjkjjlRpRoL
5833A311qMqJ1Nmk%n%kML%oMlMjpNlOllMl%jkLKmk%MqMLKlloN%mLK%qLPoNL%Jj2J1kpQmMk
5827A299jKj0J0oJ6j3jjoJ1llLmJjjjJMlkL%jnMjJlJkKKpNJk%kLkmNmLJlqQkKKJ%oMNlmKO
5821A293jj1PjjQpK%JqlNmKjJljOk%nJMJmKKoL%k%MLojNqL%mjJOmjMLnjjNlLmkKLqOJlKlK
5815A276jlPnJoPKl%mKmJKlO%%pOmLkJlLKpLjJ%nPk%QKj0Pj9J6nj%Prj%KjM%moQnk%J2plm
5808A259J0l%%jnKJ%KmKLkmKmOLomJM%%mkNMmkJmKJkj1PJj2J7LnLMjj0JJL%oPNj3LLKLoQj0
5803A254oJ7j4Pj1J9j6MjJJp%KNp%NlLKrKLKmnOkL%lKmkJjNnNkqNPpMjRj1%jKJlOjjlJNp%
5797A244KLj1J2qLMj0J1qMnJlmPnmOkMj%%j%LnjLkkLjj%JJkkNmKklNkOpMMlnOjKmmmMJLqO
5791A235nKL%jKmkNmQqKJkk%%jJ%jKjJmjMjnKjRnjkLnNJmKMnoRlQlmlL%oPPj0J0j5nPRj0J5
5784A237j2MrMKlQj2LmNKJll%KJJj%kJlkL%JklOmJjlLjlRmjoQllJ0%%JlrQ%jjJmqLkJ2j3J1
5778A219NnjPj9j1K0OjMkrJOMj0oKLKnMkKp%OJ%kjKJjjnPnmOl%oNjmRkKjKqOnJ2lnljKjJL
5772A210mJk%mM%mQQnLmjjnKKmlLLmLl%KMnjjjkPj1PqN%JjLJmJJm%JJKmJLm%Klk%Kj%Pj3J1
5766A200j1N%loPLKmJnQkmQMk0KJ1Mj4NjNn%PkoNljNl%%%mjMJ%KkMopRkmmJ0%JNnlrNMooj0
5760A168J5mjRkkLmJ0mNmKj3MjJ0jnRmrQoljJ0pOmj%lQpKRj3KkMJkoQNlpLkj%NlkJ1j0LpN
5754A181j%mJ6k1LoRJ1k2PK5k2Qj5RMMoqJKjlJ3rO%j0jK%OnJOoJ%mL%lKqJ0mk%NlmKKJj%k
5749A169RqkjkKMlJkkMKmlPklJ1m%qKjKnJ7j3lMk%NrJkOJjkkNpmO%kNl%pOJjjjNqLlO%lJ%
5743A161nkNJlRj1NlPj1Oj%qNJLJ%ljmMMJqJMKk%j%lMJlkNkjkjOjoLnNLrNL%lrPnRk%jJlm
5736A147Ml%%%Rmj0OlMOj0J%NMpLLpjNloLJPmkkMoNoMJOmmJKlLjJmjJKk%KKj0NnMNjm%lKk
5730A140JQnOqmPqNlKmJ5pKJoMjKj0NKlljN%kmQmJnLKjmOrLJOJnlJ%LpLK%nJNjkMjkljj%J
5724A133LmMJ%J%jrOMlJJnJ%KoMKlKjlKJKmkMnJKjJ%j0NKJNko%LNqjNnmRmJ%Lk%mKlMkLjn
5717A122LOrROoqkLlPpQjokMPojJLkkmL%jJmMjJmJJJJnKLpJ0pMpJ3jj0M%%jk%KmjKMlkk%L
5711A118l%lR%lKmlJ0qOjllJ%kkMRrKpN%%LlNoJqPlNlJLpKMlj%JJlLJlJkKLpmQoNKmKkkNk
5705A111kJj4J3J0k3J7jLp%nLJj%PlkkpNJNjlKKoKpkJ2llLnOlKm%LlLLqK%M%oMJ%nlMJKjj
5699A102%MknJjOpMj0J5loLLpM%LoJjjjMJnKKJm%llPnJKlLJljL%KpQj0MkMJ%%lmM%jKLpNl
5693A092LKnjNJpkKPnjQoKk%MlLmoJNk%%Jk%nJ0ojNokKJOlrKJK%MoKJJmR%kqOnklMLmLMnO
5686A091j1N%kKjMkmMpQnMKLJnlkLjKj%kKpQnOpMm%JMJlkNpKMnL%%lKk%MknRpMrNjj1J6Oj9
5680A070R%lLPpRj6LNLnnPlOnlJlPk%%lMlj%LnjKkLJ%jlLjMklKJ%lj%L%jnL%LoKkN%JmQlj
5674A075kkRomjkPljjMl%lMoNJkKmJjlkPm%J%K%mjOlMlKoNnMlMkJpLKNnKlLoMLllJ0nrNoN
5667A062JmQpNJKnKkjj%lMLkkJMknlKOnKkkMlNoNjJkKp%M%ljKlMkO%kkKpQk%pLLnjLmKlRn
5661A054PomJ3j0JJkoRmKjk%LKJqJL%MojmOljJL%k%oPkkLJoRn%kNjmJLljmNJJKokJNlPqNl
5655A049rQKmLjk%kM%jjKK%nl%JLk%nLLkNKlmmKLJJj%lMn%LJK%mKkMKqJ1j6NRlkLnLrQrLJ
5648A040Qo%jLp%LLqPkKlJlMoLJJjl%MkMm%kJLjmOo%kjLL%mPnLKjmLJjjlm%JLjMkllMJkj%
5642A032j%JkNoOkk%JlLjKKlJ%%%lMkkNoNMpKnLjkkPkp%K%NJoNnMrO%lLjOrN%kMo%MqLjKK
5635A026%mjjN%oPmMJnMmLnMnKLLJqJMjjKKjmlLJMj1PkOj3Qj2MJ3qLLnkMmJKkKklJNoMjMl
5629A020NlnLJlnNlJj%KnPnJL%jJl%JNkjj%KmmO%JlL%mJ%lRnoJ2kmjlMqQj0J3oKrOJLmMkM
5623A018qMMnJlLKoKKkkMnKmPlKkjLoJOnlQokLkMKjNkpJkNJqPrMrNJJ%kPlJkMpMKjnMmK%P
5617A012qMnOpMlJ1j1LkJMpJMJMoKqRqKMo%NjKloRMnnLKJoJ0qKqlRmKLoMnPljlNlKlLjqJ0
5610A002lmJ1ooQqRjnlLKRj5NKpMRj4QmMkLm%lNNmjNnjpQj%nPnoJQj%kl%nMPjkMkllOoJ%j
5604I91%MljLJoMmJJJlN%njOlKjlKOnk%%klOknLNlKlmQjMj2jQnLoRnLkMkpKNj%%%JoQjljj
5598I85mPkJJnKkJMKnlQrJjMnNJmjL%j%JKj0J0Jo%oJ6j1%oOMmJLMk%pOnLlJJkLlJJkLmN%k
5592I82%kLLnMnkJMo%MkJpMLLpjjJ0j3RmqK3k1OnMKoJ0nj%nRoJLPoKm%KLlkk%LLnL%JmLmM
5585I78oKNoMkkNnLLqNmJlLj1NJ1rJjj3K6j2kOLj3MJlojJ4nMoNnKnRqNKLnMkJoLLJ%jjKk%
5580I71lNjJljjNnj%%%kKmQoKkNkjj%oNJklJJNn%jNlj%On%JlMjljJl%jLMlJJ%JmOqKJkkNM
5573I67mmPjj1J0n%kNjjkM%jK%mjKNnMlmQkoJjKLLmNjnLm%Q%j2NlKnPl%oOKkmMmKjOqMK%m
5567I55PnlkPqJOJkqJ0okKQj1LPoLmJ5j9NllN%LoNKlLpPkROnj3KmOkkjNmOJ%j0RrRrJjKk%
5561I49JQpl%MkoNjj%Lj0J0K%j1Rl%KqRKj4J3kQj3KJ3lllmLpKPKmPj6JJ0LqJnPLoQojLJKp
5555I46J%mNmKJmLk%kLjKlMm%LjjmjNkJLj0RmLnLlLmkJ1j4RKKkjlJm%%MkMlJKoQj1OkjNnK
5549I39Kkk%JPrLKoKMkQpLnKJkjkJMkMknNjlMJjjoJKjkKJjKjJ%nL%mkNJLnjlM%lK%JjKjjJ
5542I34%nOJlJQo%oNmjNLlnOjKjJpJ1llMknkMkjOn%JMpOo%nJ1mjKmMJnKoOjoLnPmNJjJpPK
5536I33m%%%J%jKpkPjjJkOq%RrPj2MP%mkOnLmmPpNMKlmmOj%kJKKl%pRo%MokMK%jj%LKjMlj
5529I25jKlLqKNnMqNLnkNKkpLJKMJrLmMKkJLmKkkjlJN%jkNl%pJ0lLljn%MKJkKmKLjkkNJoL
5523I19LlmJJJ%JloJ2nLlmMKkk%%kJOml%%%Llk%LKlLoRn%jO%mmLmlRpMMq%O%%JnKLnKJ%pN
5516I12MjkOrkPqJ0nJJ%lmNkmNJlkNJlKmmPkkLkLjjjNljlK%lLKoJ0q%lMj0OP%lNmJqJNljj
5510I02Q%kOj1Q%joPoMj2J0k%mRnrJ1klJJlLjk%KKmK%kKlKMnK%jjKmMl%NLklkJmMoN%kJJK
5504I03%njLLkjJNmmNNnpJMKmN%ljlPj1LLjLjjKmlPkJJqOoMmMkKkJPjmkKKpLJJoMLOj4Ojn
5497H91MjMJmNkkkJRqlOLok%NlkKJmLlLpMk%JQjknj%j%LLpJ2j2lNLkkNMokL%kJqQoJ2n%Mr
5491H89LJmJKKkJmOpLjLoKLmkkQ%nNmK%kkJMJjJrMMpMjKKj1OnR%jOjrKJkJNonMMoLKkMnoO
5485H85j0J7j1lQKj%lj%jOjKmJLm%jOj2OJmNLm%jjKkjKjOnjJ%LjkLmjjMMrMJMrlKO%kQq%n
5478H78Lj6K0Jkj%%nQpMJlJlkMj%J0j0JlkLjKNqOmKm%JK%Kn%MkkNj0LKjPpMLp%%JjLjJMpL
5472H79ojKMJlmOnJLJKoNlJK%lKkkL%%kMjkjnOmKjJ%%k%KmKLnLjOmmQlkNj0RmjMnKJKj0KO
5466H74mKjKlKp%PNoMlkKj%jjlOqOKlMpPm%jMlMjJknNKkLllmMlmLLJlMlJ2j3JjLKmJmML%%
5460H70JpjkLO%%knKJJmLjKKpN%%KmLnkONoKnPnKjJKkoRknOolPmkMLpjN%qOj0J0kjJ2j2Om
5453H62JoMJNolPjqRjlOm%JlOoMknPll%MKnJKlJkMllMoN%JmLLoKOpkRmLJkmqQkJMlkLqP%K
5447H61%qPm%MLnMloO%%KJKrJJJKnRooLLj%lMrNJJLmlLkLLqKJKNpKkKpQLmkj%Mp%PmLpRoJ
5440H53kOjJmlKlMJKmNmjJJMnmNmN%jmMKj1JNKm%qPJjLOj0Rj8QJ1%k0OJ1o%LqJ4nKoL%LnK
5434H51mNmMoNJmLmLkKJ%llMkNp%RqK%%KKlqQLkl%jjKkP%j0jM%%Rj1nOPqJkOjKnjMpkPJmQ
5428H50ml%Oj0MLJj1J6rqJ8j4J8k0Qk%jLlLn%LkLmKjjlOMkkJjJ%qJ4jnJojJ0j4QlJ0lqKmM
5422H40%mRoNknKJ3qKmlmKlJ6Mkl5QjL1J6k3k1PNLmKljKKlkJnRmJKoLLMj0J1m%jljNpJ2pl
5417H35NJj1MJkOqRloOqJ0oJ0kqRrN%mOqJqK4qL1k3%j6M5n0J5j9J4%q%JJ7j6kNJKp%Rj8MQ
5412H34NJ1k1J4j6PnRpjjRoJrQMqOlnNmKLnN%j%jMlljjO%lQpkJ0nJ6k9K4Nk1mOoLNpR%pkJ1
5406H36j3NLJJOj2qJ1Jj%rQKn%Nj0P%%KjlJkMJp%JM%jK%mmN%LpMJ%MKmmLLnJJnkMLkKmkKk
5400H22KqJ4Mj8NPlJj%jnQ%moMLjMKkoPj0QmPj0PqJ1pOmkjKj0OOk%jjJJ8j4mKLMj3J3%ojP
5394H31oRl1J2K3k4NmJ5j2PJ%JnNn%mJJkMoLMjnL%rNOlJjJk%pJ1LqN%qJ1oQrjJ0pLn%j0J4
5389H22m%JPj0LJ7j4oJ3m9M5m3O7m4M0o3M8l8L4Mk2RjJ4jomkPJj1J1mj3QpjPMjJjJj0R%mK
5384H16KmKKklMKJpKjL%%oOrJ3pNj1lK0lj8J1mj0J1j4L4k1J7KQrj9rPPpJ2jLj5KlQpL%NlK
5379H14KKmjLkoPlJoLJJ%mN%rPkNmKJ%pOlJ0qMOj0OoPpj2K0pQJ7l1kk8J4J3j0PjK2k8K3j4
5373H02JRmmJ1qLoNKKnLnKJJqQklQqk%Q%oQppRnNJj7J7nRk5J9Rk4J2K4k4L%llJ1mNKj2K0q
5368H15lj8pK1Oj8nJ6qk0K6jkJ1j1J8j7%lJ2qKKJmKLmLnJ0nnnRLnj%Lj4K2j7K1k6OJ6Mj5j
5363H04L5J1p9rN4J0qk7j8K8J8k2K5j9OjplKQj0k%MkjJjOMj1oJ3o%QkJk%Lj1LJJ%OJq%%KL
5358H03JpJJKlJJNlMkNOj8J1nj3J6Oj6J7oj8J6j1J6j7RNpkMoKnJ7j0NJj0OnoRRj6%OJkJJr
5353G91QolLMKnLJLlKoKNqMnLkMj0NKJJ1j1Pkj0MKNoPLpmPjkJKllmOK%n%RqlLmMKnLnJ1ml
5347G94Po%mJMl%%NJpLJjjMpJ0j4NNkKpOrPKnmN%KMlmLLJnmQjmlLjNqLKmNmMnPmJLp%L%lJ
5340G90LJj%mNmLjm%OnPpJ4k1PJjjjqJ1K%Kp%RqJjmMjKmKLnOkjkNmJj%JK%rOlLl%%JNklMn
5334G84KKpOkLkjjQnMJmjnLKLoOjKrOmKMqQloPpNmNmjLKlnKjLkMoPmjJkJJLm%%LmMrNOjMm
5328G85m%jL%jNMqJoJPkk%NjmmJ3mmlMjNnMnkN%%ljNoMmJkLrMJkJK%JLoLKqPpjRkjJJj%Kl
5321G79mLQjpKljMoJ1mlKLp%LkPMkJj0RkqJKjJlJJjJj%JlJNkmKKjPj2OlPomO%kmkMOjkmKJ
5315G77Mj5J6j2MJKo%rNJ0kNqOmLkOnLmJk%Om%LljjKjjLjjKoMlKkOpLNljJnMjlKLkJmKJLj
5309G76kNj1%RmJMnqJ7pjjlJ%jKlNqNmO%oMLoKkMklKJJjlPpjMLnJLjlKLj0MJMJ%%lJnPLn%
5302G71lnONlj0OLKmK%MknL%jlJK%LlKoNJ%pOl%%nPmLJnNKl%KnKKMlnkLNklj%Qj4J1MLqjk
5296G66KpJNm%jPoKk%LkKNoJKoJKMqKO%oJMmMlLlK%mNLojkMJKjOqlOmJPmmmJMMqO%kmJ0j0
5290G62Oj1RpOJm%L%oNLkmKKjlKKmLJkJnMLljkLjNrOJ%pRoKKnLjKmJMoNjj%kJOjrNKmNrO%
5283G62Mj2KN%oJOLooMKLl%LklNk%kjKKklKjKkkPmmLlO%lkKkL%LmjJmKJmQmjOkjjmLLpKjJ0
5277G63j1%RmkkKJnJ1pLmjN%kkj%LNmJpMkPrRnLJpjMJj%JJlJJKpJMl%Pj1pJ5lnMmQ%oMmk%
5270G49mJ5j2KkLJLKmJkJMknNJkJJj%oMkMnJMmPpjPnjjLoLk%kJJ1m%%%LKjnnK0k2Oko%mNP
5264G52mjL%JoRoRj0KkPoMjjkL%LkkmM%mJjL%%jnQrMmP%kOnjKJkmPkMnJkMLrJ1j0Nj0LOnm
5258G41J1oJ0pnJMljK%J%Jjj%JoNlRj1Qj0Njj%LKmNnj%JNmk%JpOJjJkMQj4J0qKmkJ0lMl%k
5252G44kPjjLJoJlN%mjJLlJnjKKKJjlJnPnLLlK%mKJJ%MojnQJpJ0lomOMqJ0nK%nLOj0JMl%K
5246G43jLlOqkJLJMlkJjOok%KOqlj%JMoOlQ%mmnPJkJkj%LLk%KkKKrJJ4k5J0J0pK%okKNLqN
5240G40M%jj0PkK%mN%ljNknL%OmlmMKnL%JKk%JoJLmKkJJJNqMjjNjjKLj1MOoKKm%ljNkMmKl
5233G34LoJ0kjoMJkKKoNmkQqNoOmkQm%NnlOqJjOjo%Oj%qQjJLoMqL%OmMpJ0pkQn%%LNj3LQj2
5227G27KPoKlM%nJ2lrMlPoJJkMMqN%LkkJlmMkPqmLMJnMjJNqQj0KjNoPpJ0omPkKJkLq%Q%Jn
5221G32lRoJl%Qp%KrQ%j0Q%K%JkpJ0Qj0JonJ3m%jqJ1mL%LJj0NlNNkqpJ1JrLJjkLLo%MJjmN
5215G30Nj0%JOkk%PrMnKJLqOoNMp%jLLmk%LjJNmoMMk%%l%M%jKQj4JJ0qqOL%r%RnlPJl%%Qq
5209G25jJ%LnMMj0MMmOnkjmR%k%pO%mN%nMLllJjPm%jlLPolKNo%Po%J0j0%NnLmoRmMKlOooO
5202G25kJjKMmlKkJ0r%%%kNoJkPpLKKlKmKoOjJoQj0J3qJ1j9QNLqKlKK%LrPJlOj0J1ooNKJJ
5196G26lKpMkLkkjNj0RKoJMm%NnlRoJkkKNjkmP%oOJLooQj2Oj0J9j2Lj5J1PK%nmJ0Jk%kJl%
5191G18Mkk%lJK%%%jnNjJLklJLmKmMkKjjJMmOkrKMJlM%mJOl%JJrKOKj0QQj3mjONn%JkMJqJ
5184G13JJJLnPrJkKMkJ%pMPpJLmoQoQklPmJnNjkJLKjj%JmLknkRJNpqPJj1J4nkjlLQlkKnJM
5178G16kkNqKJlNLnJnLNnKnL%%kKj%NolLO%pQMj2J3mopJMKJnJOpLNlLKj0NMlmQkmJ2qNr%Q
5172G19knnQlJmLRj5LKJnKljK%%KmMKnKkRjj0OkJJMLoOnjLMn%jj0RnNOj0jOKmKJ%qRkmjlO
5165G10km%OnKLMo%JkK%oMjLkJkJlOkmKKlKLnjKKJoKKlmJNnjPNpLnQjnjMJJj0RlLjLpjjjj
5159G00%%Q%mkKj%MjkjOmJkMlLljMjnLkLkkM%m%kKmOKJmLJlLlLmNnKKJlKklL%%j%%ljLKJo
5152G00mRkJjLrN%jLpRk%l%LKjjnLNmLlj%Pj3J0JnjpJ1kNkrPJo%JJkQ%mMqN%JmMklKMlnJL
5146G02JmJ%kNmKnkNJJKJnNmKJoPlpQnPmjkNpjlJ2K%mpNJkLLljlJKljMmMlKJJkLmkO%pQjo
5140F96%JLjmJJJlJL%nN%JjkjkOnkNk%LkNrKK%kmJ0lkMJoKmKLlJKmjMkKjlPn%kNmJj%KKkL
5133F99pO%jJm%NpMKJ%pJKkNqJ1p%MmKnP%knJLoJ%JLJ%KlkJJJlJMkl%KJokMlPJnLoO%kNJj0
5127F88QlNmnLKK%rNQlPj0J1rJKnLmKnL%%%NojjOlMjkkJjjLjKklMj%mQljoLMkjLmjMJ2j6L
5120F92kNkJlMKmoKKkOkNkJj7MkJ6lqP%kmM%jJ%j%j%JJ%oRm%kjJJoKPjkrNMJkJKoMLknLLJ
5114F93njNK%oKllLMmKKkJJJlmLnJ1o%jNkl%jjKkMLoKKl%%kKlKKKppNOklKKkJMmKJ%MpMJj
5107F89JkjKjLpPJkkmOjmKJoPnJjNj%%kKo%PkjLLoJkLknJOn%mOqLOoMoLLoMJJJjlRpLkKOj
5101F91KpQmKpLPonjLnPpRmjK%JjMpLMljlJjjjOkKlLm%nN%mOjmMnOoLLpPnK%jJnQJlLnloJ7
5094F90j1MJ3j2NojOrLL%JklLj%KjKjkjlKjKjMlnJ0JmqPLKnJlKlPmLmlNpLMlKoOjnLNmpJ3
5088F87mjlMNj2RoLqMKLpJLLJjlMkmNmLJ%pRrjOJloNL%kJjKnRpJJ%KkkKkMjlKjjJMlPrkMM
5082F84q%Qj2JOlMJoLkKJkjNl%JkLjjMloKJjMmLJmMj1J0%nPJ%Jo%jNjjJpLM%Jk%MNqpJ1ql
5076F72LNkM%kjJlMmMlLkKlLlnNKj1J1mJj%kL%%jmJJJKl%OqQjj%kKqKKK%kPl%j4K2plJj0P
5069F74KkLjKjn%Qn%QkllkKjjK%KmLLKqLJKj1J2pMjknNlLKnNJkjjRqKjLjmMLlrO%OpNj0P%
5063F75njRmkJMmjOnOjml%lKKJ%oJ0lrR%Mj0QjMrMlNlMnmKKKJpNkPjm%lMkjJJJjjn%LPnjP
5057F78qM%mOqMKJm%KKpjOkKmJknKKMLljKnJJOnjMmj%JKkMoRrjMkjMNqNKoMlmPKk%kMnlKN
5050F74nKjjjK%LpJLm%KkMrJPkJKjqPnLNLqQqK%j%kJkLknJ0j3ORj2J3mjkm%JJ1nLj0KNnpJ0
5044F67On%%o%KKLlJj%lNjLoKNlpJ3noJ%MnMpN%%JLkljkKOpOj0PLkmLmOpPjnNjJLj1Rl%MJ
5038F69mK%o%O%JnkjKKjQooPjoQKLpKkJjjJmL%jLmLnNKlKm%Mj0KJ1qOnlOjNJj2N%kNkM%lj
5032F64K%oQjLqKpOKnJpJ6j1jJ2rQNj3N%jlLLl%%mRlLrNkpOnNLNkolNkMJmKjJqMJJpPLmkL
5025F64mKLjKk%JljnNnLOmLOj2JLj4J7%rJ2Jj1jKOlJkLKkpOpJ1npRlkKLlNJqMkqJ1p%LkM%
5019F62oNmKKjMKnKkljNl%JLpMMqMkjOpKRomLmLKmjnN%%Pkl%%%jjOoOmJJ%kjKKk%jlMJmO%
5013F62jJJJnJMpjKMkKoOl%%%lKoQJqNJkJjj%JjkkP%n%oPjkMkMlRlqQmJKl%JlPoK%jJPpJL
5006F62lNklnRllmL%MlPLoj3J0ll%OjNj7J0mkJqK0j3J0qJ5k3J2JmQKo%MjmjJ%L%KlkNloL%
5001F54JOpNoL%JJNj1NjJmjNNnkJnJ3nlMljqNLOrkLOjJ1k9QJoLJ3l2K5j7K4kNj1jOj0J2lK
4995F58nMLpkNJkLjkljLmMLqOlKnLLJmKojOJJlNjn%Nj0jQkOnoJ2nKLoO%kJ%Pj6J2j3kQJlK
4989F53lL%jLkJKllL%%J%KkjMnJLpJMlk%%jQmkJJlkMmNkMJmjmPjoQkMmjQmj3lRKMmORj1rP
4983F52KjLjn%J%jNlNkjj%lLNpJnLOj0NPnJljNj3J2llonQJ3j2JjJ0njOj3RLlkJj5J5JqRmO
4977F55pJnJ4nJp%%%LLjJj0J3jmnKNjjkOolQj3MQl%%kllRKJKrNrlJ7l1J3Rj3oK7QJj9jmRN
4971F55lJ5k8MQj1J7ooLL%mLkkk%P%qNMrNlQqJMk%KmjMlK%nOlMknPl%%pRnJKj2J1JmKJ5j3
4966F47NkRpjrQj1QkQnnJ1oLkj0MJlJ2jpKpPLlOp%%jNjoL%J%l%%mOKoPmMjlKJqMl%JM%mKJ
4959F45QnkJ%JMj2MjkkMKjmJjkR%%k%Jn%jJ3m%mjMKnK%KrKM%mPjpN%Mkjo%KjK%MlkNjoQpK
4953F44%PlLj0LJk%JNnl%K%LjjkJll%OKLnkKMk%%NmoLKmoOJj%nQrNRpKmjLnJ4lj0OjJnLkO
4947F46oMrKPmMMjrJJKkKOlp%NnPjjKl%lLJKpPl%KlMrJ0mmOpPooJ1nPl%m%lOJ%KkLkmOljm
4940F37LmKKKLpkkKLlQjqjPjJjKmNJqMkMlNm%Kk%%JLkLlJMjmJjl%%jnOKkKoMPKnJJj0PnJj
4934F37LJoLnJJ%Pjn%KjjJlPlLjlKkOmlNmKKnK%JKlQmJloKJ0j0QkpJL%%lJMj%%Nj2MJMpJL
4928F39JnJ%jKKKkmJkMpRm%LlkPJklKllNnOKoJlN%%jJ4j0oJ4j6J0q%NmKK%lL%JnNnmN%lLj
4921F36jJ%JjKkKLq%Nj%kNlJlL%Jj%kjmNOrMoRojNLoMnPKnJ%NqMJnOnkRJj1NJmJjoQmJlJL
4915F36jkLJmKlPknN%oPqOkMkkLnJMJpLOkJnMNo%JMml%OqRlLnnOK%%mJJmjLmOlmK%JkKNkp
4908F30LlOJoNnKn%KJPJokMl%Qj4J0lKjJLjpLjNljjK%JkMmjN%kMoLMmLlnJKLlk%JkJJ%kNk
4902F34%nMoMnLNkJkmKMlJNkjqOkKNlpJ2qkJ2okknOoOlQknOmK%KjJlJJkMjqLMlpRKk%KnJJ
4896F32jmLkK%Pp%jlNkNkj%%k%jMjKmQ%pNqlRKjpJ0pnJ0mKKnjMmKlJJjjMlKlJJLnLpKNll%
4889F25KLjLmK%lNk%%%LjlkLM%qO%llQJrKKKlmQLkl%K%jkKmMkKnK%kJLJnJJJnNjlOmkKkLJ
4883F30mRrNlKKkL%lKpQNj5NLjj0PJKLoOmjNokJLjj%MoQkkNkjlJkNljJkMmKNj1OoMJjjNm%
4876F27LkJLJqkJ3rPj0RrJ0j4J3Pk0J0j1lJ7lk%jKpMmRlJlKmMlNkNrJMljN%LmnKOjr%LPnj
4871F26JKm%J%JLjJjj%k%jMjlLJmQj6J1pjJ0pKKnLJLrJ0lNqJ%MjmLklOnK%MlKpPKmk%KkJK
4864F27kOpKMoMjJJ%nK%JJpRrKJNpMlLLmlK%nJ0mJJnOkJpO%nNjJjJjmP%ljLlJkjOk%kKJkJ
4858F26KoMJjllMkOoPrLkjkNnQj%jmLjNlmP%j0JNjKkKj%KmLlKKpKJjLKlLjj0RLoNkMmMMj2
4852F19O%jKKkN%j0kJ2qJ0qpRj0J2moKMloNJmPkmMJkMqPlKmKJ%kNoLjkLNnKqKJ1nkk%MnKL
4846F25kjJJMoL%jKmJL%oNmnJ0Ook%kmNkNnL%MmjLmMpPolONl%nPnKkN%knLQpmL%%nJNkJ%l
4839F20RrKJjKloN%lMmMN%kjjjL%mLkKjj%%KlKMl%qOLJnJKKlqQk%PpJ1jpOj0KMqOKj0J0rM
4833F20qO%KN%j2NjmPk%LkMolLjPLojMoPqjK%PlKl%JJJljkMlMmlQoKLokLJ1oljLMrPpJ2qk
4827F18LOj1KMljmJJ3onjLj0JQJ%NoK%kKkLnJKLmLjJLnJlLjjJKnNoMLmJ%kkJNjKrRlKpOjj
4820F18jjKnMJJlkR%Nj2lRl%jlNkJMj0O%LkmNnL%KlMoNlLJJnKjmOl%LlKpO%KpN%LqNKJmlL
4814F18kkLmJKMlJ%JkKPorJ1qNKkmMl%JQo%lMJklOnKmOnLlmJlNNmN%q%LJ%nOmLJOpOpOoKJ
4807F19nL%oQl%LqQjpOnLNlkJj%%PmjkP%pjOkmKLpNlKJpLKoJ0nJkOpkL%PKoJ1j4Kj8K4k1K2
4801F22pMk7L4j5Pj1PJJJloJ2j2OLjkkNm%OJljNljmM%kjLJJqOjjKlLjkLmKqKMLJjoJJoJ1n
4796F12nJ2j0J1pJ3j3J8j7LrNJJmKlMJnM%LpMNkjKjJknNLkkJ%LqnQkJlQ%nLjjnNKjlkOjKo
4790F11NnjJ3rKj0J1kkmLJOoOj0QnKnL%OlojMMnNJnjMJ%%OolLm%MqQjmQrjKlJjLKk%LRj1N
4784F17pNkLplMJ1qjmkRn%Pj2J0o%LKmj%kJNJlkMlOmJj%MnkLlRqjoQjJKJLmkmLjJRkoJ4j6
4777F09J2j6LNlmj2RNOjnKkNrOk%J0j0K%KMj3LMMlnQ%JnLnJJKmMnQmkJj%jJLklMoPjlMlNk
4771F12Nj1jNLjLqJ9j9LjnR%%kjlLKlMmjJjKNjKoLkK%%m%%jJMjJpPMrjLkLK%mlPjlkJOkKp
4765F07LmJ0rkJQmkkPqOkKpOkkNK%mNn%LlLKmmNLpJKNp%MlLjkMmJJLjnOmjJLl%J%kOj4RlN
4759F12lOqRrKj%JkJPj0KkPmKm%kMjQmkJmjMpNLKkoJKjMl%%JqMRjJoJLkQj0JKkLJpLNLj7j
4752E98QKJjoQjqLMkKnQljjLpOkjJlMlKNoJKkNnmPkLoL%lkNjMmK%kM%pQ%jkOoKnMJ%JklPj0
4746F03%LMKlm%JOkJpLkQqPokKKkMjjoOJk%KkKjJkk%PnjkNKjlL%kjKjJj0QnMLLj8J2mO%KJ
4740F11kJKmOoK%oMLkj%%jJkPpMJlKjJMj0Rj0J0qKk%JNkjmOmJjJJ%lj%LoLKjjPoKk%KlOqM
4733F06LqNlOm%kJ%MlKkKjLJmmMMlJLm%nRnmRpoJ3lkkMmK%k%jOjkoRLmkqOjJ3j4RmKnkJMl
4727F04JKmOnnJ0pMlKjlNJkkjjOkJNlklM%jLoK%jKJlMklLmPJo%J%JmOljNljLrJkJ0JnjlNj
4721F04LmoQjJmNmkKPnJkKkLkLJn%KkjKMJkn%%LjMnOmKLpLjljMkNJj3NKJKkkNJlmMK%%kjQ
4714F12qKl%MmJMJkjNmKrNJkmNmmR%%jjjjpLJ0pKJlJ1j3NPrKJmJJ1j1NJk%jjKlMn%Rnlk%K
4708F03JK%%%kMkJ%pLkRj0P%jn%OoJ%NnLm%mKjMkJjLJqRj1kNm%J0j4J8Rnj0RnnjMPn%mKMn
4702F02JkjNjkkQl%nkMJLllNLj0kJ2oMlkJ%JLn%LJ%knPmKKoMkjkMJJmPrQn%jlL%KjkLnQpL
4696F01PjrJOkjjNm%%j%JKlnOkOKn%nMNm%jjKKj%pOnjQmLJmNmmPKkkjLLj3J1mKmj%NmJKnK
4689F00Jl%RKnmJjLLnJLj1NKLMj1KPpjLkNljMm%kjOpRlOkJmkM%%mKJlNqKlJ1j3PkjO%kmLl
4683E99%JPnlmMNqPjkJj0J8r%OnJLpJLoLKj%j%Nj5MJJKj1LPj3QK5j5%lQm%mOlMloPjjMjJl
4677F02klQrL%qOMoMJK%mrJ5oKnOmNqOjKlNlkkKOokNrJ0j3Qjk%J2%qOpLkNjJJnOlJkL%NqL
4671F04kNokLjmNlJjJKjpPlJ0qj%JjKmPljjLpJPolRojmRklMJ%nMkLpRjjknPoNNnKLqM%LkK
4664F04jmJLnKNklOoKk%MrQknLJ%%nJNjlMKlMkkjlOkjkK%LmKmKKlQnLjmPm%%nQpKJKj%jJm
4658E97%MKrRnNKqQj1OKoLMmMpjQmJOqo%LOnMlj1QMmONj0LnQlkQjlnJMkJKlMmj%KKlNjk%K
4652F02KmKrJ1m%%Kk%lOjj%mkQmnJ0onRlLnKMpNLj1MKLjkJkMjJlmQloLNkm%jJKKnRnRrj%M
4645F02oLKJKlMjllMj%KmnJ0lpOlKNj1NlJ1poRj1kJ0jJJkOjJkrJ0oK%k%KjoONj1J0rKJ0q%
4640E97kJJ4nLJj1JMjllNK%JrJ0oJNjj3OJOmlkK%LJlJnJ%JJLmMlKljLMkllPllKMkJllmJ1k
4633E99mKoLKKjj1J3J3k3OopJ8J0%op%jLkKoJ1onMJlolJ0%%J0momJ1mlmLlkkOLkLK%k%Mlk
4628E97jLkjLLnLnQpjM%jKmPk%JrLK%JjjJNj%mOmpKK%jJo%OLKpLLlJlJJllJ0mNnj%kNLnmL
4621E97jLk%JLopJ1kMmjRokMjJKkj%pPJjLmlMkkKPpmRnmJN%Jo%MjqJ%O%JlOnMJnlKJ%kqNJ1
4615F02n%Pj4QKoOmJLoLN%rJ8j8J3qlJ7lj0%qoJ8pN%KrMjlKKkk%KlKmJLmOKllLLjJlkkRpK
4609E96KKKkllKj%OnJKoKnK0j4j0K0j1KLj8K2ml0L1%rkQj1J1J6k7QK%Jj2J3nmRqmQrMLNkJ
4604E97qJ3o%LnoRLMpLj0NkNJj%Ll%%KoMJnJLjjK%Pj2LKJnQpnPpj1K4j0jJ3j4QqMMJoQj0%
4598E92MKMp%j%J0pJoLkLKl%%nLL%kKlNKlJkJ%lMKj0ONjmK%jpMOlnLpK5mlj4Qj3J6j1J2j4
4592E90%ORj4MnQMjk%Kjmk%mJNPokJJ%KJpMNpRnoPlLnJ1j2K%lNrOJ0j2JL%Jj3P%j5J5kJ1L
4587F04qJqJ5j8LQj4QJ4oj0LLNmm%mRnRj0J0jpMJkmOoRKj1jPj0J1Mj2PPppJ1Oj4%R%k3k0P
4581E67L7KOj4LJ0k2J5j6J1koJ3rpKJ2%oOojjOj%rJJKkOomLLnMJjMkJkMmnKNqNJnNJJk%ML
4576F01omOkQJmj9K5rlNj1O%OoNj0PmjJLKLnkKKLojKoJ3j0mJ0j0Oj%oNmMkQrOKnMMllkMNj0
4570E91PpKnLMmMnPj%NrRopPjkOqLQpL%Kjl%MnJJnMnJMMjkoQjmJnNMjlKp%LjNqnJ1Pj0jNl
4564E92%%J%JKnNljOk%%Njm%mMJmJMkLkMm%jJjjm%NlOjmLjMpkMKllMKkkJPj1%K%oJ9n%p%%
4557E93%KKnMMlmNKrLLk%jMl%kOkj%LJJoJMkljLoQllJjMm%M%%pJJJoOJnMjJ%KOj1%NkLMj5
4551E85KLN%jLmJjJ0ojkLm%mOMnJKKk%KmKkMoMNoJoOqPqPmLmMmjjPlMnLkJKkl%JLnLpJ1qR
4544E97j%jkkM%mOmNnKmJ0l%lJmQj2QOoknJJ1j0NoMJlJoQ%LpLJm%PnkmJJNmLjPpn%PnMmKK
4538E93LlJnmQKkLnNnjQmPoNnNpL%%llJL%KjmPo%LjM%o%LlKkPrJ%kJ%J1rkkkMOoPoNkKnJo
4532E86MN%KnJLljMkKjKj%mKkkKkOK%%pLmQrNKJ%qlPLjj%llkPLpM%qRJJJllLjjlNml%J3oM
4525E98o%nLJjOlK%LpMKljkK%LmKlMoMmNKlmmMJKjOkOj3LLklJNj1RNn%nLLoQp%Kj%Ok%kLr
4519E86O%K%kKlNkjLl%oOKJnmKOpKOkKklkjN%LjkllJKJLkOnjJoJ0p%LjKKljmJJ0oJJmmLLJ
4512E94kMlLjKoOpj%KJLmLkNKj0N%LnMqMM%KmJkLj0LKJ1j4KRj2ljK3k0KJ3kJoMoOqL%kJJJ
4507E94lJ%%jjLjLmk%kM%%J%JoJ2m%%%jLmjLNnkLjkLpMjMmOj3KQoMJ%jOpjN%pMOj0kRnkJM
4500E94kNqK%jKKmMpLJ%KjjjNmLljKkjKKKkjLjKnL%kK%LqJOoL%jjnJJnLPmOlpNMkLjmOmJk
4494E91JjLJlm%KRj0MpNJ0j4PlkOl%lOKkKmpJ0koJ1njnNOj4J2mMmlJj%JkLMmKl%KpOOjmJk
4488E92%jRqOolKLjPj0LkJMlm%kQjMlm%P%mLjkjKp%K%N%nrJ6k0K2j2nJ3kK%%lOo%%%JMlJ%
4482E95oMkMmPqJ%JMjmKlJMoN%%%J%%jjKlKkM%lKJlKPlpNmJpMLj0J1MoJlJMnmOj%JJlRj3N
4475E92KjkKJRj2KJnPlMnkLLklJmJ0m%jpJM%OpM%jlMMjrM%%KjljOnnRlkMjlMlMJjjMpNlJl
4469E90NkOojNnjLOqKlRmlKoOlMJj0L%Jk%JOqKLOjj0PkmJjjMjJj0J0JnLJKnkMJKKk%n%MjL
4463E95oRmlNllKLJMrJ2nllJLKlOoLmJpJJJ4po%MlKkmL%LjjMojNLLpLnLnL%%NmNpLjNKpjM
4457E96nLLlklPkl%Nj%jJJlJjLjmLjNjJ%lLJ%o%Qj2NljKNmJJoPlkKJLljMKnL%lLkK%nKkL%
4450E95mMNqLJJlJmOnKmNlLkJkkRqjMmNoN%jJQpqOjmMMmLm%JJKKqPMrPlOr%JMKmjnJ0Npk%
4444E95KMon%LnLNojMNjMrLnMkNMjmkMlpMkjkNlNJoJ1n%okJ0lmOkLlmMjjmJ3lKo%jNm%pQL
4437E98JMooKN%pKOlJqNlPoQrQmN%oNj3NJLJllLkjKNkKoJlOKkNmkJkNmKNjnLqNnONnjKKKl
4431E98KkkkkOjmkMLpRjj2OJL%j2J7j2RjlOnjMo%mJ4pjnJ0rLLjkJJKrRp%NJ%%oLKMmLmlLO
4425F01rN%kj%JMkkkJOmmKj3J4jOpJLMlrLJK%mN%kjJlNjmOllNOlpmMMjlK%jJjK%MmjLmMpN
4418E95KmJKKkJmMmJ7j6KjKljLjm%L%%lMLmLNj1MmJKlKLlKJk%kM%%mNMq%NKojNNr%nRqLOn
4412E94J1p%JjJNj1qJ9j3Mj4J8lLj1K%RoLmL%lJ%JJlKpNOmLJljLmOmjJJJn%QlJLn%M%lQj3
4406E92RjmKmJLlPolJ0jj1MJM%nNj0J7mlrPLKpqKQlJkLoQoQqjKK%MrNMqMJlPoL%lmPJ%lKK
4400F00JjnlPKl%nLMnNrMNmnNjKKLLooQmjkKl%MjjOnMmnP%kjmL%JPmnJ1j1QOj0k%lNJjLLr
4394E94%NkK%kPmroJ3omJ0jKknK%MNpKNokL%%oJOj3J3j0OjKKJmMjmKMLmmJkJNmK%m%%Qj%%
4388F01jlpPJNj%knJ5l2J5lJ3njMqmJ0qLJjLNqKkNk%kNjjMrKJLl%LoLL%m%k%OnJ0llJJjKK
4382F03lLln%NjkKjJkOlOnj1J7j2NlkLmOLlloPoPmkKOpMJljKkKlRpKJJ%ljjMJLlmPpOmMJm
4375E99lJMmKmNkmLLJmmJ0nKlNnKj%jMklkLljJKLpPjlLoPkKMj1RpKM%lLnjMlLjLjjK%jjnR
4369F02%jnkQqMmLLk%l%KkJKkMnL%n%%Ojkjk%LjkLK%KjjkJ%kMLoNmkRjoLJlNoOlm%LLnk%%
4362E95LmJ1mnLMonMklNNj0J1nljL%OpKLjklL%kJkNkMm%%KkKnJKlP%kjNnOmk%KNjllmLJMm
4356E98kMll%KKmKMlj%KlM%lJMoMkLlKmPojlJjKNljKKkk%L%%MnJMk%lKLlNkmKnQlKpRMnpJ
4350E97%LjNmjmMlNjJoM%rJ2ljJlLjj%k%LLj%mN%mkjMkJMljMk%kMjmOm%MpMjkKJkLoLlJ3j1
4343E96KkK%K%nMOj0OKoNkmjLJkLLmlP%n%JKjMoLNJqRj3NkJjjQkkJJlLrPk%%%%kjLJkjjJk
4337E95MMnNnNqKKKnQllj%jLJqPMLrJJKMmk%NjkM%%jkJlO%lMmlKmO%LlqJ1rmKQkkmL%%MnL
4330F01k%jJKkjLjJklLjKl%Lj%%kO%n%jNMqMLnjjJkOJkNoLknPlL%LLpkoRjMoJlKkjMLllJJ
4324F01kJJlJLlj%JljMJlK%MqmLKQkkpJ0j1LLKlOknOlJLp%P%mLklJOmOpJJlLMmkO%qQ%oMl
4317F00JLjJmKjjlO%oLjJ%jJlMJ%mj%%jMJ%%nlOOjj1MLQj0%joQMqMjNJn%Qj2NLkKknNkJJj
4311F00JjKlMo%PmjMmjOm%jJL%%lQmkJKLnJlLnN%jJkjLlMoJLKkpJLKJoN%M%qlO%Jm%jLj%N
4304F04n%JnLL%nLJ%lOLj1PkK%jKjMnQkjpNK%KnOoNnlMjOqPj0MJkK%oQj2KPkjQr%%PnoRkj
4298F00MnKkNKmlLKKKpjMpjKMkjLmM%l%RmKlLMmk%NlLqOqOQomL%mnNKKkOokjPp%KLlJ%lLk
4292F02JJlRqLJpMOpnkJ1o%%jL%kMKqNmKPj5MJ2kLrOKqLOmrRljjL%JkjjLmRlmJNll%oRkJk
4285F02%KkkKLJlMpK%MJJlmMJjkLjLk%OnkMjloPkL%oJKlPpKkLLjoLlNmJ%JLonNJLmMLpLjJ
4279F03kK%%KkmMNlLm%%KJKmmJ%J0j0KJ0j0JnLJMmNpPrMklMLmLjl%OmkN%pNkJrJ4pJMojjP
4273F05jpJ0pMnOpRpMNrJkLLqO%OnNlKkklJJLjQrJ%KklkQnNmkKmN%JJlKmMmLkJJ%jjKkkNq
4266E98MKkmQr%RljmONmj2J9kjlnNJnQmJkL%qJ0oKMljLllLJmjNl%MJmkkKLlKkLjmOmJ%nLJ
4260F03JjJK%jjKnMlN%oOJmjMJkjMn%mQkNj2J0jqNLj%J%mjPlJmMjnljJ2lkJJkkKkMm%QpkM
4253F06%kkMm%OmJKJqNMj0MK%NlnQpP%N%j0MlJjOnmLJJkjoJ0mLkKmjKqNPoLjOkj0KOPj2Qo
4247F04kKLoOJ%JmmOkMpNJlLJ%oJ1rkQkKlJpOnNKmMjkkPlkmQlmQj%oPj1QMj8J8Mk2J8j0Lo
4241F00JLjlQNj0%NlNNpMK%rKmjJ4nkNl%MqQrKOnJkNnMlJkJLJnNjjl%MpLlO%lJkjJJnJJ2p
4235F09KnRkpkOKrOkkQklMmjjR%qOlnjJ0%%qJMKkjMkjmkOjnNLnKnOJmLKkoPllMlNnjMmLJ%
4229F10mjNKpPJjmkPnlRjJpN%%nRoLlJJkN%mNoNj0MlOlK%%KkNrlOoNnPjknLOkmMPokj0J0J
4222F10MjJj3PRj4JMJ%OpMmOlmjRpLKlKmLJjMjkjLm%kOjnNlMjnlMJnOKlJkLJJJmP%Kj0Nnj
4216F09kPJ1oj2J2Oj3rJ2k6K4kOkpj0J9rMkLnLNq%J0n%Kp%KnJ3lljJ%mJKKmLkJLnK%Lj%Kj
4211F14PpjKLmKjKn%J1rmQnQJ3k7J2Nj3kKjLlMKlJ%lKLoNlJmmJ2m%Mj0QqLLMnlKMjmkLKkk
4205F09KMj%JnN%%oJ0kmOjJnNkKljPLk2K1jj4JKOJ2j6%K%lljOlKjJjjjLLo%%NnMpPmjNjjj
4199F12NnNrLJMp%NmKkJ1j2LnJQlQnMqNr%KNk%jNQj4MLqQlJ0j4MjkMljMMJj1OJPj4JJ1rMo
4193F11OkMKkrKLOj8RLj1MpJ4j6J9ORl2PJ4jj4KJ9rjj0kOMLklJMojN%KmjKlN%nJKkLoQmJ0
4187F25mloJLjLKkLkLoNoK%J%pQoJNLj1Nk%rJ4mJ0jmj2OmKmNLMKnmJjOmlMNoOqJ1j1MknKJ0
4181F22o%jmMMkJ%MmJMj0OlkMNnrJ6pJmQpKkmQjpLkNLqKJLoMMJJpLlPnLpOlLn%KjNljNlMj
4175F22pKJqJ0%%nL%mOjjmLkK%mQj4J9qKnLMrMJLn%oPmJ2npRJkmLoMKjjnLOqNMqQnJ%L%Jj
4169F22lKkMjlkM%oQmJlJpNKnJ2j0%PMnmllKKLjmK%oJ2KqJ1nkjKl%K%kkLMmkNJkpMJRpPol
4163F18KkMNn%JlkMjLm%mLlJ0m%l%jJnJ1mlKkQnLj0LjjKQnjJkKjKLlJnM%mNKjoMLkJ%knNj
4156F20QqJJlKnQkMkJm%jRqKNpmQj7J5Jjll%QjpLMpQJKkmmNk%PnMmKoK%NjmJ2lrOjpLkLkK
4150F23JoQkjMJljjmKOLlpJ0nkLmJ0r%lOonJJ0%lJjMkoOj%mP%nMmJoQLpMLkljjJM%mnPkPn
4144F24KoMJkllPKlOoJo%QRrmjL%%L%rLNnO%mJlkNJjlPpkJ%Mk%MnLMjl%mOrNLmOlJlMJ%lk
4137F22No%MqLN%%nQkjlJ%JLj%Llj%%JpPjkK%%lOnlO%%lLKpKJOrLjLoM%Mll%kJKKKlKl%Mp
4130F20MLlLoLjKnPJkkLJpLmNJJkkN%jlMmJLnOjllLMk%lJ0j0Ll%KJjLnl%MNljK%Jj0MLklJ0
4124F31Jlk%%JlNLokNnkNnM%KkjJ%mK%kkOqRJljMJ%jmPqMp%QmKnNqQJJJmJMpkMJ2pjOj7Oj1
4118F14J6J2j3kkQj3NKKMpJLljJmKkOj%oN%kjMJnMKlJlNkJnLjkKJMl%JmK%lKMqLQqL%Pj4K
4112F23OjJmRklKJllNnRpMnlOpMNJnNjnJMmjKKnMnN%lMMj2NoQKmKJjnMmJMnLjnPJJmLKJkr
4105F22LjQJnKrMkOjOo%jjJMJkjNpKLLl%%m%%LKjkJlMoONmnKmRqNJknQJj2N%%O%l%k%LLJ%
4099F36pJlO%j1J1kKnlLjOoPrOoLLkMKl%mJL%nJ1nk%KJmNLqjOkLJnNlkMo%J0mMrnJ2j1MpJ0
4093F34knKJ2qpPjk%N%pMJJkkLmKNj0PJkJnlNjK%jL%m%PKkJpL%kNjJjkKKkkpPrMPLLj9J3l
4086F32JoOlmOMojKKKlNKmJjmKMoN%kKlqQmJLjmPkkL%jKpLJJLjJjnkRjoJJ0klJo%%NnjJKK
4080F35jmJMnLKnKJNlKJlNmkOkJjmkNpNJLmMqNkJL%nLkJj%LnNJ%MqMmOlnjLJKkklO%kKkLo
4073F31Ojk%KlMmNoM%lNKnNmJkPrP%pJJLMllJNl%JomPnKJkLJKjlnMLkjlLjKlOmNjnJPllLK
4067F40l%KJlP%j0KJjKlL%Klk%kMlO%%lKJnNmMnOnK%kKJmMkmLMk%kLmlPlLkOj2NKjLkN%qP
4060F42l%MkkMlmOkJlLkjkJL%KnNqRnkjkMjLjJJknOjOkjjllRmmPjmLNnMj0NL%%lKNmKmjJ%
4054F40KNr%NKLo%nKKlkMkJlKLl%MrQlNjl%%LoLJ%jKkpRmJPqNKoQ%nJkNlnQJkjKl%%lKLnK
4047F41JjkOjqjK%jORj8nJ5nNJqNKJmnQlJkJ0j5Q%mLlJkPokQkpQJoMJmMnNK%llQKnlMmKKj
4041F44jkLlj%LJ%lLn%MjmOJKrPnLOo%jOqOoNmKMrJ2j7QJ2pkkNnLLm%%j%MlnP%mLJmMKjk%
4035F45OqKjPp%jK%kLkNmJlKllNNnmOjlPmkMkPplOmK%jMj%OkolOlJJklLJkPol%%PlKmMNo%
4028F48koJ1mmKJJjOnnKlJ1pMRj0jJkKNKrkQojMNmkoP%jkPoJJKkkJ%JK%%m%l%JMoJ0rQ%rj
4022F42KkPlljNm%mPjOoNrMmJ6%j7L2l3J5j0KOpKlKPljOoOj1Lj%%PnJKjlNKnJ%Jm%%kPk%n
4016F45%JKj%J%kkN%pRrRmmJ3pkJKqJ3j4PmOOolQpQpPLoJnOjnLlKNnk%KMnKnMkLpKRo%Jjk
4010F48jKJJm%NlKJjjJkKOql%%JQpNnMQq%Qj3J0oLJjMkMp%LLj3PjjMnJ%nKJjQr%NLmkPnkJ
4004F50Pnl%KMLnJlPjjoRqQKj7J5mmLmQj3J1kjOoMNJj5OQpK%kl%QnMkj%qLlKKPmKloOmNjl
3998F51lRm%%KoMMJnQ%j0J0j2K0onJ8j9MoLPj9J2qkJ0JrJ1j1JJjKLMjq%OK%l%JpMMmOkjJJ
3992F59nKkJKjKlKmj%NlJoNJkKnJJ4j0OKnrJ0m%LKJ0ppJQ%j0MmkMkLlK%MlKk%lNlMrNlMmM
3986F58m%jLNp%NkmJMlK%nOoMkMrRKpPpJ0j0NljJ2jn%LojJLjLJpL%jLJnKJlkMLmkJLkjMl%
3980F58%MkjlPomNmQjqQpN%l%oRkOjkkJmOk%jjJNqPk%JkjkPkkMk%OmnN%%%nKLKnMjJ%jkJn
3973F57PnK%kkKKNoO%r%kK3k0JM%m%mLOjlKj0J0%kkjL%KLl%Kk%JNpJMpOl%jLKlMnMlL%%JJ
3967F68%jnlKKjJlPmjlmJ1mKkLnJ1ppOOrMjkOklLkjK%j%jKJkjJJJKmkJLkPokLjlJMK%J%nN
3960F69jmJOolRnJl%JKnPnMrOj%Plj0LRmmOKoKlJJL%mJlKkPqQkpM%%P%rJ1kj2J0jKpLJoOo
3954F61LMkKpJ1kjKl%lN%pNNpLKlknLJ2j0lNlMpKLkLLlkKjKjJKJojLmJ2oKlLoNQrjLjoLkk
3948F64PoKlKJ1j0lj0K4j0pPpJRjK%l%lNJn%LjJkKKnJLmJJjJKLoMlJmLNKkoNnO%nKLlJJjk
3942F70kkOoMK%oJLJrPmjJ6mjoJjJjNjmKLoJMlJmPjjoKLL%Jn%JlLJKj%jjjKkJNllQkkjLJn
3935F72%kPojj%jMKjoPl%Po%%MjmRllmKMKpNjklLLMp%%KnJKJoKMKlmL%OjllMmJLKpNmRjkm
3929F73MrJ1qLNklJjjJjLKljKMjkKm%kLKkJmP%mJjjjokJ0lLjjkLmNKLlJ%k%JMoPj3J3pOj3
3923F69%J4nnNMmlMjkOMoJkJjJljQqJJJLm%jL%nKKjjoJOj%KJllNkLKkMnl%jMnKJNpjNkRj0
3916F76MlMjPj2%jJ0LokJJoPqRljJJJLllLKlJkjKKk%JJ%Kl%l%%NkMm%qOlOkLllJn%OnNqMJ2
3910F88jqKN%kll%PnJlOmJOJmkK%%lJmPjLljLJnL%Ljk%nNLkjnPj2OjMJ%oPllL%JKj2J2JJm
3904F84MmlLM%Jjj0QkJk%J%KnKKKjlKkKJKnkNmNnNkkNkNrOmKLnoKNJlN%l%PnKqKLMNkqkjN
3897F87JKkKlnJ0nJLkjnMlQkkKJpM%OplkM%JnOo%QnjMLlmJoPk%mNjLKmLOmojNj5J0KJ4j6O
3891F89JkmK%MMqMkjKlN%%JkLlJqMKKljJOojJjjJjJKKKq%jL%J%m%LnN%OloKQmmKJkJkMkkJ
3885F87LjmOjlKJkNmK%nLJqOmOLknK%KJLqMkkQkLqPqL%LJmpMLkQon%J2klJoNjLJm%jjOklJ
3878F90J%NljlK%LoOljjlMNnKJjkj%jN%lOlk%LoOoQJjkKJqJ1pkJLPj1NnJ%kJ2rJJoOMnlK%
3872F93%j%%NkLmKqJRpM%KJkKj0NmLL%nNlkKOrJMJpNnJ1njJLNj4OMpQpNkJmL%nOkRj1nRkN
3866F99mJKjLj1J2n%jJMLj2mQ%KjjKJJklQljmJKJjQj1PqOp%JP%oKLnJ%OJ%mLLpLL%j3J0n%
3860F95PoLnJOrJ2Nj5mOJ1k3K4j7OJ1k0j1J0RlJJ8j3KoQoRqlO%KMnJ%lmNPmkoLMj0jQjKMm
3854G01nLPnJ%%nOmRj0%JPlkkpOkKKnR%nr%J6Lm%j8K4k4J7Qj6PQpjklJ1j1j1K0JoK0j5mMj1
3849F96LRllMqO%lpQJJoMJKlOqKJkK%lLkLk%l%KKjJLj1OKlLj2J6j5RJ2j4NOJrLPmKm%MpJO
3843G10j4MoRQnKKnk%%kMkMkJpNmKLoMKpKlPjPqKlJ2j0LnlMJoJ7j3KLJlPpJ0plpJ5j0NjJj
3837G06nKLjklJ3pJ%MmLmNoLkKjJNmnPJj2J6moKklKRj4OKoKLjlKRqmoK4k1QlRJ0j5Ml1L7o0
3831F58L1L7l9J3oJ2j0jJ7lljjNpPPj0ONpNoL%JkLoKoJM%kMmLjlKjKOnOonQlJ2j1nJ7j4Kl
3826G08RqRnjlj2K0KL0Nr9NQ0m5J1L1l9L0Jj2j1MJ0lj0K2k9J7rkJ2Lj5J1o%LnJMJ%qJ2nlj
3821G10L%%kPmjJjmOKl%jOljKmqNJlJJ1%mmj6K4J2p7R6l1l2K0j5L2j9K%RnOj1J3pOmJj2Pj
3816G10jNLpkLLlRnjKKlJLmnJ1j0QlJmLnQj0J0knMJKkKJJnnJ2rpJ0J3J1k7k0J7K2k6pL5j5
3811G20LJoLNj5QkNj1JJ0nnJjjOmLqJ7jnnMJ0mOj3oJ2Ojj5MJ7j5k0L0j7LqL5Qn3L8jKj4%j
3806G21mNNjMj3j3K1rj1jK3K2qjj9K0j8o%RqkPjlRj1LMpJ%j%RMmJj4NJ1j0KkQj2%L3m5J5L
3801G21j2K6l1rK2l0M2o7qJ55l2q5K2L3j6okpK2rlk2PJ3NJ0mj6j9L1qLmmJ2nlj0J7%l%p%Q
3797G27qQnOnQrMKkj0RKnOjqQkKoJ4j5J2lMmj5M6rn1J8Kk7Q4p9K1J8molNlpOjQrK%rPj0J7
3792G30j4J4Lj1RrNm%jJmNJnJ1%nlPrOlQqJlKRpj%%NLoOoqLJmkJ7o%%mPmJnQlJmJkKlKlK%
3786G24jQmMkkkJLmlNjKLMmjnNkMmNLp%NpL%l%MOokPrKjKoRlKjLnJlQmLpPoML%pLkMkKnLJ
3779G32KnJK%mNoLOJnkLkjKjKlKJJlQJj2MRpmJ8j0j4PmQJjLmLkjLlLjMpLmKMJklKjKKoK%L
3773G38ljKjkLjLoRn%LknL%%MKnKlMoNnNnLJ%lQpKMjkLkJkLojPjmJKjkL%mMlKJl%NmOoKjm
3766G34P%jkJJo%MOqK%%%KmLJrQnL%NoPj1MKjLLqRlkJJklKNj%lMlkNoN%jMljl%LMKrmOLMo
3760G41J%qNJlOLm%J%mP%lLmLkn%MlMoO%jmJ0rLJmlKkNjKkjKLj%%Qo%kJKjjNnjjJNJJmJpJ
3753G41LJkMJj2MMl%O%lPk%j4J1Lj5J4nOnlOJ%KJmnMmNKjljJJ%kM%%OplKj%LkOqMmJ1lmMl
3747G49%jJkkMjkLlkRj1M%JjNjKKJj2M%RoKjnOo%LlJ%NlKKnKkQnKkJmPljNpMmJ%MJkklmRk
3741G51%lJKjjKkPpJmoPJ3j1NMoNpkKKJJLjkmJjMoMLj%lLmPjMqLj%KjM%jjKnJoNmJnQMmJl
3734G52%Om%nJ3j3J2qmOkLnLj%pQLjjjKJ%kljJ%kPklLMmKNkojLKLmMk%lKljOnKlJK%LqOkL
3728G59mkLLlKOj2NqMJJ%MjojJ0Lj3NlKLm%LKLl%kMllO%kklKNjlOlOj1LjJLmLJlKJKkLnJk
3722G58%NknRk%m%JmL%MJojLLpQnjPl%Kj%j%kKJjJKmKKkkOj0NjNpKJKjKljoQJlKjKJjl%L%
3716G64MooNKKnJ1nLj0LjJ%lONrMJKKpLLlK%kmRmKlLkJKpLPqKkJJljKjJkOlJqRnkLpNPjlP
3709G72jMj0mJ0nmjPKk%LPrnPjmkmQQqJlML%lKlM%jJnMJ%okKKlJ1mj3RMJ%pJPj0JPkqJ2j3
3703G62J1%KPolkOj3JLm%OjOmkJMkmMlOjklJjL%NnMo%PpjPlJ%lKJJlJ%Ml%%J%%kKLlkMLm%
3697G76nJ0j0%JkOnJOkqRlKLojNmMkOqOklkN%%j%oNmjNKmRnKJlMkoLKL%jjklkQl%NlmOlkJ
3690G77MkkPj2LMjLkjJJ%lKlOkJlJLlLKoMjLlk%mRp%%LJlNj%KljNjo%KkLLlkK%KlOqKJLlk
3684G79oR%jkK%%jJmNoNKlKk%%L%kL%lMkOmMmkjKKoQnKjoJ0k%jKl%MlmQj1OJ0%j5QlnLLmj
3678G80Lm%KLMnlKJl%JMjJlKKoOJlMoKJj%M%LnK%nPkjjK%jkLNolPjkJk%MjMJnmNRrjpQjoO
3671G90llPkkmKOmJkOjlmP%oLK%nKLk%Mm%lOMlJl%Pp%LNp%mPmLjJJMJrQolLPj1kNMmQj0LJ
3665G93KKj0KO%kJMnlLMnQpJJm%LloRLnMKpNlJlL%LKmkJN%oLJj%NjpRnnMLmmMJ%NoJ%lMMo
3658G95KMnMjoKjOj%%oNjNJmjMj1QJlknPlMmNKmJjkNklMnlRJ1rj1OJOJpKKlkMJpM%JjKmKk
3652G97NoMnPpQjlMJknNlKkNjjKlMl%mRpjMoNkJL%jNqkMMrJ0MrlMjMj2J0n%L%mMKo%%Ql%k
3646H01KJnKPnKoQmk%LkJNnJ%NmOmkM%qMkKKmLlNKrJlJ0%lOo%%%Nj1J0loOm%%MnK%LoPK%j
3639H09mKOoOj0QkOkkqQjlmQLoQqLlMoJMKNj3KMjKpJ0j2JMOJlQj2KLlJKK%pK%%JJnOnKLJm
3633H10JlMjJljPmJPnOlpM%oRlMmJ%KjNlnKJnPLJqOLqjJ%J7l3J3JKoOKo%MjJNnjKK%%%nJl
3627H11OlJjK%kMJ%jJnLjLKkLlLmjNlnNk%JjM%oPJmLl%PpQmmOj0RlqOJjJmkPLmMkoKjNoJN
3621H22lm%NKmOKpNkjOpKLlJJLjrRnJlPkjkjQnmRpOjj%kPq%KkJQqkKKjJlLKqN%KnMKlkPKo
3614H25%NlnL%kOjjKnRj0MjkJlMmQLpJ2j6QjPj3lJ3pkJK%kLmkJOk%nJNmLJLo%kPjkOnKJlL
3608H31lPomMJoJ1pKNjmkN%ljmLJKrK1qLj1OPlj5J5Qj4JmmNQpjMlO%j2kJ0%kO%njkNlMJnK
3602H32%mO%lNoPl%Lm%J%PrJjnNJK%%jQj2KLkJ4j5PqNOKj1J3k2J7pkMj%oN%%N%jjjn%OKlP
3596H43qmLJLjLJoPrOLmJLnN%mMrLJNn%JJlJKnMjkQm%JJJkjmPNjkkmLmOKn%KnNoKQjnkJKL
3590H44kLpJLmMkNLo%%KkJkLKjnLJPloJKoNpOmKMj%mJkLOLlnjK%jLlK%jJj%MKkk%KkLJmjN
3583H50MrL%lmJ2olK%MkMlk%NKmjj2K4qj3JOP%knmJOmJLkLnOkkNkmMKlKJjK%KnNlJlJLnKP
3577H59jkl%lPm%jKJmKmKPoNqNkLOpKLrJ0klknJ0j1OMoKkNLnMllJN%jKkMkJ%kJ%lJ%MmJNl
3570H60J%mQpK%%lmMKnOmJkLjnNj%M%mKKLoNqPJlKkM%oKkJ%NmjkKNkJ%kLlPjnJjjPqOJnMo
3564H59Ol%%%LoPnmLKJKjlJkJ%K%jJlKKkNJjlkOmmJMjKk%KlNo%Nj1J3mlMJnOK%kkNqNoM%K
3557H68jJ%KllNmLnKJ4j4%kNKj%qLKMlmPlNjmKmJMljQoMl%JkKNmJ%l%%kMKjjkjKLk%JJJlO
3551H77qPljjPnlMkjKNqJ3j6LKL%lMljkMlNoMllMK%%lLKnLLj%jjj%KMlLl%KoJ1pkLJLj4LR
3545H79jk%MJmkLKmmKK%kMjKmLJjMnJkJnOkLmKLLrKNlkNMknKmLjKjJ1mkLj3J0jlkO%oqJ0M
3539H84kKj1RKqNJj0QnRk%pMLJlOklMk%NrOnLlOkMnlM%mJ0rOjoK%kMmJ2lpMnNJJ%lJljOMk
3533H90KqJkM%%j1J9qMj5RKJKjkM%l%JJl%JjjJNlLkKnLJ%%KknOoKJjJLkj%%%%lNJ%J%KkMo
3526H91N%mKnkNoMJ3j0mjPjkLK%qOjKKnjJkKKj%%j%KLkLnKKmK%JJkKKn%%%mOJpKL%JkPJnj
3520H97Lljjj%MmQk%%pRj1J4rOlKklPmlLOmjlLJj0J0jNqJPpMlO%nJJkJJoLMj%j0J2NjlplJ1
3514I06nkLl%%PJkmoJ1jnKLOmKmlLQrlNMnJmMKmKLnNkJJnJKmJLKq%O%MkmnMKNoQNj4J%kqO
3507I01QJ4qj9J4pRKnLo%ljNLlLjnNLnRmlLmJM%%nP%J%j0MKlL%lLmjJQmokNKlLL%lM%%lJm
3501I09PpLOj2J2%j1J2%ljkMmkNmkJ1moLKkJkKKJJmMlkOmkMmLkM%jnKK%nQnNpQpOmKMkLkk
3495I19%klL%J1omNlkkNlJLJkkOknKJJjmPjmPmmK%NljMLoJjKJlNkJmMjl%RrMLokLLK%MqjM
3489I28kKmKNmJk%%NmJJKkj%%%jJmKLmOmkJMKnLJlnKMj%J%KlLjj%JKL%KklkrOqJ2oJRj1J4
3482I38Kj0LkmJNmOkKJl%jOkmMMmJ%lNpL%Nkp%K%kL%%LoJJJJ%JmMkJ%JjRokMJkoN%oPKoJL
3476I39%nPkmLlKjOkLnMnO%lOjkKrRkjKoKjNk%jLj1PjKlNkJnNk%m%J0JkJjjl%MkjQj0kQ%k
3470I44%pQ%mJ%JMkj%%KmPmjmOqJ4oRJkmJ1j0nOqMoMK%kJJmlJ3j0QqPn%NMJkq%J0j2OOnl%
3464I48%JLnMkPoKnMLkj%j%On%%lJ%MLmLLj1RMjj2QnPlJjkJkPqJ0mljKjjQk%KnQqjLkJNoO
3457I61kkjjOllLqJ3lmLkNllLLlMpKJMlJkJmKpJ2jmJOpjN%KlmKpJ2kj%%L%nLKnLLnkPnoOP
3451I67nNm%kJnJ1lkjNJmlNj%LoKkPnjkJ2nkoRlJoJ0j0PlKJnMjmLNPj0Ml%qJ1KoMj%pPmKJ
3445I69MkKpQoMnLmlJ5nlkjNlkNoMlOnLJJJmoJ1%JoMlO%%Mj0nlMJKJ3j1OMpkmRmLNokK%%J
3439I77JllP%oLmNJ%NokKmL%kLpLOnOmmNmljONp%QpOloJ%J0klNj4PjJ2J5j3k8QPJ4k2J5LJ1
3433I96j7QnOj4QkPqJMJJKnJm%OoOkKl%lJKk%JJjlJLPnkKlMNpj%KNj1KRpklJ2jkOnJ0j2No
3427I85kLpJ2m%%nNqNLlPLoLqQLqKL%%J%mLjjLjklMM%jmNk%jLkK%jmJjRnjRj1JNQnrOpjJ0
3421I98j6J1KnPqKJKmJJMj%mKKkLOj0MjLmmRmLoLjJOpM%l%PNj3JjJ7j5nRkKqJ6j1J1qLoJk
3415I96Qj5J2NJjJLj5jLJ2mLqLklQj4QMoNMlkoOLnJMNrPrQljjnJ0MrjJ6j2nqLJ2oJ5pmK6j2
3410A019KooMJ0j7PpnlR%mqJ5kNpOLqMpNpNjL%kJ2ppPOr%L%JmRoj%KnLjM%j%kJJoMoJ0Jj1
3404A005KRj0J1mJ1j2Qmj1QNnQLj1kmO%OoLJKnNpRljpJ2jjKlJ%mJJpQ%K%kmNnRJn%JmPoLq
3398A013OjJmNqQOmJ%qPkmMJKmPllkOlPoOllNk%joJ1lJjJlJklMnOJKKqJLjPKnJmLMpkOlLj0
3392A020LNjjMMrJkkKKMjjJLjkK%Jjl%KO%llKjNjKojKnMKkJllJPnLMlMkkPnl%kJJ1j3J5j3
3385A031J7monMNqjLnJ0j1J0m%oMjKKjjkLnOJMokNkPmJpN%mOklNmlM%jK%KKoKKmLLkjKJMq
3379A039Lm%RkJ0j0JJrPoNkKn%KjL%jL%lnLKJLJoMJjjMjkKm%KmMJKoLJNlJnMLpMJ%lj%PoM
3373A050jjNrRmkMkLlOoOmMoKJmPllLjJJKjoLjnNNjMm%lQnJm%%%JjMJkLM%Kq%NmkLKoQnMj
3367A059lJk%jL%%KMnjKKpMNmjJLnPjJqPk%LmKjLljKkMJKqNmkNLJj%KljkJ0mkQLj3OpRj1O
3360A067kKJoLLqOlKLlJj%JMlKlJLoPkNpMn%JOmMJm%mJPnOmjJlOKoP%kjjKJmJ2j1J0q%Lll
3354A072JNmMkjkJJKo%PpN%%kJ%JJJkLoJLLlJ%LJkKmkQnkLklNnMl%QlKjmnJ6oLOj2KLJmkN
3348A085%knN%lmQnJNmNmLmJNjKnnJKj%QKnkLkJOkj%mMKnNJmMkJRj1K%Oj0OrOPj0N%%lNk%
3342A091JlK%JkjjLmjNnQjlLnRpnLJlNJLlJJmOJjRj0klOjkQLplPlRj1Nj0KJ4mrJ8j3JmJMo
3336A095mJ0KKnjM%oOj%rOKMjkjnOMo%KlMjjJkLjNjklK%JKkkQkJmNrPjlNMpO%k%lLNo%pNJ
3329A108j%kOj%k%MqLP%jpRjlKjLJkkKo%JMlMj%oRojOnJM%jkLjJkQj1JNJlMkLjKKrJ3pNj0
3323A114J1ojkLoLJ%jLJmKLLlnKNlJJLpnRkkJLJlKpNkMJJlOnLpMPjJknkMK%jpQLJnJQj1KK
3317A127NlOrkOlMpLJmK%%JJNkjLkoKNpMJNjKj0MjlJ3nljMpRoJLJ2rkoQOJqj2OOmOj2NRj1
3311A129OOqPmKk%JLk%lK%rONmKKjKjk%JLjKJkJjJlNLlkKkJLqO%mJ3nok%J2pk%OqMJmRj0M
3305A145mKKKj%lJKjJKlNqN%mLMmLmjLnNLMmj%KqPOoLoNJkLkKLmNlL%pjKMLLomLJlLNmlMk
3298A156mQnLJmKmNLmjk%KjKjj%jKLl%L%jLllKJjLKmNjNrQnLnLmOnMjJjMjjNjrOLk%mJOlO
3292A172mlKnNNqLjLJjnLjlL%jL%JKmRpkJLoNKmLJJn%KNklROj4j%KKmKjJPqJPrM%%lJKOnm
3285A171kOJoML%%mJPklKjJK%%kMJmmNMmjJmNkkKMmPojNJJnK%kJ%jlJ0pNnJjLlL%JLnmLJN
3279A188j0O%kJLlPp%NlJL%LmLKljLnNoLJJlKKKM%kMjlmlMkPojJKMlJ%mkNmRlmNNj0K%MlM
3273A200noP%m%nJ2%qM%JMlMJkjjlPlnQkmLnNlP%M%ooRKkkOJmkPnJJlNj%Jm%jNqRlNljkJl
3266A204OpOj%NpKJ1pjjnoJ1oL%OlkjNlLkOn%QKpQj5NPj0NKLjnPm%jJJkMkKmNJnNn%lLLJk
3260A218mN%MLqM%JJm%Qj1PJoNjklkM%%kLjJmRKnJmMmQnO%qMMJmMkjJkNkkPoJJJnLLJjn%%
3254A227J0kjJllRj0JMnJKnP%jMn%KmJNMjmJJoRlJj0RkLjjRkjJl%jkMJjJKmj%JkJ0m%j%mK
3248A240lPMlpKOrL%kK%ljLmQNnKj5KJ7ljqPPrKPnoQk%kKMklJ1oNn%L%jkJjJlNkKJnj%kNk
3242A249NJmmOOnjlL%l%LnM%kLRj3OnkRrJ4j6K4Kk5J0MpN%mJMmKMm%PnKj%NqMjmjKNmLljK
3236A260KJ%mLjnJ4nkLlKKjJkKnKjLJnlJ0%pqJ9Jkp%K0j6OLomoQKjlQmlKKmPljk%kKNkLJl
3230A274jkNjKJkqJ3o%LnLJlOJpjJ0n%jnOLNj0%kO%KmOjMjq%jJ0oJoMNnMKlOjjKoKpJ0jmL
3224A286lMnKmJ0okQLqmML%JKkLknPkLm%rMK%Qn%J1j0J%JK%LjMmOj1KpPjJ5roNMlnjLkL%m
3218A292NMl%MqLLJlNj0J2j1LO%nK%NkljQj0rRMLKpLN%qJ4k0J1Oj3J4nNn%%jlN%%J%LqNkm
3212A302PlL%%lJjQnJK%lLLJkJoNjj%LmLJlLlLj%Oj0JRpKQokRqMj2J1pPKjklOkOoJMmj%kL
3206A320mMLJmJ%MmJLLn%N%mMlL%KlKlKNrJKjNm%oPnJ5j0Oj0PLnJ0j1NmMnjNkLkJJJkJlM%
3200A334%pJ0llLjMnjLKjnNQnnJO%JkJkNmMpPk%kOnoKNJoN%KMnJjOo%k%K%JnR%jjK%Kj%lJ
3193A346m%OjRnlkNjnPJpMmRk%kJjjLJnJ3j5%NLlOOjooLj0RPlnMjJ0ojLmJKoKLj%oM%KMnM
3187A361k%K%JJmkPoNLjlJj%%%LkK%jKlJjjRqJjNjjJlllJ5Mj4JOkK%nJ0pOnNlJ%kkPmNqMk
3181A370QoMmNl%LmMlK%kJJ%jM%KnkJ0rKLJ%lJj2J3mRlJoNkMolNKlLoRkJnNJJlNnRlkkQnj
3175A387PqMLlJJkkjMkl%NmKLLjkJKnOjljOknOKloQKjl%mQjnLKnkRJj1KQPj1LkMnO%KnjOK
3169A406jJJnJjjPj0%%NLlLkKm%NRqNj1MONj5QN%pkQoMljjQnLK%LljjkkONnoM%jOoMmKPjJ
3162A421mKlj%M%jKo%QoN%nlKO%nOpLMmjLLmjMkmOMjoRmnKOlNoKKmMOnMmLmM%MoRpK%JKn%
3156A431LjKjLjjNllJkkKKJkkNnNlMnLkOJoMmNknjRjmOnMnQoLJMkkjMkPnPpNjLoMJjkLmK%
3149A449NjoL%kLMmMjmOnjnJ7j3mJ0oMPrKJJJ%mjNj%%M%pJ0n%LJjmJ%mR%LokJQoM%JoNjj%
3143A462KOlnLJkNjpP%okQlJ0pj0J5%Nj0nPkPoKjj%QqPPpoNjKMm%mLlKLjKjmKLnOj%nOJkk
3137A476LjmNj%LkjKJK%m%%OjLoLnQlNoNkJ0j1MllKJ%%kLLlNMoKoLL%kMJJkJmPjnjLKjkjN
3131A497mNlkJkLjMj%mLlKLLl%JNnJJJOJooJ1%jj%nlLPljPrKkMOnLNlnOmjOkOpMkm%%OnMl
3125A511MjkLjKoM%pkJ8j8ROppJ3jpQlKLoJPkKkNp%NLqLJkj%LJKlJRj2LkkQlPpMoJlJ0pKk
3119A524QlkNNrPo%JkRoj1J8Ojnj6NOrJ5j0NOj1QkMOpkjMm%MJJjLkjjMlOnNmnNMl%kJjkQm
3113A543lNKk%JJj%JLn%MK%Plkl%lOJlKL%lMrJ1lJJJkJpJ0oKjMmKjkKKMjmJJ%oQlMjJkoJJ3
3106A569mlMrJK%NLpMJJpJ1%nN%kkJ%NKk%JkJ%mKlO%kJOqMJKLrNlJ%JmOlkMJlN%k%mKJ0oJ
3100A581MqOqQqJ0mLqQjJKokNQrNkjNMmN%pOkJkLKl%%mJ0oPjlLnOqjK%LlNk%LLj0RmKKqPm
3094A595lQmKN%jLjNj7RPqkmJ2JqQ%mJjMKjkMkkMKKo%JM%JKmLoRjk%nLKnO%kjNljJLmKJlJ
3088A615MjjjmKJ1loNNlKjJOklJLj0KOkLKllmPLj0PKJ%KpLkJjJ8j2JkJKkmN%KmPqMKLojJJ
3082A635jL%jKlJLLj0PMrNkOJlKjQjoOljJLlnLKJkPqNLmQqLnOkNj8J6Nj1mJ4J0pj1J6k1K1
3076A665llj%JKpJOpNLnnNmRn%%kOkjOj%%KljjKM%j0LOOoQnLkmOpQkjRj1JRj4RjJ0j3K0k4
3070A664MPPJLj6%J0koJ0nkJ2j6PjKoJ6qpnJ6jJnjQljnJ0ljRpjJkK%nRjJoKRmjKKljjMlOo
3064A690MJjkLlOlL%k%oP%JmLnKRlnNLj2J0MJjMpJlpJ5nOqRoJqJ5nmmJ4mjmNK%J%kLmLMoP
3058A717nmR%MlmNk%%%jJlkQkJKmjRkpMnjQQo%kjnQJ%%%%%oOKOjqJ0mOj0QqMNKnkM%MoMkJ
3052A735oJ6jpPkmoOLoMl%pJ1j3J1KrK6j3j8K9mrnJ6qjJjJmOjjNmjjLlNJJJLjkjKpOmRrJ0
3047A758mJ0j1MnP%%kJLMm%oJ1j5J0oKK1k0pJ2Pj1Lj1J4Rlm2N0m3L3K1j4MRj8rPJlJ0nqRl
3042A770MMmmOo%JN%Nj4NkQnNkJjOkJkLmLJnKNnJKjL%KnMOnkKJnOjJJRk5MMMK3k5J0oQjj2
3036A782LPQoJK%mMkLJPolkJKlKMlMjlOmJjMnRm%jKkKPkmk%PjkjMlmMQLoJk1J6j0J1pJ0Ql
3030A818n%%J2nLj0J1pKmQ%MmmKMjJ%mO%lJlNljlLmQklQjj3J1Pj4J0mJK2k7NJ2kKLljlLmJ0
3024A844j8J5j4J5pLjLjJ7qqpJ3rMkoON%MqRmRj8J1KlKKKmOmnoJ3mJ1jj6NJ0J0j9J5lj4K0
3020A866Nm0J5N3o6L8j4Nk1K3jQj8J4Mj1KmMmKkJ0jmKKMkpJ6r%mJ2j4KJ2nqJ0oPlKmKjJJL
3015A876lNl%jkjQjlOlM%j3J4klJ4qnQj0J2Qj7J5j4RPppPlLnOj%LpOkPjQj0JKnPoL%JMqNm
3009A894J0qMMmLlnLKmNLn%Pk%J1j6J1MqKn%QkkNlMj3QN%LkmJKJLjnOLJ%%%%lMkJl%%M%%K
3003A924lOpJPk%kpRjjOjmPn%JJ1qN%qMKkKmKRj1QmkNoJ1j0LjPKljjMJMlLlkPk%%KqM%KOk
2997A951jlKjOkkjJJ%jJLKllJ3%kpJ3pmRj3J7q%PjmJKqKLMnOmMJmjM%%L%KjjMMqL%lOlNlO
2991A982pJkjNKjjJlOmJLk%JMqMMjKlQk%lMmOLj0KKJJOnM%pOjkMkNmQlkKkLlJJKJLJnjlNj
2985B002mOKkmJJJOjNm%Ko%NJJ1j3NNj2MNKqRkJmNJ%jM%nMLkj%NNm%jKjnPmJkJ1j0LOo%kO
2979B033nkOM%j0%QNkj%LlJkMlRLrK%JJrQjJ1j1QknMjNkMpPj%%jLOlJmOlKj%Oj%lKLmLojM
2972B060L%KJj0RpOLjkjMMKMj5J2lqRJoPKmJ0j0JOlkmNL%%JLqO%LmMLl%N%JkmPjjKKKnLlJ
2966B090KMlJmJPpLJjJ%lOj%kMjMoQlMkLmMlKLknPkLmNlJkMJlNjKKlLoNlKJMjjQrJjkNMJK
2960B126njMmM%OkkjLpPKmL%JRj5J1kKkjLjMlkOJklJOLpOlkNjJ%JklMkMjMKlNpKJqNNjLJj
2954B153jjPJnJPmM%%N%%rOLokKLkQm%jKJOknNkLJlQojNj%jMLkjjjMkLJJmLrRjK%%LjOnLO
2947B196pKjkQpKJlK0l4J9j0Qj8K7PrOq%K%jNNoOqQlMJnkOJkkPMmLnK%KlNjkPrKOmKjjNkJ
2941B220KLnNlMJn%NJ%jQmkJKLnPj3J1JjnJ0n%KOjk%LllNjKjJMjkMJnL%MJqQlKKKjlKkkOM
2935B259jJm%MlLLjjMJkPmj%MkKmlPmMnOMlKOnpO%%JjMMnjJJPkjkOKjoLJJoPLkLlLkkPLnl
2928B288N%KlKPp%MlPnQKrOoLlKK%PrRlMm%MkMljLL%%%L%NknNKjmJNPkqJMKjj%%Nm%OoKLQ
2922B339j5PRk5J1J6j0oPNpNj%jjJ0%KqOlMmJ0pPloRpMOkJ%mNKl%JOmJKKKqKRloRnKj%K%J
2916B364MmKM%K%kJJmRq%JOnNJMJ%%kkKJ%lLJkjLJNKjMnKnKOnJN%JkPnMJkJKmQlnKM%%%Lm
2910B402NKPj3J4j1M%%KLJqQMnKLjMkJKnKjMjmOK%%lLM%jK%JlRolRlMkkMKnKOlJLjoJ0pMm
2904B442P%llNM%MjrJ1llMKpPNpLJNjnJMQrjLNlLpKNKJJKmMjJkN%MKJllKlRmjlQqOJPrONp
2897B488jPjkNKlNmjm%JJ0mKjL%KklONlmMj%J%KkOkJljNlOKJ%oJ0Mq%L%KlQnKmJ0rRoKJjO
2891B534JmJmJKO%kkLkJ0nNkKpK%NlQlKJlP%jkMJkoOkNkLLKljJKlLJlMkMkLLJjJoPlPNjpO
2885B578oOLoQnrPN%%LNjrNlQ%%JjkkPNrOQrRmkRJjrjJ3jljmPL%JjjKKmnJ2nNpJ0kJJjJMk
2878B620KJPjnLLo%NKNmkNlLjKJkJKlOpLQqMKKmN%%jKLKKnJ3qJ%Nq%%NkJJRj5J5%Lj7LJ4p
2872B662%J0J%pMNn%KJ2pLMolQj%JNo%JmPlJJMlMkJlNLJLJjKl%KJ%MnOlJjjJNjNpPl%LMp%
2866B708J0%K%mPj0PQokLjjKMkM%KJjJNJkLm%kJJL%LKL%njMjKJLJnQmjLMkMnNqORj2P%jOj
2860B763nJ3nJmJOmO%%oNnRlkPOpMJMjK%kKlOpR%%mOjNj4NQkO%LmrPlMPkRqpNPklkJ3pkPJ
2854B814KkkMlN%RlklPkLjkR%nJ%MnRkjJ%OmMJjLoQKqKRjqOlN%%jOnMQkoKJ9j0%rKJ9k2PP
2848B869oRolN%NK%%lLjQjnQjJ%kJJKJKl%O%JkOlnPKKlLKlKMoNNkJpMNLknJ1oOmMNQj2NKj2
2841B913JNONoM%%rJ2jMnLKK%NpKMKLJj%JlPnPmkNK%%%M%lLkKjLKmN%OnkNNoLLMqJ0jj1J3
2835B978kPrRrJ0pMlPmMOnMMmL%KkNKMnMlnJ6j1J0rKjN%%MMn%LOj2MOmRpNLjqP%Oj5J9oMm
2829C025J0qkK%J0KqLjJ6rkJLJjRl%LJJmMMmJkPmQj0LRnjoJ7oL%llJ0j%jnJ0KmRl%J1lj5N
2824C076J1okJ0j4J1jJKKlMP%nJPljPoMRmNkOqJRnnOJMKljJMoOJKpPjJKlKJNLnKLjLPjoMj
2818C140%J3jKm%j0J0kjRkqJ6qQqJ0lNljNmR%Lo%J0jKk%NlJKk%mQjLjJJMmLJj%LkKRpNJ%%
2812C202%%kPkLJLJ%LlLJjPkLkOlKKjNKmOJn%OOJklJ%OnN%kKJLjL%lPlRmlLjKklOLJ%KJkJ
2805C268Oj%KKkJNNjpQjLKOrMJJLJlOjJ%MM%oRmJkkMRk%nOkLLJk%MJjlOLOqRmJjNmJMLkJK
2799C342LqNnJ0JJJLLnNMKpKMLjJMkJJKjjOLLrQjJ%JJLlN%%jJLNlk%NKLjPrPnRJkPpLMKk%
2792C413KLpNjJ0%oNKKoNJ0rN%J0plRmPmLJNqJ0n%LkMKKMoMKJKKlkOMJpPMrMJlJOMnRmMQo
2786C485jJM%LKNkJ%jJKOoM%RpjMOMJ%oJ3j3NjJNoRj%NnJ0KkKkMj%kO%l%OLnJPKlNoPL%kQ
2780C566j%lJ1oNKJkKL%%%nQMmLjKMJQlQj2KOmMJMKoKKMPlNj1QjNlP%%mNRpmJ1lnRjQ%kpP
2774C638PqOQoLj%LK%JKMlKjPlMjkP%MKjjO%%jjK%JKjQjOknNLlRKlJlJ0lnJ5oNkKnONjlQm
2768C720PlOkjjMJK%MKjLJ%%OmQ%%MkM%%JOoJNlMk%LLJKJJNlM%%PmKLoJNRpJLKMmLQnRmPK
2761C817mjj%Qj%MLmOnOKLNoLLkNjLjMlQJpJ2qNM%K%JNmjJQlkJ8j2KJOJmL%nJ1kkQLjJkNL
2755C899kKMnJ0mjQnJOk%MlPKKjMlJMKKJ%JkJ2j0J0%jNJkLkNpJ1kMrNNKJ1L%jknKJN%MmJ0
2749C986LmjNlOmOnKPmOkNmPjNJjKKlOKLlLKMl%N%jKOJlQlKM%JPkj%QrNJLKL%JKJMLNjpPJ
2743D080JLkNj%L%RqJ0nMJPmNKkJ%LKjPmPlNlJOJJQoKLKlLKMNmJmOoJ2jlJ0oMJjjMQ%LNm%
2737D175RlKKKKKKoMJ1lmJ0oMM%LJjQoRmkQNqNMjM%kJ3jKmKKLMpkJ0kKmJ3pKMKjOjkQmLPj
2731D277jNLKJKLKlNnQ%%OJjKKMjLlROj2RM%%NjMlLkJ1pJNnQ%okOQjlK4j4lLNKKLKl%NLKl
2724D377jQ%LJNJJjPlJKJNJkNMMJJJMjLmPM%KmMOmLOmkJ0lOOk%NlkNmJ1OLrLNpRJjJ0lLKJ
2718D494KnKJ0n%J1pPkMlLLNkQnP%Lk%ON%KLKJjOkkRkJKL%PjLNj0OJLM%LMnONmNJKMlNK%K
2712D606L%J0n%ONmKPlmQ%KOkOlMJkOKMMKlPmMLlOJKLjKOL%%oNLLPnN%MNlNKkKM%JNKNKkL
2706D732MLKKjN%lNMkOKKJlPmPOnPNLmNlOnON%%jNjPLKljJ2j1%K0pJJLRrNML%NLlMLKKnPL
2699D858KmPPjMj%NlMLNjJPkKQmLMjNjM%MJMjkMQlN%LJjOOqJ2mJ1j%KMj1RNlP%JNJLjjQNk
2693D988NJKkQj0QNlLJ1nM%MKmRM%JjJ4rOKkOMJMmO%RqNLJJ0mKNoRK%NLjKLNKoKJ9rnJ1qJ0
2687E119N%JJ1o%PnLnROMj1J3j4K3j2K3rJ2%njMOKnJ1%K%%J0j0PJ1j0RJK%O%QmMLLQllQkL
2682E239MkLRnOMj0J4%jQJkLMKMjJ1%MkJJqJ1jJ1mOLnQJ7j1JkJ2MnPmPlJ1KkJkkPmJ4nJ2%
2677E371kNPpMMOLLJKjL%LP%M%KMO%JJKOK%MKLKJkOQmMjP%%PJ0pJJJ0%KQm%QjL%J1nMOOmL
2670E526JPpMPNlNjJ0nNmJ1JLN%jP%LLJKL%QJ%O%L%MJLLLMjQmR%mPPNnJ3pMoJ3lQNkJ4p%L
2664E681MONkj%OO%kJ0mNRlMkQQnOjL%J3nMLPKNoKMJNQPnnJ2j0RpJ8oNoQRPj9K3pQnRQlNL
2659E842OmRlJ2oNKjJ0MpPMLLO%NmNRkkMKRNlNLLjKOmJ0kjQJ0oLKQNMM%JmLJ1qPl%K2Rj8L
2653F002MKjJ6pJ2j1J3PrK5j0KOLmNJNMJNmOMPJLNkQ%O%L%MMJJ1knQMKKOkR%MK%MLJ1j2J5
2647F177lKLQOpJ5n%NPJ0j9QJJ1NP%LO%MJQlKMKPKmJ0KMKQjOKJLO%JJ1lnNJ1%JKOPqR%KPJ
2641F353J0pRnJ0%J4rOJ1lOjOmJQNJ4j3R%OOqQJRLKPlRlPLN%KJ7kjOlJ2Oj4K0kjM%NNKLM%
2636F535JJOpNQJ2MlRrJ4O%OKPjQnMNR%jkRPJ1j6J3QoKK2omOMOlKOJJ0RoJ1NmLPMLMl%J0L
2630F732NkMJOjJ0RljJ4NoJ1j4OKK3kNj9L2k0L3k4K0pMJ6j6J6KjRlNRJPLOkJJ0JMJPOlQJK
2625F913MKMONMJKkRQ%KNlJ1nJ1lMQMNJJLOMQpJ7Oj2OJJ7J1j3K3okKkRQlKJ0NMkKNONLOQL
2620G130LoJ0PmONRjMNNjlJ2MNJLOMkKQMjJ1nJ1jQ%ONMMlNJ0QJLLKPM%QJMJNPJJ1jlJ0NM%
2614G351OO%ONOPJO%JJ3j0J5QlJPJPJ0oQ%kQLJ0KQjRJjOLQKOjRNJ1kkROkPMLLLJJ0NjLJ0J
2608G590KNOKOKQL%J3kQOJRjKNQ%QjQMNQmPkPJ2KJQ%KQj%J9%QRrJ4nROkPRkjJ1jQLMRMP%K
2602G854RJJOOLNJ1%kJ1lJ0PJMRKO%MQKJ0oJ1NjN%NJ1KOOPlRlJ5JJ0%KQnJ2RLPlRkJ1L%MJ0
2597H113KRNJMLJ1jPLKPMP%LNPJ0JLPJMNMJ0JONNjJ3kP%NNO%J6jMKQLNLR%J1kJ2NLNMjJ1R
2591H393MjPMQ%J0NNMMLNMNPMKJ2LoJ5OMKPLKJ3MJQLJPOkQPKO%J3OJRLLJ4%JjRMJ1JJ1jNP
2585H681NPQMNLJPNQJ0jMRjRMMPJ3kQO%OPJ0JPRJQNJNNJ2nJ1OnJ4mJ0MRQM%J4NpJ1mJ6QKJ5
2580H993j%Q%J7oPNRMRKQNMJ0KMMOLMOQOMRMLO%J1QQKPMQ%PJ3JJ0LMO%J4M%RPOMKJ1lJ1MP
2574I311J1kOJ1KOPRO%jJ4OJ3lKQQKPQPLNJ1KLPMQPKMNOJ1QLRKNJ0KOJ0JJ3KNPNQPkJ2OOK
2568I643QJ6%kJ2jJ6%KJ7KRlJ6LMPRJJ4kJ1MLQMQRPLQPMMPPMOOJ0JPOPNQRL%J1QROMLJ1MR
2563A0002MPMOOJ1%J6%QJ0NNjJ4OOKJ0QQMJ3LNJ1LJ1JNOLJ2QjJ4%J1OOPQMJ0MPOONQLJ5LP
2558A0351NQ%J1ROMRKJ6KJ6oJ2J4%J0MRlPKJ9JJ5lK3oJ6%J0kJ0RRROOQLRPJ0KNJ3lJ0PQOJ1
2553A0706KJ3NJ1KPQOOJ8jJ3nPQRRJ1LJ1LJ1PNNJ2J0MOQJJ3ONJ6%J4JOQKK8j3J3J3kJ5J0P
2548A1063NQJJ5NOJ0%J4KPJ1KJ3NQOQJ0MJ4OPKJ7jJ8jLJ4KJ4OPJ2NOJ2jJ2J4MJ0MJ0RNR%J2
2543A1434RJ2lJ8J5jRQJ2jJ4J1KJ4%J0RMJ2QNNJ3NQJ0PJ2OLJ1PPJ1J2MJ2JJ6lJ3QJ1J2OPN
2539A1810PJ3QMJ0QRJ4jJ4NJ5LJ1J2LJ0LRJ3JJ6MROJ0J2OJ7KNJ1J2QPOJ4NJ1PNJ2QJ0OMJ5
2534A2209OJ0PQRJ1J0LJ4ORNROJ8MQJ3J0JJ3QROJ8POMJ3RJ8lMK2j4L8nK1LMQJ1OJ3J2J2NP
2530A2631J0J2PJ2J1POJ1QJ2KJ2J0J1LJ6QRPJ1J3J3MKJ5NJ5ORPJ1JJ9J1J3NQJ6NRRJ4J0NQ
2525A3049J2OJ6JJ6J0RJ0PJ1J6J3jJ0J8%J8OQRJ1PJ3J4KQJ3J4QQJ1J0RQJ2J4POJ5J3J1NPJ1
2521A3481J2J6MJ5KJ3OJ3J1QJ4QJ1QJ2J4RJ2J0RQJ1OJ1J5J3J2%J9J1PJ3MJ5RJ2MJ0J8J4QP
2517A3915J0J6J1LJ1J7OJ1J0J1J5KJ3J7QJ0J2J2J6JJ1J2J2J5PJ5PQJ3QJ9J0J1QJ3J0J5J5L
2514A4339J4PQJ1J3QK3QJ2PJ0J2J8NJ0J1J4J1QJ3J0J7RJ0J0J1J7PJ3J3J3PJ4J0J1J7LJ5J5
2510A4784J3PJ1J1J7RPJ1J6J6J1RRJ3J0J5J4J3PJ4J3J1J3J1J3RJ3J2J5J2J1J3KJ8K0JK6%J2
2506A5242J1J1J9J5J0J1J3J0J4J5J2RJ3J1J4J2J3J2J5J0J3J3J2J7RJ4RJ4J3K2PPJ2J0K2RJ3
2503A5708J3J4QJ6J1J8RJ5J2RJ6J5J4J2J5RJ8MK0J1K0J1PJ2J8J1J7J4OJ7J0J0K0QJ6K0QK2
2499A6214PJ3J4J3J1J5J5J4J2J1J9J1J8J2J6PRJ7K5PNJ6J4K3RJ3J5J6J1J4J4J2J8J3J6QJ3
2495A6710K0J3J5J7NJ9J7MJ9J9J0J7J7J6J3J1J4J5J7J1K0J2J0J5K0J4J9QK1J0J4J3J6J7J7
2492A7225J4J4J8PK3J3QJ9J3J2K6J0J0J6J5K2MK2K2KJ8J3K2J1K3J4J6PJ7J7J3J7J4J2J7J6
2489A7762K1J3J5J8J6J1J3K2J6J4J6J8PJ6K1J6J7J6J5J8J0K5J4K0PJ8J7K0J2J9J9J3J5J8J5
2485A8323J3J1K1K4J2J3K1J0K0OL1RK4J3J7K0OK6J4J9J8J3K2J2J4J6J4K4J5J6K6QJ5J7J0K2
2482A8915J4K8K0J2K2J1J7J4K2K2J7J9J2J8K0J3K0K1J4J7K3J1K3J1K4J4K0K1J2J9J4K3J3K6
2479A9522J6J4K4J4J7J5J9K3J9J5J6J3K7J6J9J3K3J7K0K2J1K6J8J9RK6J8J8J8J9J1L0J1K9
2475B0147K3NJ6K3J7K5K2J4K7J5J9J1K5K2J7K1J8J9J7K2J9J6K6K0J5J6J8K6K0J9K0K4J8K0
2472B0802J9J9J9K3J9K0J8J7K6J6K3J5K5J6K2K4J3K5K2J0K6K0J9K0K2K8J6J6K3K9J5K3J8K5
2469B1493J8K0K6K0K3J4K1K2K1K2K0K0K8J9J8K4K0K2K4K5J7K0J5L2J9K0K2L0J6J9K0K5K2K2
2466B2219J9K2K6K1K1K0K4J7L2NL9K1K0K9J8K0K3K1K0K8K1K4K0K3K6J8K5K3K4K7K2K0K4K2
2462B2984K1K8K0K7J9K3K3K8K3K5K1K6K2K2K7K4K2K6K1K4K4K7J9K8K5J8L3J5K9K4K1K6J8L0
2459B3793K2K1L1L2J6K5K0K6K0L3K7L5K7PJ5J9M1L5K7J4L0K7K4K2K7K6K4K7J8L1K1L6J9L0
2456B4648J9L0K4L2K4K9K2K6L0K0L1K4K4K9K6K8K8K2L0K8K9K7K4K5K6L3K1K7K9K1L2K4L2K5
2453B5549K7K1K7L3K4K8L2L3K1K6L0K5K5L4J9M2J9K1L8K5L2K1L6K6K6L6K5K4L3K6K7L6K6K9
2449B6502K8L0K9L1L1K3L3K8K5L1L0L3K7L1L0L0L1L1K8L1K6L1L0L1K8L0L2L0L2K7L4K7L1L8
2446B7520K1L7K8L1K5L5L1K2L4L9L5K4L0L6L3K5L3L6K5L9K8M1K2L6K6L7K5L6L5K9L0L4L3M0
2443B8591K7L0L6L4L1L1L0L7L2K9L9L3L4L2L6L6K6L4L1L4L5L6L7K8L6M1L0K8L6L8K8M6K4L1
2440B9717M4L1L0L8L5M2L6L3L0L7L2M1L2L7L1L5M3L8K7L9L2L4L4M1N0K6L6L2L1M8L3L3L8M0
2436C0936L4L9L4L8L7L7L9L4M2L2M0L7L8M0L2M2L2M0M1L7L6M0M0L8L4L5M3M1M1L0M8L2M2L7
2433C2218L6N1M9J1M8M9L9L4L9M3M0L6M3M0M1L9M2M1L8L9M4M9L1M4L6M9L6L9M0M9L8M3L5N0
2430C3599L7M2M4M1N0L5L9M7L8M9L8M2M5M1M5M1M9L8M4M4M4M2M7M1M7L7M8M4M6L5M5M7M2N0
2427C5063L7N0N0M0N4L3N5M2M5M5M2N0M1M7M5M8M9M2M8M7M7M8M8M3M6M9M3N2M3N6M4M7M8M9
2423C6636N0M3M5N3M9M6M4N2M5M6N5M5N1M5N2N2N3M7N2M4N3N0M5N6M4N0N5M7N4N1M9N5M6N4
2420C8314M9N3N5M4N6M8N0N9N3M6N6N1N1N3N2N1N8N2N5M7N6O0N0N7M9N3O1N2N6N1N6N6M9N1
2417D0110O6N1N9N2M8O4N4N0O6N2N4N6O0N5N5O1N7N4O0N8N1O2O2N9N6N6N5O3O0N4O0N6N8N9
2414D2053N8O1O0O2O2N1O4O1O2N8O0O2O0O4O1N7N9O6O3O1O0O0O7O1O9N8O4N9O3N9O7O6O4O1
2411D4143N9P3O5N6P6N4P1O3O6O5O5O0P1N7O9P0N3P6O5Q3O0O9N8P4O5O8O3P4O6P1O8O5P3O4
2407D6398P1P1O2P2P3O6P1P1O9P6O3P2O9P0P8O5O9P7P1P2P7P0P5P0P1P6P2P8P1P2P3P6P5P3
2404D8835P7P3P4P9P4P9P9P0P5Q2P2Q0P6P4P6P8P4Q3P8Q4P1P5Q4Q0P9P6Q2P8Q1Q2P8Q4P9Q4
2401E1485Q0Q4P6Q5P9Q4Q3Q2Q2Q3Q3P8Q5Q8Q4Q4Q2Q4Q4Q4Q8Q7Q1Q9Q7Q5Q6Q5Q8Q7Q5R4Q8Q9
2398E4358Q4Q8R5Q2R5R0Q4R1R2Q5Q8R8R3Q7R5R0R0R7R5Q7R7Q8R8Q5R9R7R2R6R9R5Q9J02Q8
2394E7389R8R7R8R6R7R6J04R6R5R4J03J01R2J04R7J00J01J02R9J08R5J07J02R9J02J03R8J05
2392F0178J08J03J07J02J05J03J06J05J04J09J02J04J08J18J04J15R5J15J00J17J04J11J09
2390F2632J11J08J18J04J15J10J13J13J14J11J07J20J11J16J16J15J16J13J15J21J13J14J16
2387F5242J18J24J15J22J16J19J19J21J16J24J15J26J20J20J26J25J16J27J27J20J23J28J28
2385F8037J21J19J43J13J26J36J12J31J34J25J37J22J39J30J27J33J29J36J25J37J36J25J41
2383G1014J32J31J36J36J32J33J42J34J37J39J43J32J38J43J40J41J33J42J41J43J45J43J46
2381G4196J43J47J41J46J46J43J47J46J42J50J43J51J48J54J47J52J54J50J50J50J62J50J46
2379G7604J63J44J61J53J56J58J55J64J55J56J55J62J65J59J57J69J56J66J64J58J72J60J68
2376H1280J62J69J64J68J66J77J64J65J72J73J68J67J73J74J73J74J74J76J76J72J80J78J73
2374H5218J81J81J81J79J84J76J82J84J83J89J82J85J80J90J85J96J89J78J94J85J93J86J99
2372H9480J94J90J95J94J96J93J97K01J97J96K01J95K04K02J97K15J97K04K00K12K05K08K07
2370I4080K12K06K08K12K18K06K15K10K15K15K15K12K16K26K12K19K23K20K24K25K24K27K19
2368I9059K26K30K23K40K29K25K28K32K37K30K42K29K33K40K37K40K37K42K45K35K51K34K54
2365A04478K36K48K53K45K49K53K51K47K53K53K65K50K59K55K61K63K55K64K64K66K66K62
2363A10096K69K70K66K68K74K76K65K77K74K79K73K81K73K84K86K80K81K91K80K89K94K83
2361A16209K93K94K92K93K99K90L05L00K93K93L05L06L18L01L09L10K93L40L00L12L15L12
2359A22882L22L18L18L21L16L30L27L30L27L25L35L24L38L37L30L39L38L46L39L42L50L48
2357A30182L44L48L52L55L51L55L56L64L59L58L62L69L61L72L67L66L77L65L80L79L85L76
2355A38183L79L87L84L83L95L96L84L91M05L94M01M01M04M05M00M16M05M11M17M22M18M26
2353A47007M08M31M20M32M31M28M35M35M39M37M45M43M41M49M49M51M55M55M65M56M58M66
2351A56736M68M70M70M79M70M80M83M82M84M91M89M93M95M95N04M88N11N07N09N15N13N18
2349A67550N18N20N27N27N26N31N35N43N33N41N53N52N47N55N50N62N67N68N71N67N76N74
2347A79593N80N81N90N86N96N95N94O03O10O06O08O16O20O16O26O26O34O29O39O42O43O48
2344A93081O51O58O56O59O68O67O75O78O76O87O86O88O99O92P14P06P08P14P21P24P20P33
2342B08261P35P45P42P40P54P61P56P63P66P79P74P90P81P97P91Q01Q14Q07Q12Q25Q20Q37
2340B25451Q31Q37Q51Q45Q54Q56Q70Q66Q76Q83Q92Q85Q98R04R05R19R15R27R30R41R32R59
2338B45027R49R66R58R77R77R86R85J000J003J015J010J019J037J033J041J046J062J066J071
2336B64228J077J079J090J107J096J121J130J117J147J130J156J150J174J179J178J184J203
2335B83546J209J218J214J240J237J253J260J265J281J279J299J300J313J324J323J344J350
2333C05255J357J372J381J392J400J409J417J435J445J443J470J472J489J493J504J519J530
2331C29783J543J551J566J574J592J596J620J621J641J648J668J677J690J707J717J729J742
2330C57665J749J787J778J798J815J837J848J859J877J888J913J913J941J964J967J984K000
2328C89583K016K045K056K075K087K109K123K150K162K182K198K228K235K258K283K300K324
2327D26414K344K353K385K409K429K448K476K493K518K538K566K585K612K641K665K684K714
2325D69274K740K763K794K820K846K871K906K924K967K991L013L043L081L107L147L179L200
2323E19666L230L279L308L338L377L402L452L476L525L555L595L629L673L708L755L791L836
2322E79595L878L922L961M006M054M094M148M190M241M290M337M387M438M495M543M596M656
2320F51831M713M762M822M878M950M998N063N129N187N255N325N387N458N525N600N670N746
2318G40299N819N896N984O052O131O218O303O390O475O563O664O752O838O941P038P150P237
2317H50750P350P448P564P670P798P905Q029Q142Q272Q401Q521Q669Q791Q938R077R216R377
2315I91918R522R676R835J0006J0170J0339J0517J0696J0874J1073J1263J1457J1666J1878
2314A140890J2085J2312J2533J2767J3002J3254J3502J3768J4027J4297J4576J4887J5159
2313A317059J5482J5798J6117J6457J6801J7157J7530J7902J8298J8713J9110J9564J9978
2311A545966K0462K0941K1429K1937K2460K3026K3581K4154K4798K5407K6062K6760K7455
2310A854438K8203K8956K9763L0597L1452L2360L3292L4286L5302L6377L7490L8668L9883
2309B291067M1170M2521M3928M5414M6966M8606N0324N2144N4052N6056N8211O0453O2829
2308B953741O5354O8030P0872P3889P7098Q0507Q4161Q8050R2208R6664J01450J06571J12090
2306D070685J18027J24436J31367J38871J47008J55852J65485J76007J87512K00113K13979
2305E829342K29249K46148K64838K85625L08801L34722L63796L96585M33638M75719N23702
2304I692165N78694O42019P15301Q00625R00525J018292J158081J325216J526723J771771
2303B0129412K072597K445698K913611L507547M271227N266973O584444Q354245J0766975
2303F6312729J4098632J8733255K5147203L3730576M4115686N3466377N4201835L6307243
2302C46113536J18078l6071285n3965926n3229679m3877167l3489548k4903007j8485334j3846347
2301F8363321j0509714q091318o315159m990530l986852l214334k610653k131962j746998
2300B4765801j433127j173740r56480p72030o13247m74600l51719k41115j39983m5926M3001
2299A8606835J28569K12293K95646L79925M66556N56853O52259P54380Q64935R85903J119589
2298B5023743J268690J436429J626689J844192K094794K385771K726245L127843L605413M178269
2297D9318078M871648N719052O765376Q071632R721906J1833515J4572564J8177308K2993391
2296A52044470K9525434L8508205N0985185O8329260R1962046J22057834J53729063J69923441
2295H77064938J39380415M3214169p9553115j57275531j69035856j44154426j11438742q3157211
2295C15044641o1709062m6155990l4989354k6929281k1041244j6676525j3390957j0880106
2294H3272122q933300p403063o184680n202766m402310l742607l193183k730901k337981k000647
2293C7140684j708051j451574j224274j020515q35591o65595n07159l57339k13481p3199O5844
2292B9149750K05916L49282M98383O55805Q24450J007644J209212J433759J686801J975075
2291C8996077K307037K693153L146848L685332M330961N113206O071263P258124Q746116J0635672
2290I2983789J3067893J6243940K0454095K6121345L3863447M4572228N9478629Q0069336
2289C86854702J07412316J39737405J66535613J61725600R5256344k1816232j25480382j68168486
2288G42056880j58887927j28667826r7664172p2665387n4144520m0790063l1183659k4213542
2288A33839784j9088645j5263817j2365784j0137616q400624p028922n932584n046471m322745
2287D6252576l725915l229155k812108k459073k157836j898772j674275j478239j305673j152561
2286B4358969j015570q91853p79103o75212n78468m87227m00044l15552k32433j49332o4879
2285A8769296K2415J14154K12246L18848M36568N68576P18837Q92288J095321J336155J625676
2284B6110380J978317K413666K958526L650152M541158N706725P255655R346821J2212313
2283G6173713J6185713K1720806K9340261L9321147N0632543N8491901N2141940K1811506
2282C65819530k2039753n2370711n8721756n0864005l9554776k9576580k1960441j6429261
2281G4302247j2460389r600108p514815n972490m814334l931540l249012k714207k289962
2281B1755390j949510j673420j447289j260452j104749r74002q63413p69253o88598o19070
2280A0405634n58844n06393m60505m20170l84574l53027l24966k99915k77488k57311k39153
2279F323288k22723k07838j94306j81993j70713j60429j50968j42278j34273j26881j20050
2277D510836j13733j07847j02396r7313r2566q8146q4010q0135p6504p3092o9875o6866o4016
2276C394337o1333n8790n6410n4127n1975m9936m7998m6157m4415m2735m1161l9633l8189
2275B761478l6809l5491l4209l3016l1832l0746k9665k8649k7640k6702k5780k4905k4054
2274B371980k3226k2450k1666k0939k0226j9527j8861j8210j7574j6970j6371j5798j5226
2273B124936j4688j4151j3636j3129j2633j2146j1689j1211j0769j0332r896r479r057q645
2271A963475q254p862p471p085o716o346n985n626n253m919m578m210l871l553l211k887k525
2270A873123k234j880j565j236r21n98k59K6L96P09J016J345J668J991K320K657K976L320
2268A882854L648L992M337M672N030N390N730O106O473O838P219P604P993Q384Q800R200R620
2266A993890J0048J0489J0930J1390J1846J2327J2814J3313J3826J4354J4888J5443J6019
2265B161577J6593J7206J7832J8455J9135J9788K0519K1244K1981K2773K3579K4405K5279
2264B430366K6184K7094K8088K9079L0144L1223L2384L3560L4808L6092L7464L8813M0392
2262B855691M1983M3519M5231M7128M8953N0940N3107N5299N7657O0138O2779O5513O8512
2261C556450P1615P4990P8528Q2335Q6383R0682R5340J00304J05630J11392J17577J24242
2260D695468J31472J39297J47781J57013J67093J78088J90120K03343K17880K33919K51667
2259F713141K71346K93255L17709L45110L75905M10655M50025M94813N46005O04777O72622
2258A1495363P51350Q43229R51139J078718J230638J412952J633565J902940K235101K649013
2257B6184008L170758L836625M697854N827736P332345R366664J2157023J6028796K1424693
2256A10026502K8854527L8588560M9621120N7286691N1091054K1502528k1275562n0863726
2255B84831694n7058133m9391019l8356359k8619553k1186469j5786701j1910427r114908
2255E3408125p074760n563574m426370l556983k882073k350341j925430j581163j298472j063247
2254B1685712q64884o95348n48405m19232l03971j99521j03324j3281P2473J55523K37327
2253A9003069L19227M02547M88593N78710O74342P77080Q88654J011121J146789J298464J469431
2252B8058027J663738J886254K143077K441741K791794L205334L697938M289832N007509N886327
2251F1071571O973608Q334005J0056671J2266494J5140710J8934033K4016759L0929487M0456817
2250B28180155N3701367P2069780R6862733J27611460J57583295J66788834J24454044K1643808
2249A048895476r4467080j60391696j65163245j38585605j06526143p9407667n8985954m4201849
2248B01166237l3580822k5902139k0281245j6105401j2955196j0542675q668339p192214o014755
2247E9923451n064147m287888l647084l112480k661939k278338j948423j661708j409881j186224
2246C2665339r85236q02358o33757m76153l26582j82513m1445R8879K40787L86627N38867
2245C0482455P00197Q73676J062739J271486J504743J768402K069680K417530K823303L301456
2244D8275667L870588M554917N386511O408176P677985R275480J1311478J3942243J7391408
2244A28094453K1982650K8188526L6699611M8508422O4965160Q7624804J17312111J50959093
2243F84334830J74335047J55430985O5172174o5318147j55577417j74482135j51107298j17461660
2242D15326379q7776258o5118730m8664618l6858841k8351253k2149240j7562429j4118195
2241I4726815j1492909r463025p872249o609865n596343m773740m099290l541045l074834
2240C8203515k682172k348726k063339j817206j603243j415840j250353j103052r70778q50858
2240B2097948p41095o39540n44438m54280l67602k83066j99292j14929k8533O1416J56784
2238A8943373K59479L72002M97101O38604Q00703R89139J211337J476709J797991K192204
2238B9178642K682532L300960M092525N121098O478645Q299054J0777887J4197950J8953051
2237A03082344K5531473L4333190M4981168N4568310N5323443L6980595j16371l7214125n5558746
2236B61911281n4805532m5220409l4574809k5776096j9201225j4450343j1035148q561931
2235D8285788o747774n397291m376644l593834k985053k505459k123048j814715j563557j357065
2234A5821348j185759j042526r21835q19465p32040o56939n92074n35745m86569m43475m05503
2233G999418l71948l42158l15612k91876k70598k51448k34161k18534k04334j91437j79651
2232E127661j68903j59037j49963j41675j34008j26885j20357j14262j08624j03397r8496
2231C702054r3955q9701q5731q1994p8489p5237p2133o9242o6512o3948o1495n9206n7028
2230B747383n4979n3011n1172m9413m7738m6159m4640m3187m1840m0527l9264l8076l6945
2228B160432l5847l4799l3794l2852l1922l1045l0202k9385k8614k7857k7131k6444k5771
2227A764769k5123k4512k3891k3339k2772k2239k1709k1214k0732k0256j9820j9362j8938
2226A480862j8535j8130j7753j7368j7022j6672j6312j5986j5669j5351j5044j4761j4479
2225A267780j4196j3921j3664j3399j3158j2916j2673j2456j2230j1996j1800j1586j1391
2223A102394j1193j0995j0815j0629j0455j0273j0106r943r783r623r467r322r167r025q886
2222I52712q749q619q478q355q226q108p979p866p757p640p524p414p312p208p106p014o897
2220H20460o815o715o632o536o452o353o276o188o108o032n947n872n805n716n649n571n510
2219G16283n427n375n304n231n171n108n037m988m922m862m810m745m688m637m582m533m470
2217F32393m423m376m322m276m222m181m131m073m049m001l944l909l855l821l791l729l704
2216E63586l665l622l578l546l510l467l437l392l372l323l301l258l230l193l160l140l103
2214E06289l065l036l016k983k956k918k875k872k855k803k787k757k722k717k671k654k637
2212D57965k603k582k559k535k510k487k471k437k426k402k371k362k331k314k291k279k256
2211D16749k230k218k197k179k158k134k125k108k081k064k057k028k019k003j980j964j955
2209C81249j934j914j902j885j877j854j842j828j808j796j777j770j764j736j724j715j699
2207C50424j685j670j663j649j646j618j611j596j583j574j559j555j536j526j514j506j491
2206C23442j482j468j469j445j440j427j413j409j394j392j378j365j360j340j344j323j321
2204B99672j306j307j291j283j272j262j262j238j246j236j215j216j205j200j184j181j179
2203B78589j158j158j148j142j138j118j121j118j104j093j082j084j081j064j058j053j061
2201B59808j034j035j032j019j011j003j004j001r85r89r73r69r64r57r48r54r40r36r27r26
2199B40201r19r06r10r01q93q97q70q94q71q67q64q52q57q56q36q41q32q21q37q12q14q07
2197B21244q11q00p92p95p90p74p73p77p66p64p54p61p59p37p48p32p30p37p17p24p16p19
2195B04568p08p10o97p04o89o84o91o82o82o75o72o71o57o63o54o60o52o47o38o43o37o28
2193A89824o27o34o13o31o12o15o11o03o06o00n99n96n86n98n85n76n74n78n80n68n73n62
2191A76697n55n65n57n57n36n58n41n45n36n36n44n31n24n24n22n31n18n18n09n09n02n12
2189A64967n05n07m84n07m89m88m90m92m80m90m72m75m72m80m72m70m66m60m61m61m56m57
2186A54433m51m59m46m49m42m42m42m40m35m35m32m31m32m25m25m25m19m23m17m17m06m16
2184A44924m13m06m02m12m02l96l99l96l99l98l82l92l95l80l88l78l93l74l83l75l73l71
2182A36317l73l77l67l67l56l66l63l68l57l56l56l57l49l57l53l42l47l45l45l42l42l47
2180A28485l35l37l37l30l32l33l33l32l23l27l31l13l24l31l14l20l20l12l13l15l15l09
2178A21349l07l11l08l10k96l03l05l06k96k94l00k99k92k90k90k97k88k93k85k92k83k84
2176A14820k86k81k82k77k79k80k75k72k73k83k66k74k72k69k68k66k68k63k64k67k62k58
2174A08835k67k56k61k60k51k62k48k60k54k46k49k47k53k49k49k46k47k40k48k40k43k38
2172A03321k49k35k29k46k38k37k34k39k25k32k29k34k30k29k23k33k21k24k30k22k31k15
2170I8236k23k19k28k17k21k09k18k25k13k11k11k11k14k11k13k12k07k15k06k00k12k08k07
2168I3325k00k06k05j96k05k04j98j93k05j99j95j99j92j96k02j86j96j93j89j95j90j97j79
2165H8805j93j94j82k00j73j98j89j83j82j88j69j76j92j75j86j82j78j75j74j84j81j74j76
2163H4601j69j81j73j77j70j69j70j75j71j68j71j66j74j65j70j66j66j72j60j65j65j63j62
2161H0713j58j68j61j65j58j65j55j56j62j58j57j56j58j56j58j48j59j51j52j58j54j49j54
2159G7097j51j55j51j49j50j47j43j58j36j55j47j51j44j40j43j50j41j47j39j50j42j38j46
2157G3724j41j38j40j40j41j36j45j35j33j44j33j33j42j36j36j30j36j35j29j36j31j37j33
2154G0584j33j33j24j31j35j30j28j28j31j27j29j27j27j32j26j20j25j31j30j23j19j22j29
2152F7644j21j16j29j21j19j21j27j23j17j16j24j19j16j21j24j13j18j20j13j25j10j16j20
2150F4895j13j18j11j14j13j14j12j16j19j10j11j14j08j19j00j14j10j11j07j16j04j14j03
2148F2324j08j12j10j09j09j06j00j06j14j05j09j02r9j07j09r7j08j02j01j04j02j07j02
2146E9896r7j08j02j03r7j05j00r7r4j10r7r4j01r7r9r8r3j05r4r2j01r5r4r4j00r7r6r3r5
2143E7048j03q6r5r2r6q9r8q2j02q6r7r0r0r0q9r4r8q8q5r7q2q6j01r3p0r7r1r8p8q9p2r7
2140E4147r3r5q0q1q8q5q5q3r4q1q8p8r5p6q4q5q7q5p8q8p9q5q1q5p9q0q2q3q4q0p5q3q4p7
2137E1301p9p8q0q5p6p6q4p6p7p7q2p5p5q2q1p3p6p7p8p2q0p2q1p3p5q4o3q0o7p9p9o8q4p1
2133D8686p2p3p9o7p6p9o2p4p5p3o9p3p2p0p6o9o9p1p5p0o8p1o7p1p2o6o9p1p0p2o4p0o2p2
2130D6277o9o5p5o3o6o4p4o8n9p3o6o1o7p1o8o2o5n7q1o4o1o7o2o4n8o8o8o5n9o9n6o6o5o0
2127D4051o9o2n6o4o7o3o1o0o2o6n9o1o5o2n5o9n6o2o1o3n5o1o4n2o5n7o2n9n5o3o0n6o1n5
2124D1983n7n6o4n6n2o7n7n2o2n9n6m9o5n1o4n7n5n5o1n1n9m8n7o1n2n9n5n3n9n2n7n5m8n7
2120D0065n5n3n3n4n2n8n2n2n6n3n2n4n4n0n6n8m3n6n1n2n7m5n7n2m6n1o1m8n5m3n2n4n3n0
2117C8277m6m9n6m9n5m8m6m8n4m6m5o0m6n4l7n9m3m2n6n2n2m7m7m2n3m5n1m6m7n1m5n0m5m5
2114C6620m7m9m8m4n0m3n1m6m6m1n3m7l8n3m0m5n0m4m9m4m6m2n3l7m8m1m7m2m8m4m1m5m6m9
2111C5063m5m1m3m0n0l7n4l6l7n3l5m4m1m1n5m2m4m3m0m0m7l7m2m5m4m3m2m1l9m3m3l7m4m0
2107C3615m0m4m0m2m0m0m4l8l8m7l4m1m4l7m0l8l8m1m4l6m5l5m2m0l8m2l6l8l8m5l6l8m3l5
2104C2258l8l1m9m0k9m6m4l3l9l5m5l7l1m2l7l1m5l1m2l6l7l6m1l4m1l2m3l1m2l5l5l8l7l0
2101C0985l4m4l6m0l2l9k8l4l9l6l8m6k2l3m0l0l8l5l5l2m2l2l2l8l3l4m2l1k4l2m4k7m7l0
2098B9786l2l6l2l3m1k6m1l2l3m0k3l8l1l1m0l0l0l2m1k8l4k9l4l5l4l0l4l0l1l3l4l6l0l4
2094B8658k9l6k5l4l7l1k9l5k4l5k0m4l3k6l6l2k9l3k4l9k8l5k7l3k1l4l5l2k7k6l1m7k1l4
2091B7596l4k2k5l4l3l3k5l2k7l3l1k1l0l5l0k4k9l6k6l0l0k5l2k8l0l4l0k2l0l1k6l5j9l2
2088B6602k7l3k4l4k1l6k8k3l2k6l2k4k4l3k7k6l1l0k5k4l2k9k6k4k3k9l0k8k8k3l0k1k9l6
2085B5654l0k2l0k5k7k4k6k6k6l1k3k4k6k7l3k5k3k6k8l1j9l3k3k1l0k3k3l4j7k6k9k2k7k7
2081B4767k2l1k9k3k8k6k1k7k4k3k5k5k5l0j8k6k2l2k1k6k4k2k3l0k7k1k3k0l4k3j8l2k0k2
2078B3924k7j3l5k3k3k5k5j7k8k4k6k6j8k3k9k5k1k4k1k6k2k6j7k8k0j9l4j4k7k0k4k7k2k7
2075B3118j7k3k0k7k1k6j9k7k7k1j5k6k6j4k5k5j7k9j6k5k4j9k4j9k5k3j1l1j8k4k4j2k7k3
2072B2368k0k4k0k0k4j9k3k8j7k0k3k2k2j6k7j9k2k0k5k0j2l0k2j5k4j6k4k4j7k1k4j9j8j7
2068B1654l1j9j5l0j0k1k0k4%m2j1l1j9rj6l9qj3m2ol0j5j7k2j2l1j6k0k1j2k6j6k3j6k3k1
2065B0927j6k4j4k2k2k1j9j7k3j4k2j9j9k0j4k3k1k3j1k3j5k2j5k3j8j8k1j4k4j7j6j9k0k1
2062B0277j7j9k2j5j6j7k1j6k0k1j7j0j8j8k1k8j4k3j1k0k2j8j4j7j5k1j4j7j8j9j9k2j5k0
2059A9662j8j6j9j5j9j9j8j4j6k0j4j8j8k4qk3j3k0k1j7j7k1rk3j7j6j6j4k1k2j0j9j6j9j1
2055A9061j8j6j0k3j3k4j5j2j0j7k1j9k3j4j1j8j6k3j1j4k1j6qk4j3j8k2pk2j9rk0j6j9j6
2052A8483j6j3j1k0j8ol1qk0j5mk4j5j5j9j5j4k0rj8k1j0k5jj9k1qk9jk2j7j2j2k0j1j6j8
2048A7909j2j1k1j5j5rk1k0j3qk5pk5lk2j2j7j1j5j1k2j2j7j4j1j8j6j3j9j0j3j7rk2j4j5
2045A7374rk0j4j2j7j4j8mk2rj8j3j3j4rj1k6%l2j4jk1lk7lk7kk6j0j1j2j0k4j8qj6j7j1q
2041A6830j8j9rj0j9qql0kj7j2j4j7qj5j9mk2qj7j1j0j9j4j1j2j8j2j0j4j5j0j6j3j0j5j3
2038A6331rj9j1j3j3j6j1j7nj6j0j9ok2kml1lj2j4j9j2j3j8prj7j1j4j4j4rj7j1j9mj2j7r
2034A5832j5oj1j8j0j4j1j7rj0j3j6qj5j2j5j1qj7j0j3j1j5j0j4pj9j0j1j1j2j1j2j5j2pj2
2030A5384j0j4mk2rj3j3qj6j1j4j0j0j3j0j5j1j1j2qj4j3j4j0j0j4qj4j1qj2qj5j3rj6oj2
2027A4943j3j4j2qj2j3j5j1qj2rj2j1j7pnj5j2rj4j6nlk3mj1j3j0j0j1j1pj7nj2j6j5pqj4
2023A4496j1j2oj3j1j0nj7j3jj6j6ppj3qj2qj4j5kj3j0j5j2lk1kqj4j2j1rj1j1rrj3j0j2q
2019A4066j4prpj9Nk0nnk7opj0j1oj5lj8j2qnj2j3rpj1j1j6krj2j5Jj2j5j0qj2mj5kk0mj2
2015A3627rrpj5j2roqj1pj2j2ropj7nqj2j5j0lj2lk3Nj9rj0mj1j4Jj4oj7kj3j2j2lj3roj1
2011A3201pj3j1lj6mj4Jj2j1j0j3pKj4j1j4kj6rqoj1j0j6Jj4oj0qrj0j0oj0roj2j2pnpj0j5
2006A2801qoj2qnmj2mj7j2olj1rj0rpj1mj2j1mj4kj3qmj3nj1j1pj0%j7jj4j0roj0lj3mj2p
2002A2412j3kj5oorrmj1j1mj3oqj1nj2qlj2j1kj3kj3mj6onj2lnpj6mj4mmj0pj1pj3lkj1rj1
1997A2019nprpqqnj3rooj4kj2rNk1Kj4j0ppj1krpj0mrj3lj0jj6mrqoj8%mlj6lqj0nj4%ror
1992A1620j1knj5kroroproqnj3rmkj4kj1pj4kprkj2kj0kj2opj1mj1nopj5klqropoj2mq%j7
1987A1232Kj4qj0Jj0j0mkj4qnpmj2llj0rnmrnj0noj1nlj3Jj4ornj0lqoonqoj3jrpnnnqj0n
1982A0873nq%j5pNk2koooqj0nj0jj0lpmj2mkj3krj2Lj2pmoonj1n%j1lj0j2lnjqj2qmppkkq
1977A0533j3oJj4omloj4Jj1jnj3qLj2jmj1oj2%j1rkj1lmlqrqrJlqrnj1klj2mlmj3Kj0pkj1
1972A0207jj6Oqj7Lj1nlj0lkj4o%oj2%%j2j2kqkpomj3Mj4mj3J2j2Kk2JnpMj7Lj1pqoJrooJ
1967I917j1okj4%mrrooJpqmj2Jj1okmonj2Lpnqonpp%prmJj0j0jkj7NrnqPj4oqkmrmokmj6n
1962I584jlmpnkj2lkrnkopmro%roj2Jqknnj1Mj0kmommrrjqmmnnmj0lnpOj9Lo%j2onNj4kj1
1956I279LrNk2Jnj2Jpkmqnnnokoklpnj1nmrNnj0rKj7Pj0Mpj2jlj0Jpkoj3Qj0j0Kj1mJj0jo
1951I011rJj3%jopJj1pKjj3oMj5l%popnmqjkjj3Lj0joj3Kj1NlrqlmqmKqoollmojj0qJk%pj4
1945H728Qj9Mj1L%j7Mj0lnmLmj3l%j2KoJj2mlopklollmpkqmppKrJlj0JpkoqmKj1o%lnokoo
1940H470Jkj1oj%k0JLjj5%njlrmlnlk%j0o%ppJrjopJqmKj0kpllmrJj0kKj1%jnolqKnpmjqo
1934H213lJnpmm%rkopmmjjpnjnJj0jpp%Kj0mlqlmKoj0lmlknolknmnmj0JJnnrj%j0mJmp%%o
1928G967nlpmKj0jKj6JqlMj3nKrKjpkkmoqjJj1LnnoqNjj3Kq%nomkqLnmnplOj0mkqknllmoj
1922G731jnmp%mnJmj1mJpjn%j6J0j3JmlmQj2j0klkNpkpqJnJj1Kkojol%p%j2%jokmpjmjrlP
1916G526j0mnJmkj0JnojjnkpNj9LMj0qNplplkjnJrKojnnJlqlm%mkklqo%oMj5NnkKnoj0oLn
1910G307Jllp%rMnpOj0%lr%%qLoqKj2NloklpknmOrl%pjmnjpLqkmnoRj3knnMnlkj3kjqlOkJ1
1904G119rj0oKnokkjlnojnkLqnjoPk1MNrKoKnojjj1Kjkmr%kmLonmnj%ojpm%pJKj0KqKnQk1
1898F909kllOlpmoMlpkljonjoqrJ4opj0PJlj2OpQrnnNj4LoLkpjknkJo%kkj0%jokjnmoMpJm
1892F734JonlmojKrkJklmopNkJoj0MlpnPomp%loL%nnmJjj0JOpmmknmPolonk%pKlnkpLp%lk
1886F552kojkmm%kkKpmLrklj%nlMj2lkk%jqkm%jpqPnmkkPnj3%KooJOrmlmNnn%rMlkrK%okj0
1880F374LLn%o%kj0Pkj2nlJ3Llk3J4qrMlrNlnokj0Qj1JKjnqNKno%on%kLrJpLmln%ojnNjj0
1874F230Oj0%pKlJrkMloJkoOj8J6Qj4Qk8J1k9J4Qqnj4KnK1j2kj3J6k2J1qLnkmjqlLp%Jjkl
1869F110knLj2JlNnlml%%njj0LnLm%mmmjmNj5MQj2j0POj5Rj1J2pk0J4qMj3J0lrnMOrlq%%l
1864E984j0Jk%lkjpK%koklQqnjkkJnlp%Jo%lJjo%MorLkKj1JKrmPj0Oomkjj3RQk4OMlrMjnk
1858E846okMpKmoMoJknmNljljnKq%%ml%KokmjKKqkjo%j2J4Pj1Mj1okrPJrrN%pKjlKpJj8K9
1852E737j9LqpL%pnJOplnJnlLJojklJ%kj1JJkLo%nloMmJ2j3nloJJ7%pllMj1j6J5qoJMk0J9
1846E617j0jp%jJj5QpLj0kJnPnJ%qJpJLjnllmJkKlqPnJpKjj2M%l%mmQpj1N%j4J0llpOjjj0
1840E489Qj3kMJkj6J1j%rNpnMn%klLmjlJo%nKmNqoKoNrLMj3KMo%nkJLrJjpLmjKn%%kqJ%kq
1834E374jKqNkoNqLjkljljnNrlJ0rJpJJplQj1Mmjk%JrMnpKKn%%rM%okJlMnLj2J0nloKJnlK
1828E273njj2QlLj0NqMJklllpj%kNnkj%%mKjnlOplKoOrkllMllkmKLrjkNj0%NKNqpMlnlpMk
1822E166LqjMonMrJMmljnmlL%JrOj1Km%LljjLnJoJJqJkJm%lkLoJn%%mlkQj4lJ2j0KJJomnO
1816E069qLk%knLllpLjjjnnMjJoKj2RokMnlLjllmJ%nOrJJllLnkJo%jKkj0Nk%nPmlpJMr%jm
1810D963MoK%pLkojKKkn%pMKolkOj3JLoLomNLnm%%PrjlkjJpLJl%oMrMJoNqL%noKjoMqLJkj
1803D873kn%Km%KmjlKj0Jj%K%ko%kLl%ok%k%JLkq%mkoPJolPlqjnPp%J0rNqLj1Ll%kjmMNmq
1797D783lKjnJLjokjjllKOrjkmKnOjJmjplkL%%m%m%%Jn%jlPr%JlrMKNm%qJoJjoNmJKnKnko
1791D691MKKplJjlmMLqJkmLoOl%nkLmoKJjl%kJl%rPlmjL%ojlNpNLj0oO%mk%pKnOl%k%nk%N
1784D619pjMk%mmNmJlJlpM%Lj1MmJq%Ok%%rPkkj1Rkmj1RkmJJnlJ1mlrMKnLolKkLpMnLmJpO
1778D544jnNom%%KkJqKMpJ%MrKoNj1jNJlLjnjmkPkoNj1jpLjRj8J1mMklnPj0OrOkjlkMlpPn
1772D470%OpJkqPnkKk%kNrKOkoljjl%L%qMnkJnMJkqJ3popRmNqlOnqPmLklkLkLljkmkNnLrJ
1766D400kMkoJKLj0KKjlLkMq%jkl%jNrkK%mjnNjpP%njlNJojPj5nJ1lknQj2MkMJjn%n%JMrJ
1760D337kK%p%LKqJKnj%J%pMJlKpLkm%KnjJoMnKjJ1j5NqkKKkKokMLpJoJmjLJjJpKm%NoLll
1753D272lkOkmLmNolLJkpLkJrKOmqOKpK%pJ1j2NpJOmj2NJ2k1KJ1j0RmJKoJpkPj1OpRrjOqK
1748D217klLKrJOj0LLKjmjJ%mlkJjnMLmpLkmOjJjqKJLpJLjo%pNKllKjJJj1LLpQmjLnl%%oJ
1741D158%JlkMnNnLm%%j%jKqOqKLnjJpPnkkPnpKJNqKlJLkmKJj0KQj2%Ojnj%kJJpjO%lm%lL
1735D106KrNkjMJrJJ%oL%rOoRqkNjpMkKmNj0%kMPj0LkolPkjj%Kkj0OlKJmmKlMoJjNnoMkJl
1729D051kNlk%%nKmMoNnJ%kJj%MrMqQmkj%qRpKkJ2j2MoJ1j3QknmjjNnLkLok%JmK%lmJJkLn
1723D002%Mj0Kj%JkKokQpKpOrOJMp%jJjlLmkKMjlOoo%KJlljKmoJ0j2QpJ3j5LJJKjmMrJkJ%
1717C958jKLj2Pm%j%Mj2J0ojjJLljkNqlJNmmLlkJjOpMkn%MKknl%JKjl%pNJlkLqLMJrM%jKn
1710C913MMj1%OomRpKloL%Pj1NmNlJp%OllmkOrMJlPmj0LRlmmLMpkJLJkmjPpk%%kjkKnL%%k
1704C871JpOJm%k%LJnJljJkMj2J5mmmLkm%%nO%rkJ9k0J3pKklKjlnkJLOnkk%JKjlJkjJlJJl
1698C831%%j0OoNkJKlJ%JjkkpKMj%l%KoLNko%OokQnlo%MlJlQprMjJNkmNlKKmkJlKrRrMkPr
1692C789KmjjjKjjKkLnNrMJjnLJlklK%KnMjoMkLjLjo%mOjoMjJm%oOlLmjLLmKk%lmN%nJJMj1
1685C749jLJJkjLpj%KlkKLlmkOjrOjkLnQNj1%KnKLqjKK%ljj%jKJojJjKJlJ%%%jKmJJjkpKM
1679C720MpKLpoLLrOoMqQljLlkLkplJ1rJ7Pj7rNJ4j7Q%plKQojjJmllPmj%MkjJn%Nkk%J%mj
1673C684MJl%l%p%OkKmLjnkO%kmLm%%KLj2NKQj7J0o%QqLmlMjpRq%Nk%jjLrOmKlMJlnjOoKK
1667C656JkJkkkmLMnLlKnLkOJolLmKKpQnK%lmjJLrOkJ0j1N%Lj4LKj%J%LmJnk%NlmKKJlmJQ
1661C632pjK%lL%mjMknNqLJkMlLj3OKKj7J5OrlQj1MjqRj2PjRqLnm%QjqMjMk%koJ3nJkJqNm
1655C597jOj0NNj0Qj0NkJnQj1J1j0P%KklJ6j3JJkj3J3j1JmJ7j6jJ7j2oOnKkLoKokRkkLl%J
1650C577nLjJoKJ2qkLlNmkMJnlJMpOmjjKpOKoNlkkLLn%Rj9K0j4MnRqpRJljoNLp%K%LoPmKn
1643C552%%%kpNNlNllKjlJKl%LpJjM%jkjJNmlkPoLjlLLqPlp%NMj2JjJLm%Qj1MlMJqPjllLj
1637C529JKnKKqPkjrOJmL%%nLKkKJJnLJkmLKmMljKmJ%%l%nJ1onJjNkJlQrkK%Qj5LJjkNjnN
1631C509KkJnMjNj1LmKLmKnKkjlNlK%LjKlMrMkNmmJ2j2nJ0%j1J2Kj2L%NnjoRpNpOKpnJ1p%
1625C486KKnJJJKkk%Mp%KjjJ%mOlJm%%Jm%%Lj%LpKPnMmj0J5j6RoJ3lj2P%jjoLNoRq%Nn%Nm
1619C472%J%jo%PnLmOjolOn%%JKkKjnN%l%%qRkjMoKQrRp%KnlKMlkkmJ1loLOmjjKjlQpKkj%
1613C454JKn%KpM%LrQnOq%LkoQ%kKkkMjl%KJkn%N%KpPmmKJNnj%mPNpjMlmMjmkRnl%KkjOkj
1606C439jjoLLlLJJojm%%MkLjkJ%jjjMKmlOMKj0lQj6J1N%rOpjlPL%oPmLoM%m%j%JKmjjOlj
1600C422LnkPkkMlnKKnN%%n%J%lLkKMmjjkOkNolpJ3LomKj3RJJqLMMoOqNJJlLlk%Po%JLoLn
1594C406NKloNm%lMjOnJlLk%%Mj0RlpN%Jk%Rj1NlNqPnjkJnJ2rMLjm%jMlJLk%lJPqKMn%LoQ
1588C404mjmLlJkLjJmMoJJJOokkPjJnrJ3oNnOrM%k%lQmJnO%nMKolNjKJoJJkK%KJkMjn%JJ%
1581C388Kl%JKrNljJ0qKm%MrRj1PMlRmjj0J2Rk0%MLj1J2rJmKRlqQ%jm%KKlKmKJqOOnKLklm
1575C374MNrQpJjkJlKjJ0mjJrRmJ%KLnpQkJmQoKjJmLlQlnJkNjl%KmJ%KLo%%jJKmMjlKJlMq
1569C363J0oJlLnLlOlNjkkQn%jkOokMmNoQjMj1NKokJmOjlJ0nnOnkMkLjKjkkkM%k%lOJkn%J
1563C359mJ0Jm%JmQj0MJJj%NnlN%nJkJKoQpLJmK%KmKjjOKqOmkNkKljKnQrkMJLkLnNnkLkkO
1556C358kOplPMp%%MnLK%qOJlKOj5OOjjnJnkPKnJlLmQj0QpKLMnk%KkLnJMJlOlpM%LlNmLjm
1550C350jnRmL%J%mRkK%%jkj0RJnKmPMj4LRpK%njLmJ0pJJlJLpNKJqOmMJljNpMjlMkjKNmkm
1544C343NKlNkJkLjLnJkOloJ0mnMnNjmJOrQl%KoKJMpJkKKkLMllJkLjjJJpRmkjLmNojKjQjL
1538C351knKLKlLjoKLpJOmKnMk%OmlkJ%%oJ3oRolKmJ%%K%jJNp%%KMllKJkMklMjlj%NJRj4L
1531C345MjjKPq%Oj0M%lJ%KqnRNqRrMmJJOmKlKq%LOoJK%%%lJL%JjlJJMoQkMmjjJkMknOmNl
1525C346L%LjJj0PnkOnRrJRqkPmmOqPNqMjJpjKJ0j2J2l%mkMLpPlKlJK%qQlKJKoJM%KpOmKK
1519C351kjjMpJ1kj2ORj4OjjLpPMqQoQq%nJ1JkkpP%JL%%j1%QkkkJ1j1kKnJ7joJPj0j4J9nJ
1513C349LoLOq%PkjlNJk%lKKojMlPj0Rjm%OjoLKNrO%jJj%Kj%MpJjLJkMmMkrJ1MrPjj7lJ8J
1507C357nQlMmmOkPp%OoJjjjrJ6j1mJ1pNlLmKOnmMOjlk%JL%%jLnnNkMPrJ%Mlj%JLkMrJNLm
1501C359%mRpR%o%KO%rqJ6r%JNnLJnNqMkNLoN%j%OrlOJkJJjoLlLJMpRjkMqKKlOoPqQ%nlMN
1495C369o%LlLkLjMjnjJ6j8R%klnO%lQMoLpMJMkmjPnP%jqN%j%nJ1p%LmQj2J3%rJ1j4J0rKJ3
1489C382jj2JMknJ4j9J0Pj5J0mKlJJ5pj1NNnqJ0%JOJmmK%JjjJ0qLlLLoJMnkPK%mlkMJnMMj
1483C382OloMOlj2J0JQj9jJ4o%J0j5jJ3j5K4j8QLJ3j2%LnJ4j1Lk1QpJ6j0jNMj5J4pN%NKnj
1479C387J%JjJQj0Jj%NqPMqMMj3J1k%%lJNlMJmMKmjkJNknM%%RKKk1nJ8Rlk8K7jj5OmKnMJ1
1473C402%jJkRj2Lk%N%jkJmNoRJrOmJKnKLmLNn%QnpOJJjk%JMm%jJJJ4k0J1j6J9kmp%JJ5j6
1467C399lPKQoJJmPjkkLmRnJ%lQrRJlKo%MJj2J3joMnMkQ%j1NpOj1J7k4L2pj0J2rPJnJ0%j0
1462C414J2oKqpLJ1NpMM%qJMKMlj0RlKo%NlOolRlMpNJ4j6rJ4kj%lJ2oqjJ2j7J8KrNj9%K9K3
1457C464m2M9m6jRpjJ2JMj1j0MQQj0JjpjOLJ2mpNmKjJ0nrRlqONoLOlnRm%J%KjjkOjjKlkPo
1451C441%PKqNjPkOrJ1Kj4OmmQLj4Q%%Mj5J5%lnLNMkLjmjjNonJ4mj%oNKkjNjK%jLqRJmJ%J
1445C461%Lj1RjlOq%%NOojlQmJjLlOmJMkk%JPqOJmLjNJqOknOJkKlNKkpMMmjNlLKLpPjj4J0
1439C476mmMRonQ%jjLPp%MjmlLMj%KlMlNoPjnMl%LN%nMMq%jJLLJnJjMLJoNK%oQmj%jL%j0J0
1433C495%Qj3J2MqljJ6j0%NqPj2KNKl%JJmOjPolLLlNoKJjLJlJkKOjmnOjOlNl%kNmM%%kLkl
1427C510NkPnqJ0jmOPmj1J0mOo%QplQj%lLM%jlM%jKjLJLqLKKnLkLjmNKj%j%JrJ6mKkMj3QN
1420C538oLKoKKKj4J1PmoMMKJoLLKk%MmJjKMpM%%KJkOlRjj2LPolNNnmJKLk%OmmO%oONj5OP
1414C558llMMk%LmlMPoJkMnKRmjlkMMlkNj%KJJl%OMm%OqmMKqQLmQoMlJjQj0jMMjmKJLJnKJ2
1408C590krJ1nJkJNqmMLjJ%LmMoKOpP%%%kkRlJ%jJJ%kLKl%KjJJpNLmN%JmOjjOoPqN%LlJ0n
1402C609kN%nOpOoNnOoLRj2MLkMlL%KJklMjj%JLKqPjOoMlLJk%JNokLLk%L%j%mQlM%j%%JoJ
1395C626J1JkLqJMNoOjljOkNjLmkKLKoOllMJMJjrQqPjL%%%KMokQJjkJkKJn%JLlMNkkjjOlN
1389C664JJpPk%JLjnJPl%MLmKM%kKlkJJPkljLKmkJMKmKK%L%lNj%NnNnJjOj3J4qMj3J2kJ4p
1383C691Mj2MlJ0NjlLjLpJKlOLmNmJMnMMpOJjoJOJJmkOnjLL%kK%LkLJJkMnMJ%LLMlLqP%oL
1377C723JnlJ0kkN%%kKJjNkjPnJLpNJlPmkkKMkNKoJkKJJKmNkJ%mKPkkQllKPoJ2rnPMJlKMp
1370C752%MOLmjoMJKlNjkNjKKklLL%L%JmlKMoNJlKkLjLNnkK%kNlQmmkROqOqJ0qJ0kjLKoPj
1364C791jRmjJLLojRrJ%MNmNpjLjRoKKnNKpKMpJ1qNklN%jLKoNkLRqQmnpJ4k5L0j2LLPnQrQ
1358C827jKJoLKmJ0pMMm%JLLnMnKJLJMj1PKnMK%LlPpJJ%Mk%JOoJKJMoMjkO%Pj0%J0j1K%JK
1352C857QljpKMLnJ2oMkKnPmJ2pnQjj%LKnnRmLM%jkPljLJjnOJKnLLlQlPnkMK%nMjLpRkkNl
1346C896QpKJK%mKOnLKJlJ0mjJ%JnRLkoLLjJKLmMl%JJJnRJ%nJMKLrLKlMKNKj0QMj2J2jJJp
1340C933MPlKkKj%J1j0%NkmJ1kLjJmJKLkM%J%pOjNKoKKMl%Mj%lQMmOolOj1OJ5olqOnJ7j0M
1334C979jkNjQj0QlMJ%Nn%j%JPoQkL%lLjoOM%kkRjjOmKlN%l%JKJNjkNmJLKkJPpKLj0J1mKK
1328D025J%LjmN%kJkRpMKmKOjjKOjklL%jQ%lnQJKkKJjNjojMM%LmQ%oOlLPj0LjmPLJllRKjl
1321D070LKjKlnQKlJ%LnRmM%LljjOmjQ%Nj4MJ3l%Oj%k%mPjNjmjJ1olRkpJ1rOJjkPkLjNlNl
1315D118Lk%NoM%KnOjj%OMoPNpOqLj%LmJ1nnJ5j0NjKjJOj2QN%lJP%JNmPrmMJ6j3jK%OLoOp
1309D161OKKqJ1mLmKPkkKLJkjQJnLJ%%oOL%LoPjJJ%%KjLjKkKMPq%NMkkPJrJ6j1jKPL%mLjN
1303D224%klRpOpPKJrRkkL%KOpRlKoKMRj1K%OmKKJnO%Mo%L%PMmMjkOpJ3noJ0jj0J5qQmKOO
1297D280mjjLJLkoPJKnMJKlL%JkMjKlOJJlLkNmRmOl%jLnPoQJjLl%OLKmjPjLoJJMJlPKmjMK
1291D330LJljOmNnQmLKLlKJJL%jJmNMLrNKKKlMKkNlLl%KNm%QnJ1Mj1RLj9MJJ9%lknJ0j2QJ
1285D385jjOlJPLlLnRnOlkjMPjJJKlkM%OnM%KlLLK%%mMlJMPpLO%kMmR%lpJRnQjJN%%lN%%J
1278D450k%MkQlKkNlKjPj%JLKmkRnNLjJo%PKjNJoLJL%NjjLlMJ%mNKJjQpnQP%rJ1kMkKMoJP
1272D517rJ4mKlLoQlMlLL%LKKJnPkMlJNMkkOmjOO%LknJ2qMOoMoNpOMKoJKOKjJNmNOj7J0Jj
1266D576jJ0nLkOjN%kJLkK%LLjNj%LrJ0KKklJ1Kj5J5k%%MlkNnKJ8k4J5olJ4%rJ6j3QjlJ3L
1260D645Pj2kNmMKKKLMoRm%%O%OmmKLNlPklPjjkPjLKjLkKNmLKlNlkOOlKLrNjRKPj3OrJ0Pp
1254D708L%PjkLJlMPnMKnLM%Pln%RmN%NKjlK%kOMnQ%jMLk%OlKlkLQj0Rm%RkNlKjOnP%JjmJ4
1248D793rNKJ%LKjMnKNkLMjJJM%K%MmOlLoKPjLmMLOkJOoMmKlJ1Mj1J1%n%Rj%rJ0NnLjRljQ
1242D866oMKNnM%KJ%KNnPkPk%MlOlNlJLkMKOnQmlPMllQmMjLj1J7Kj0J4JqMNo%jLR%LlJ5j2
1236D938MKlLKjK%LKLnLOlOmOlRl%LjQoKKJKPlKMoMQljKJKmP%jPMj0J3mnMNolJ4j0RKKjOj
1230E023KKoQ%MJK%oQk%LJMlRmMJNmjRk%K%OmLLKlLNKJnPKjOnMmJ1j1J0%jM%JmNKmJPNlLl
1223E105J2j1QlMNlj%OJJJPjjKJLkNlMRnOpLLLJmJ1njJ0kRj6J5kNKJqRKMkLpJ0lMkNojO%K
1218E192MnLKkKMOKnPjJKKJ%LJMJlOKjLJjQj0J2O%%qPLlJ1pOmMKMjQj1QOmR%j4PJ1klkKOP
1212E289jmJ0rNK%%OmPkOj%LKMjL%LM%jKkK%KM%OLmJJPoOLLkOoQlQJ%JLJKJlJOlkQpQ%MjK
1205E382PkMnMKJNKl%NMkLMJjNkO%KJJKjLJMljOjOnRJKKKpRjLL%nJ5rLMLlOLjMlJ%Ol%J3q
1199E484NpJ0klPK%jNOlN%Mj%kJ2mLPkKMljQmOJKLKJMnRojQ%QnlMNPkLjJ0nOkPpnJ2JKjMM
1193E597kqJ0lJMJMlMPmJLLMlJKMNKJLKkJPJLJ%LQoMrJ3JkLPkJmjJ6Oj5J0KMj1J7mLmjMMN
1187E699jjNNjL%kLMKJjNmQ%nRkP%KnJ1%jQlJJMMKnPJKK%MKjJL%OLJLlMkLPqNNNkJMLkMMJ
1181E816PpLLkPkLMjLjPJJK%LMKlRjJKKJK%jK%O%MJKLMkLLnQKlOoKJ0lNOlJLMKPoJPJnJ2q
1174E929NKjPJML%JMKLjKLKL%LPnMNmNjMlNjKLJLK%LPKlLMkM%MJ3j0NM%K%OKmJ2oLmNMMnQ
1168F060pMRkPlNNjkP%M%JJMMKmJ0LmJ2pPkMLL%jMoLJ1m%MNjPKqJ5pPPpRjkRJ0pLjLkKjJ3
1162F189j0OJP%JKMKK%OMqQNJlQlPmQ%NLkMJ%OLJJM%JKKkONkQLlJNjJjjLOO%kPOmQmMNnQO
1156F327lQnMLj%RNpPMJKMK%J0%nOjMLKLjPNmMJN%kOMJnONlJJOLjQKjJ%ONkMKNNJjjOL%Nk
1149F467MNKjLMJMNlNK%QNnNjNJkPLjjQOlMPjkNMkJPOLj2J0J0j2ROjjKR%jMk%J4%kNOnLKO
1143F615KjKMKJLO%MjOJLLOnNjON%JLlNOOn%KQ%JRjN%KMj0J8mLlQJ0MljPj0J2LNj%KOlNLK
1137F762OK%Q%kKPLmQkJ2pKMOkNkJ0%jNKLNLLmLJRlLPLLpJ1KM%jMMML%NOJnOjRkOJPnNMLL
1131F927jJOJ%NKKNJLMKjNM%KNNLJJM%PlKM%OOjLOlNKPKOjNkR%NjNnJ1%jlJ0kJ0KKpJ2kOM
1125G093JkKJ0kJOj%RJJOMkKNNLJ1jMKL%lNjPjJ0%nQjLNJ2jnPJ3klLKJ0lKNKR%lPKNNkK%N
1119G260LjOLjOjKLOJK%LPlMNLJ7j7J1RMOoj1J0J1KjJ0kPoJ0kJ0mKNJ%J1j1J2kLJ8j2J7oL
1114G407NKQKpRRkKJJ2JlJ%J0NjKNLJ%NNMk%QLPmONk%J2jJPMKMlJ4nLMLNKP%MjLPKkMKJ1L
1108G599JmRKmJ0%LR%LNLJLJPM%JRjJJRjLKQjKPL%RlQjMMjLRJ%J4nMLMOjPNLkOQJJNjPjN%
1102G797OKN%PJQlNLNkOJNKJN%PLmJ8j0OmJ2nJ2JLKNMLJOMJjJ8oN%lMJ5MjLPJPQnMN%NJQ%
1096G998OLNK%OLKPOkO%K%ONlQNjJ1kKJ0oM%RJjJ3LKKOJP%JJ4qOMJ1lJMJKJ4mK4j6j4L8Jj0
1090H192%knK1OJ4rLNJRmPRlO%O%NjQOJNJNQK%MKjPLP%QJNNjPkMRNjR%JLP%RLNjNKMMmQJ1
1084H424qK2mLJ0kLRrJ3KMjJ1lNLNOKKLPKMOL%ONL%KQJjRLJJ2KLJMNO%OMN%RjJ1jJ0oNMRm
1078H643ROk%J3mNmK0LMj3PJ0LQPLJNLRJLMJOKKJ1nOJ4oPLjNLMJ0jQMkQMJ0jJ0MoROnLLPJ1
1073H878j0J6QOlNjPnQJ3jKKJ5RoLKJ0OLjJ4j0JJ7nJ0JQPOoQLPNlR%%J2JPKNNnJ0MjJ2OJQ
1067I105QKrMJ0RkPK3j2jj0K7mrM2kKkqRjRpQJ0OkJ7oJ3JNmJ8PqRJPNNLLRkKLOQLOM%QRoP
1062I345PJMPOQKjRPmJ0%J1nJ1LQkKkJ7kJ3JJ3olOJ8j0J3J1pMJ1%Q%QJ3jO%JPMPOkJ3NKjK
1057I584J1NjR%RJ2LJLLPPPmPkJ3OMMNOjJ1KJPPnJ1JPOMkJ0KJ2mLRJQJ0%OMJ0NMLOMlJ1OP
1051I862KMKJ3kO%RLOLLJ2JMMKJ1JJ2L%RjQNMRkJ0NMO%J2JKPlJ6NmJ6jRLnJ1NJJ2JOQjQJ3
1046A0140KOKONLMQMQ%PNKQOMKNPMJJ1JPOKMRKOJ2lJ3%mJ8MQlOQ%J1NqK0LNPLNLOR%NOKNP
1040A0440LJ2Q%QLQ%J1LMOPN%RQQ%RMQKNJRMNQPOMJMJ1KJ1lRKJ4KKJJ4kJ6MlK2olJ6%ROOJ
1034A0751NMJ3mJ7JLORLNQMKJ4jLJ1MNJJ0MQJ0MNNRKOMMNJ1MOLOJ0MOPNNMOQkQJ2jRPKPMM
1029A1075J1NJ1%NPPLJ1%J4JMJ1OjJ1OMLNOQ%PJ3kJ5KNJ0KNPJ1jQPLRLPJ1OLONLJ2PPKQJP
1024A1402KJ2MPJ0lJ2PKJ4LM%J1OPPOOQONMQNJ0NMNQNOLROQRLQNPPMJ0%MQJ3%PPPNJ2PKlJ5
1018A1761J1jOJ3O%jJ0J5J0PQrJ9OMMJ1LOQRMQMMJ0PORQJPOQJ0KQNQNKRPNPPRKJ6LKJ2OMJ0
1013A2127PJJ3LQQMLJ4%RPJ4KNQMJ6RnJ6%LQOJ4PKJ2LJ3KRQLNPJ2ONQKJ2PRNNPNPRKJ0RNO
1007A2506OJ1OPRQKRLPPPJ3J1PKRMMJ3J0JMJ5RJJ3ONLMJ2RRNORQJ0OPJ1%J1NJ5KJ0QJJ1LJ1
1002A2891%J2J3JQJ1NRJ1jPJ0J2KRJ1OJJ3RMJ0NOJ1%OJ6PJ4%J4NLJ0J7pJ9MJ0jQQJ3QRNJ0
998A3254LOJ0J0RNPRRORNRNPJ5OMRQJ2PONJ4ORKJ0J0RJ1JLQJ3J1RKJ3RLOK6nJ1J0NrK2LJ8
993A3665%J5J2JJ2%J5J8jPJJ0J2PJ5KJ1PPJ0NJ5LQQPJ2LJ3PJ0PRPJ1J0NRQNJ5PNJ6KNJ3PJ0
988A4068J4LOJ0MJ0J9MPPJ7MJ1%J1J4J1jJ3J3MJ0POJ3OPJ3PJ3R%J4J1QJ1NPJ0OJ2OQJ8JRJ2
984A4478PJ4NMJ2MJ5KJ5RJ0QJ1QQOJ2RNJ5J1PPJ4NOJ2J6MLJ2J5%J3J3LJ4PJ0J4RNQPJ2J1O
979A4901J8KQJ0J3J1QPJ5KJ7LJ2J0J0OPMJ8J0J0J1NJ1RQJ1J5J0RQOJ2J2NJ0NK1MJ0J0J4MJ4
975A5326QJ3MJ4J3jJ4PPJ1J3RJ3RJ0PRRJ1J0J2J2J1NJ3RQJ3J3NJ1J0J6NQJ0J3PJ2J1RQPJ4
971A5758RJ1J0J4J5NJ0J0J2PJ2QPJ5J1RJ5J3MJ3NMK2OK6mK0ROQPJ4J1J7PORK1MJ1J1RJ1QJ2
966A6228J1J0J0J2J3RJ1J3J1PJ3QJ3RJ6LJ3QJ2PJ1J4J4J1QJ8ROJ6J3RRJ3RJ2J4RJ0RJ8QJ4
962A6691QJ2J0K1lJ6J5LJ8NJ2J5OK2OJ5PJ2J0J2PJ5J3J1MJ6J3RJ7PJ3J6J3MJ1J4J2NJ9KK0
959A7154PRJ5J2J4QJ7J0NK0J5NJ6J6QQJ0J8J0PJ9QJ7OJ6J3J2NJ3J6J2J3J3RRJ6J5J2PJ1J3
955A7639J3J5LJ6J5J5NJ3J8J0J3J2J3J5PJ5OJ4J6PK1PJ5J0J4J4RJ2K3PJ0J4J1J8KK0J4J1J5
951A8127LK2J5NJ6K0NJ6J0J4J5RJ3J5J1J5J2J4J7ROK0OJ6J6J2J7OJ3K3QJ4J3J2J3J4J3J4J3
947A8632J1J6QJ2J6J7J5QJ3J4J1K0RJ5K3MJ1J5PK1J3J3J7OK0PJ5J8QJ5K8MJ9J2NK1J4K2KJ3
943A9170J8J5J1J7J6NK4MJ9J5J4J3J2J4J6J9J0J6J5J2J2J6J5J3J6J2J3J7J3J3J8J3J8PJ8J3
940A9682J8RJ8J5K0NJ5J8J7J2J3J6J0K1J2J5OK0J8J4J1K3J1K2JK5J4J2J8QJ8J9J1J7J7J1J5
936B0227J9J3J5J5J8J2J7J3J9J4J3J8J1K0J6J6J2J4J5K1OK4J0K0J4J4J9QJ9J4K1K0MK5J6J3
933B0785J4K2J0J4K1J1J8J4J8J5J5K0J6J2K1RJ9K0J6J4J5J5J5J5K1J1K1J3J6J7K3J1J4K0J7
930B1348J2J6J9J6J8J4J5K1J4K3RK0J6J4J7J3J6K2K1J9J1J6J7J4K4J2J9J4K0K1J5J6J2J9J8
926B1931J9J7K1J7J1K4J6J7K2NK1K4J1K3J5J4K0J0K4J4J8J9K2J5K2J3J3K3J8K3J5J5J6K1J5
923B2544J2K5K2J0K1J8J9K0J9J5J5J5K1J2L2J0K0J4K1K5J5J6K5J2K5J1K3RK3K5J1J8L3LK9
920B3188J5K3K0J6J8J0K2K4J4K2J5K0K0J8J4K5K4K1J2J8J9K6J6K1J7K4J6J7K3J7J9K4J4J4
916B3826K4K2K2J6J8K2K0K0J4K6J7K3J6K6J7K1K2J7K1J8J8J8J9K1K2J7J6K5K2J8K4K7J7J1
913B4503K7K5J4J9K2K2K5J7J9J9J9J8K6K2J7K2K3K3J8J9J8K7K0K0K1K8J9J5K2K2J5K8K3K2
910B5219J5K9J9K0J9K1K2J7K5K7J4K8J8K7J7K6J9K2K2K6J4K2K1K2K9J6L2J2K8J6K9K4J5K6
907B5958K1J8K8K0K0K7K2K2J9K9J9K2K4K4K2J6L0K0K3K4J7K7K0K8K0K1K4K4K6K3K3K4K7J6
903B6728K7K1K1K6K3K5J6K6K0K5K9K1K1K6K4K8K1K9J4L1K5K2K7J9K9K0L3K4J9L0J5K0L4J5
900B7534K8K6K3K4K6K5K4K9K4K4K3K6K5K2K6K6K2K9K1K6K2K4K6L7J9K6K1K9K5K8K1K5K9K5
897B8390K5K5K8K4K8K2K5L2J6L0K4K2L2K4K4L2K2L2J0M7L7PL3K6K0K4K2K9L6K2K9K7K5K7K6
894B9304K8K5K9K4L2K0K9K9K7L0K9K4K7K5L1K6K3K7L7K6K7K4L0L0K9K5L1K5L1K6K4L0K8K8
890C0240L1K5L1K9K5K7K7L7K7K0K7K9K8K8K7M2K2K8K8K8K8K7L2L7K2L5K1M1K5K6L2K8K9L4
887C1223L0K6L2L0K6L1K9L6L5K3L4K9K7K9L1L0L4K6L0L3K8L1L6K4L5K8K9L2L6K7L7K5K9L5
884C2256K9L3L4K5L4K6K7M7K7L8K3L0L5L5K7L7K6L5K1N0K5L1L2L5K7L7L1L1L5K6L8L3K9L8
881C3343K1M0L3L7L1L5L4L2L3L3L5K8L4L2L5L7L3L4K9L7L5L6L0L6K9L3M1K8L4M4J7M6K8M4
877C4487L1K8L7M1K9L9L5L4L5L4L4L7L6L0L3M5K7L7L2M2L3L5L8L6L9L7L1L6L1M5K8M4L4L8
874C5688L3M1L7L4L8L6M0L4L4L8L6M1L2M0M8K6L3M7K7M9L5L1M3L6M0M4K9M5K7M1L3M6M0M6
871C6968K1L6N5L3K7N0L6N0K2M5L4L6N1L7M0L5L9M2M2M1L5M1M5L6L2M8L5L8M8L7L8M2M1M8
868C8304L6L6M2M1M7M1M2L7M1M3M5L7L9L9M3M2M0M2M5L8M9L8M4L7M8M4M7L3M6L9L9L9M8M9
864C9720L7M2L0N9L9N3L0M9L7M9M9L9M0N1L5M8M6M0N2L9M5M9L6N1M6M1M4M2M5N0M4M2M4M8
861D1211N0M5M8M3M1M9N1M1M6M8M4M3N2M4N0M2M7N4M2M7M8M5M7M4M9N1M0N8M5M5M8M8M5O0
858D2811L6M8M9M8N1M8M9M8M8M8N1M7M9M9N1M8N0N1M6N7M2N3M7N9M3N6M3N5N0N1N4L8O1N3
855D4488M7N0N2N2N3N3N2M7N5N0N4N0N3N6M8M9N7N3N7L8O2N7N0N4O0M4N3O1M8N2N6N4N2N5
851D6272N1N5N8N1N5N6O2M2O2N6N4N7N2N6N4O2N2N5N6N8N2O3N7N9N0O0N6N3N8O3M8O4N2N8
848D8169O3N8N7N2O4N1O6N6O6N7N8M4P2N3N8O4O3O0N8N1P0O1O1N5O2N8N6O5O6N4N8O4O5N8
845E0193N6O8O0O3O2O2O5O4N4O6O2O5O2N8O6O6O1O6O2O6N9O9O2O2O7O4N9P1O3O4O5O6O6O1
842E2345O5O7O6O5O8O6P1O1O7O9P0O2P1O2O7O6P6O7O6O4P6O4O6P2O8O5O9P0O9O6P0P2O9P4
838E4651O0P4P3P1O9P0P2O9P5O6P1P6P1P0O9P2P6P5P2O9P6P0P3Q3O8P1P2P3P6P3P6P2P5O9
835E7098Q1P5P2Q0P2P2P8Q4P4P0P2Q3P7P8P7P3Q2Q1P1Q1P6P4Q5P8P5P8Q1P8Q0P8P5Q2Q1Q3
832E9735P4Q3Q2Q5P4Q2P7R0P3Q6Q4Q0Q8P6Q4P2Q9P8J03P0R2P8Q4Q8Q7P5Q8Q7Q3Q3Q9Q8Q0R0
829F2557Q2Q4R4P8R2Q5Q4Q7R5Q3Q5R3Q7Q4Q9R1Q5R5Q9R0Q7R3R0Q7R2Q8R6R3Q6R6R1Q7R2R6
826F5583Q9R2R4R5Q8R7R2R7R2R6R3R3J00R5Q9R9R9Q6J07R7R3R3R4J03R5R9J02R9R3R6J07R4
822F8641J02R6R6R8J09Q9J11J04Q9J09J06J02R0J04J05R9J06J00J08J02J03J05J06J00J04
820G1184J06J08J04J06J06J00J12J04J03J11J06J09J08J03J11J08J14J05J09J14J03J08J13
818G3655J09J11J13J12J13J09J15J07J11J14J20J03J21J07J14J21J11J14J16J10J22J12J23
816G6263J12J22J13J25J13J13J18J16J26J15J22J17J24J18J18J20J24J18J22J25J19J26J15
813G9004J30J22J25J17J28J26J25J20J22J22J37J22J32J25J27J26J20J33J29J27J31J28J30
811H1908J33J27J35J23J34J35J28J33J32J33J33J31J38J35J30J35J37J35J34J43J29J37J38
809H4976J36J37J39J38J42J38J38J42J38J37J48J40J40J37J51J43J38J38J50J46J41J45J44
807H8222J47J47J42J46J46J50J51J50J45J57J43J45J52J55J42J54J49J54J54J51J57J57J44
805I1660J62J51J51J59J47J63J55J60J55J64J54J60J61J51J66J60J60J58J61J68J59J65J59
803I5309J69J61J64J65J62J73J64J62J72J70J66J71J66J71J67J76J65J70J72J74J69J78J71
800I9187J76J72J79J68J85J68J77J88J77J70J77J80J85J79J76J82J85J83J79J90J80J78J89
798A03310J78J89J88J96J78J98J86J86J82J88J90J96K00J77J99J97J93J90K00J91K00J95J93
796A07700J98K00J94J98K01K03K02K02J99K05K01K07J98K11K01K06K07K07K08K05K16K04K06
794A12379K13K11K12K12K12K14K10K18K18K18K13K19K16K21K15K23K16K21K27K23K26K19K23
792A17379K31K24K24K28K31K20K37K20K42K28K31K31K37K39K31K38K34K35K35K37K40K39K42
789A22733K40K45K39K45K46K42K47K41K55K41K53K42K52K53K49K52K62K45K58K49K61K53K57
787A28460K63K55K60K63K60K64K61K69K61K66K67K66K68K68K70K71K79K67K76K72K81K68K91
785A34626K69K81K77K79K79K84K78K86K92K83K85K83K94K90K93K83K94K97K99K88K95K99K96
783A41230K98L03K99L01L01L11K97L08L09L04L12L07L15L10L10L11L19L19L12L20L17L21L17
781A48351L28L19L30L26L28L24L19L38L30L28L39L40L31L40L34L47L35L37L40L52L40L47L45
778A56048L54L47L47L58L54L44L61L55L59L63L56L58L68L61L70L59L78L69L65L76L71L74L74
776A64369L80L78L88L71L85L88L83L85L87L90L88L97L88L95L99L96L98L97M05M06M05M10M10
774A73398M11M00M21M09M06M29M18M20M25M30M10M31M17M44M32M30M32M29M42M45M37M44M44
772A83204M50M48M38M57M53M57M55M51M63M62M58M69M66M61M78M67M73M77M78M82M80M74M89
770A93890M88M90M89M92M96M91M99N03N01M99N06N07N05N19N15N14N13N25N20N23N25N31N27
767B05568N36N40N27N45N35N44N38N58N48N55N47N53N60N63N63N70N69N69N75N70N77N76N80
765B18366N88N86N87N99N96N86O09N98O02O08O02O17O13O20O16O18O30O22O32O37O34O34O43
763B32443O44O38O58O49O56O54O60O60O70O67O76O69O82O81O77O86O88O99O99P00O94P11P02
761B47963P19P07P27P10P34P20P30P31P39P34P49P42P58P51P56P63P59P68P73P77P78P79P92
759B65159P79Q00P89Q00Q09Q00Q15Q15Q22Q21Q23Q30Q34Q38Q48Q40Q53Q52Q57Q63Q72Q62Q76
756B84257Q80Q78Q92Q93Q92R03R07R07R13R15R19R35R31R38R37R40R52R53R62R61R69R71R81
754C05586R81R94R85J001J002J007J014J018J024J033J026J044J043J048J057J060J065J079
753C24067J068J089J089J092J105J098J116J116J129J121J145J129J153J153J160J165J168
751C43163J175J189J191J200J199J207J219J223J231J234J245J253J256J267J268J270J292
749C64082J294J291J312J316J320J318J337J349J350J350J376J366J385J391J391J409J415
748C87052J422J429J434J444J459J459J477J476J491J497J505J513J530J526J547J550J555
746D12366J572J576J597J600J603J622J624J634J643J660J670J677J689J696J712J716J732
744D40389J736J752J763J773J783J800J799J825J827J844J853J861J874J898J895J917J925
743D71514J934J948J961J980J988J998K015K027K045K055K061K088K097K112K120K146K142
741E06231K173K178K198K213K221K245K256K268K298K298K331K328K351K369K379K407K420
740E45164K448K461K452K494K497K531K538K562K575K602K619K632K660K670K695K716K731
738E89047K758K778K789K818K835K856K885K900K923K950K967L001L007L033L066L078L118
736F38809L130L160L174L214L226L264L273L317L333L367L389L423L441L477L495L540L553
735F95585L585L620L655L667L713L740L780L785L847L853L907L934L969L999M038M075M094
733G60846M137M193M210M230M300M329M361M419M438M477M523M573M605M649M692M725M783
731H36490M822M869M910M950N006N056N099N147N192N244N298N352N396N455N509N562N606
730I24963N674N726N776N845N900N956O018O081O136O205O268O338O401O461O534O606O665
728A029553O747O807O900O950P036P112P195P264P351P423P516P592P682P768P849P949Q023
727A154717Q116Q210Q306Q454Q488Q610Q685Q835Q898R032R125R251R365R457R589R701R826
725A306665R928J0078J0190J0334J0444J0598J0715J0859J1002J1145J1297J1451J1584J1751
724A458041J1901J2070J2230J2402J2571J2734J2919J3094J3281J3476J3661J3854J4059J4260
722A640553J4465J4677J4900J5108J5345J5575J5806J6047J6295J6543J6806J7066J7324J7611
721A864121J7889J8174J8466J8774J9069J9390J9728K0032K0380K0730K1078K1448K1810K2203
720B143292K2589K2995K3386K3830K4253K4707K5149K5616K6108K6603K7102K7627K8147K8719
718B500123K9269K9861L0457L1068L1703L2361L3033L3722L4429L5173L5929L6710L7509L8353
717B969700L9197M0088M1015M1951M2926M3932M4987M6057M7180M8333M9539N0774N2068N3399
716C611146N4782N6208N7704N9262O0857O2535O4271O6073O7969O9918P1957P4099P6309P8629
714D531719Q1054Q3576Q6222Q8981R1874R4914R8075J01412J04905J08568J12424J16481J20741
713E820946J25243J29969J34967J40254J45817J51707J57968J64565J71591J79041J86952
712G509020J95390K04360K13934K24152K35094K46788K59329K72799K87278L02844L19657
711A0270645L37811L57407L78696M01797M26888M54276M84150N16864N52740N92181O35641
710A5409096O83680P36896P96011Q61899R35571J018162J111161J216227J335386J471089
709B5575178J626338J804770K010901K250325K529938K858599L247443L710724M267041M940528
708E4821785N763335O778273Q043503R638911J1675589J4310474J7767965K2373097K8600306
707A79773238L7142829M8997290O5519351Q8270425J18078435J51863021J75335328J56355917
706A021335834O5731516o5287822j55911107j74888483j51412895j17624075q7810651o5052996
706B69079321m8523174l6659704k8106827k1867936j7249644j3777409j1126180r071331p455891
705G5241225o168547n129253m279701l576763k988134k489314k061472j689910j363055j071667
704D4423409q08216n66481l41222j27996P7228K78002M77713O79583Q86897J102983J331444
703D7413344J576180J841635K132845K455763K817384L226205L692569M229210M851912N580824
702G9817871O441269P466008Q697529J0191855J2023381J4292392J7135865K0743260K5380520
701B02189950L1425885L9424359N0168879O4817546Q5046619J13188841J52137671K04262875
700I42662625K67330060L24112148L28560509K19844284N120k19832207l28544626l24094164
699A210043749k67311748k04244628j52119884j13171414q5029325o4800579n0151995l9407621
699B33806555l1409280k5363980k0726818j7119539j4276146j2007268j0175848q681695p450280
698H6595701o425713n565458m836807m214262l677932l211868k803383k442144k119665j828942
697D9469527j564059j319953j092215q76957o70599m69800k71332p1994J31578L42916N65927
696D4173039Q05086J065518J353357J676000K042581K464471K956158L536114M228513N065108
695F9365945O088332P355560Q945515J0967696J3576574J6993068K1536978K7675111L6089548
694B18594327M7760755O4022375Q6410487J15739556J48979371J72073716J53406007O4257940
693A071244534o4628648j53777765j72447443j49356248j16120503q6796652o4414808m8160654
692B15541813l6498144k8093618k1966724j7435523j4033190j1440098r435408p864816o618948
692F2155344n619274m808584m144709l596089l138886k754928k430066k153381j916231j711738
691B9881458j534412j379831j244401j125175j019731r26058q42520p67680p00363o39628
690A9701659n84553n34464m88730m46814m08249l72648l39638l08940k80248k53348k28017
689A5456010k04058j81308j59606j38799j18784r9404q0590o2178m4127k6296q624R036K6704
687A4367976M4515O2579Q0940R9733J19091J39063J59819J81424K04197K28004K53220K80061
686A6220622L08595L39155L71976M07372M45683M87311N32708N82398O36977O97184P63822
685B1793803Q37874R20477J013006J117083J234685J368137J520303J694671J895556K128238
684C5523833K399346K717245L092457L538531M072920M718430N505164O473307P677217R191279
683H4909729J1118879J3605453J6858605K1178217K7001414L4966890M5995414O1353204Q2550183
682C99537988J10597955J43392795J69446666J61079225Q8357425l2577062j33309944j70201668
682G36323380j57336770j26122229r5311116p0786513n2697460l9665683l0283931k3465612
681A40654066j8441530j4682248j1825393r621255p895845o526414n425211m528351l789011
680E7918808l172147k651347k206337j821373j484185j184909r15611o69787m41988k27574
679D3143550k2455J76989L74109N72122P74237R83634J203746J438240J691248J967416K272197
678E4575033K611930K994344L428621L926193M501128N171055N958301O891469Q007351R354185
677A07419610J0995649J3016926J5533431J8703628K2748039K7977952L4838605M3974751
676B95208591N6327433P3271987R6785185J29556330J74682520K33806145L00816957L47370780
676A707825928L09715585J29942134j29961037l09734357l47389813l00835664k33824916
675H25737860j74701292j29575036r6803957p3290595n6346073m3993210l4857066k7996297
674A88174334k2766285j8721711j5551398j3034698j1013247r371545q024408o908214n974759
673G6808069n187070m516656l941165l442991l007964k624728k283979j978074j700571j446010
672D6678861j209690r87462p75574n70526l69043j67780L6555K47535M68980P05263R61371
671D5018490J243206J557856J914034K322580K797193L355372M019862M820518N797109P003279
670G9849499Q512422J0426320J2888191J6102299K0363741K6102507L3946771M4802345N9914414
669C12908509Q0768286J08358744J40616851J66244061J58016947Q6495485l2444020j31516264
669H89448599j67801453j55151839j24456276r4158627p0044769n2261592l9453403l0236263
668A55884377k3541601j8612946j4929734j2135617r985071q307201o981374n921409n064755
667E0404669m365452l789372l310699k909847k571695k284517k039054j828040j645660j487177
666B4173156j348839j227500j120629j026152r42282q67566q00822p40933o87106o38545n94632
665A4178150n54788n18607m85606m55473m27906m02614l79385l57967l38234l20002l03109
664I634459k87460k72920k59415k46808k35089k24112k13863k04266j95272j86819j78885
663G129550j71436j64389j57783j51534j45636j40042j34771j29782j25036j20555j16277
662E572309j12229j08362j04711j01219r7888r4712r1693q8797q6039q3399q0872p8457p6151
661D367780p3914p1807o9771o7796o5927o4119o2385o0724n9109n7568n6083n4647n3262n1940
659C498728n0647m9417m8223m7058m5943m4873m3829m2814m1853m0894l9999l9106l8249l7425
658B888398l6618l5833l5082l4355l3635l2954l2280l1620l0998l0376k9787k9202k8644k8091
657B438923k7544k7042k6537k6039k5552k5105k4643k4192k3765k3338k2936k2541k2141k1765
655B095783k1399k1032k0671k0334k0001j9667j9338j9037j8725j8427j8138j7843j7563j7295
654A826313j7028j6763j6505j6255j6019j5768j5543j5306j5083j4863j4650j4435j4221j4025
653A609849j3832j3627j3443j3250j3072j2891j2717j2536j2373j2207j2039j1883j1727j1570
651A432682j1410j1270j1128j0982j0842j0690j0585j0416j0312j0172j0052r922r795r685
650A285421r563r443r343r219r114r006q894q799q700q583q491q392q303q206q098q024p925
648A137318p843p750p662p582p491p419p335p259p171p104p020o946o879o802o728o661o593
647A015073o517o451o396o316o262o193o129o069o013n944n887n831n773n716n660n606n547
645I12763n498n449n385n340n284n242n189n131n096n041m993m957m901m859m809m780m721
644H26088m677m647m593m559m521m477m434m395m361m322m278m248m208m170m140m091m067
642G51900m028l995l963l928l888l869l823l798l769l731l705l672l642l614l583l553l523
640F87816l496l474l440l408l388l358l327l307l282l254l229l203l179l150l127l106l089
639F31999l048l036l007k991k962k942k921k893k879k855k838k811k789k766k758k728k709
637E83066k693k665k659k632k613k597k572k557k539k523k503k479k471k451k431k421k403
635E39857k379k366k355k332k317k296k292k265k256k239k224k211k190k184k158k158k130
634E01505k119k109k092k080k067k051k038k026k023j992j984j970j967j944j940j923j907
632D67273j902j885j875j859j852j844j827j812j800j796j781j772j759j751j734j732j718
631D36574j709j698j682j670j671j654j649j634j621j620j598j606j585j573j573j556j554
629D08921j546j527j517j516j503j496j485j478j473j468j448j446j439j422j418j416j403
627C83920j402j386j378j366j369j349j354j347j326j329j330j298j313j305j279j285j275
626C61229j267j268j257j248j240j232j226j227j211j214j201j196j186j190j173j173j161
624C40559j155j149j153j139j133j123j125j117j115j100j103j093j084j086j074j066j066
622C21678j063j055j045j047j039j035j029j021j017j006j006j004j001r97r81r86r74r73
621C03399r73r55r68r44r55r47r34r35r39r13r25r24r05r09r07q93r00q87q85q89q72q76q67
619B82297q67q59q58q51q55q45q44q26q43q27q25q19q25q09q09q06q07p98p98p89p87p80p86
616B63384p77p73p70p70p60p61p61p47p51p43p46p39p38p34p28p29p18p17p28p07p12p09p05
614B46361o96p00p01o89o84o91o85o78o80o73o67o73o61o63o64o52o57o52o51o39o39o44o35
612B30987o35o35o28o24o24o24o13o25o12o09o08o13n99o01o01n96n86n94n87n91n79n90n74
610B17039n77n76n76n63n62n64n71n60n61n50n56n46n57n46n41n41n47n36n30n43n25n30n31
608B04350n25n24n22n20n18n15n18n04n08n11n05n07n00n02m96m97m89m88m88m95m84m82m84
605A92768m81m80m74m72m81m67m64m72m66m69m60m59m61m60m51m46m63m52m43m49m51m44m35
603A82168m38m49m27m46m29m26m40m31m31m18m31m25m04m27m13m32m07m14m04m19m05m11m05
601A72436m08l96m03l96m08l95l99l92l97l92l91l85l94l79l88l82l83l86l81l72l81l69l83
599A63476l71l68l74l65l72l65l56l70l67l64l57l59l59l55l54l60l48l54l47l51l55l41l38
597A55226l57l36l47l38l45l42l28l42l37l28l37l33l31l23l33l25l28l23l28l24l22l16l26
594A47577l12l21l11l24l09l14l11l18l08l14l04l10l05l04l05l09k97l02l04k99k99k98k95
592A40504l00k87k94k96k93k89k88k89k93k86k90k82k87k78k85k82k78k80k87k72k74k80k84
590A33930k85k61k78k67k73k69k70k73k66k71k65k72k54k60k70k60k66k64k53k63k55k59k53
588A27823k58k51k55k50k57k57k46k45k57k48k53k48k40k50k51k41k43k41k48k39k39k41k35
586A22130k40k34k44k29k44k38k32k33k36k29k32k33k30k31k27k29k22k26k33k26k24k23k23
583A16812k21k25k23k18k28k19k15k16k15k22k18k19k12k13k21k06k14k15k10k09k11k09k14
581A11839k07k03k13k11k01k04k08k07k03k02k05k02k00k03k00j99k01j99k03j92k01j93j99
579A07183j97j92j97j94j89j91k00j89j99j74k03j84j95j95j83j80j81j97j90j84j79j85j88
577A02817j82j81j83j84j77j84j76j82j78j80j88j68j81j81j72j82j64j84j71j75j80j72j72
575I8720j69j74j75j67j72j71j67j70j71j66j68j71j68j69j62j70j63j64j67j57j71j56j66
572I4866j63j61j57j70j56j69j54j66j56j55j57j65j49j66j43j62j49j61j58j50j55j54j46
570I1244j65j52j54j43j50j54j51j53j52j43j58j38j50j47j46j55j46j45j48j46j47j39j46
568H7816j49j40j46j46j39j41j49j36j44j40j41j41j39j44j39j40j31j39j42j38j35j38j32
566H4587j43j37j38j33j36j37j27j38j30j32j38j33j36j25j34j28j28j33j36j27j29j30j29
564H1530j33j25j28j28j28j29j24j30j28j22j22j29j27j27j23j27j17j21j27j28j17j24j28
562G8638j23j20j16j26j20j18j21j17j25j18j26j12j17j15j28j13j14j21j15j25j16j09j18
559G5905j16j11j15j16j15j13j15j22j07j15j09j13j12j17j11j11j10j16j10j07j10j12j10
557G3312j07j11j12j06j07j09j09j08j09j07j09r9j14j02j08j02j08j07j08j01j05j11j01
555G0852j02j09r6j09j02j05j03j10q6j10j11j00q8j10j02r3r9j11q8j00j09r3j03r7r5j07
552F8214r3r7r4j05r0j01r5j01r2j04r5q9r4j03r7r4r3r7r0j01q7r7r8q9r1r8q6r6r3q9r6
550F5269r2r1r1q7r6r0r2r2r2q5r2q6r1q9r3q1j01p9r1q6r0q9r4q3q4r1q5q6q4r2q1q2r3q4
546F2254q6q2q6q0r2q7q3q2q8q1q4q1r0q4q1p9q4q1q1q2q6q5p9q1q7p2q8p3q5q3p6p8q2q2
543E9443p8q0q3q0p8p1q4p5q1p3q7p4p7p4p8p5q2p7q1p5q5p3p0p7p6q0p5o4q7p0p7p3p4p7
540E6822p2p2p3p9p6o9q1o4p7p8o7p4p4p2p2p1p8o9p6o9o5o5q0o4q6o3o5p8p0o6p3p2p2o2
537E4378p6o7o9o8o8p1p1o4p0o4o8p4o4p1o9o7p0o2o5p1o6p4n7p1p1n8o6p3o5o6o4o5o8p0
533E2075n9o3o8n5o9o3o6o4o5o1p0o2o7o1o8n7o6n8o1o8p4m5p2n8n9o4p0o4m8o4p4n3o5n7
530D9937o5n9o7n0o8o0o5n8m8p1n3o8n6o1n9o2o0o1n2o1o5n6n5n6o2n4n8o6n9n4o4n2o0m7
527D7925o4n8n7n9n8n3o3m5o9m8n7n8n8m6o3n2o1n2o0n9n2n4n5n9n3m8n8n1n7n1n7n7n8m6
524D6029o2m6n8n5n3n0n4n5m9o3m6n7n1n1n0o2n0m9n5n6m8n3n1n4m8n6n4m4n4n3m7n3n3m6
520D4243n6m4n6m8n1n2m9n2n4m4n2m8n1m9n5m6m5n2n0n0m5m9n4m3n1m6m8m8n6m5n1l9m8n0
517D2566m7m7n0n7m5m6m7m5m8m9n0m2m6m5m8n5m0n0m6m9m4m6m8m5m4m4n1m5m2m9m5m3m6n0
514D0972m3m5m4m5m9m2m1n4m3m0m2m4n0m2m4m2m2m8m6l7m0m7m1m9m8l6m8l9l8n4l6m5l8m9
511C9481m7l4m7m5m3m5l8m3m3l7m2m9l7m4m4m3m0m1m0m0m0m3m5l9l9m1l8m4m3l9m6l8l9m0
507C8065m7l8l6m4m4l3m1l5m6l9l7m3l8l5m5l9l2m6l9l3m0m7l3l7l5l9n6l0l8n3l0k3m7k4
504C6743o5k7l4m7m0l0m1l5m3k8m2m4l6l1m3l8l6l8l2m6l6l3l4l5m4k9n0k8l6l4m3l4l2l7
501C5462m0l4m1l3l9l4l6l5l6l6l4l6l8l3m0l1l5l7m0k4l6m7l1k8m1l3l2l3k7m3m1k8m2l5
498C4253l9k8l2m5k8k6m2l2l6l8l2k9l3l7l0l7l4k7m1k5m1l3l1l6l3l1l7k8l2l9l1k7m0l1
494C3112l1l3l2l1l4l6k8l2l3l1l8k5l6l1l3k6l3l1m2k3l1l6l0k8m0k6k8l7l2l3k7l8l6k9
491C2022k1k8m5l0k7l2l1k9k8k8l8k7l0l4k8k9l2l3j9m2k4l7k5l5k6l8k2l2l7j8l7k4l2l3
488C0991k3l3k7l1k7k8l3k6k3l6k5k6k9m1k8l4l1k3k5k6l3k8k6l5k2k5m1k0l5k6k5k6l0l0
485C0014k4m1j5l3k1l2l3k6k8k4k8l5j9l1k5k6l4k9k2l1k5l1k3l1k4k2l8k2k4l1k3l3k5l3
481B9072k0k8k4l2k2l0k0l3j9l0l8k3k4k1k9k2j9l8l3k2j1l2l0k8k3k3k8k1l2k9k8k1k5l0
478B8184j8l1k3k2k8k1l2k5k2k9k3k0l1k9k0k3k7k9k2k4k4k8k2k9k2k6k1l0j8k7k7k7j9k5
475B7340k2k9k9j4k3l7k1k0k6j8l1j5k9k8l3j0k3k1k7l3j3k8j5l3k2l1k1k5j6k7k1k5k2k5
472B6527k6j3l4j6k9k0k3k1k7k5j7k4k3k7k6j2k8k4k5k3k0k0k8j9k1k4k4j8k5k4k2k0k3k1
468B5755k2k6j9k3k6j6l0j2k9k2j8k6k2j5k4k4l1k0j1k9k1k5j9k1k3k3j8j9k4k4j8j7k7j8
465B5013k8k0k0j8k5k5j3k3j8k7k1j3k7j7k5j5k5j8k6k0k1k1j9j7k5k3k1k6j4j8k1k4j6k0
462B4303k4k1j8j7k5j6k2k5j6j7k7j5k3k0j2k0k9j6k4j7k2k0j9j5k9j6j8j7k2k1k3j6j6k1
459B3624k6j4j8k5j5k2k0j5k0k0j9j1k4k5j8j7k0k5j3k5j5k5j3k1j7j3k5j7j3k5k0j6k3j7
455B2972j7j3k1k9rk2k6j6k0j8j5j3k1k0k0j8j7k0j5j7j9j8k5j2k3j6k2j5j5j8k3j7j4j8j9
452B2331k0j8j5k1j7k2j2j6j9j8j8k0j1k6j0j6k2j1k4j5k1k1j2j3k4j8j7j7k0j6j7j5k0j5
449B1734j4j8k1j3j8j8j9j5j7j8k1j2k2j7j2j9j1k3j3j8j9j4j7j3j9k2j6j4j9j5k0j8rk1j3
446B1146k0j7j8j3j5j7j8j1k5j2j6j2j9j5j5j7k1j2j2k5j8ok4j7j7j6j2j3j8j2j8k0k3pj3
442B0582j8j5k0j4j3k1j5j4j4j8j0j8j7j0k3j6j4j8j2j6j3k0j3j3j7j9mk2j7j6j9j2j4j5j6
439B0036j5j4j8qk2j9nk2j4j6j3k1mj9j8qj4j9k0j1j2j9pj9k0j3j4j7pj7j8j5j7j3j4j7j4
435A9483pk2qj6j7j0k2j1qj9j3j4j6k2j2j1j5rj2k0j3j4j4j0j6j5j7j7j6j1k0rj6j0j1k3r
432A8958j3k1kk3mj4rj6k5j3j0k1kk2j4j1j9j0j4rj4j7j3j6j1j6j3j3j5j3j3j3j0k1nj2j9
428A8452j2j2j7j2j4j5j1j3j5j3rk1pj2j4j4j3j4j2k1j0qj7pj7j1j7j1j4ok1j0j2j1k0j0r
425A7970j1k3pj6rj4pj8j3j4j2qj6j2j0j6j3j2rj8j1rj5j7pj2j6j0j2j6rj8j3j2j0qj3j5j5
421A7474pj5j2j3rj7ok1rrj2j1j4j4j1j3j3ok3oj3j4j1j4j1ok1j0pj4j1j3pj6j1j3qj5j2j2
417A6994rj2j5j0j0j5qj0j7qj2j1j1j4j0j3j6rj3j0kj7j6j0j3j4pj3j3nj6j4nj6j1j3j0j0
414A6556rrk1jj1k0j2oj2j4rj3rj7j4nj3j5npj6j3mj6rpj4rj7qj2j3j2mj5rj0j2j1pj6j0r
410A6081j2j2j1j0j4oj2j0j5nj3rj2j7j4qplj5j1j0pj4rj3j3lj0j1j4j1%j7k0j0j1pj1pj6
406A5651qj3j0j1nj3pj2rj8pj0qj5pqqj2j4qrj3rj2mj5j1lj4qj4qj1j1j0qj4nk1poj4qnj3
401A5195j2mj5oj1qj0rqj1j2qk2jj9pmlj3j2j0qj3pj0rj3nj4oj2qrj1rpj5j2mj0j2qrrj4k
397A4754nj9pj2nj3qorj9pj0rrj1mmj7j1poqj3j4lj6prpJk0j1%k3jj0qj2lj2j2j0j0mj5qr
393A4312oj1pj0j1pj1qj0prj0oj0j3onj5j0mj0kj5pnj2j0qj2rmj3j0plj3kj8Lj8j0j0nj2j0
388A3914mj2oj3j0qnj3Lj2pj4kj7nj3j4Lj6oprj4lj1j0mj1j0prj2oqooj5j2Mj3pj2Lj2j3j1
384A3522qj0nkj1nj0j3nlj8kkj2j2qj1mk6%Jj7orj3jjj3nj7Lj2mj2rj3lj2rmj0rpmj1pj3n
379A3133j5mkj0pmj3j0qoqomj5mrj1rkj0j0nkj3qqoj1orppnj3krj1nj6lp%j0j1nqj5Jj1pj2
374A2735lj3jj3ooqpj0pqrmj3lqponj0j0kj4knqj0prrrnqrp%j5oj1%oj9Jppqpkj0qpj0nmj1
369A2332oj2Lj5j2lplj3nqjj4nj0jj3pooj2Jj2kqj2nKk0lkqrj0lkj4mrj2%qj2%j2Jj7kolj7
364A1968%j1Kpj9Mj4j3Jorj0%jj7%j5lloj1j0Jrpj0lj0lj1rlopj0qokpmnj3lprj2Jppppor
359A1615nkrpprlnnpnj3okrrmmj1q%j2qkkpj3j1Jj2Mj0j4nmlpnqppj0nnpmppompnppnj2on
354A1244jj0pnjrqr%qmj4Jj3%j0qomp%j1lKj2j0pnj1oJJk0nmmnoj3kprqmkj1nonmopnppkq
348A0898mnpooolnj5nJmj5Lj5Lj1nnmj1lmj6Mj5Lj0jpnmnqj0lj1jloqqlpkj0%rppnqjqpmp
343A0567prmj0Jj2Oj0rlKj3llrqqKrplqnoj2Nqkmpj5Ok1jOj5Oj6oMj3mpj0jopknj0%oj0Ln
338A0269j2mnlqj1klmj0qqMrpmj1jJlk5J7j7Oj5olmlj2kjj4njj3Lkj6Lj5lJQk0lMj0j0pol
333I987pkj0JrrnLj3nJkrrljj5JnpnpjjromnrlkmqoqKqoojonqknprm%opnmnqlj2Rj0Koj5n
327I664mknmmoqkookpjj4jlJj3lmj0%okmrJrlmmj0plnjlj1%p%j0kjj0nomllrpKqj1Lj4Om%
321I387j1kmqj1kplpj%j1%j0kpkmlnnmrmMj4mm%j3Oj4JrNj0j0jrJmj0Kj0qPj0m%k1kJ2Jk2
316I125J0Nk4opqJJJj1nnnkj1rMpkojrMj3pMoqLrkj5LqOqrmkopjqkjojj2kKj0p%%j3nj2Qm
310H871lj3Nnj7lLpJ0j7Mj8K0ok7Mj1Prkjpnj0Mj1kMj3j0J%j1KrLj5Pj1mlpjjqnjnmoj%j4
305H642Kmolklnrkkqkooj0NoOj0jj2mlMlj6oRj1onkmLqj1kmmKj1lmoqL%j1MrpMj2njrJmJo
299H404mlqpklNqqlnoJJj8L%kj3mJpklqJrk%Oj9nPj3%jkqmokj2JompPrp%pJpKooJj2%nkpN
293H164onmpknrM%qkj5QpJkj6Rrkmj0klpmKj3Rnmj1mnOj5JmMnj6MrLjjmrrnLkmrJknnmokl
287G928knjlnqkMj0qJmj0Rj2LnJqLj7Jj9Q%Jj3pkqnLrlpRqJ3kk0Nk3J3j1QmronPrmlnlmkn
282G721kpjjj1OmkrnKnnjpk%lrJq%jmllnkr%jKqj1J4j2%%j4j4jL%onoqJonJOpj1jkmpQppj
276G512qkJj2L%pjnLj1ljoJj0%jmpkJpjlmloKlp%mmkoNmj0%r%mnKqJpn%qo%jlmrMnrNklko
270G300mmlkLj1Npokmlkoo%kKj1%okl%j2PrpQj0mlj%korkMmoJrOj2JjnmqNnml%qlmoJloNo
264G102lj2KlLoJpjo%mmljo%m%qMmpnl%j2JLlrnJ0Jk0Np%Lj3Lj2JlKnoloNlnnjoJlmkjqlN
258F920rmqkkLrK%%j2mNq%kmlmkoJllkJnomjqNqNqoJmnJnMj5jjLnlr%ojjjnknjmmjkjlmnn
251F719%lq%%l%nkojlJlplnjKn%mknlpNlknknjpkMj1lKqlkPnkr%opKjJnokjjol%nnLqknMm
245F537%j5J0j2LnrMmnPqoJ%qMonJq%MqollLlnmmkk%o%%ojljlj4J0pjlojKrKo%lJmkj0OrK
239F371llrJJnjn%pLJj4NpMKomnMj6M%klp%npJ0r%l%oLnoljkqlNolmKr%LrkjmlLlopK%njo
233F200lPqpLpmJ%jj3OmK%rjJmp%j%lj1LJpkKo%Jnm%knlPj1%kj1M%j0%%%jrljjnKmpMkonK
226F051nKmokjoKlkqMjn%m%lpjKlkJj3Kjjj2N%mqPj0MmJj1RqLlpJjqKoLlnoJlkkJllrMpJo
220E897Nonl%lmlKkmlKoJljmrQoKJj0njppJ0j1%mJ0j3jJ%mklMooJ%o%pNn%pKmjJnkmknKlj
214E760ljj0JKjonLmnnM%Jj0lKj1Qp%qNjKj0JqlmOo%jkLnnmjmljJmknKmjn%joLkoJomOp%p
208E614Oj2Llljj%on%kLlq%JkJkkooKjmKmrLmmJ1rk%mklqjk%LqJj%%mqkKmlJqNr%NplmKnl
202E477klJmMj0kLpNmJppM%m%kljj4PnkOkj0JJmqMlPj3jjmJLlnmLlmmNoJrRrJmmJoPj1%Kp
195E352lljlJm%nJkkjmkkkJkj0J0kr%pLjl%KoKqlLjj2jJoNNmmqJ%koJ%jo%knKkoJLqmJ%jn
189E226jmJnMj3PpKqL%mJkLMk0OJ7j8Kj7J0nKj0mNpJKj0lOorMJojKmJloJ%oj%jKnlLrOqkj
183E113%nLmjl%kkjoJljlKm%jo%llmOnj4OKnKpOqMj0jJLp%oljMlmKol%mjMj0Mm%MpJJokJo
177D995Kklmkj%j%klKpmLjkmOrqO%mnKpKmoOnnQpoJqQnlmMljnjLoJnMoNloMrOnmjjn%%l%K
170D884oqOpNpkJmKmlJLqlJ%pLkllLnNpnjLqLljpMnKjnljJoOojoLMj2MrL%kkLqLkjlmjoj%
164D764Kj1NlLmjRj5J0j0J%lpKoOj3LPnllKkl%nJpLnLmmKmJpPpKmMmqLqMllMomKjkkJkllj
158D665koMqRmmPp%pKnNkj1MJj0L%nk%lnJMoJpOpLqMjp%lKJJj0PoKk%nKjjo%kknJJk%llm%
152D564j%kKojkMj9J7LqokJj%lkJoLnlkMj2NpJmOj1JLmlOm%mjlNj4J1pNjj2%kkKOj3MJlnM
146D478om%lKj%mjnOpjMlkljjpOmmnMlKkjkmnNj0J0pjrMmlL%jm%NrRrj%mljMj0J0j7LMpMo
140D378K%rjJ%lLMj1Pj1NJj8MJ4j6MjKn%nNmjkjj%pMj%lmj%nmOlllKnkLmjk%kpQolmJJnPq
134D290Jjj0Rj1kKLKrMrLLjoNqjmkkKLpMl%klJmnOkpKkKmoOjl%klkmLjJl%pLjqK%kKmj%nl
127D198KlkjoKMnj1PLknk%KoQj2OllKKj0KJJpljOq%JljjkJrMoMK%mJKrKokMl%nMoJMj0NpJ
121D118%jmjKrRj1LMqlj%JmLoljlM%kj%%lllLljmMpK%krOl%lLl%nlMlMlmjklkjlMJnkj0QL
115D037%rlPk6L5j1j3lOMJj0ljpOjKo%OpKm%Jjkm%mKkmMokPqJJmlmMklQj2KkkJkjklLllnj
109C951M%klKomLkmJ1qPqpOpJrKKkKlMonKJ%jkJm%lkJLqjKl%kjlJ%mJl%lLl%nNplj%jLmmm
102C870K%nM%jlkkoRpPnj5RjNpQq%mlKkLkKlojjnRj0NnJl%pjLkkN%oj%%kmPj1PllnQj1J3j2
96C802lJMj3OmJnQj1RqL%m%mjPj0LOj2%lJ%NojLj0KqO%kj%k%kkJJmLqMm%pNJlKJj0jjKl%n
90C729Mj1Lj3J6kqnJ4jMroPmqQ%ln%jQj6%J%%j%Jj1MKjKmjLpKnNl%%njjJJo%mMjlJnjmOnM
84C669mnJrPqRoOlrKkLMkj3PMj0Lnl%jjnLmL%mJ%%jnjNpLlJlKKj0L%Kml%m%%kKJkjKnlLoK
77C596lJklkOj1RrOmjjkmPnmk%JmjJnJl%jMnLqJoQoMoK%kNoJ%mLnKj0PqMl%kMjKmkpJ1qNj0
71C524%jKoKK%mkjoKKjl%%l%jJlnL%pM%JqkO%lKokMoKnPokLKpjKkKpNkKj0%jJrRj1J2oKkR
65C472j3KOplLpMoK%nMkqJJJ%lk%qLKJmjNnj%jl%lLljkjjjLrPj%mMoJp%NjpOj0PpJrJ3j%o
58C398kkLk%nOmlkJlKjk%o%MqNlKnK%Lmk%klJNj1LnOojjoPklJJ%kmJlKoLlNkloOj%mlkNmL
52C338j0MjjoMmj%LlkjKpJ3qkmOpOj1O%pMmOnjj%kKjpNNj4NlkllOrRj2PmOmkkNnLljNpkkN
45C281l%jkljKrLjk%JoMJl%JnOqLoPqJMoJ%qNJkJjnLnNoJjrMKjnnNnJ7j2kl%PlomNk%kMoJ
39C219mmKLjmjMp%nM%jNojjJnOoLj%nMolMjlJKpmNmLnkJ0krJnKlOoNqkKMqJJn%JJnMkmNlJ
32C161kk%KrJ%NmJllKjJlMpMJrLl%%mkOklkjlQj5RjLnmJ%lLoKmK%jnMjnKk%Jk%oO%pPlJll
26C101LmK%KnlLmLnKlOj0Jj%mJ1j3KkJmKlk%rMOlkkJ%mlPKokJMoKl%lj%LmKmKmljOjm%Nko
19C048JNj0kJJ%Mp%Kmj%lJmJkKKnL%m%JKqJ0qj1%nnJ7%ol%PJlpJjMlk%ljL%mkj%LlJlLo%N
13C002ojJNl%qMlLmJkk%oN%%lkNq%n%N%kljKnKPqQqqOMj0JjKNpkoMLjjmLoLLknJKjnKjJ%j
6B949k%l%KkklmMjkK%Nj0KJjj1OLJKj1RkoK%rLJoOj1lQpPjLnoLLlLlJkJjJmmLklkPnmNoQp
0B897
##$OBSERVED MULTIPLETS=	(I, X, Y, Hs, Vs, An, H, C, N, (J))
$$ I: Multiplet Index
$$ X: Strt Coordinate
$$ Y: End Coordinate
$$ Hs: Horizontal Chemical Shift
$$ An: Normalised Integral Area
$$ H: Hydrogens
$$ C: Category
$$ N: Name
$$ (J): Coupling Constants
(1, 1.319822579945812091, 1.4305913386568043233, 1.3751751699587446698, 2.9963007813017479286, 3, dt, 1, 24.32 6.53 6.53)
(2, 4.4669916293553821873, 4.6211545163575475925, 4.5378014935835544463, 2.0036992186982529596, 2, dq, 2, 6.48499 6.48499 6.48511 46.0625)
##$OBSERVED MULTIPLETS AREAS=	
(1, 1.5243125185045118819)
(2, 1.019344860649312734)
##$OBSERVED MULTIPLETS PEAKS=	(I, X, Y)
$$ I: Multiplet Peak Index
$$ X: Peak x Position
$$ Y: Peak Intensity
(1, 1.4125912261561011096, 0.015424801036715507507)
(1, 1.3994304383347708765, 0.029549572616815567017)
(1, 1.3864603865688223117, 0.015200285241007804871)
(1, 1.3639535320337941027, 0.015216851606965065002)
(1, 1.3507927442124638695, 0.030471440404653549194)
(1, 1.3378226924465153047, 0.014947208575904369354)
(2, 4.6034146966348226115, 0.004912808537483215332)
(2, 4.5904446448688744908, 0.01503590121865272522)
(2, 4.577474593102925482, 0.015005570836365222931)
(2, 4.5643138052815954708, 0.0051907487213611602783)
(2, 4.5112891818855116455, 0.0050651933997869491577)
(2, 4.4981283940641816343, 0.014883166179060935974)
(2, 4.4851583422982335136, 0.015314204618334770203)
(2, 4.4721882905322845048, 0.0050343959592282772064)
##$PREDICTED PEAKS=	(X Y T A)
(1.375183237083104304,  , 0.10000000000000000555, <1-a>)
(1.375183237083104304,  , 0.10000000000000000555, <1-b>)
(1.375183237083104304,  , 0.10000000000000000555, <1-c>)
(4.537746829742914656,  , 0.10000000000000000555, <2-a>)
(4.537746829742914656,  , 0.10000000000000000555, <2-b>)
(-100000,  , 0.10000000000000000555, <3>)
##$PREDICTEDCOUPLINGCONSTANTS=	J(A,B)	$$ (Hz)
8.24(1-a, 1-b)
8.24(1-a, 1-c)
6.53(1-a, 2-a)
6.53(1-a, 2-b)
24.34(1-a, 3)
8.24(1-b, 1-a)
8.24(1-b, 1-c)
6.53(1-b, 2-a)
6.53(1-b, 2-b)
24.34(1-b, 3)
8.24(1-c, 1-a)
8.24(1-c, 1-b)
6.53(1-c, 2-a)
6.53(1-c, 2-b)
24.34(1-c, 3)
6.53(2-a, 1-a)
6.53(2-a, 1-b)
6.53(2-a, 1-c)
10.34(2-a, 2-b)
46.13(2-a, 3)
6.53(2-b, 1-a)
6.53(2-b, 1-b)
6.53(2-b, 1-c)
10.34(2-b, 2-a)
46.13(2-b, 3)
24.34(3, 1-a)
24.34(3, 1-b)
24.34(3, 1-c)
46.13(3, 2-a)
46.13(3, 2-b)
##END=		$$ NMR SPECTRUM
##TITLE=	Predicted 1H NMR Spectrum
##JCAMP-DX=	6.0	$$ MestReNova 17.0.0-41178
##DATA TYPE=	NMR PEAK TABLE
##DATA CLASS=	PEAK TABLE
##BLOCK_ID=	4
##ORIGIN=	Mestrelab Research S.L.
##OWNER=	ctheodore
##CROSS REFERENCE=	NMR SPECTRUM: BLOCK_ID=3                                     
##.OBSERVE FREQUENCY=	500
##.OBSERVE NUCLEUS=	^1H
##NPOINTS=	14
##FIRSTX=	1.3378226924465153047
##LASTX=	4.6034146966348226115
##XFACTOR=	1
##YFACTOR=	1
##FIRSTY=	0.014947208575904369354
##XUNITS=	PPM
##YUNITS=	ARBITRARY UNITS
##PEAK TABLE=	(XYW..XYW)
1.3378226924465153047,0.014947208575904369354,0.0015489734346685764526
1.3507927442124638695,0.030471440404653549194,0.0015079560806603037066
1.3639535320337941027,0.015216851606965065002,0.001551337718447884156
1.3864603865688223117,0.015200285241007804871,0.0015160671717371384647
1.3994304383347708765,0.029549572616815567017,0.0015563722025627184289
1.4125912261561011096,0.015424801036715507507,0.0015136669085230604857
4.4721882905322845048,0.0050343959592282772064,0.0015705311811004762056
4.4851583422982335136,0.015314204618334770203,0.0015093334213511237687
4.4981283940641816343,0.014883166179060935974,0.0015513570398854627241
4.5112891818855116455,0.0050651933997869491577,0.0015215853262769832906
4.5643138052815954708,0.0051907487213611602783,0.0015211804083335672775
4.577474593102925482,0.015005570836365222931,0.0015512609494728387283
4.5904446448688744908,0.01503590121865272522,0.0015340872990450133122
4.6034146966348226115,0.004912808537483215332,0.0015710297139047881953
##$MNOVA/PEAK_DATA_TABLE=	(T,F,A,ST,SP,APT,APC)
$$ Complementary to PEAK TABLE
$$ T: Type
$$ F: Flags
$$ A: Annotation
$$ ST: Shape Type
$$ SP: Shape Parameter
$$ APT: Attached Peaks Type
$$ APC: Attached Peaks Count
Compound,None,,0,0,0,0
Compound,None,,0,0,0,0
Compound,None,,0,0,0,0
Compound,None,,0,0,0,0
Compound,None,,0,0,0,0
Compound,None,,0,0,0,0
Compound,None,,0,0,0,0
Compound,None,,0,0,0,0
Compound,None,,0,0,0,0
Compound,None,,0,0,0,0
Compound,None,,0,0,0,0
Compound,None,,0,0,0,0
Compound,None,,0,0,0,0
Compound,None,,0,0,0,0
##END=		$$ NMR PEAK TABLE
##END=		$$ LINK
