##TITLE=	ethanol 13c
##JCAMP-DX=	6.0	$$ MestReNova 17.0.0-41178
##DATA TYPE=	LINK
##BLOCKS=	4    
##ORIGIN=	Mestrelab Research S.L.
##OWNER=	ctheodore
##$MNOVA/METADATA=	(DOCUMENT,BASE64)
eyJuYW1lIjoiL1VzZXJzL2N0aGVvZG9yZS9Eb2N1bWVudHMvY2xhc3Nlcy9OTVIgZXhwZXJpbWVudC9
naXRodWIgZmlsZXMvZXRoYW5vbCBwYXJ0IGEvZXRoYW5vbCAxM2MubW5vdmEiLCJwYWdlcyI6W3siaX
RlbXMiOlsiMSIsICAgICAgICAgICAgICAgICAgICAgICAgICAgICAgICAgICAgICIzIiAgICAgICAgI
CAgICAgICAgICAgICAgICAgICAgICAgICAgICBdfV19
##TITLE=	
##JCAMP-CS=	3.7	$$ MestReNova 17.0.0-41178
##BLOCK_ID=	1
##ORIGIN=	Mestrelab Research S.L.
##OWNER=	ctheodore
##$MNOVA/METADATA=	(ITEM,BASE64)
eyJhbmdsZSI6MC4wLCJwb2ludHMiOlt7IngiOjUzMjEuMCwieSI6NTgzNS4wfSx7IngiOjU1OTkuMzg
3NzMxNDc4ODc4LCJ5Ijo1ODM1LjB9LHsieCI6NTU5OS4zODc3MzE0Nzg4NzgsInkiOjU5NjEuOTQ3Nz
QyMzIyNTA3fSx7IngiOjUzMjEuMCwieSI6NTk2MS45NDc3NDIzMjI1MDd9LHsieCI6NTMyMS4wLCJ5I
jo1ODM1LjB9XSwieiI6MS4wfQ==
##NAMES=	
##ATOMLIST=	
$$ AN	AS	NH
	1	C	3
	2	C	2
	3	O	1
##BONDLIST=	
$$ AN1	AN2	BT
	1	2	S
	2	3	S
##MAXRASTER=	32768
##XY_RASTER=	
$$ AN	X	Y	Z
	1	-32768	9456	0
	2	0	-9456	0
	3	32768	9456	0
##END=		$$ JCAMP-CS
##TITLE=	Predicted 13C NMR Spectrum
##JCAMP-DX=	6.0	$$ MestReNova 17.0.0-41178
##DATA TYPE=	NMR PEAK ASSIGNMENTS
##DATA CLASS=	ASSIGNMENTS
##BLOCK_ID=	2
##ORIGIN=	Mestrelab Research S.L.
##OWNER=	ctheodore
##CROSS REFERENCE=	STRUCTURE: BLOCK_ID=1                                     
NMR SPECTRUM: BLOCK_ID=3                                     
##.OBSERVE FREQUENCY=	125
##.OBSERVE NUCLEUS=	^13C
##NPOINTS=	2
##XUNITS=	PPM
##YUNITS=	ARBITRARY UNITS
##PEAKASSIGNMENTS=	(XYWA)
(17.493379349853491078, 0.15056772530078887939, 0.0060596754904089777938, <1>)
(57.757207785043860326, 0.11656857281923294067, 0.006059675505493800074, <2>)
##END=		$$ NMR PEAK ASSIGNMENTS
##TITLE=	Predicted 13C NMR Spectrum
##JCAMP-DX=	6.0	$$ MestReNova 17.0.0-41178
##DATA TYPE=	NMR SPECTRUM
##DATA CLASS=	XYDATA
##BLOCK_ID=	3
##ORIGIN=	Mestrelab Predictor
##OWNER=	ctheodore
##NUMDIM=	1
##$MNOVA/METADATA=	(ITEM,BASE64)
eyJhbmdsZSI6MC4wLCJheGVzIjp7IngiOnsibWF4IjoyMzAuMDI1MzAyNzgzMzA2MTYsIm1pbiI6LTk
uOTk5MjY4ODY0ODg3NjM4fSwieSI6eyJtYXgiOjAuMTY1NjI0NDk4Mzg5NjYxMywibWluIjotMC4wMT
UwNTY3NzUwNDc1OTI1MDh9fSwicG9pbnRzIjpbeyJ4Ijo1MzIxLjAsInkiOjU4MzUuMH0seyJ4Ijo4N
zIyLjAsInkiOjU4MzUuMH0seyJ4Ijo4NzIyLjAsInkiOjgyMDguMH0seyJ4Ijo1MzIxLjAsInkiOjgy
MDguMH0seyJ4Ijo1MzIxLjAsInkiOjU4MzUuMH1dLCJ6IjowLjB9
##.OBSERVE FREQUENCY=	125
##.OBSERVE NUCLEUS=	^13C
##.SOLVENT NAME=	DMSO-d6
##.PULSE SEQUENCE=	
##.ACQUISITIONMODE=	SIMULTANEOUS (DQD)
##$ORIGINAL FORMAT=	Predictor
##$MNOVA/SCALES_VERSION=	9
##$PARAMETER FILE=	(parameters, ASCII, , 0)
$$ <?xml version="1.0" encoding="utf-8"?>
$$ <PredictorParameters>
$$     <Title>Predicted 13C NMR Spectrum</Title>
$$     <Origin>Mnova: NMR Prediction</Origin>
$$     <Name>Mestrelab Predictor</Name>
$$     <Version>1.7</Version>
$$     <Nucleus>13C</Nucleus>
$$     <Solvent>DMSO-d6</Solvent>
$$     <From>-10</From>
$$     <To>230</To>
$$     <Frequency>125</Frequency>
$$     <LineWidth>1.5</LineWidth>
$$     <Size>131072</Size>
$$     <DEPT>0</DEPT>
$$     <ProtonatedCarbons>0</ProtonatedCarbons>
$$     <ExcludeLabile>false</ExcludeLabile>
$$     <FastPrediction>0</FastPrediction>
$$     <ProtonDecoupled>1</ProtonDecoupled>
$$     <Reference/>
$$     <Options>
$$         <Settings>
$$             <Predictor Name="Mestrelab Predictor">
$$                 <Settings>
$$                     <Model>/Applications/MestReNova.app/Contents/Resources/data/13C.mbst</Model>
$$                 </Settings>
$$             </Predictor>
$$         </Settings>
$$     </Options>
$$     <MoleculeID>{8243bf2a-5dd0-4e27-8ae2-d81651c3a125}</MoleculeID>
$$ </PredictorParameters>
$$ 
##XUNITS=	HZ
##YUNITS=	ARBITRARY UNITS
##FIRSTX=	28750
##LASTX=	-1249.7711181640625
##DELTAX=	-0.2288818359375
##XFACTOR=	1
##YFACTOR=	7.0113560823212579473E-11
##FIRSTY=	8.6985405545192406862E-09
##MINY=	-1.9587200750237343527E-09
##MAXY=	0.15056772530078887939
##NPOINTS=	131072
##XYDATA=	(X++(Y..Y))
28750A24%%%%%%%%%%%%%%%%%%%%%%%%%%qQ%%%%%%%%%%%%%%%%%%%%%%%%%%%%%%%%%%%%%%%%
28734A24%%%%%qQ%%%%%%%%%%%%%%%%%%%%%%%%%%%%%%%%%%%%%%%%%%%qQqQ%%qQ%%%%%%%%%%
28719A24%%%%%%%%%%%%%%%%%%%%%%%%%%%%%%%%%%%%%%%%%%%%%%%%%%%%%%%%%%%%%%%%%%%q
28703A16Q%%%%%%%%%%%%%%%%%%%%%%%%%%qQ%%%%%qQ%%%q%QqQ%%qQ%q%%%%Qq%Q%%%%%%%%%%
28688A24q%Q%%qQqQqQ%q%Qq%QqQ%q%%Qq%%%%%%%%%%%%Qq%%Qq%Q%%%qQ%%qQ%%q%%%Q%%%q%Q
28672A24%%%q%%%%QqQq%Q%q%%%%QqQq%%%%Q%%q%%Qq%Qq%%Q%%q%Qq%%Qq%%%%%%%%%%%%%Q%q
28657A16%%%QqQq%%%%%%%%%%%%%%%%%%%%%%%%%%%%%%%%%%%%%%%%%%%%%%%%%%%%%%%%%Qq%%
28641A16%%%%%%%%%%%%%%%%%%%%%%%%%%%%%%%%%%%%%%%%%%%%%%%%%%%%%%%%%%%%%%%%%%%%
28625A16%%%%%%%%%%%%%%%%%%%%%%%%%%%%%%%%%%%%%%%%%%%%%%%%%%%%%%qQ%%%%%%%%%%%%
28610A16%%%%%%%%%%%%%%%%%%qQ%%%%%%%%%%%%%%%%%%%%%%%%%%%%%%%%%%%qQ%%%%%%%%%%%
28594A16%%%%%%%%%%%%%%%%%%qQ%%%%%%%%%%%%%%qQ%%%%%%%%%%%%%%%%%qQ%%%%%%qQ%%qQ%
28579A16qQ%%%qQ%q%%Qq%%QqQ%%%%%%%%%%%%%%%%q%%Q%%%%%%%%qQ%%%%%%qQ%%%%q%%Q%%q%
28563A08QqQ%%%%q%QqQqQq%%%QqQ%q%Q%%q%Q%%q%QqQ%%%%qQ%qQqQqQ%%%%%%q%QqQ%%%q%%Q
28548A16%q%Qq%Q%q%Q%qQ%%%qQ%qQ%%q%Qq%%%Qq%%Q%%%%qQ%%%%%%%%%%%%qQ%%%%%%%%qQqQ
28532A16qQqQq%%%Q%qQqQ%%%%%%%%qQq%Qq%%%%%%%%%%%%%%%%%%%%%%%%%%%%%Qq%%%%%%Qq%
28517A08%%Q%qQq%%%%%%%Q%q%%QqQq%%%%%%QqQ%%%q%Qq%%%QqQqQq%Qq%%%%%%%Qq%%%%%%%%
28501A08%%%%%%%%%%%%%%%%%%Qq%%%%%Qq%%%%%%Qq%Qq%%%%%%%%%%%%%%%%%%%%%%%%%%%%%%
28485A08%%%%%%%%%%%%%%%%Qq%%%%%%%%%%%%%%%%%%%%%%%%%%%%%%%%%%Qq%Qq%%%%%%%%%%%
28470A08%%%%%%%%%%%%%%%%%%%%%%%%%%%%%%%%%%%%%%%%%%%%%%%%%%%%%%%%%%%%%%%%%%%%
28454A08%%%%%%%%%%%%%%%%qQ%%%%%%%%%%qQq%Q%%%qQ%%%%%%qQ%%%%%%%%%%%%q%%Q%%%qQQ
28439A16%q%Qj6%%j6M8qqqK4ql2K4qq%%J6q%%%qQ%%%%Qj6Q%%%%%%Qq%%%%%qQ%%%qQq%Q%%%
28425A08%%%%%%%%%%%%%%%%%%%%%qQ%%%%%%%%%%qQ%%%%%%%%%%%%%%%%%%%%%%%%%%%%%qQ%%
28409A08qQ%%%%qQqQ%qQ%%q%Qq%Q%%qQ%%%%%%%%%%%%%%%q%Q%%q%%%%%%Qq%%%Qq%%%%%%%%%
28394A00%Q%qQ%%%qQ%%qQqQ%%%%qQ%%%%q%%QqQq%Q%%%%%%%%%q%%QqQ%%%%%%%%%%%%%%qQ%%
28378A08q%Q%q%%%%%%%%%Q%q%Qq%%%Q%q%%Q%%%qQqQ%%%%%%%%%%%%%q%%%%%%%%%%%%%%%%%%
28363A00%%%%Qq%%%%%%%%%%%%%%%%%%%%%%%%%%%%%%%%%%%%%%%%%%%%%%%%%%%%%%%%%%%%%%
28347A00%%%%%%%%%%%%%%%%%%%%%%%%%%%%%%%%%%%%%%%%%%%%%%%%%%%%%%%%%%%%Qq%%Qq%%
28332A00%%%%%%%%%%%%%%%%%%%%%%%%%%%%%%%%%%%%%%%%%%%%%%%%%Qq%%%%%%%Qq%%qQ%%%%
28316A00%%%%%%qJ6qQq%qQ%%%Qq%%%%%Qq%%%%%%%%%%%%%%%%%%%%%%%%%%%%%%%%%%%%%%%%%
28301A00%%%%%%%%%%%%%%%%%%%%%%%%%%%%%%%%%%%%%%%%%%%%%%%%%%%%%%%%%%%%%%%%%%%%
28285A00%%%%%%%%%%%%%%%%%%%%%%%%%%%%%%%%%%%%%%%%%%%%%%%%%%%%%%%%%%%%%%%%%%%%
28270A00%%%%%%%%%%%%%%%%%%%%%%%%%%%%%%%qQ%%%%%%%%%%qQ%%%qQ%%%%%%%%%%%%%%%%%%
28254A00qQ%%%%%%%%%%%%%%%%%%%%%%qQ%qQ%qQqQ%%%%qQ%%%qQ%qQ%%%%%%%%%%%%%%%%%%%%
28238A00%%%%%%%%%%qQ%%%%%%%%%%%%%qQqQ%%%%%%%%%q%Q%%q%Q%%%%%qQqQ%%%%%%qQ%%%%%
28223A00%%%qQ%%%%%%%qQ%%%%%%%%%qQ%%%qQ%q%Qq%Qq%%%%%Q%%%%%%%%%%q%%Q%%q%Q%%%%q
28207I2%QqQ%%%%%%qQ%%q%%Q%%q%%QQj6Q%qQq%%Q%qQq%QqQq%%%%%%%%Qq%Q%%%qQ%q%%QqQ%
28192A00%q%Qq%%%Q%%qQ%%qQ%%%qQqQq%%%%%%%%%%%%%Q%%%%qQ%%qQ%%%q%%%%%%%%%Q%qQ%%
28176A00q%%%%%%%%%%%%%QqQq%Q%qQqQq%%%Qq%%%%%%%%%%%QqQ%q%%%%%%%%%%%%%%%%%%%%%
28161I2%QqQq%%%%%Q%%qQq%%%%%%Qq%%%Qq%%%%%%%%%%%%%%%%%%%%%%%%%%%%%%%%%%%%%%%%
28145I2Qq%%%%%%%%%%%%%%%Qq%Qq%%%%%%%%%%Qq%%%%%%%%%%%%%%%%%%%%%%%%%%%%%%%%%%%
28129I2%%%%%%%%%%%%%%%%%%%%%%%%%%%%%%%%%%%%%%%%%%%%%%%%%%%%%%%%%%%%%%%%%%%%%
28113I2%%%%%%%%%%%%%%%%%%%%%%%%%%%%%%%%%%%%%%%%%%%%%%%%%%%%%%Qq%%%%%%%%%%%%%
28097I2%%%%%%%%%%%%%%%%%%%%%%%%%%%%%%%%%%%%%%%%%%%%%%%%%%%%%%QqQq%%%%%%%%%%%
28082I2%%%%%%%%%%%%Qq%%%%%%%%%%%%%%%%%%%%%%%%%%%%%%%%%%%%%%%%%%%%%%%%%%%%%%%
28066I2%%%%%%%%%%%%%%%%%%%%%%%%%%%%%%%%%%%%%%%%%%%qQq%%Q%%%%qQ%%%%%%%%%%%%%q
28050H4%QqQ%qQ%q%%Q%%%%%qQ%%%%%%%%%%q%Q%%%qQ%%qQ%%%%%%%%%%%%%%%%%%%%qQ%%%%%%
28034I2%%%%%%%%%%%%%qQ%qQ%%%%%%%%%%%qQ%%%%%%%%%%%%%%%%%%%%%%%%%%%%%%%%%%%%qQ
28018I2qQq%Q%%%qQqQ%%q%Q%qQ%%%%%%qQ%%qQ%%%%%%%%%%%%%%%qQ%%%%%%%%%qQqQ%%%%%%q
28003H4%%Q%%%%qQ%%%%%%%%%%%%%q%Qq%%Qq%Q%q%Q%%qQqQqQqQ%%%%%%qQq%Qq%QqQ%%%%qQ%
27987I2%%%%%%%%%%qQq%Qq%QqQ%q%%%%%%Qq%%%QqQ%%qQ%%%qQ%%%%%%%qQ%%q%%%%%%%Q%q%%
27971H4%%%%%%%%%%%%%%Qj6QqJ6qQ%%%%%%q%%%%%%%%%QqQ%%%q%%%%%%%%Qq%%Qq%%%%%%%%%
27956H4Qq%%%%%%%%%%QqQqQq%%%%Q%%%q%%QqQ%qQq%%%%QqQq%%%%%%%%%%%%Qq%%%%%%%%%%%
27940H4%%%Qq%%%%Qq%%%%%%%%%%%%%%%%%%%%%%%%%%Qq%%%%%%%%%%%%Qq%%%%%%%%%%%%%%%%
27924H4%%%%%%Qq%%%%%%%%%%%%%%%%%%%%%%%%%%%%%%%%%%%%%%%%%%%%%%%%%%%%%%%%%%%%Q
27908I2q%%%%%%%%%%%%%%%%%%%%%%%%%%%%%%%%%%%%%%%%%%%%%%%%%%%%%%%%%%%%%%%%%%%%
27893H4%%%%%%%%%%%%%%%%%%%%%%%%%%%%%%%%%%%%%%%%%%%%%%%%%%%%%%%%%%%%%%%%%%%%%
27877H4%%%%%%%%%%%%%%%%qQ%%%%%%%%%%%%%%%%%%%%%%%%%%%%%%%%Qq%%%%%%%%%%%%%%%%%
27861H4%%%%%%%%%%%%%%%%%%%%%%%%%%%%%%%%%%%%%%%%%QqqQQq%%%%%%%%%%%%%%%%%QqQj6
27845G6%%J6%j6%qJ6%Qq%q%%%Q%%%qQ%%%%%%%%%%%%%%%%%%%%%%%%%%%%%%%%%%%%%%%%%%%%
27830H4%%%%%%%%%%%%%%%%%%%%%%%%%%%%%%%%%%qQ%%%qQ%%qQ%%%%%%%%%%%%%%%%%%%%%%%%
27815H4%%%%%%%%%%%%%%%%%%%%%%qQ%%qQ%%%qQ%%%qQ%%%%%%q%Q%%%qQ%%%%%%%%%%%%%%q%Q
27799H4%%%%%%%%%%%%%%%%%%%%%%%%%%%%%%qQq%%Q%%%%%%%qQqQ%%%%%%%%%%%qQ%%%%%%%%%
27783H4%qQ%%%%%%qQ%%q%%%Q%%%qQqQqQ%%%qQ%%%%%q%Q%%qQ%%%%%%%%%%%%%%%%%%%%%%%%%
27767H4%%%qQ%%qQqQq%Q%%qQ%%%%%%qQ%%q%%Q%%%q%Q%%%%q%%%%Qq%%%%Qq%QqQ%%%%%%%q%Q
27751H4%%%q%Q%%%%%%qQqQ%%%%%%%%%qQqQ%q%Qq%%QqQ%%q%Q%%%qQ%%q%%Qq%%Qq%%QqQq%Q%
27736H4%%q%%%%Qq%qJ6q%Qq%Q%%q%Q%qQ%%%q%%Q%q%%Q%q%QqQq%%%Q%%qQ%q%%Qq%Qq%%%%Qq
27720G6%%%%Q%qQq%QqQqQqQq%%%%%%%%%%Qq%%%%%Qq%%%Q%q%Q%%%%%%%qQ%q%%%Q%q%%%%Q%q
27704G6Q%q%QqQq%%%%%%%%%%%%Q%q%%Qq%%%Qq%%%%%Qq%%%%Qq%%Qq%%%%%%%%%%%%%%%%Qq%Q
27688H4q%%%%%%%%%%Qq%%%%%%%%%%Qq%QqQq%Qq%%%%%%%%%%%%Q%q%%%%%%%%%%%%QqQq%%%%%
27673G6%%%%%%%%%%%%%%%%%%%%%%%%%%%%%%%%%%%%%%%%%%%%%%%%%%%%%%%%%%%%%%%%%%%%%
27657G6%%%%%%%%%%%%%%QqQq%%%%%%%%%%%%Qq%%%%%%%%%%%%%%%%%%%%%%Qq%%%%%%%QqQq%%
27641G6%%%%%%%%%Q%q%%%%%%%%%%%%%%%%%%%%%%%%%%%%%%%%%%%%%%%%%%%%%%%%%%%%%%%%%
27625G6%%%%%%%%%%%%%%%%%%%%%%%%%%%%%%%%%%Q%q%%QqqQQq%%%%%%%%%Qq%%%%%%%%%QqqQ
27609G6QqqJ6q%%%%%%%%%%%%%%%%%%%%%%%%%%%%%%%%%%%%%%%%%%%%%%%%%%%%%%%%%%%%%%%
27594G6%%%%%%%%%%%%%%%%%%%%%%%%%%%%%%%%%%%%%%%%%%%%%%%%%%%%%%%%%%%%%%%%%%%%%
27578G6%%%%%%%%%%%%%%%%%%%%%%%%%%%%%%%%%%%%%%%%%%%%%%%%%%%%%%%%%%%%%%%%%%%%%
27562G6%%%%%%%%%%%%%%%%%%%%%%%%%%%%%%%%%%%%%%%%%%%%%%%%%%%%%%%%%%%%%%%%%%%%%
27547G6%%%%%%%%%%%%%qQ%%%%%%%%%%%%%%%%%%%%%%%%%%%%%%%%%%%%%%%%%%%%%%%%%%%%%%
27531G6%%%%%%%%%%%qQ%%%%%%%%%%%%%%%%qQqQ%%%%%%%%%%%%%%%%%%%%%%%%%%%%%%%%%%%%
27515G6%%%%%%%%%%%%%%%%%%%%%%%%%%%%%%%%qQ%%qQqQqQqQ%%%%%%qQ%qQ%qQ%%%%%qQqQ%k4
27499E2M0k4%QQqj6J6%%Qq%%%%%%%%%qQqQ%%%qQ%q%%QqQqQ%q%%Q%%qQ%qQqQ%qQ%%qQ%%%%%
27484G6%%%%%%%%%%%%qQ%q%%Q%%%%%%%%%qQ%%%%%%%%%%%%%%%%%%qQ%%%qQq%%%%%%%Q%%%%%
27468G6%qQqQ%%%%%%%%%%%qQqQ%%%qQ%%%%%%%%%%q%%%Q%%qQ%%%%%%%%%%%%q%Q%%q%Q%q%%Q
27453G6%qQ%%q%Qq%Q%qQ%%%qQq%%Q%%%q%%%%%%%%%%%Qq%%Q%%qQ%%%%%qQ%%%%%%%%%%%%%%%
27437G6qQqQ%%%%qQ%%%%%%%%q%%Q%%%qQqQ%q%%%Qq%%%Q%qQqQ%%%q%%Qq%%Qq%%%%%%%Qq%%Q
27421G6q%%%Qq%%Qq%%%%%%%%%Q%%%qQ%%%%qQq%%%%Q%qQ%%%qQ%%%qQqQqQ%q%%%%Q%qQq%Q%%
27405G6%%qQ%%%%%qQ%%%%%%q%%%%%%%%%%%%%%%%%%%%%%%%%%%%%%%%%%%%QqQq%%%Qq%QqQqQ
27390G6qQq%Q%qQq%Qq%%%%%%%Q%%%%%%q%%Q%%qQ%%qQqQq%%Qq%%%%%%%%%%%%%%Qq%%%%%qQ%
27374F8%%%%%%%QqQq%%%%%%%%%%%%%%%%%%%%%%%%%%%%%%%%%%%%%%%%%%%%%%%%%%%%%%%%%%
27358F8%%%%%%%%%%%%%%%%%%%%Qq%%%%Q%qQq%Qq%%%%%%%%%%%%%%%%%%%%%%%%%%%%%%%%%%%
27342F8%%%%%%%%%%%%%%%%%%%%%%%%%%%%%%%%%%%%%%%%%%%%%%%%%%%%%%%%%%%%%%%%%%%%%
27326F8%%%%%%%%%%%%Q%%q%%%%%%%%%%%%%%%%%%%%%%%%Qq%%%%%%%%%%%%%%%%%%%%%%%%%%%
27311F8%%%%Qq%Q%q%%%%%%%%%%%%%%%%%%%%%%%%%%%%%%%%%%%%%%%%%%%%%%%%%%%%%%%%%%%
27295F8%%qQQq%%%%%%%%%%%%%%%%%%%%%%%%%%%%%%%Qq%%%%%%%%%%%%%%%%%%%%%%%%%%%%%%
27279F8%%%%%%%%%%%%%%%%%%%%%%%%%%%%%%%%%%%%%%%%%%%%%%%%%%%%%%%%%%%%%%%%Q%%q%
27263F8%%%%%%%%%%%%%%%%%%%%%%Qq%%%%%%%%%%%%%%%%%%%%%%%%%%%%%%%%%%%%%%%%%%%%%
27247F8%%%%%%%%%%%%%%%%%%%%%%%%%%%%%%%%%%%%%%%%%%%%%%%%%%%%%%%%%%%%%%%%%%%%%
27232F8%%%%%%%%%%%%%%%%%%%%%%%%%%%%%%%%%%%%%%%%%%%%%%%%%%%%%%%%%%%%%%%%%%%%%
27216F8%%%%%%%%%%%%%%%%%%%%%%%%%%%%%%%%%%%%%%%%%%q%%Q%%%%%%%%%%%%%%%%%%%%%%%
27200F8%%qQ%%%%%%%%%%%%%%%%%%%%%%%%%%%%%%%%%%%%%%%%%%%%%%%%%%%%%%%%%%%%%%%%%
27184F8%%qQ%%%%%%%%%%%%%%%%%%%%%%%%%%%%%%%q%Q%%%%%%%%%%%%%%%%%%%q%Qq%Q%%%%%%
27168F8qQqQ%qQ%%%%%%%%%%qQ%%%%%qQ%%%%%%%%%%%%%%%%%%%%%%%%%%%%%%%%%%%%%%%%%%%
27153F8%%%%%%%%%%%%%%%%%%%%%%%q%Q%%q%Q%%%qQ%%%%%%%%%%%%qQ%q%Q%%qQ%%%%%%%%%%q
27137F0Q%%%%%%%%%%%%%%%%%%%%%%%%%%%%%%%%%qQ%%%%%%%%%%%%%%%%%%%%%%%%%%%%%%qQq
27121F0%Q%q%%%Qq%Q%%q%Q%%qQqQ%q%QqQqQ%%%%%%%qQ%%q%%%Q%%%%q%Q%%%%qQ%%%%%%%%%%
27105F8%%%%%%%%q%Q%%%%%qQ%%%%%%%%%%%%%q%Q%%qQ%%%%%%%%%%%%%%%qQqQ%%%qQ%%%%%%q
27089F0%%%%Qq%%Q%%%%%%%%%%%qQ%%qQq%Q%qQq%Qq%Q%%%%%%%%%%%%%%%%%%%%%%%q%Q%qQ%%
27074F8qQ%%%%%%%%%%%qQ%qQ%%qQq%%%%Q%%q%%Q%qQ%qQ%%qQq%%%%Q%qQ%q%QqQq%%QqQ%%qQ
27058F8%qQq%Qq%Q%q%QqQ%q%%%Qq%Qq%%Qq%%%%%%Qq%%QqQ%qQqQq%Qq%%Q%q%%%Qq%%%%%%%%
27042F0QqQ%qQq%Qq%%%%%%%Q%%%qQ%qQ%q%%%%%Q%qQq%Qq%%Q%qQ%%q%%%%%%Q%%qQq%Q%qQ%%
27026F8%%qQq%%Qq%%%%%%%%%Qq%%%Qq%%%%%QqQ%qQ%qQqQ%qQ%qQ%%%qQ%%%%%%qQqQq%%QqQ%
27010F8%%%%qQqQqQqQq%%%%Qq%%%%%%%%%%%Q%q%%%%%%%%%%%%%Qq%%%%%%%%%%%%%%%%Qq%%%
26995F0%%%%%%%%%%%%Qq%%%%%%%%%%%%%%%%%%%%%%%%%%%%%Qq%%%%%%%%%%%%%%%%%%%%%%%%
26979F0%%%%%%%%%%%%%%%%%%%Qq%%%%%%%%%%%%%%Qq%%%%%%%%%%%%%%%Qq%%%%%%%Q%q%%%%%
26963F0%Qq%%%%%%%%%%%%%%%%%%%%%%%%%%%%%%%%%%%%%%%%%%%%%%%%%%%%%%%%%%%%%%%%%%
26947F0%%%%%%%%%%%%%%%%%%%%%%%%%%%%%%%%%%%%%%%%%%%%%%%%%%%%%%%%%%%%%%%%%%%%%
26932F0%%%%%%%%%%%%%%%%%%%%%Qq%%%%%%%%%%%%%%%%%%%%%Qq%%%%%%%%%%%%%%%%%%%%%%%
26916F0%%%%%%%%%QqQqqQ%%%%%%%%%%%%%%%%QqQq%%QqQq%qK4k4J6%q%qQQq%%%%%%%%%%%%%
26901F0%%%%%%%%%%%%%%%%%%%%%%%%%%%%%%%%%%%%%%%%%%%%%%%%%%%%%%%%%%%%%%%%%%%%%
26885F0%%%%%%%%%%%%%%%%%%%%%%%%%%%%%%%%%%%%%%%%%%%%%%%%%%%%%%%%%%%%%%%%%%%%%
26869F0%%%%%%%%%%%%%%%%%%%%%%%%%%%%%%%%%%%%%%%%%%%%%%%%%%%%%%%%%%%%%%%%%%%%%
26853F0%%%%%%%%%%%%%%%%%%%%%%%%%%%%%%%%%%%%%%%%%%%%%%%%%%%%%%%%%%%%%%%%%%%%%
26837F0%%%%%%%%%%%%%%%%%%%%%%%%%%%%%%%%%%%%%%%%%%%%%%%%%%%%%%%%%%%%%%%%%%%%%
26822F0%%%%%%%%%%%%%%%%%%%%%%%%%%%%%%%%%%%%%%%%%qQ%%%%%%qQ%%%%%%%%%%%%%%%%%%
26806F0%%%%%%%%%%%%%%%%%%%%%%%%%%%%%%%%%%%%%qQ%%%Q%qQq%%%qQ%%%%%%%%%%%%%%%%%
26790F0%%qQ%%qQ%%%%%%%%%%%%%%%%%%%%%%%%%%%%%%%%%%%%%%%%%%%%%%%%%%%%%%%%%%%%%
26774F0%%%%%%%%%%%%%%%%%%%%%%%%%%%%%qQqQ%%%%%%%%%%%%%%%%%%%%%%%%%%%%%%%%%%%%
26758F0%%%%%%%%%%%%%%%%%%%%%%%%%%%%%%%%%%%%%%%%%%%%%%%%%%%%%%%%%%%%%%%%%%%%%
26743F0%%%%%%%%%%%%%%%%%%%%%%%%%%%%%%%%%%%%qQqQqQ%%%%%%%%%%%%%%%%%%%%%%%%%%q
26727E2Q%%%%%%%%%%%%%%q%Q%qQq%Q%%qQq%%%%%%Q%%%qQ%qQq%Q%%%qQqQ%%%%%%%%%q%Q%%%
26711F0%%%%%%%%q%Q%qQq%Q%%%q%%%Q%q%Q%%%%%%%%%%%q%Qq%Q%%%%%%%%%%%%%%%%%%%%%%%
26695F0%%%%%%%%%%%%%%%%%%%%%%%%%%%%%%%%%qQ%qQ%%%%%%%%%%%%%%%%%%qQ%%%%q%Qq%Q%
26680F0%%%%qQ%qQq%Qq%%Q%%%%%%%qQqQ%%%q%Q%Qq%qQ%%q%Q%%%q%Q%%%%%%%%%%%%%%%%%%%
26664F0%%%%%%q%QqQ%%%%%%%%%%%%%%%%%%%%qQ%%%%%%%%%%%%%%%%%%%%%%%%%qQ%%%%%%%%q
26648E2Q%%%%%%%%%%%%%%q%%Q%qQ%%%%%%%%%%%%qQq%%%%%%%Qq%Q%%%%%%%%%%%%qQ%%%%%%%
26632F0%%%%%%%%%%%qQ%%%%%%q%Q%%%qQqQ%%%%qQqQ%qQ%%%q%Q%%%%%%%qQqQq%Q%%%%%%%%%
26616F0%%%%%q%Q%qQ%q%Q%%%%%%%%%qQ%%qQq%%Qq%%%%QqQq%%%%%Q%qQ%q%%Q%%q%%QqQ%%qQ
26601F0%%%qQq%%Q%%qQ%%q%%%%%%%QqQq%Q%%%q%%%%Qq%Qq%Q%q%%Qq%Q%qQ%%q%Q%qQ%q%%%%
26585E2%%Qq%%%%%Q%%%%%%q%Q%%%%%%%%%q%%%Qq%%Qq%%%Qq%QqQq%QqQ%q%QqQq%QqQq%Qq%Q
26569F0%%q%Q%q%%%%%%QqQ%qQq%Q%%qQ%%%Qk4QQ%J6k4%%QqQqqJ6q%%%%Qq%%%%Q%qQqQ%qQq
26554E2Qq%Q%q%%%QqQqQq%%%Q%%%%%%%%q%Q%q%QqQ%%%%%%q%Q%q%%%Q%q%%QqQ%q%%%Qq%%%%
26538E2Q%%%%q%%%Qq%%%%%%%%%QqQqQqQq%Q%q%Q%qQqQ%%%%%q%%%%%Q%q%%%%%%%%%Q%%%%qQ
26523F0%%qQ%q%%%%%%%Qq%%QqQq%%%%Qq%%%%Qq%%%%%%%%%%%%%%%%Q%q%Qq%%Qq%%Qq%%%%%%
26507E2%%%%%%%%Qq%%%%Q%%q%Q%q%Q%q%%Qq%QqQ%q%%%Qq%%%%QqQqQqQq%%%%%%%%%%%%%%%%
26491E2%%%QqQq%Qq%%%%Q%%%qQq%%%%%%%%%%%%%%%%%%%Qq%%%%%%%%%%%%%%Qq%%%%%%%%%%%
26475E2%%%%%%%%%%%%%%%%%%%%%%%%%%%%%%%QqQ%q%Qq%%%Q%q%%%%%%Q%q%%%%%%%%%%%%%%%
26459E2%%%%%%%%%%%%%%%%%%%%%%%%%%%%%%%Qq%%%%%%%%%%%%%%%%%%%Qq%%Q%q%%Qq%QqQ%q
26444E2%%Qq%%%%%%%%%%Qq%%%%%%Qq%Q%q%qJ6q%%%%%%%%%%%%%%%%%%%%%%%%%Q%q%%%%%%%%
26428E2%%%%%%%%%%%%%%%%%%%%%%%%%%%%%%%%%%%%%%%%%%%%%%%%%%%%%%Qq%%%%%%%%%%%%%
26412E2%%%%%%%%%%%%%%%%%%%%%%%%%%%%%%%%%%%%%%%%%%%%%%%%%%%%%%%%%%%%%%%%%%%%%
26396E2%%%%%%%%%%%%%%%%%%%%%%%%%%%%%%%%%%%%%%%%%%%Qq%%%%%%%%%%%%%%%%%%%%%%%%
26381E2%%%%%%QqQq%%%%%%%%%%%%%%%%%%%%%%%%%%%%%%%%%%%%%%%%Qq%%%%%%%%%%%%%%%%%
26365E2%%%%%%%%%%%%%%%%%%%%%%%%%%%%%%%%%%%%%%%%%%%%%%%%%%%%%%%%%%%%%%%%%%%%%
26349E2%%%%%%%%%%%%%%%%%%%%%%%%%%%%%%%%%%%%%%%%%%%%%%%%%%%%%%%%%%%%%%%%%%%%%
26333E2%%%%%%%%Qq%%%%%%%%%%%%qQ%qJ6q%%%%%%%%%%%%%%%%%%%%%%%%%%%%%%%%%%%%%%%%
26318E2%%%%%%%%%%%%%%%%%%%%%qQ%%%%%%%%%%%%%%%%%%%%%%%%%%%%%%%%%%%%%%%%%%%%%%
26302E2%%%%%%%%%%%%%%%%%%%%%%%%%%%%%%%%%%%%%%%%%%%%%%%%%%%%%%%%%%%%%%%%%%%%%
26286E2%%%%%%%%%%%%%%%%%%%%%%%%%%%%%%%%%%%%%%%%%%%%%%%%%%%%%%%%%%%%%%%%%%%%%
26270E2%%%%%%%%%%%%%%%%%%%%%%%%%%%%%%%%%%qQ%%%%%%%%%%%%%%%%%%%%%%%%%%%%%%%%%
26255E2%%%%%%%%%%%%%%%%%%%%%%%%%%%%%%%%%%qQ%%%%%%%%%%%%%%%%%%%%%%%%%%%%%%%%%
26239E2%%%%%%%%%%%%%%%%%%%%%%%%%%%%%%%%%%%%%%%%%%%%%%%%%%%%%%%%%%%%%%%%%%%%%
26223E2%%%%%%%%%%%%%%%%%%%%%%%%%%%%%%%%%%%%%%%%%%%%%%%%%%%%%%%%%%Qq%%%Qq%%%%
26207E2%%%%%%%%%%%%%%%%%%%%%qQ%%%%%%%%%%%%%%%%%%%%%%%%%%%%%%%%%%%%%%%%%%%%%%
26191E2%%%%%%%%%%%%%%%%%%%%%%%%%qQ%%%%%%%%%%qQ%%%%%%%%%%%%%%%%%%%%%%%%%%%%%%
26176E2%%%%%%%%%%%%%%%%%%%%%%%%%%qQ%qQ%%%%%%%%%qQ%%%%%%%%%%%%%%%%%%%%%%%%qQ%
26160E2%%%%%qQ%%%%%%%%%%%%%qQ%%%%%%%%%qQ%%%%qQ%%%%%%%%%qQ%%q%%%QqQ%%%%%%%%%%
26144E2%%%%%%%%%%%%%%%%%%%%%%%%%%%%%%%qQ%%%%%%%qQ%qQ%%%%%%%%%%qQ%%%%%%%%%%%%
26128E2%%%%%%%%%%qQ%%%%%%%%%%%%%%qQ%%%%%%%%%%%qQ%%qQ%qQ%%%%%%%%%%%%%%%%%%%%%
26112E2%%q%Q%%%%%%%%qQ%%%%qQ%%%%%%%%%%%%%%%%%%%%%%%%%%qQ%%%%%%%%%%%qQqQq%Q%%
26097E2%%q%QqQ%%%%qQ%%j6J6%%%qQQq%%%%%qQ%%qQ%%%%qQ%%%%qQqQ%%%%%%%%%%%%%%%%%%
26081E2%%%%%%%%%%%q%QqQqQqQq%%Q%%%%%%%%%%%%%%%qQ%%%%qQ%%%%%%q%Q%%%%%%%%%%%%%
26065E2%%%%%%%%%qQq%Q%qQ%q%%Q%qQ%%%%%%%%qQqQ%%%%%%%%%%%%%%%%%%%%%q%%Qq%Qq%Q%
26050E2q%Q%qQqQ%%%%%%%%%%qQqQ%%%%qQqQ%%%q%QqQ%q%%Q%%%q%Qq%Q%%%%%%%%qQ%qQ%%q%
26034D4%Q%%%qQ%%%%%qQ%%%qQ%%%%%%%%%%qQ%%qQ%%q%%%%%%Q%%%%%%%%%%%%%%%%%qQqQ%%q
26018D4Q%%qQ%%%%qQq%Q%qQq%Q%%%%%%%q%QqQqQqQ%qQ%qQ%q%%%%%%%%Q%q%%Q%%%%q%Q%qQ%
26002E2q%%%%QqQ%qQqQ%%%%q%%%Qq%%%%%%%Qq%%%%Q%%q%QqQq%Qq%Q%%qQ%%q%Q%%%%%%%%%%
25986E2qQ%q%%%%%Q%qQq%Q%%%%%%%qQq%%Q%qQqQq%Qq%%%Qq%QqQqQqQ%q%Q%%q%QqQqQ%q%Qq
25971D4QqqJ6j6K4j6%k4L2%j6K4%qq%%QqQq%%Q%%qQq%QqQ%%q%%%%%%Q%%%%q%%%Q%q%Q%%%%
25957E2%qQq%%QqQ%%q%%Q%q%Qq%%%%Q%%%%%%qQqQqQ%%%%qQ%qQ%%%%qQ%%%%%%qQ%%%%qQ%%%
25941E2%%%%q%%QqQ%%%q%%%%%Q%qQ%%%q%%%%%%%%%%%%%Qq%%Qq%%%%%%%Qq%Qq%%QqQqQ%q%Q
25925E2q%%Qq%Q%%qQq%%%%Q%%q%QqQ%%%%qQ%%qQq%%%Q%q%%%%Q%%%%%%%%%%q%%Qq%%Q%q%%%
25909D4%Q%qQqQq%%%%%%%%%%%Q%q%%%Qq%%%%%%%%Qq%%%%%%%%%%%%%%Qq%%%%%%Qq%%%%%%%%
25894D4%%Q%qQ%%%%%%%qQ%%%%%q%QqQ%%qQqQq%%%%%%%%%%%%%%%%%%%%%%%%Qq%%%%%%%Qq%Q
25878E2q%Qq%%Q%qQ%%%q%%%Q%%q%%%%%%%%%%%%%%%%%%%%%%%%%%%%%%%%Q%qQq%%%%%QqQq%%
25862D4%%Qq%Qq%%Qq%%QqQj6Q%%%%%%%%%%%%%%Qq%%%%Qq%%Q%q%%%%%%%%%%%%Q%q%Q%%qQ%%
25846E2qQqQ%qQ%q%Q%q%%%%%%%%%%%%Qq%%%%%%%%%%%%%%%%%%%%%%%%%%Qq%%%%Qq%%%%%%%%
25831D4%%Qq%%%%Qq%%%%%%Qq%%%%%%%%%%%%%%%%%%%Q%q%%%%%Qq%%%Qq%%%%Qq%%%%%%%Qq%%
25815D4Q%q%Q%q%Q%%%qQqQq%%%Qq%%%%Qq%%%%%%%%%%%%%%%%%%%%%%%%%%%%%%%%%%%%%%%Qq
25799D4QqQ%%%q%%%%%%%%%%%%%%%%%%Qq%%%%%Qq%%%%%%%%%%%%%%%%%%%%%%%%%%%%%%%%%%%
25783D4%%%%%%%%%%%%%%%%%%%%%%Qq%%%%%%%%%%%%%%%%%%%%%%%%%%%%%%%QqQ%q%%%%%%%%%
25767D4%%%%%%%%%%%%%%%%%%%%%%%%%%%%%%%%%%%%%Q%q%%%%%%%Qq%%%%%%%%%%%%Q%%q%%%%
25752D4%%Qq%%%Qq%%%%%%%%%%%%%%Qq%%%%%QqQ%qQqQ%qQ%qQqqJ6j6Q%%%%%%%%%%%%%%%%%%
25736D4%Qq%Qq%%%QqQq%%%%%%%%%%%%%%%%%%%%%%%%%%%%%%%%%%%%%%%%%%%%%%%%%%%%%%Qq
25721D4%%%%%%%%%%%%%%%%%%%%%%%%%%%%%%%%%%%%%%%%%%%%%%%%%%%%%%%%%%%%%%%%%%%%%
25705D4%%%%%%%%%%%%%%%%%%%%%%%%%%%%%%%%%%%%%%%%%%%%%%%%%%%%%%%%%%%%%%%%Qq%%%
25689D4%%%%%%%%%%%%%%%%%%%%%%%%%QqqQ%%%%%%%%%%%%%%%%%%%%%%%%%%Qq%%%%%%%%%%%%
25673D4%%%%%%%%%%%%%%%%%%%%%%%%%%%%%%%%%%%%%%%%%%%%%%%%%%%%%%%%%%%%%%%%%%%%%
25657D4%%%%%%%%%%%%%%%%%%%%%%%%%%%%%%%%%%%%%%%%%%%%%%%%%%%%%%%%%%%%%%%%%%%%%
25642D4%%%%%%%%%%%%%%%%%%%%%%%%%%%%%%%%%%%%%%%%%%%%%%%%Qq%%%%%%%%%%QqQq%%%%%
25626D4QqqQq%J6q%Qqq%J6j6Q%%%%%%Qq%%%%%%%%QqqQQq%%%Q%q%%%%%%%%%%%%%%%%%%%%%%
25611D4%%%%%%%%%%%%%%%%%%%%%%%%%%%%%%%%%%%%%%%%%%%%%%%%%%%%%%%%%%%%%%%%%%%%%
25595D4%%%%%%%%%%%%%%%%%%%%%%%%%%%%%%%%%%%%%%%%%%%%%%%%%%%%%%%%%%%%%%%%%%%%%
25579D4%%%%%%%%%%%%%%%%%%%%%%%%%%%%%%%%%%%%%%%%%%%%%%%%%%%%%%%%%%%%%%%%%%%%%
25563D4%%%%%%%%%%%%%%%%%%%%%%%%%%%%%%%%%%%%%%%%%%%%%%%%%%%%%%%%%%%%%%%%%%%%%
25547D4%%%%%%%%%%%%%%%%%%%%%%%%%%%%%%%%%%%%%%%%%%%%%%%%%%%%%%%%%%%%%%%%%%%%%
25532D4%%%%%%%%%%%%%%%%%%%%%%%%%%%%%%%%%%%%%%%%%%%%%%%%%%%%%%%%%%%%%%%%%%%%%
25516D4%%%%%%%%%%%%%%%%%%%%%%%%%%%%%%%%%%%%%%%q%Q%%%%%%%%%%%%%%%%%%%%%%%%qQq
25500C6%Q%%%%%%%%%%%%%%%%%%%%%%%%%%%%%%%%%%%%%%%%%%%%%%%%%%%%%%%%%%%%%%%%%%%
25484D4%%%qQ%%%%%%%%%%%%%%%%%%%%%%%%%%%%%%%%%%qQ%%%%%%%%%%%%%%%%qQ%%%%%%%%%%
25469D4%%%%%%%%%%%%%%%%%%%%%%%%%%%%%%%%%%%%%%%%%%%%%%%%%%%%qQ%%%%%%%%%%%%%%%
25453D4%%%%%%%%%%%%%%%%%%%%%%%%%%%%%%%%%%%%%%%%%%%%%%%%%%%qQ%%%%%%%%%%qQ%%qQ
25437D4%%%%%qQ%%%%%%%qQ%%%%%%%%%%%%%%%%%%%%%%%%%%%q%Q%%%%%%%%%%%%%%%%%%%%%%%
25421D4%%%%%%%%%%%%%%%%%%%%%%%%%%%%%%%%%%%%%%%%%%%%%%%%%%%%%%%%%%%%%%%%%%%%%
25405D4%%%%%%%%%%%%%%%%%%%%%%%%%%%%%%%%%%%%%%%%%%%%%%%%%%%%%%%%%%%%%%%%%%%%q
25390C6J6j6QqQ%%qQ%%%%%%%%%%%%%qQqQ%%%qQ%%%%%%%%%%%%%%%%%%%%%%%%%%%%%%%%%%qQ
25374D4qQ%%%qQ%%%%%%%%%%%%%%%%%%%%%%%%%%%%%%%%%%%%%%%%%%%%%%%%%%%%%%%qQ%%%%%
25358D4%%%%%%%%%%%%%%%%%%%%%%%%%%%%qQ%%%%%%%%%%%%%%%%%%%%%%qQ%%qQ%%%%%%%%%%%
25343D4%%%%%%%%%%%%%%%%%qQ%qQ%%%%qQ%%%%%qQqQ%%%%%%%%%%%%qQ%%%%%%%%%qQ%%%%%%%
25327D4%%%%%%%qQqQqQ%qQ%%%%qQ%%%%%%%%%%%%%%%%%%%%%%%%%%%%%%%%%%%qQ%%%%%%%%%%
25311D4%%%%%%%%%%%%%%%%%%%%%%%%%%%%%%%%%%%%%%%%%%%%%%%%%%%%%%%%%%%%%%%%%%%%%
25295D4%%q%Qq%Q%%%%%%%%%%qQ%%%%%%%%%%%%%%qQ%%%%%%%qQ%%%qQ%%%%%%%qQ%qQ%%%qQ%%
25279D4%%%%%%%%%%%%%%%%%q%Q%qQ%%q%Q%%%%%%%%%%%%%%%%%%%qQqQ%q%Qq%%%Q%%%%%%q%%
25264C6%QqQ%%%%q%%%Q%%%%%%%%%%qQ%%%qQqQ%%%%%%%%%%%%%%%%%%%%%%%%%%q%%%%%%Qq%Q
25248D4qQ%%%%%%%qQ%%%%%%%%%%qQ%%qQ%%%%%qQ%%%%%%%%%qQ%%qQ%%%%%%%%%%%%qQqQ%qQ%
25232D4%qQ%%%%%%%%%%%%%%%qQqQ%%qQ%qQ%%qQ%%%%%%%q%%QqQqQ%%%%%%q%Q%%%qQ%qQ%%%%
25216D4qQ%qQ%%%%qQ%%qQ%qQ%%%%%%%%%%%%%%%%%%%qQ%%%%%%%%%%%%%%%%%%%%%%%%q%QqQq
25201C6%Qq%QqQ%qQqQqQ%%%%%%%qQ%%%qQ%qQq%%%QqQ%%%%%%%%%%%%%%%qQ%%%%%%%%%q%%Q%
25185D4q%QqQ%%%%%%%%q%%%%Q%%qQ%%%%%%%%%qQ%%qQ%%%%%%%%%%%%%%%%%%%qQ%qQq%%QqQ%
25169D4%q%Q%%%%%%%%%%%q%Q%q%Qq%Q%q%%%%%QqQ%%q%Qq%%Qq%Q%%qQqQqqJ6%qq%Q%%Q%qQq
25153C6%Q%%%%qQ%%%%%%qQ%%qQ%%q%%Qq%Q%%q%%Q%%q%%%QqQq%%%Qq%%QqQqQ%%%%%%%%qQ%q
25138C6%QqQqQ%%%%%%qQ%%qQ%%%%%%%%q%QqQ%%qQ%%%qQ%q%Qq%Qq%QqQ%qQ%%qQ%%%%qQq%%Q
25122D4%%qQq%Q%q%Qq%%Q%q%Q%qQ%%%%%%qQqQq%%%%%%Q%q%%%%%%%%%%%%%Qq%Q%%%%%%%q%%
25106C6%QqQq%%%QqQq%%Q%%%%%%%%%%%qQ%q%Q%q%%QqQ%q%%%Qq%QqQ%%%%%qQqQ%%%q%Qq%%Q
25090D4qQq%Qq%Q%q%%Qq%%Qq%%Qq%Q%%%%%%%%%q%%Q%%%%%%q%%%Qq%Q%%qQ%%qQq%Q%qQqQq%
25074C6Q%%%%q%Q%%q%%%%%%%%%%QqQq%%Qq%%%%%%%QqQq%%%%%Q%qQqQ%qQq%Q%%%%%%%qQq%%
25059C6%%%%%%%%%%%%QqQq%%%%QqQ%%qQ%%q%QqQq%%%Qq%Q%%%%%%%qQqQq%Q%%%q%%%%%Qq%%
25043C6%%Q%qQqQq%Qq%Qq%Qq%%Q%qQ%q%Q%q%%QqQqQqQq%%QqQq%%%Q%%q%QqQj6J6qQ%qQ%q%
25027C6Qq%%%Q%q%%Qq%%Qq%%Qq%%%%%%QqQ%%qQ%%%%%%qQqQqQqQq%%%%%%%%%%%%%%%%QqQq%
25012C6%%%%Q%%%%%%%%%qQ%q%Qq%Qq%%%Qq%%%%%%Q%%%q%%Q%%%%%%%qQ%qQ%%%%qQq%Q%%qQq
24996C6%%%%%%%%%%%%%%%Qq%QqQ%qQ%%%%%%qQ%%q%%Qq%%%%%%%%%%%Qq%%%%%%%Qq%%%%Q%qQ
24980D4%%q%Q%qQ%%q%%%%%%%%%Qq%%%%%%Q%q%QqQq%%%%%%%%%%%%%%%%%%%%Q%q%Qq%QqQq%%
24964C6%%%%%%%%%%%%%%%QqQq%Qq%%%Q%q%%%%%%%%%%%Qq%%%%%%%%%%Qq%%%%%%Q%q%%%QqQ%
24949D4q%%%%%%%%%Q%%%%q%%%%%%%%%%%%%Qq%%%%%%%%%%%%%%%%%%Qq%%%QqQq%%%%%%%QqQq
24933C6%Qq%%%%%%%%%%%%%%%%%%%%%Qq%%%%%%%%%%%%Qq%%%Qq%%%%%%qK4j6Qq%%%%%%%%%%Q
24917D4q%%%%Q%q%QqQqQq%Q%qQ%qQq%Q%q%Qq%%%%%%%%%%%%%%%%%Qq%%%%%%Qq%%Q%q%%%%%%
24902C6%%%%%%%Qq%%%%%%%%%Q%%q%QqQq%%%%%%%%Qq%%%Q%%%%%%qQq%%%%%%%%%%%%%%%%Qq%
24886C6%%QqQq%%%%%%%QqQ%%qQ%q%%%%%%%%%%%%%%%%%%Qq%%Q%q%Qq%%%%%%%%%%%%%%%%%Q%
24870D4q%%Q%q%%%%%%%%%%%%%%%%%%%%%%%%%%%Qq%%Qq%%%%Qq%%%%%%%%%%%%Qq%%%Q%%%qQ%
24854D4qQq%%%Qq%%%Qq%%%%%%%%%Qq%%Q%q%%Qq%%%%%%Qq%%Qq%%Qq%%%%%%%%%%%%%%%%%%%%
24838C6%%%Qq%%%%%Qq%%%%%%Qq%%Qq%%%%%%%%%Qq%Qq%%%%%%%%%%%%%%%%%%%%Qq%%%%%%%%%
24823C6%%%%%%%%%%%%%%%%%%%%%%%%%%%%%%%%%%%%%%%%%%%Qq%%%%%%%%%%%%%%%%%%%Qq%%%
24807C6%%%%%%%%%Qq%%qQ%%%%%%%%%%%%%%%Q%q%%%Qq%%%%%Qq%%%%%%%%%%%%%%%%%%%%%%%%
24791C6%%%%%%%%%Qq%%%%%%%%%%%%%%%%%%%%%%%%%%%%%%%%%%%%%%%%%%%%%%%%%%%%%%%%%%
24775C6%Qq%%%%%%%%%%%%%%%%%%%%%%%%%%%%%%%%%%%%%%%%%%%%%%%%%%%%%%%%%%%%%%%%%%
24759C6%%%%%%%%%%%%%%%%%%%%%%%%%%%Qq%%%%%%%%%%%%%%%%%%%%%%%%%%%%%%%%%Qq%%%%%
24744C6%%%%%%%%%%%%%%%%%%%%%%%%%QqQq%%%%Qq%%%%%%%%%%%%%%%%%%%%%%%%%%Qq%%Qq%%
24728C6%%%%%%%%%%%%%%%%%%%%%%%%%%%%%%%%%%%%%%%%%%%QqQq%%%%%%%%%%%%%%%Qq%%%%%
24712C6%%%%%%%%%%%%%%%%%%%%%%%%%%%%%%%%%%%%%%Qq%%Qq%Qq%Q%%q%Qq%Q%q%Q%q%%%%Q%
24696D4q%%%%%%%%Qq%%Qq%%%qJ6%qQq%Qq%qJ6q%qQQqQQl2j6J6%qK4qqK4j6K4%l2K4j6%%J6
24683D4q%%%Qq%%%Q%qQq%%%qJ6q%%%%%%%Q%q%%%%%%%%Qq%%%%%%%%%%%%%%%%%%%%%%%%%%%%
24668C6%%%%%%%%%Qq%%Qq%%%%%%%%%%%%%%%%%%%%%Qq%%%%%%%%%%%%%%%%%%%%%%%%%%%%%%%
24652C6%%%%%%%%%%%%%%%%%%%%%%%%%%%%%%%%%%%%%%%%%%%%%%%%%%%%%%%%%%%%%%%%%%%%%
24636C6%%%%%%%%Qq%%%%%%%%%%%%%%%%%%Qq%%Qq%%%Qq%%%%%%%%%%%%%%%%%%%%%%%%%%qQ%%
24621C6%%%%%%%%%%%%%%%%%%%%%%%%%%%%%%%%%%%%%%%%%%%%%%%%%%%%%%%%%%%%%%%%%%%%%
24605C6%%%%%%%%%%%%%%%%%%%%%%%%%%%Qq%%%%%%%%%%%%%%%%%%%%%%%%%%%%%%%%%%%%%%%%
24589C6%%%%%%%%%%%%%%%%%%%%%%%%%%%%%%%%%%%%%%%%%%%%%%%%%%%%%%%%%%%%%%%%%%%%%
24573C6%%%%%%%%%%qQ%%qQqQQq%%%%%%%%%%%%%%%%%%%%%%Qq%Q%%qqQ%%%%%%%%%%%%%%%%%%
24557C6%%%%%%%%%%%%%%%%%%%%%%%%%%%%%%%%%%%%%%%%%%%%%%%%%%%%%%%%%%%%%%%%%%%%%
24542C6%%%%%%%%%%%%%%%%%%%%%%%%%%%%%%%%%%%%%%%%%%%%%%%%%%%%%%%%%%%%%%%%%%%%%
24526C6%%%%%%%%%%%%%%%%%%%%%%%%%%%%%%%%%%%%%%%%%%%%%%%%%%%%%%%%%%%%%%%%%%%%%
24510C6%%%%%%%%%%%%%%%%%%%%%%%%%%%%%%%%%%%%%%%%%%%%%%%%%%%%%%%%%%%%%%%%%%%%%
24494C6%%%%%%%%%%%%%%%%%%%%%%%%%%%%%%%%%%%%%%%%%%%%%%%%%%%%%%%%%%%%%%%%%%%%%
24478C6%%%%%%%%%%%%%%%%%%%%%%%%%%%%%%%%%%%%%%%%%%%%%%%%%%%%%%%%%%%%%%%%%%%%%
24463C6%%%%%%%%%%%%%%%%%%%%%%%%%%%%%%%%%%%%%%%%qQ%%Qq%%%Qq%%%%%%%%%%%%%%%%%%
24447C6%%%%%%%%%%%%%%%%%%%%%%%%%%%%%%%%%%%%%%%%%%%%%%%%%%%%%%%%%%%%%%%%%%%%%
24431C6%%%%%%%%%%%%%%%%%%%%%%%%%%%%%%%%%%%%%%%%%%%%%%%%%%%%%%%%%%%%%%%%%%%%%
24415C6%%%%%%%%%%%%%%%%%%%%%%%%%%%%%%%%%%%%%%%%%%%%%%%%%%%%%%%%%%%%%%%%%%%%%
24399C6%%%%%%%%%%%%%%%%%%%%%%%%q%%Q%%%%%%%%%%%%%%%%%%%%%%%%%%%qQ%%%%%%%%%%%%
24384C6%%%%%%%%%%%%%%%%%%%%%%%%%%%%%%%%%%%%%%%%%%%%%%%%%%%%%%%%%%%%%%%%%%%%%
24368C6%%%%%%%%%%%%%%%%%%%%%%%%%%%%%%%%%%%%%%%%%%%%%%%%%%%%%%%%%%%%%%%%%%%%%
24352C6%%%%%%%%%%%%%%%%%%%%%%%%%%%%%%%%%%%%%%%%%%%%%%%%%%%%%%%%%%%%%%qQ%%%%%
24336C6%%%%Qj6Q%%%%%%%%%%%%%%%%%%%%%%%%%%%%%%%%%%%%%%%%%%%%%%%%%%%%%%%%%%%%%
24321C6%%%%%%%%%%%%%%%%%%%%%%%%%%%%%%%%%%%%%%%%%%%%%%%%%%%%%%%%%%%%%%%%qQ%qQ
24305C6%%%%%%%%%%%%%%%%%%%%%%%%qQ%%%%%%%%%%%%%%%%%%%%%%%%%%%%%%%%%%%%%%%%%%%
24289C6%%%%%%%%%%%%%%%%%%%%%%%%%%%%%%%%%%%%%%%%%%%%%%%%%%%%%%Qq%%%%%%%%%%%%%
24273C6%%%%%%%%%%%%%%%%%%%%%%%qQ%%%%%%%%%%%%%%%%%%%%%%qQ%%%%%%%%%%%%%%%%%%%%
24258C6%%%%%%%%%%%%%%%%%%%%%%%%%%%%%%%%%%%%%%%%%%%%%qQ%%%%%%%%%%%%%qQ%%%%%%%
24242C6%%%%qQ%%%%%%%%%%%%%%%%%%%%%%%%%%%%%%%%%%%%%%%%%%%%%%%%%%%%%%%%%%%%%%%
24226C6%%%%%%%%%%q%Q%%%%qQ%%qQ%%qQ%qQ%qQ%%Q%j6Q%%%%%%%%%%%%%qQ%%%%%qQ%%%%%%%
24210C6%qQ%%%%%%%%%%%%%%%%%%%%%%%%%%%%%%%%%%%%%%%%%%%%%%%%%%%%%%%%%%%%%%%%%%
24195C6%%%%%%%%%%%%%%%%%%%%%%%qQ%qQ%%%qQ%%%%%%%%%%%%%%%%%%%%%%%%%%%%%%%%%%%%
24179C6%%%%%%%%%%%%%%%%%qQ%%%%%%%%%%%%%%%%%%%%%%%%%%%%%%%%%%%%%%%%%%%%%%%%%%
24163C6%%%%%%%%%%%%%%%%qQ%%%%%%%%%%%%%%%%qQ%%qQ%%%%%%%%qQ%%%%%%%%%%%%%%%%%%%
24147C6%%%%%%%%%%%%%%%%%%%%%%%%%%%%%%%%%%%%%%%%%%%%%%%%%%%qQ%%%%%%%%%%%%%%%%
24131C6%%%%%%%%%%%%%%%%%%%%%%%%%%%qQ%%qQ%%%%%%%%%%%%%%%%%%%%%%%%%%%%%%%%%%%%
24116C6qQ%%%%%%%%%%%%%%%%%%%%%%%%%%%%%%%%%%%qQ%%%%%%qQ%%%%%%%%%qQ%%%%q%%Q%%%
24100C6%%qQ%%%%qQ%%%%q%J6qQj6QqQJ6%k4K4j6qJ6q%qQ%Qq%%%%%%%%%%%%%%%%%%%%qQ%%%
24086C6%%%%%%%%%%%%%%%%%%%%%qQ%%%%%%%%%%%%%%%%%%%%%%%%%%%%%%%%%%%%%qQ%%%%%%%
24070C6%%%%%%%%%%%%%%%%%%%%%%%%%%%%%%%%%%qQ%%%%%%%%%%%%%%%%%%%%%%%%%%%%%%%%%
24054C6%%%%%%%%%%%%%%%%%%%%%%%%%%%%%%%%%%%%%%%%%%%%%%%%q%QqQ%%%%%%%%%%%%%%%%
24038C6%%%%%%%%%%%%%%%%%%%%%%%%%%%%%%%%%%%%%%%%%%%%qQ%%%%%%qQ%%%%%%%%%%%%%%%
24022C6%%%%%%%%%%%%%%%%%%%%%%%%%%%%%%%%%%%%%%%%%%%%%qQ%%%%%qQ%%%%%%qQ%%%%%%q
24007B8Q%qQ%%%%%%%%%%%%%%%%%%%%%%%%%%%%%%%%%%%%%%%%%%%%%%%%%%%%%%%%%%%%%%%%%
23991C6%%%%q%Q%%qQ%%%%%%%%%%%%%%qQqQqQqQQk4J6qQ%%%%%%%%%%%%%%%%%%%%%%%%%q%Q%
23976C6%%%%%%%%%%%%%qQqQ%%%qQqQ%%%%%%%%%%%%%%%%%%%%%%%%%%%%%%%%%%%%%%%qQ%%%%
23960C6%%%%q%%Q%%%%%%%%%%%%qQ%%%qQqQ%q%%%Qq%%%Qq%Qq%%%Qq%%QqQqQ%%%%%%%%qQ%%%
23944C6%%%%%%%%%%%%%%%%qQ%%q%%Q%%%%%%%%%%%%qQ%%%%%%%%%%%%%%%%qQ%%%%%%%%%%%%%
23928C6%%%%%%%%%q%Q%%qQ%%%%%%%%%%%q%Q%%%%%%%%%qQ%%%qQ%%qQ%qQqQ%%qQ%%qQ%%%%%%
23912C6%%%qQ%%q%Q%%%%%%%%%%%%%%%%%%%%%%%%%%%%%%%%%%%%qQ%%%%qQ%%%%%%%%%%%%%%%
23897C6%%%%qQ%%%%%%%%%qQ%%%%%%qQ%qQ%%qQ%%qQ%%%%%%%%%%%%%%%%%%%%%%%%%%%%qQ%q%
23881B8Qq%%Q%%qQ%%%%%%qQ%%%%%%%%%%%%%qQ%qQq%Qq%Q%%%%%q%%Qq%Qq%QqQ%%%qQ%q%QqQ
23865C6qQ%%%%%%%%%%qQ%qQ%%%%q%%%%QqQ%q%QqQ%%%%%%%%%%%%%%%%%%%%%qQ%%qQ%%%%%%q
23849B8Q%%%%%%%%%%%%%%%%%qQ%%%%%%%%%%%%%%%%%%%%%%%%%%qQ%qQ%%%%%%qQ%%%qQq%%Q%
23833C6%q%%%%Q%%%%%q%Q%%%qQ%qQq%Q%%qQqQq%Q%q%Q%%%%%%%qQ%%%%%q%%%%Q%%qQ%%qQ%%
23818C6%%%%%q%Qq%Q%q%%Q%qQq%Q%%%%%%qQ%%%%%%%%%%%%%%%%%%%qQ%%%%%%%%%%%%%%qQqQ
23802C6%%q%QqQ%%%%%%%%%%%%%%q%QqQq%Qq%%%QqQ%q%%%Q%%%q%%%Q%%%q%Q%qQ%%%%%%%%qQ
23786C6%%%%%%%%%%qQq%%%%%%%%%%%%QqQqQ%%qQ%q%%Qq%Q%%%qQqQ%qQq%%Q%q%Q%q%%Q%%qQ
23770C6%q%%Q%%qQ%qQ%%%q%%%%%Q%%%%%qQ%%%%%%%%%%%%%%%qQ%q%Q%%%%%%%%%q%QqQ%%%qQ
23754C6qQqQ%q%Qq%%Qq%%%%Q%qQj6%%qK4q%%Q%%q%%%%Qq%%QqQq%%Q%%%q%%%%Q%%%qQ%%%%q
23739B8Q%%%qQ%qQ%%%qQ%%%%qQ%%%%%%%%%%%%%%%%%%%qQ%%qQ%%%%%%%%%%%%%%%%%%%%%%%%
23723C6%%%q%%Q%%%%%qQqQ%qQqQq%Qq%%Qq%Q%q%%%%Q%%%%%%%q%QqQq%Q%q%Q%q%Q%qQqQ%%%
23708C6qQ%q%Q%%q%%%%Qq%%%%%%%Qq%%%Q%%q%%Qq%Qq%%%%QqQqQqQq%%Q%%q%Qq%Q%%%qQ%q%
23692B8QqQq%Q%%q%Qq%Q%%%qQ%%q%%Q%qQq%Qq%%%%%%Qq%%%%Q%%qQ%q%Qq%%%%%%%%%%%%QqQ
23676C6qQq%%Q%%q%%QqQqQq%Q%%%%%%%qQ%%%%q%%%%%%QqQq%%%%Qq%QqQ%%qQ%%%%q%Q%%qQ%
23660C6qQq%%%%Qq%Qq%%QqQqQq%Qq%QqQ%%%%%q%Q%qQ%%%q%Qq%Qq%%%%%%%%Qq%%Qq%Qq%%%%
23644B8%%%%%%%%%%%%%%%%QqQ%%%%%%%%qQ%%%%%%%%%%%%qQ%qQqQ%qQ%%%qQ%%qQ%%%%q%Q%%
23629C6%%%%%%qQ%%%%qQ%qQ%%%q%Q%qQ%%q%QqQ%qQ%qQ%qQq%Q%%%%%%%%%%%%%%qQ%%%%%%%%
23613C6%%%%%%%%%%%%%%%%%q%%%%%Qq%Q%%%%%%%qQ%%%%q%%%QqQ%q%Q%q%%QqQ%%%%%qQ%qQ%
23597C6%qQ%qQqQ%%%%%%%%%qQq%Q%%%q%Q%q%%%%QqQ%qQq%%%QqQ%q%%%QqQqQ%qQ%qQq%%Qq%
23581B8%%%QqQqQ%%qQ%%q%%%%Q%%%qQ%%%q%%Q%q%%%QqQ%qQ%%%qQ%q%QqQqQ%%%%%%%%%%q%%
23565B8Qq%%Qq%Qq%%QqQ%%qQ%%qQ%qQ%qQqQqQ%qQ%%%%qQ%%%%q%Q%qQ%%%%q%%%Qq%Qq%Q%%%
23550C6%%%q%Q%qQ%%qQq%%%%%%%%%%%Q%qQ%qQ%%%%%%%%%%%q%%%%%%Q%%%%q%%QqQq%%%%%%%
23534B8Qq%%%%%Qq%%Qq%%Q%%q%%%%Q%%%qQqQ%%q%Qq%%%%%%%%Qq%Qq%Q%%qQq%%%Qq%Qq%%%%
23518B8%%%%%%%Q%%qQ%Qqq%Q%%%%%%%%%%q%%QqQq%%%%%QqQqQ%q%%%%%%%%%Qq%%QqQqQ%%%%
23502C6%%%%%%%%qQqQ%%q%Q%qQq%Qq%%%%QqQ%%%q%QqQ%q%%Qq%%%%Qq%%%%%%Qq%%%%%%%%%%
23486B8Qq%Q%%qQ%%%%%%qQqQq%QqQqQqQq%%%%%%%%Qq%%%%%%%%Q%%%%%%%%%%q%%%%%%Q%qQq
23471B8%%%Qq%%%%Q%%qQqQ%%%%q%%%%%Qq%%Qq%%%Qq%%Qq%%%Qq%%Qq%%%%%%Qq%%%%%%%%%Q%
23455C6q%%%Qq%%%%%%%%%Q%q%%Q%q%%Qq%%%%%%%Q%q%%Qq%%%%%%%%%%%%%%Qq%%%%%Q%q%Q%%
23439C6qQq%Q%%q%%%%%%%Qq%%%%%%%%%%%%%%%%%Q%qQ%q%%%%%%Qq%Qq%QqQqQq%Qq%Qq%%%%%
23423B8%Q%%qQ%q%Qq%%Q%%%%q%QqQ%%%qQ%%%%qQq%%%%%%%%%%%Qq%%%%%%%QqQq%QqQ%q%%%%
23407B8%Qq%QqQ%%%q%%%%%%%Qq%Qq%%%%%%Qq%%%QqQ%%q%Qq%%%%Q%q%%Q%%%q%%Q%%q%%Qq%Q
23392C6q%Q%q%Q%%q%QqQqQqQ%%q%%%%%%%%%%%%%%Qq%%%%%%%QqQ%q%%%Qq%Q%%%%qQ%%%%%qQ
23376C6q%Qq%Qq%%%%%Qq%%%%%%%%%%%%%%%%%Qq%%Qq%%%%%%%%%%%Qq%%%%Qq%%%QqQq%%Qq%%
23360B8%%%%%%%%%%%%%%%%%%%%%%%%%%%%%QqQ%%%%q%%%%%Qq%%%%%%Q%%qQq%Q%q%Qq%%%%%%
23344B8Q%q%QqQq%QqQ%%q%%%%%%%%Qq%Q%q%Qq%%%Q%q%%%%Qq%%%%%Qq%%%%%%%%%%%%Q%q%%%
23328B8%Qq%%Qq%%%%%%%%%Q%%q%%%%%%%%%%%%%%%%Qq%%Q%q%%%%%%Q%q%%%%%%%%%%%%%%%%%
23313B8%%%%%%%%%%%%Qq%%%%%%%%%%%Qq%Qq%%%%%%%Qq%%%Qq%%%%%%%%Q%%q%%%%%%%%%%%%%
23297B8%%%%%%%%%Qq%%%%%%%%%%%%%%%%%%%%%%%%%%%%QqQ%qQqQq%%%QqQq%%%%%Q%qQ%q%%Q
23281C6q%QQq%%qQ%qQ%q%Qq%%%%%%%Qq%%QqQq%%%%Qq%%%%%%%%%%%%%%%%%%%%%%%%%%%%%%%
23265B8%%%%%%%%%%Qq%Q%q%Q%q%Q%q%%%%Qq%Qq%%%%%%Qq%%%%%%%%%%%%Qq%%Qq%%%Qq%%%Qq
23250B8Qq%%%%Qq%%%%%%%%%%%%%Q%qQ%qQq%%%%%%%%%%%Qq%%%Qq%%%%Qq%Qq%%%%%%%%%%%%%
23234B8%%%%%%%%%%%%%%%%%%%%%%%%%%%%%%%%%%%%%%%%%%%%%%%Q%%q%%%%%%Qq%%%%%%%%%Q
23218C6qQ%%%%q%Qq%%%%%Qq%%%Q%qQq%%%%Qq%%%%%%%%%%%%%%%%%%%%%%%%%%%%%%%%%%%%%%
23202B8%%%Qq%%%%%%%%%%%%%%%%%%%%%%%%%%%%%%%%%%%QqQ%qQq%%Qq%Qq%%%%%Qq%QqQ%qQ%
23186C6%%qQ%q%%%%%%%%%%%%%%%%%%%%%%%%%%%%%%%%%%%%%%%%%%%%%%%%Qq%%%%%%%%%%%%%
23171B8%Qq%%%Qq%%%%%%%%%Q%%qQ%%qQ%q%%%%%Qq%QqQ%%q%%%%%QqQq%Q%q%%QqQqQ%%q%%Qq
23155B8%Q%%%%%%%%qQ%q%Q%%qQq%%%Q%%qQqQq%%%%%%%%%Q%qQq%QqQq%%%%%Qq%%Qq%%Qq%%%
23139B8%%%%%%%%%%%%QqQq%%%%%%Qq%%%%%%%%%%%%%%%%%%%%%%%%%%Q%%q%%%%%%%%%%%%%%%
23123B8%%%%%%%%%%%%%%%%%Q%q%Qq%%%%%%%%%%%%Qq%Qq%Q%%%%%qQ%q%%%%%%%Qq%%%%%%%%%
23107B8%%%%%%%%%%%%%%%%%Qq%%%%%%%%%%%%%%%%%%Q%q%%Qq%%%QqQq%%%%%%%%%%%%%%%%%%
23092B8%%%Qq%%%%%%%%%%%%%%%%%%%%%%%%%%%%%%%%%%%%%%%%%%%%Qq%%%%%%%%%%%%%%%%Qq
23076B8%Q%%%q%%%%%%%%%%%%%%%%%%%%%%%%%%%%%%%%%%%%%%%%%%%%%%%%%%%%%%%%%%%%%%Q
23060C6q%%%%%%%%%%%%%%%%%%%%%%%%%%%%%%%%%%%%%%Qq%%Qq%%%%%%%%%%%%%%Q%%%%%q%Q%
23044C6q%%%%Qq%%%%%%%%%%%%Q%q%%Q%%q%%%%%%%%%%%%Qq%%%Qq%%%%%%%%%%%%%%%%%%%%%%
23028B8%%%%%%%%%%%%%%%%%%%%%%%%%%%%%%%%%%%%%%%%%%%%%%%%%%%%%%%%%%%%%%%%%%%%%
23013B8%%%%%%%%%%%%%%%%%%Qq%Qq%%%%%%%Qq%%%%%%Qq%%Qq%%Qq%Q%q%%Qq%%%%%%%%%%%%%
22997B8%%%%%%%%%%%%%%Qq%%%%%%%%%%%%%%%%%%%%%%%%Q%q%%%%Qq%%%%%%%Q%q%Q%q%%%%%%
22981B8%%%%%%%%%%%%%%%%%%%%%%%%%%%%%%Qq%%%%%%%%%%%%%%%%%%%%%%%%%%%%%%%%%%%%%
22965B8%%%%%%%%%%%%%%%%%%%%%%%%%%%%%%%%%Qq%%%%%%%%%%%%%%%%%%%%%Qq%%%%%%%%%%%
22949B8%%%%%%%%%%%%%%%%Qq%%%Qq%%%%%%%%%%%%%%%%%Qq%%%%%%%%%%%%%%%%%%%%%%%%%%%
22934B8%%%%%%%%%%%%%%%%%%%Q%qQq%Q%q%%%%%%%%%Qq%%%%%%%%%Qq%%%Q%q%%%%%%%%%Qq%%
22918B8%%%%%%%%%%%%%%%%%%%Qq%%%%%%%%%%%%%%%%%%%Qq%%%%%%%%%%%%%%%%%%%%%%%%%%%
22902B8%%%%%Qq%%%Qq%%%%%%%%%%%%%%%%%%%%%%%%%%%%%%%%%%%%%%%%%%%%%%%%%%%%%%%%%
22886B8%%%%%Qq%%%%%%%%%%%%%%%%%%%%%%%%%%%%%%%%%%%%%%%%%%%%%%%%%%%%%%%%%%%%%%
22870B8%%%%Qq%%Qq%%%%%%%%%%%%Qq%%%%%%%%%%%%%%%%%%%%%%%%%%%%%%%%%%%%%%%%Qq%%%
22855B8%%%%%%%%%%%%%%%%%%%%%%%%%%%%%%%%%%%%%%%%%%%%%%%%%%%%%%%%%%%Qq%%%Qq%Qq
22839B8%Qq%%%%%%%%%%%%%%%%%%%%%%%%%%%%%%%%%%%%%%%%%%%%%%%%%%%%%%%%%%%%%%%Qq%
22823B8%%%%%%%%%%%%%%%%%%%%%%%%%%%%%%%%%%%Qj6J6j6J6q%%%%j6L2j6Qk4QJ6%k4K4%j6
22810B0QQqQqQq%%%%Qq%%%%%QqQq%%%%%%%%%%%%%%%%%%%%%%%%%%%%%%%%%%%%%Qq%%%%%%%%
22794B8%%%%%%%%%%%%%%%%%%%%%%%%%%%Qq%%%%%%%%%%%%%%%%%%%%Qq%%Qq%%%%%%%%%%%%%%
22778B8%%%%%%%%%%%%%%%%%%%%%%%%%%%%%%%%%%%%%%%%%%%%%%%%%%%%%%%%%%%%%%%%%%%%%
22763B8%%%%%%%%%%%%%%%%%%%%%%%%%%%%%%%%%%%%%%%%%%%%%%%%%%%%%%%%%%%%%%%%%%%%%
22747B8%%%%%%%%%%%%%%%%%%%%%%%%%%%%%%%%%%%%%%%%%%%%%%%%%%%%%%%%%%%%%%%%%%%%%
22731B8%%%%%%%%%%%%%%%%%%%%%%%%%%%%%%%%%%%%%%%%%%%%%%%%%%%%%%%%%%%%%%%%%%%%%
22715B8%%%%%%%%%%%%%%%%%%%%%%%%%%%%%%%%%%%%%%%%%%%%%%%%%%%%%%%%%%%%%%%%%%%%%
22700B8%%%%%%%%%%%%%%%%%%%%%qQQq%%%%%%%%%%%%%%%%%Q%q%%%QqqQQ%%%q%%%%%%%%%%%%
22684B8%%%%%%%%%%%%%%%%%%%%%%%%%%%%%%%%%%%%%%%%%%%%%%%%%%%%%%%%%%%%%%%%%%%%%
22668B8%%%%%%%%%%%%%%%%%%%%%%%%%%%%%%%%%%%%%%%%%%%%%%%%%%%%%%%%%%%%%%%%%%%%%
22652B8%%%%%%%%%%%%%%%%%%%%%%%%%%%%%%%%%%%%%%%%%%%%%%%%%%%%%%%%%%%%%%%%%%%%%
22636B8%qQ%%%%%%%%%%%%%%%%%%%%%%%%%%%%%%%%%%%%%%%%%%%%%%%%%%%%%%%%%%%%%%%%%%
22621B8%%%%%%%%%%%%%%%%%%%%%%%%%%%%%%%%%%%%%%%%%%%%%%%%%%%%%%%%%%%%%%%%%%%%%
22605B8%%%%%%%%%%%%%%%%%%Qq%%%%%%%%%%%%%%%%%%%%%%Qq%%%%%%%%%%%%%%%%%%%%%%%%%
22589B8%%%%%%%%%%%%%%%%%%%%%%%%%%%%%%%%%%%%%%%%%%%%%Qq%%%Qj6QqQQq%%%%Qq%%%%%
22573B8%%%%%%%%%%%%%%qQ%%%%%%%%%%%%%%%%%%%%%%%%%%%%%%%%%%%%%%%%%%%%%%%%%%%%%
22558B8%%%%Qq%%%%%%%%%%%%%%%%%%%%%%%%%%%%%%%%%%%%%%%%%%%%%%%%%%%%%%%%%%%%%%%
22542B8%%%%%%%%%%%%%%%%%%%%%%%%%%%%%%%%%%%%%%%%%%%%%%%%%%%%%%%%%%%%%%%%%%%%%
22526B8%%%%%%%%%%%%%%%%%%%%%%%%%%%%%%%%%qQ%%%%%%%%%%%%%%%%%%%%%%%%%%Qq%%%%%%
22510B8%%%%%%%%%%%%%%%%%%%%%%%%%%%%%%%%%%%%%%%%%%%%%%%%%%%%%%%%%%%%%%%%%%%%%
22494B8%%%%%%%%%%%%%%%%%%%%%%%%%%%%%%%%%%%%%%%%%%%%%%%%%%%%%%%%%%%%%%%%%%%%%
22479B8%%%%%%%%%%%%%%%%%%%%%%%%%%%%%%%%%%%%%%%%%%%%%%%%%%%%%%%%%%%%%%%%%%%%%
22463B8%%%%%%%%%Qq%%%%%%%%%%%%%%%%%%%%%%%%%%%%%%qQ%%%%%%%%%%%%%%%%%%%%%%%%%%
22447B8%%%%%%%%%%%%%%%%%%%%%%%%%%%%%%%%%%%%%%%%%%%%%%%%%%%%%%%%%%%%%%%%%%%%%
22431B8%%%%%%%%%Qq%%%%%%%%%%%%%%%%%%%%%%%%%%%%%%%%%%%%%%%%%%%%%%%%%%%%%%qQ%%
22415B8%%%%%%%%%%%%%%%%%%%%%%%%%%%%%%%%%%%%%%%%%%%%%%%%%%%%%%%%%%%Qq%%%%%%%%
22400B8%%%%%%%%%%%%%%%%%%%%%%%%%%%%%%%%%%%%%%%%%%%%%%%%%%%%%%%%%%%%%%%%%%%%%
22384B8%%%%%%%%%%%%%%%%%%%%%%%%%%%%%%%%%%%%%%%%%%%%%%%%%%%%%%%%%%%%%%%%%%%%%
22368B8%%%%%%%%%%%%%%%%%%%%%%%%%%%%%%%%%%%%%%%%%%%%%%%%%%%%%%%%%%%%%%%%%%%%%
22352B8%%%%%%%%%%%%%%%%%%%%%%%%%%%%%%%%%%%%%%%qJ6j6%J6q%%%%Q%q%%%Qq%%%%%%%%%
22337B8%qQ%Qq%%%Qq%qQ%%%%%%%%%%%%%%%%%%%%%%%%%%%%%%%%%%%%%%%%%%%%%%%%%%%%%%%
22321B8%%%%%%%%%%%%%%%%%%%%%%%%%%%%%%%%%%%%%%%%%%%%%%%%%%%%%%%%%%%%%%%%%%%%%
22306B8%%%%%%%%%%%%%%%%%%%%%%%%%%%%%%%%%%%%%%%%%%%%%%%%%%%%%%%%%%%%%%%%%%%%%
22290B8%%%%%%%%%%%%%%%%%%%Qq%qQ%%qQ%%%%%%%%%%%%%%%%%%%%%%%%%%%%Qq%%%%%%%%%%%
22274B8%%%%%%%%%%%%%%%%%%%%%%%%%%%%%%%%%%%%%%%%%%%%%%%%%%%%%%%%%%%%%%%%%%%%%
22258B8%%%%%%%%%%%%%%%%%%%%%%%%%%%%%%%%%%%%%%%%%%%%%%%%%%%%%%%%%%%%%%%%%%%%%
22242B8%%%%%%%%qQ%%%%%%%%%%%%%%%%%%%%%%%%%%%%%%%%%%%%%%%%%%%%%%%%%%%%%%%%%%%
22227B8%%%%qQ%%%Q%j6QQqQq%%Qq%Qj6%QQqJ6l2N6ql2qqqL2qJ6j6Qj6J6%q%%qQQq%%Qq%%%
22213B8%%%%%%%Qq%%%%%%%%%%%%%%%%%%%%%%%%%%%%%%%%%%%%%%%%%%%%%%%%%%%%%%%%%%%%
22198B8%%%%%%%%%%%%%%%%%%%%%%%%%%%%%%%%%%%%%%%%%%%%%%%%%%%%%%%%%%%%%%%%%%%%%
22182B8%%%%%%%%%%%%%%%%%%%%%%%%%%%%%%%%%%%%%%%%%%%%%%%%%%%%%%%%%%%%%%%%%%%%%
22166B8%%%%%%%%%%%%%%%%%%%%%%%%%%%%%%%%%%%%%%%%%%%%%%%%%%%%%%%%%%%%%%%%%%%%%
22150B8%%%%%%%%%%%%%%%%%%%%%%%%%%%%%%%%%%%%%%%%%%%%%%%%%%%%%%%%%%%%%%%%%%%%%
22134B8%%%%%%%%%%%%%%%%%%%%%%%%%%%%%%%%%%%%%%%%%%%%%%%%%%%%%%%%%%%%%%%%%%%%%
22119B8%%%%%%%%%%%%%%%%%%%%%%%%%%%%%%%%%%%%%%%%%%%Q%q%qQ%%%qQ%%%%%%%%%%%%%%q
22103B0Q%%%%%%%%%%%%%%%%%%%%%%%%%%%%%%%%%%%%%%%%%%%%%%%%%%%%%%%%%%%%%%%%%%%%
22087B8%%%%%%%%%%%%%%%%%%%%%%%%%%%%%%%%qQ%%%%%%%%%%%%%%%%%%%%%%%%%%%%%%%%%%%
22071B8%%%%%%%%%%%%%%%%%%%%%%%%%%%%%%%%%%%%%%%%%%%%%%%%%%%%%%%%%%%%%%%%%%%%%
22055B8%%%%%%%%%%%%%%%%%%%qQ%%%qQ%%%%qQ%%%%%%%%%%%%%%%%%%%%%qQ%%%%%%%%%%%%%%
22040B8%%%%%%%%%%%%%%%%%%%%%%%%%%%%%%%%%%%%%%%%%%%%%%%%%%%%%%%%%%%%%%%%%%%%%
22024B8%%%%%%%%%%%%%%%%%%%%%%%%%%%%%%%%%%%%%%%%%%%%%%%%%%%%%qQ%%%%%%%%%%%%%%
22008B8%%%%%%%%%%%%%%%%%%%%%%%%%%%%%%%%%%%%%%%%qQ%%%%%%%%%%%%%%%%%%%%%%%%%%q
21992B0Q%%%%%%%q%Q%qQ%%%%%%%%%%%%%%%%%%%%%%%%%%%%%%%%%%%%%%%%%%%%%%%%%%%%%%%
21976B8%%%%%%%%%%%%%%%%%%%%%%%%%%%%%%%%%%%%%%%%%%%%%%%%%%%%%%%%%%%qQ%%%%%%%q
21961B0Q%%%%%%%%%%%%%%%%%%%%%%%%%%%%%%%%%%%%%%%%%%%%%%%%%%%%%qQ%%%%%%%%%%%%%
21945B8%%%%%%%%%%%%%%%%%%%%%%%%%%%%%%%%%%%%%%%%%%%%%%%%%%%%%%%%%%%%%qQ%%%%%%
21929B8%%%%%%%%%%%%%%%%%%%%%%%%%%%%%%%%%%%%%%%%%%%%%%%%%%%%%%%%%%%%%qQ%%%%%%
21913B8%%%%%%%%%%%%%%%%%%%%%%%%%%%%%%%%%%%%%%%%%%%%%%%%%%%%%%%%%%%%%%%%%%%%%
21898B8%%%%%%%%%%%%%%%%%%%%%%%%%%%%%%%%%%%%%%%%%%%%qQ%%%%%%%%%%%%%%%%%%%%%%%
21882B8%%%%%%%%%%%%%%qQ%%%%%%%%%qQ%%j6J6Q%%j6Qj6J6q%Q%%%Qq%%%%%%%%qQ%%%%%qQq
21867B0Q%qQ%%%%%%%%%%%%%%%%%%%%%%%%%%%%%%%%%%%%%%%%%%%%%%%%%%%%%%%%%%%%%%%%%
21851B8%%%%%%%%%%%%%%%%%%%%%%%%%%%%%%%%%%%%qQ%%%%%%%%%%%%%%%%%%%%%%%%%%%%%%%
21835B8%%%%%%%%%%%%%%%%%%%%%%%%%%%%%%%%%%%%%%%%qQ%%%%%%%%%%%%%%%%%%%%%%%%%%%
21820B8%%%%%%%%%%%%%%%%q%Q%%%%%%qQ%%qQ%%qQqQ%%%%%%%qQ%%%%%%%%%%%%%%%%%%%%%%%
21804B8%%%%%%%%%%%%%%%%%%%%%%%%%%%%%%%%%%%%%%%%%%%qQ%%%%%%%%%%%%%%%%%%%%%%%%
21788B8%%%%%%%%%%%%%%%%%%%%%%%%%%%%%%%%%%%%%%%%%%%%%%%%%%%%%%%%%%%%%%%%%%%%%
21772B8%qQ%%%%%%%%%%%%%%%%%%%%%%%%%%%%%%%%%%%%%%%%%%%%%%%%%%%%%%%%%%qQ%%qQ%%
21757B8%%%%%%%%%%%%%%%%%q%Q%%%%qQq%QQq%%%%%%%%%%%%%%%%%%%%%%%%%%%%%%%%%%%%%%
21741B8%%%%%%%%%%%%%%%%%%%%%%%%%%%%%%%%%%%%%%%%%%%%%%%%%%%%%%%%%%%%%%%%%%%%%
21725B8%%%%%%%%%%%%%%%%qQ%%%%%%%%%%%%%%%%%%%%%%%%%%%%%%%%%%%%%%%%%%%%%qQ%%%%
21709B8%%qQ%%%%%%%%%%%%%%%%%%%%%%%%%%%%%%%%%%%%%%%qQ%%q%Q%%%%%q%QqQqQq%%%Q%q
21693B0QqQqQ%%%%%%%%%%%%%%%%%%%%%%%%%%%%%%%%%%%%%%qQ%%%%%%%%%%%%%%%%%%%%%%%%
21678B8%%%%%%%%%%%%%%%%%%%%%%%%%%%%%%%%%%%%%%%%%%%%%%%%%%%%%%%%%%%%%%%%%%%%%
21662B8%%%%%%%%%%%%%%%%%%%%%%%%%%%%%%%%%%%%%%%%%%%%%%%%%%%%qQ%q%Q%%qQ%%%%%%%
21646B8%%%%%%%%%%%%%%%%%%%%%%qQQj6Q%%qQ%qQ%%%%%%%%%%%%%%%%%%Qq%%%qQqQ%%%%%%%
21630B8qQ%%%%%%%%%%%%%%%%%%%%%%%%%%%%%%%%%%%%%%%%%%%%%%%%%%%%%%%%%%%%%%%%%%%
21615B8%%%%%%%%%%%%%%%%%qQ%qQ%%%%%%%%%%%%%%%%%qQ%%%%%%%%%%%%%%%%%%%%%%%%%%%%
21599B8%%%%%%%%%%%%%%%%%%%%%%%%%%%%%%%%%%%%%%%%%%%%%%%%%%%%%%%%%%%%%%%%%%%%%
21583B8%%%%%%%%%%%%%%%%%%%%%%%%%%%%%%%%%%%qQ%%%%%%%%%%%%%%%%%%%%%%%%%%%%%%%%
21567B8%%%%%%%%%%%%%%%%%%%%%%%%%%%%%%%%%%%%%%%%%%%%%%%%%%%%%%%%%%%%%%%%%%%%%
21551B8%%%%%%%%%%%%%%%%%%%%%%%%%%%%%%%%%%%%%%%%%%%%%%%%%%%%%%%%%%%%%%%%%%%%%
21536B8%%%%%%%%%%%%%%%%%%%%%%%%%%%%%%%%%%%%%%%%%%%%%%%%%%%%%q%%QqQ%%%%%%%%%%
21520B8%%%%%%%%%%%%qQqQqQ%%qQq%Q%%%%%%%%%%%%%%%%%%%%%%%%%%%%%%%%%%%%%%%%%%%%
21504B8%%%%%%%%%%%%%%%%%%%%%%%%%%%%%%%%%%%%%%%%%%%%%%%%%%%%%%%%%%%%%%%%%%%%%
21488B8%%%%%%%%%%%%%%%%%%%%%%%%%%%%%%%%%%%%%%%%%%%%%%%%%%%%%%%%%%%%%%%%%%%%%
21472B8%%%%%%%%%%%%%%%%%%%%%%%%%%%%%%%%%qQ%%%%%%%%%%%%%%%%%%%%%%%%%%%%%%%%%%
21457B8%%%%%%%%%%%%%%%%%%%%%%%%%%%%%%%%%%%%%%%%%%%%%%%%%%%%%%%%%%%%%%%%%%%%%
21441B8%%%%%%%%%%%%%%%%%%%%%%%%%%%%%%qQ%%%%%%%%%%%%%%%%%%%%%q%Q%%%%%%%%%%%%%
21425B8%%%%%%%%%%%%%%%%q%%Q%%%qQ%%%%%%%%%%%%%%%%%%%%%%%%%%%%%%%%%%%%%%%%%%%%
21409B8%qQ%%%%%qQ%QqqQq%Qj6J6q%Q%%%%%%%%%%%%%%%%%%%%%%%%%%%%qQ%%%%%%%%%%%%%%
21394B8%%%%%%%%%%%%%%%%%%%%%%%%%%%%%%%%%%%%%%%%%%%%%%%%%%%%%%%%%%%%%%%%%%%%%
21378B8%%%%%qQ%%%%%%%%%%%%%%%%%%%%%%%%%%%%%%%%%%%%%%%%%%%%%%%%%%%%%%%%%%%%%%
21362B8%%%%qQ%%%%%%qQ%%%%%%%%%%%%%%%%%%%%%%%%%%%%%%%%%%%%qQ%%%%%%%%%%%%%%qQ%
21347B8q%Q%%%%%%%%%%%%%%%%%%%%%%%%%%%%Qq%%%%%%%%%%%%%%%%%%%%%%%%%%%%%%%%%%%%
21331B8%%%%%%%%%%%%%%%%%%%%%%%%%qQ%%%%%%%%%%%%%%%%%%%%%%%%%%%%%%qQ%%%%%%%%%%
21315B8%%%%%%%%%%%%%%%%%%%%%%%%%%%%%%%%%%%%%%%%%%%%%%%%%%%%%%%%%%%%%%%%%%%%%
21299B8%%%%%%%%%%%%%%%%%%%%%%%%%%%%%%%%%%%%%%%%%%%Qj6QQq%q%J6q%%%%%%%%%%%%%%
21284B8%%%q%%%%J6j6QqQ%%%q%QqQ%%qQ%%%%%%%%%%%%%qQ%%%%%%%%%%%%%%%%%%%%%%%%%%%
21269B8%%%%%%%%%%q%%Q%%qQ%%%%%%%%%%%%%%%%%%%%%%%%%%qQ%%%%%%%%%%%%%%%%%%%%%%%
21253B8%%%%%%%%%%%%%%%%%%%%%%%%%%%%%%%%%%%%%%%%%%%%%%%%%%%%%%%%%%%%%%%%%%%%%
21237B8%%q%Q%q%Q%%%%%%%%%%%%%%%%%%q%%%Qq%QqQ%%%%%%%%%%%%%%%%%%%%%%%%%%%%%%%%
21221B8%%%%%%%%%%%%%%%%%%%%%%%%%qQqQ%%%%%%%%%%%%%%%%%%%%%%%%%%%%%%qQ%%%%%%%%
21205B8%%%%%%%%%%%%%%%%%%%%%%%%%%%%%%%%%%%%%%%%%%%%%%%%%%%%%%%%%%%%%%%%%%%%%
21190B8%%%%%%%%%%%%%%%%%%%%%%%%%%%%%qQ%%%%%%%%%%%%%%%%%%%%%%%%%%%%%%%%%%%%%%
21174B8%qQ%%%%%qJ6qQq%%qQ%%%%%%%Qq%%%%%qQ%%%%%qQ%qQ%q%Q%%%%%qQ%qQ%%%qQ%%%%%%
21158B8%%%%%%%%%qQ%%%qQqQ%qQ%%%%%%qQ%%%%%%%%%%%%%qQ%%%%%%%%%%%%%%%%%%%%%%%%%
21142B8%%%%%%%%%%%%%%%%%%%%%%%%%%%%%%%%%%%%qQ%%%%%%%%%%%%%%%%%%%%%%%%qQ%%%%%
21127B8%%%%%%qQ%%%%%%%%%qQ%%%%%%%%%%%%%%%%%%%%%%%%%%qQqQq%Q%%%q%Q%%%qQ%%%%%%
21111B8%%%%%%%%%%%%%%%%%%qQ%q%%%QqQ%%%%q%Q%%%%%%%%%%%%%%%%%%%%%q%Q%%%%%%%%%%
21095B8%%%%%%%%q%Q%%%%%%%%%%%qQ%%%%%%%%%%%%%%%%%%%%%%qQ%%%qQ%%%%%%%%%qQ%%%%%
21079B8%%%%qQ%%%%%%%%%%%%qQ%q%QqQ%%%%qQ%%%%%%%%%%qQqQ%%%%%%%%%%%%%%%%%%%%%%%
21063B8%%%%%%%%%%%%%%%%%%%%%qQ%%%%%%%%%%%%%%%%%%%%%qQ%%%qQq%Q%%%%%q%Q%%%%%%%
21048B8qQQj6QqQqQ%%%%%%%%%%%%%%%%%%%%qQ%%%%%%%%%%%%%%%%%%%%%%%%%%%%%%%%%%qQ%
21032B8%%%%%qQ%qQ%%%%%%%qQ%%%%qQ%qQ%qQ%%qQ%%%%%%%%%%%%%%%%%%%%%%%%%%%%%%%%%%
21016B8%%%%%%%%%%%%%%%%%%%qQqQ%%q%Q%%%%qQ%%%%%%%%%%%%%%%%%qQ%qQ%%qQ%%%%%%%qQ
21001B8%%%%%qQ%%%%%%%%%%%%%%qQ%%%%%%%%%%%%%%%%%%%%%%%%%%%%%qQ%%%%%%%qQ%%qQ%%
20985B8%%%%qQ%%%%%%%%qQ%qQ%%%%%%%%%%%%%%%%%%%%%%%%%%%%qQ%%%%%%%%%%%%%%%%%%%%
20969B8%%%%%%%%%%%%%%%%%%%%%%%%%%%%%%%%%%%%%%qQ%%%%%%%%%%%%%%%%%%%%%%%%%%%%%
20953B8%%%%%%%qQ%%%%%%%%%%qQ%%%%%%%%%%%%q%Qq%QqQ%qQ%%%%%%qQqQ%q%%Q%%qQ%j6K4q
20938B8Qj6J6Ql2J6m0QL2%K4k4qJ6j6%J6j6Q%qQ%qJ6qq%Q%%qQ%qQ%qQ%%%qQ%%%%%qQ%%%%%
20925B8q%QqQ%%%qQ%%%%%%%%%%%%%%%%%%qQ%%%%%%%%%%%%%%%%%%%%%%%%%%%qQ%qQ%%%%%%%
20909B8%%%%%%%%%%%%%%%%%%%%%%%%%%%%%%%%%%%%%qQ%%%%%%%%%%%%%%%%%%%%%%%%%%%%%%
20893B8%%%%%%%%%%%%%%%%%%%qQ%%%%%%%%%%%%%%%%%%%%%%%%%%%%%%%%%%%qQ%%qQ%%%%%%%
20878B8qQ%%%%%%%qQ%%qQ%%qQ%%%%qQ%%%%%%%%%%%%%%%%%%qQ%%%%%%%%%%%%%%%%qQ%qQ%%q
20862B0Q%q%%Qq%Qq%%Q%%%%%%qQ%%qQ%%%%qQ%%%%%%qQ%%%%%%%%%%%%%%%%%qQ%%%%%%%%%qQ
20846B8%%%%%%%%%%%%%%%%%%%%%%%%%qQ%%%%%%%%%%%%%%%%%%%%%%%%%%%%%%%%%qQ%%qQ%%%
20830B8%%%%%%%%%%%%%%%%%%%%%%%%%%%%%%%%%%%%%%qQ%%%%%%%%%%qQ%%%%qQ%%%qQ%qQ%%%
20814B8%%%%q%J6qqQ%qQ%%%%%%%%%%%%%%%%%%%%qQ%%%qQ%qQ%q%Q%%q%Q%%%%%%%%q%Q%%%%%
20799B8%%%%%qQ%%%%%%%%%%%%%qQ%%%%%%%%%%%qQ%%%%%%%%%%%%%%%%%%%qQ%%%%%%%%%%q%%
20783B0Q%q%QqQ%%%%%%%%%%%%%%%qQ%%%%%%%%%%%qQ%%%%%%%%%%%%%%%%%%%%%%%%%%%%%%%%
20767B8%%%%%%%%%%%%%%%qQqQq%QqQqQ%qQ%qQqQqQ%%%%%%%%%%%%%%%%%%%%%%q%Q%qQ%%%%%
20751B8%%%%%%%%%%%%%qQ%%%%%%%%%%%%%%%%%%%%%%%%%%%%%%qQ%%%qQ%%%%qQ%qQqQq%QqQq
20736B0Q%qQ%qQ%qQqQ%%%%qQ%%%%%%%%%%%%%%%%%%%%%%%%%%%%%%qQ%%%%%%%%%%%%%%%%%%%
20720B8%%%%%%%%%%%qQ%%%%qQ%%%%%%%%%%%%%%%%%%%%%%%%%%%%%%%%%%%%%%%%%%%%%%%%qQ
20704B8%%%Qq%Qj6Q%%qQj6J6%%%%%%%%%%%%%%%%%%%%%qQq%%%%%QqQqQqQqQ%%%%%%%%%%%%%
20689B8%%qQ%qQ%%%qQ%%%%%%%%%%%%qQ%%%%%%%%%%%%%%%%%%%%%%%%%%%%%%%%%%%%%%%%%%%
20673B8qQ%%%qQqQqQ%%%%%%%%%%%%%%%%%%qQ%%%%%qQ%%%%%%%%%%%%%%%%%%%%%qQq%QqQ%%%
20657B8%%%%%%%%%%%%%%%%%%%%%%qQ%qQ%%%%%%%%%%%%%%%%%qQ%%%%%qQ%%%%%%%q%QqQq%Q%
20642B8%%%%qQqQqQqQ%%%%%%%%%%%%%%%%%%%%%%%%%%%%qQ%%%%%%%%%%%%%%%%%%%%%%%%%%q
20626B0Q%%%%%qQqQ%%%%%qQ%%%%%%%%%%%%%%%%%qQq%Q%%%%%qQ%qQ%%%%%%%%%%%%%%%qQ%qQ
20610B8%%qQqQqQ%q%Q%%%%%%%%%%%%%%%%qQqQ%%%%%%%%%qQ%qQ%%%%%%%%%%%%%%%%%qQ%%%%
20594B8%%qQ%%%%%%%qQ%%%%%%%%%%%%%qQ%%%%%%qQ%qQ%qQq%%%Q%%%%%%%%%%%%%%%%%%%%%q
20578B0%%Qq%QqQ%%%q%%Q%%%q%Q%%%qQ%qQqQ%%%qQ%%%%%%%%%%%%%%%%%%%%%%%%%%%%%%%%%
20563B8%%%%%%%%%%%%%%%%%%%%%%%%%%%%%%%q%Q%%%qQ%%qQ%%%%%%%%%%%%%%%%qQ%%%%%%%%
20547B8%%%%%%%%%%%%%%%%%%%%%qQ%%%%qQ%%%%%%%%%%%%%q%Q%%qQ%%%%%%%%%%%%%%%%%%%%
20531B8%%%%%%%%%%%%%%qQ%q%%%Q%q%Q%%%%%%%%%%%%%%%%qQ%%%%%%qQ%%%%%%%%%%%%%q%%%
20515B0Q%%%%%%%%%%%%%%%%%%%%%%%%%%%%%%%%%%%%%%%%%%%%%%%%%%%%%%%%%%%%%%%%%%%%
20499B8%%q%%Q%%%%%%%%%%%%%%%%%%%%%%%%%%%q%QqQ%q%%QqQ%%%qQ%qQ%%%%%q%%%QqQ%%%%
20484B8%%q%Q%%%%q%Q%%%%%%%%%%%%%%%%%%%%q%Qq%QqQqQ%%qQ%%%%%%%%%%%%%qQ%qQ%%%%j6
20468A2K4qj6J6%%qJ6q%qQqQ%qQ%%%%%%qQ%%q%QqQqQ%%%%%%%%%%%q%Q%%%%%%%%%%%%%%%%q
20453B0Q%%%%qQ%%%%%%%%%%qQ%%%%%%%%%%%qQ%%%%%%%%%%q%Q%%%%%qQ%qQ%qQqQ%qQ%%%%%%
20437B8%%%%%%%%%%%%%%%%%%%qQ%%qQ%%%%%%%%%%qQ%%%%%%%%%%%%%%%%%qQ%%%%%qQ%%%%%%
20421B8%%%%%%%%q%Q%%q%%QqQ%%%%%%%qQ%q%Q%%%%qQ%%%%%%%%%qQ%%%%%qQ%%%%%%%%%%%%%
20406B8%%%%%%%%%%%%%%%%qQqQ%%qQ%%%%%%%%%%%%%qQq%Q%%%%%%qQq%Q%%%%%%%%%%%%%%%%
20390B8%%%%%%%%%%%%%%%%%%%%%%%%%%%%%%%%%%%%qQ%%%%%%%%%qQ%%%%%%%%%%%%%%%%%%%%
20374B8%%%%qQ%%%%%%%%%%%%%%%%%%%%%%%%%%%%%%%%%qQ%%%%%%%%%%%%%%%%%%%%%%%%%qQ%
20358B8%%%%%%%%qQ%%%%qQqQ%%%%%%%%%%%%%%qQ%%qQ%%%qQ%%%%%qQ%%Qq%qQq%%QQq%qQ%%q
20342B0Q%%qQ%%q%Q%%q%%Q%%%%%%%%%qQ%%%%%%qQ%%%%qQ%%%%%%%%%%%%%qQq%QqQ%qQ%%%%q
20327B0Qq%Q%qQ%q%Q%%qQ%%qQqQ%%%%%%%q%Q%%%%%qQ%%%%%%%%%%%%%qQ%q%%%Q%%%%%%%%%q
20311B0Q%%%%%%%%%%%%%%%%%%%%%%%%%%%%%%%qQ%qQ%%%%%%%%%%%%%%%%%%%%%%%%%%%%%%%%
20295B8%%%%%%%%%%qQ%%qQ%%%%%%%%%%%%%%%%%%%%qQ%%%%qQ%%%%%%%%%qQ%%qQ%%qQqQ%q%%
20279B0Q%%%%%%%%%%%%%%%%%%%%%%%%%%%%%%%%%%%%%%%%%%%%%%%%%%%%%%%%%%%%%%%%%%%q
20264B0Q%%qQqQ%%%%%%qQ%%%%%%%qQ%q%Q%qQ%%%qQ%qQqQ%%%%%%%%%%%%%%%%%%%%%%%%%%%%
20248B8%%%%qQ%%%%%%%%%%%%%%%%%q%Q%q%%Q%%%%%%%%%%%%%%%%%q%%Q%%%qQqQ%%%qQqQ%q%
20232B0Q%%%%%%q%Q%qQ%%%%%%q%Q%%q%Q%qQqQq%%Q%%%%%%%%%%%%qQ%%%%%%%qQ%%q%%%Q%%q
20216B0Q%qQ%%qQ%qQ%%qQ%qQqQ%%%qQ%%%%%%%%%%%%%%%%%%qQ%%%%%%%%qQ%%%%%%%%%%%%%%
20200B8%%%%%%%%qQ%%%%%%%%%%%q%Q%%%%%%%%%%%%%%%%%%qQ%%%qQ%%qQ%%%%%%%%%%%%%%%%
20185B8%%%qQqQ%%%%qQ%%%%%%%%qQqQ%%%%%%%qQ%%%%%%%qQ%qQ%%%%qQ%%%%%%%%qQ%q%Q%q%
20169B0%%QqQ%%%%%%q%%Qq%%%Q%%%%qQ%%%%%%%%qQ%%%%%%%%%%%%%%%%%%%%%%%%%%%%%%%%%
20153B8qQ%%%%%%%%%%%%%%%%%%%%%%%%%%%%qQ%%%%%%%%%%%%%qQ%%qQqQ%%%%%%%qQ%%%%qQq
20137B0Q%%%%%%%%%%%%%%%%%%%%%%qQ%%%%qQ%%%%qQ%qQ%%%%qQ%%%%%%%%%%%%%%q%Q%q%%%%
20121B0QqQqQqQqQq%%Qq%Q%%%%Qj6Q%%%%%%%%%q%Q%%q%%Qq%Q%qQ%%qQ%%q%%Q%q%QqQ%%%%%
20106B8%%%%%%%%%qQ%%qQ%q%%%%Qq%%%%%%%%%%%%%Qq%%Q%qQ%%%qQ%qQ%qQ%%%%%%%%%%qQ%q
20090B0Q%%%qQ%qQ%%%%q%%Q%%%qQ%%%%%%%%%%%%%%%%%%%%%%%%%%%qQ%%%qQ%%%%%%%%%%%%%
20074B8%%%%%%qQ%%%%%%%%%%%%%%%%%%%%%%%%%%qQ%%%qQqQqQ%q%QqQqQ%qQ%%%%%%%%%%%%q
20058B0Q%%%qQqQ%%%q%Qq%QqQ%%%%%%%%%%%%%%q%%Q%%%%%%%%%qQ%%%%%%%%%%%%%%%qQ%%%%
20043B8%qQ%%%%%%%%qQ%%%%%%%%%%%%%%%%%%%%%%%%%%%%%%%%%%%%%%%%%%q%Q%%q%Q%%qQ%%
20027B8%%qQ%%%%%%qQ%%%%%%%q%Q%qQ%qQ%%%%%%%%%%%%%%%%%%%%%%%%%%%%%%%qQqQ%qQ%%%
20011B8%%%%%%%%%%%qQ%qQ%%%%%%%%%%%%%%qQ%%qQqQq%Q%%qQ%qQ%qQk4J6%%%QQq%q%Q%%%q
19996B0%%%QqQ%%%%%%%%qQ%%qQqQ%qQ%%%%%%%%%%%%%%%qQ%%%%%%%%%%%%%%%%%%%%%%%%%%%
19980B8%%%%%%%qQ%%%qQqQqQ%%%qQ%qQ%q%Q%qQ%%q%Q%q%Q%%qQq%%Q%%%%%%%%%%%%%%%%%%%
19964B8%%%%%%%%%%%%%%%%%%%%%%%%%%%%%%%%%%%%%%qQqQ%%%%%%%%%%%%%%%%%%%%%%%%%%%
19948B8%%%qQqQ%%%qQ%%%%%qQ%%q%Q%%%%%%%%%%%%qQ%%qQ%%%%%%qQq%QqQ%%%%qQ%%%%%%%%
19933B8%%%%%%%%qQ%%%%%%%%%%%%%%%%%%qQ%%%%qQ%%%%%q%%%%%%%%Q%%%qQ%%%q%%Q%%%%%%
19917B8%%%%%%%%qQ%%qQ%q%%%%%QqQ%%qQ%%qQqQq%%QqQqQ%%%%%%%%%%%qQ%%%%%%%%%%%%%%
19901B8%%%%%%%%%%%%%%%%%%%qQ%%%%%%%%%%qQ%%%%%%%%%%%%%%%qQq%Qq%%Q%%%%%%%%%%%%
19885B8%%%%%%%%%qQ%%%j6J6%qQ%%qQq%Q%%qQ%%%%%%qQ%%%q%%QQqqQ%%%%%%qQ%%%%%q%QqQ
19870B8%%%%%%%%%%%%qQ%%%%%%%%%%%%%%%%%%%qQ%%%%%qQqQ%qQq%Q%%qQ%%%%q%Q%%%%%%%%
19854B8qQ%%%%%%qQ%qQ%%%%%%%%%%%%%%%%%%%%%%qQ%%%%%%%%%%%%%%%%%%%%%%%%%%%%%%%%
19838B8%%%%%%%%%%qQ%%%%%%qQ%%%%%%%%%%%%%%q%Qq%Q%q%Q%%%%%%%%%%%%%%%%%%qQ%%%%%
19822B8%%%%%%%%%%%%%%%%%%%%qQqQ%qQ%q%Qq%Q%qQ%%%%%%%%%%%%%%%%%%%%%qQ%%%%%qQ%%
19807B8%%%%%%%%%%%%%%%%%%%%%qQ%%%%%%%%%%%%%%%%%%%%%%%%%%%%%%%%%%%qQ%qQ%%%%%%
19791B8%%%%%%%%%%%%%%%q%Q%%%%%%%qQ%qQq%%Q%q%%QqQ%%%%%qQ%%%%%%%%%%%%%%%%%%%%%
19775B8%%%%%%%%%%%%%%%%%%qQ%%%%%%%%%%%%%%%%%qQqQ%qQj6J6qQ%qQ%%%%%qQ%%%%%%%%%
19760B8%%%%%%%%%qQq%Q%%%%qQqQqQ%qQq%%%Q%%%%%%%%%%%%%%%%%%%%%%qQ%%%%%%%%qQ%%%
19744B8%%qQqQ%%%qQ%q%%Q%q%QqQ%%%%%%%%%%%%%%qQ%qQ%%%q%%Q%q%Q%%%%%%qQq%Q%%%q%Q
19728B8%%%%%qQ%%%%%qQ%%%qQqQ%%%%%qQqQ%%%%%%qQqQqQ%%%%%%%qQ%%qQ%%qQ%%qQ%%%%%%
19712B8%q%QqQq%Q%%%qQ%%%%%%%%%qQ%%QqqQ%%%%%%%%%%%%%%%%%%%%%%%%%%%qQ%%%%%%%%%
19697B8%%%%%%%%%qQ%%%%%%%%%%qQ%%%%%%%%%%%%%%%qQ%%%%%%%%qQ%%%%q%Q%%%%%%%%%%qQ
19681B8%%qQ%%%%%%%%%%%%%%%%qQ%%qQ%q%Q%%%q%%Q%%%%%%%%%%%%%q%Q%%%%%%%%qQ%q%%%Q
19665B8%%%%%%%%%%%%%%%%%%%qQ%qQ%qQ%%%%%%%%%%%%%%q%Q%%%%%%%%%%%%qQ%%%%%%%%%%%
19649B8%%%qQ%qQ%q%Q%qQ%%%qQ%%%%%%%%%%q%Q%%%%qQqQ%%qQ%%%%%%%%%%qQ%%%%%%qQ%%%%
19633B8%%%%%%%%%%qQ%%%%%%%%%%%%%%%%%%%%%%%%%%%%%%%%%%%%%%%%%%%%%%%%%%%%qQ%%q
19618B0%Q%qQ%%%qQ%%%%%%%%%%%%%%%%%%%%%%qQ%%%%%%%%%%%%%%%%%%%%%%%%%%%%%%%%%%%
19602B8%qQ%q%%Qq%%QqQ%%%%%%%%qQqQ%%%%qQ%%%%%%%%%%%%%%%%%%%%q%QqQ%%%%%%%%%%%%
19586B8%%%%%%%%%%%%%qQ%qQ%%%%q%Q%%%%%%%%%%%%%%%%%%%%%qQqQ%%%%qQ%%%%%%qQqQq%%
19570B0QqQq%Q%%qQ%%%qQ%%%%%%qQ%qQ%%q%QqQ%%q%%%%%Q%qQ%%%%qQ%%%%%%%%%%%%%%%%qQ
19554B8%%%qQ%q%%%%%%Q%%%%q%Q%qQqQqQ%%%%%%%%%%%qQqQ%%%%qQ%%%%%%%%%%%%%%%%%%%%
19539B8%%%%%%%%%%%%%%%qQ%%%qQ%%%%%%qQqQq%%%QqQqQ%%%%qQ%%%%%%q%Q%%%q%%Q%qQqQq
19523B0Q%%qQ%%%qQ%%%%%%%%%%%%%%%%%%%%%q%Q%%%%%%%%%%%%%%%%%%%%qQ%%%qQ%qQ%%%%%
19507B8%%%%%%%%%q%Q%%%%%%%%%%%%%%%%%%%%%%%%%%%%%%%%%%%%%%%%%%qQqQ%%%%q%Q%%%%
19491B8%%q%QqQ%%%%%%qQq%%Qq%%%%Qq%Q%q%%Q%q%%%Q%%%qQ%%%qQ%%qQ%%%%%%%%%%%qQ%%q
19475B0Q%%%%%q%Q%%%%%%%q%Q%qQqQ%%%%%%%%%%%%%%%%%%%%qQqQ%%%%%%qQ%%%%qQ%%%%%qQ
19460B8%%qQ%%%qQ%%%%%%%%%%qQ%%%%%%%%%%%%%%%%%%%%%qQ%%%%%qQ%q%%%Q%q%QqQqQ%%qQ
19444B8%%%%%q%%Q%qQqQ%q%Q%%%%qQ%%%%%%q%QqQ%%%%q%Q%%%%%%%%%%%%qQ%%%%%%%%%q%Qq
19428B0QqQ%%%%%q%%QqQq%%%%%Qq%Q%q%QqQ%%%%%%qQ%%q%Q%qQ%qQ%%qQ%%%%%%q%Q%%qQq%Q
19412B8%q%%%%%%%%%%Q%qQ%%qQqQ%q%%Q%qJ6k4J6%qQq%%Q%%%qQ%%%%%%%%%%%%%%%%%%%%%q
19397B0%Q%%qQ%%%%%%%%%%%%%%%%%%%%%%%%%%%%%%%%%%%%%%%%%%%%qQ%%q%%Q%%%%qQ%%%%%
19381B8qQqQ%%qQq%Q%%%%%%%%%%%%%%%%%qQ%%%%%%%%%%%%%%%%%qQ%%%q%Q%%%%%%%%%%%%%%
19366B8%%%q%Q%%%%%%%qQ%%q%Q%%%%%%%qQqQ%%q%Q%%%%%%%q%Q%%qQ%%%%%%%%%qQ%qQqQ%%%
19350B8%%%%%%%%%qQ%%%%qQ%%%%qQqQqQ%q%%Q%q%Q%%qQ%%q%Qq%%QqQ%%%%%%%%%%qQ%%%%%q
19334B0QqQq%%%Q%%%%%%%%%q%%%%QqQ%%%q%QqQ%%qQ%%%%%%%%%%%%%%%%%%%%%%%%%%q%Q%%%
19318B8%%%%%%qQ%%%%%qQ%%%%%%%%%%%%%%%%%%%%%%q%Q%%%%q%%QqQq%%Q%%%%%%%%%qQ%%qQ
19302B8%%%%%%%%%%%%%%%%%%q%Qq%Q%%%Qq%%%qQqQq%%%Q%qQ%%%q%Q%%qQq%%Q%%%%%%%%%qQ
19287B8%%qQqQ%%%%%qQ%%%%%q%%Qq%QqQ%%%%qQ%%%%%%qQ%q%QqQqQq%%Q%qQ%%%%%%%%%%%%%
19271B8%%%%%%%%%q%Q%%qQ%%qQ%%%%%%%%%%%%%%qQ%%%%%qQ%%%q%%Q%qQ%%%%%%%qQ%%%%qQ%
19255B8%%%%%%%%%%%%%%%%%%%%%%%%%%%%%%%%%%%%%%q%Q%qQq%Q%qQ%%%%%%qQ%%%%%%%%%%%
19239B8%%%%%q%Q%%%%%%%qQ%%%%%%%%%%%%q%Q%%%qQq%%Q%%%qQ%%%%%%%qQ%%%%%%%%%%%%%%
19223B8%%%%%%%%%%%%%%%%%%q%Q%%%%%%qQ%qQq%Q%q%Q%%%%qQ%%%%%%qQ%%qQq%Q%%%%%%qQ%
19208B8qQqQ%%%%qQqQ%%%qQ%qQ%%qQ%q%%Q%%%%q%%QqQ%qQ%q%QqQqQ%%%%%q%Q%%%%%qQ%q%Q
19192B8%%%%qQq%Q%%qQ%q%%Q%%qQqQ%%%%%%qQqQqQ%%%%qQ%%%%%%%%qQqQ%%%%%%%%%%%%%%%
19176B8%%%%%%q%Qq%QqQ%q%QqQ%%%%%%%%%q%QqQ%%%%qQ%%%%%%%%%%qQ%%%%%%%%%%qQqQ%q%
19160B0Qq%%%%%%QqQ%%q%Q%qQ%q%QqQ%qQ%%%%%%%%%%%%%qQ%%%%qQ%%qQ%%%%%%%%%%%%qQqQ
19145B8%qQq%%%Q%%qQq%QqQqQq%Qq%Q%%%%qQ%%%%%%%%%%%%%%qQ%%%%%%%%%%%%%qQ%%q%%%%
19129B0%%%Q%qQ%qQ%q%Q%%%%%%%%%%%%%%%%%%%%%%%qQqQ%%qQqQ%%%%%%%%qQq%Q%%%qQqQ%%
19113B8qQ%%qQqQq%%QqQqQ%%%%%%%%%%%%%%%q%Q%%%%%%%%%%%%%%%%%%%%%%%%%%%%%%%%%%%
19097B8%%%%%qQ%%%%%%%%%%%%%q%%QqQqQq%%%%%%%%%%%%Q%%%qQ%%%%%%%%%%%%%%%%qQ%%%%
19081B8%%%%%%%%%%%%%%%qQqQ%%qQ%%qQ%%%%%%%%%%%%%%%%%%qQ%qQ%%qQqQqQqQ%%%q%%Q%%
19066B8%Qj6Q%%qQ%QqqQ%qK4j6qj6J6j6K4qJ6j6Q%q%QqQqQ%%%%%%%%%%qQ%q%%Q%%%%%%%%%
19052B8%%%%%%%%%%%%%%%%%qQqQqQqQ%%%%%qQ%%%%%%%%%%%%%%%%%%%%%%%%%%%%%%%%%%%%%
19036B8%%%qQ%qQ%%%%%%%%%%%%%%%%%%qQ%%%%%%q%Q%qQqQqQ%%%%%%%%qQ%%qQ%%%%qQ%%%%%
19020B8%%%%%%qQ%%%%%%%%%%%%%%qQ%qQq%Q%%q%%Qq%%%%%Qq%Q%%%%%%%%%%%%%%%%%%q%%%Q
19004B8%%%%qQ%%%%%%%qQ%%%%%%qQ%%%%%%%%%%%%%%%%%%%qQ%%%%qQ%%q%%Q%%%%%qQ%%%%%%
18989B8qQq%%%%Qq%Qq%QqQ%%%%%qQqQ%q%%Q%%%%%%%%%%%%%qQqQ%%%%%%%qQ%%%%%%%%%qQ%%
18973B8%qQ%%%%%%%%%%%%%%%%%%%%%%%%%%%%%%%%%%%%%%%%%%%%%%%%%%%%%%%%qQ%%%qQ%%%
18957B8%%%%%%%%%%%%%%%%%%%qQ%%%q%Q%qQqQqQ%%%%%%qQ%%%%%%%qQqQ%%%qQ%qQqQ%%%%%%
18941B8%%%%q%Q%%%Qq%%j6K4j6Qq%Q%%%%%%%%%%%%%%q%Q%%%%%%%%%%%%%%%%%%%%%%%%%%%%
18926B8%%%%%%%%%%%%%%%%%%%%%%%%q%Q%qQ%%q%Q%q%%Q%qQ%qQ%%%qQ%qQ%%q%%%Q%qQqQ%%%
18910B8%%%%%%%%%%%qQ%qQ%%%qQ%%%%%%%%%%%%%%%%%%%%%%%%%%%%%%%%%%%%%%%%%%%%%%%%
18895B8%%qQqQqQqQ%%%%%q%%%%%%%Qq%Q%%%qQ%q%Q%%%%%q%Q%%%%%%%%qQ%%%%q%%%%QqQqQq
18879B0QqQqQ%qQ%%qQ%%qQq%Q%%%%%%%%%%%%%q%QqQq%Q%%q%Qq%%%%Q%%%qQ%%%%%%%%%%%%%
18863B8qQq%Q%qQqQq%Q%q%Q%%%qQ%%qQq%Q%%%qQ%qQ%%%%%%%%%%%%%%%%%%%%%qQ%%%%%%%qQ
18847B8%%%%%%%%%%%%qQ%%qQ%qQqQ%%%%qQ%%%%%%%%%%%%%%%qQ%qQ%qQ%q%%Q%%%%%%%%%%%%
18831B8%%%%%%%%%%%%%%%qQqJ6j6QqQqQ%%%%%qQ%%%%%%%%%%%%%%%%%%%%qQ%%%qQ%%%%%%%%
18816B8%%%%%%%%%%%%%qQ%%%%%%%%%qQ%%qQ%%%%%%%%%%qQ%%qQ%%%%%%%%%%%%%%%%%%%%%%%
18800B8%%%%%%qQ%%%%%%%%%%%%%%%%q%Q%%%%%%%qQqQq%QqQ%qQqQ%%%qQ%%qQ%%qQ%qQ%%%%%
18784B8%%%%%%%%qQ%%%%%%%%%%%%%%%%%qQ%%%%%%%%%%%qQ%qQ%%%%%%%%%%%%%%qQ%%%%%%q%
18769B0%Q%qQ%%%%%%%%%%qQ%%%%%%qQ%%qQqQqQ%%%%%%%qQqQ%%%%%%%%%%%%%%%%%%qQ%%%%%
18753B8%%%%%%%%qQ%%q%%%%Q%%%%%%%%qQ%%%%%%%%%%%%%%%%%%qQ%%%%%%%qQ%qQ%%%%%%%%%
18737B8%qQ%q%%%Q%%q%Q%%%%%%%%%%%qQ%%%qQ%qQ%%%qQ%%qQ%%qQ%%qQ%qQqQ%%%%qQq%Q%%%
18721B8q%%%%%%Qq%Q%%%qQqQ%qQ%%%%%%%%qQ%%%%%qQ%qQ%qQ%qQ%%q%Q%%%%qQ%%%%%%%%%%%
18706B8%%%qQ%q%%QqQ%%%%%qQ%%%qQ%q%Q%qQ%%%%%%%%%qQ%%%%%%%%%%%%%%%%qQ%%%%%qQ%%
18690B8%%%%qQ%%%%%%%%%%%%%%%%%%%%%qQ%%%%%%%%qQ%%%qQqQq%Q%%%%%%%%%%%%%%%%%%%%
18674B8%%%%%%%%%%qQ%%%%qQ%%%%%%%%%%%q%%%Qq%%Q%%qQqQq%Q%qQqQ%%%%%%%%%%%%%%%%%
18658B8%%%%q%%%QqQ%%q%%QqQ%%%%qQqQ%%%qQqQ%%qQ%%%q%%QqQq%QqQq%%%%Q%%q%Q%%%%%q
18642B0Q%qQqQ%%%qQ%%%%%%%%%%%%%%%qQqQqQqQ%qQqQ%%%%%%%qQ%%%%%%%%%%%qQ%%%%%%%%
18627B8%%%%%%%%%qQ%%%%%%%%qQ%%%%%%%%%%%%%%%%%%%%q%%QqQqQq%Q%qQ%%qQ%%%%%%%%%%
18611B8%%qQ%%%%%%qQ%%%%%%%%%%%%%%qQ%%%%%q%%QqQ%qQqQ%%q%%Qq%%Q%qQ%%q%Q%%qQ%qQ
18595B8%qQq%Q%%Qk4QJ6j6J6q%%%q%QqQ%%%qQ%%%%%%%qQ%qQ%qQ%%%%%%%%%%%%%%%%%%%%%%
18580B8%%%%qQ%%%%%%%%%%%%%%%%%%%%%%%%%%qQ%%%qQ%qQ%%%%%%%%%%%%%%%%%%%%qQ%%qQq
18564B0%Q%%%qQ%%%%%%qQ%%%%qQq%%%Q%%%q%%%Q%%qQ%%%%%qQ%%qQqQ%%%%qQ%%q%%QqQqQ%%
18549B8qQ%%%%qQ%%%%qQ%%%%%%%%%%%%%q%Q%%%%%%%%%%%%%%%%%%%%%%%%qQ%%qQ%%qQq%%Qq
18533B0Q%q%%Q%%qQ%%%%%%%%%%%%qQ%%qQqQ%%%%%%%%%%%%%%%%%%%%%%%%%%%%%%%%%%%%%%%
18517B8%%%%%%%%%%%%%q%Q%%%%qQ%qQ%%%%%q%QqQqQqQ%%qQ%%%qQ%qQ%%%%%%%%%%%%%%%%%%
18501B8%%%%%%%%%%%%%%%%%%%%%%%%%%%%%%%%%%qQ%qQ%%qQ%%%qQ%qQ%qQ%%%%%%%%%%%%%%%
18485B8%%%%%%q%%Q%%%%%%%%%%%%%%%%qQq%Q%%%qQ%%%%%qQ%qQ%q%Q%qQ%qQq%Q%Qqq%%qJ6Q
18470C6%%k4%QJ6%%j6%%QqQqQqQ%q%Q%%%%%%qQ%%qQq%Q%qQqQ%qQ%%%qQqQqQ%%%%%%%%%%%q
18455B0Q%%%%%%%%%%%%%%%%%%%%%%%%%%%%%%%%%%%%%%%%%qQ%%%%%%%qQ%%%%%%qQ%q%Q%q%Q
18439B8%%%%qQqQ%%%%%%qQ%%%%%%%%%qQ%qQ%qQ%%%%%%%%%%%%%%%%%%%%%%%%%qQqQ%%%%%%%
18423B8%%%%%%%%%%%%%%%%%%%%%%%%q%QqQ%qQqQ%%%%%%%%%%%%%qQqQ%q%QqQqQ%qQ%qQ%%%q
18407B0Q%%%qQ%%%%%%q%Q%%%%%%%%%qQ%%%%%%%%%%%%%%%%%%%%%%%%%%%%%%%%%%%%%%%%%%%
18391B8%%%%qQ%%%%%qQ%%%%%%%%%%%%%%%%%%%%%%%%%%%%%%%%qQ%%%%%qQ%%%%%%qQqQq%QqQ
18376B8%%%%%%%%%%%%%%%%%%%%%%%%%%%q%Q%%%%%qQ%%%%%%%%%%%%%%%%%%%%%q%%QqQqQ%q%
18360B0Q%q%%Q%%%qQ%%%q%%Q%%%%%%%%%%%%%%qQq%%Q%qQ%%qQ%%%%%%qQ%%%%%%%%%%%%%%%%
18344B8%%%%%%%%%%qQ%%%q%%%Q%q%%%Qq%Q%%%%%%%%qQ%%%%%%%%%%%%%qQ%%%%%%%%%%%%%%%
18328B8%%%%%%qQ%%%%qQ%qQ%%qQqQ%%qQq%QqQ%%%qQ%%%%qQq%%%%%%QqQqQ%%%%qQ%%%%%%%%
18313B8qQ%%%%%%qQ%%qQ%%%%%qQq%Qq%Qq%Q%%%%%%%%%%%%%%%%%%%%%%%%q%Qq%%Q%%%%%%%%
18297B8%%%%%%%%%%%%%qQqQ%%%%%%%qQ%%%qQ%qQ%%%%%%%%%%%%%%%%%%%%%%%qQ%%%%%%%%%%
18281B8%%%%%%qQ%%%%%%%%%%%%%%%%%%%%%%%%%%%%%%%%%%%%%%qQ%%%%%%%%%%%%%%%%%%%%%
18265B8%%q%Q%qQ%%%qQ%%%%%%%%%%%%%%%%%%%%%%%%%%%%%%%%%%%qQ%qQ%%%%%%%%%%%%qQ%%
18249B8%%%%%qQ%%%%%%%%%%qQqQ%%%%%%qQqQ%%%%%q%%%Qq%Q%%%%%%%%%%%%%%%%%%%%%qQ%%
18234B8%%%qQ%qQ%%%%%%%%%%%qQ%%%qQ%%%%%%%%%%%%%%%%%%%%%%%%%%%%%%%%%%%%%%%%%%%
18218B8%%%%%%%%%%%%%%%%%qQ%%%%%%%%%%%%%%%%%%%%%q%%QqQ%%%%%%%%%%%%%%%%%%%%%%%
18202B8%%%%%%%%%%%%%%%%%%%%%%%%%%%%%%%%%%%%%%%%%%%%%%%%%%%%%%%%%%%%%%%%%%%%%
18186B8%%%%%%%%%%%qQQq%%%qQ%qQ%%qQ%%%%%%qQqQ%q%Qq%%Q%%%%%qQ%%q%%%Q%%%%%%%%%%
18170B8%%%%%%%qQqQ%%%%%%%%%%%%%%qQ%%%%%%%%%%%qQ%%%%%%%%%%%%%%%%%%%%%%%%%%%%%
18155B8%%%%%%q%Q%%%%%%%%qQ%%%%%qQ%%%%%%qQ%%%%%%%%%%%%%%%%%%%%%%%%%qQ%%%%%%%%
18139B8%%%%%%%%%%%%%%%%%%%qQ%%%%%%%%qQ%%%%qQ%%%%%%%%%%%q%%Q%q%%Q%qQ%qQ%QQj6q
18123B0Q%qQ%%%qQ%%%%%%qQ%%%%%%qQ%%%%%%%%%%%qQ%%%%%%%%%%%%%%%%%%%%%qQ%%qQ%%qQ
18107B8%%qQ%%qQ%%%%%%%%%%%%%%%%%%%%%%%%%%%%%%%%%%%%%%%%%%%%%%%%%%%%%%%%%%%%%
18092B8%%%%%%%%%%%%%%%%%%%%%%%%%%%%%%%%%%%%%%%%%%%%%%%%%qQ%%qQ%%%%%%%%%%%%%%
18076B8%qQ%%%%%%%%%%%%%%%%%%%%%%%%%%%%qQ%%%%%%%%%%%%%%%%%%%%%%%%%%%%%%%%%%%%
18060B8%%%%%%%%qQ%qQ%%%%%%%%%%%%%%%%%%%qQ%%%%qQ%%%%%%%%%%%%%%%%%%%%%%%q%%%Qq
18044B0%Q%%%%%%%%%%%%%%%%%%%%%%%%%%%%%%%%%%%%%%%%%%%%%%%%%%%%%%%%%%%%%%%%%%%
18028B8q%Q%%%qQ%%%%%%%%%%%%%%%%%%%%qQqQq%Q%%%%%%%%%%%%%%%%%%%%%%%%%%%%%%%%%%
18013B8%%%%qQ%%%%%%%%%%%qQ%q%QqJ6%qqQ%%%%%%%qQ%qQ%%%%qQ%%%%qQ%%%qQqQ%%qQ%%%%
17997B8%qQ%%%%%%%%%%%%%%%%%%qQ%%%%%%qQ%%%%%qQqQ%%%%%qQqQ%%%%%%%%%%%%%%%%%%%%
17981B8%%%%%%%qQqQ%%%%%%%%%%%%%%%%%%%%%%%%%%%%%%%%%%%%%%%qQ%qQ%%%%%%%%%%%%%%
17966B8%%%%%%%%%qQqQqQ%%%%%%%%%%%%%q%QqQqQ%%%%%%%%%%%%%%%%%%%%qQ%%%%%qQ%%%%%
17950B8qQ%%%qQqQ%%q%%%%Q%%%%%%%%%%%%%%%%%q%%Q%%%%%%%%%%%%%%%%%%%%%%%%%%%%%%%
17934B8%%%%%%%%%%%%%%%%%%%%%%%%%%%%%%%%%qQ%%%%%%%%q%%%%%%Q%%%qQ%%%%%%%%%%qQ%
17918B8qQ%%%%%%%%%%%%%%%%%%%%%%%%%%%%%%%%%%%%%%%%%%%%%%%%%%%%%%%%%%%%%%qQqQ%
17902B8%%%%%%%%%%%%%%%%%%%%%%%%%%%%%%%%%%%%%%%%%%%%%%%%q%Q%%Qj6%J6q%%%%%%%%%
17887B8%%%%%%%%%%%%%%%%%Qj6QqQ%%%%%%%%%%%%%%%%%%%%%%%%%%%%%%%%%%%%%%%%%%%%%%
17871B8%%%%%%%%%%%%%%%%%%%%%%%%%%%%%%%%%%%%%%%%%%%%%%%qQ%%%%%%%%%%%qQ%%%%%%%
17856B8%%%%%%%%%%%%%%%%%%%%%%%%%%%%%%%%%%%%%%%%%%%qQ%%%%%%%%%%%qQ%%%%%%%%qQ%
17840B8%%%%%qQ%%%%%%%%%%%%%%%%%%%%%%%%%%%%%%%%%%qQ%%%%%%%qQ%%qQ%qQ%%%%%%%%qQ
17824B8%%%%%%%%%qQ%%%qQ%%%%%%%%%%%%%%%%%%%%%%%q%Q%%%%%%%%qQ%qQ%%%%%%%%%%qQ%%
17808B8%%%%%%%%%%%%qQ%%%qQ%%%%%%%%%qQ%%%%%%%%%%%%%%%%%%%qQ%%%%%%%%qQ%qQ%%%%%
17793B8%%%%%%%%%%%%%%%%%%%%%%%%%%%%%%%%%%%%%%%%%qQq%Q%%%%%qQ%%%%%%%%%%%%%qQ%
17777B8%%%%qQ%%%%%%%%%%%%%%qQ%%qQqQ%%%%%%%%q%Q%%%%%%%q%Q%%%%%qQqQqQ%%qQ%%qQ%
17761B8qQ%%%%qQq%%Qq%%Qq%Q%qQ%%%%%%%%%%%%%%%%%%%%%%%%qQ%%%%%%%%%qQ%%%qQ%%%%%
17745B8%%%%%%%%%%%%%%%%%%%%%%%%%%%%%%%%%%%%%%%%%%%%%%%%%%%%%qQ%%%%%%%%%%%%qQ
17729B8%qQ%%%%%%%%%%%%%%%%%%%%%%qQ%q%Q%%q%Q%%%%%%%%%%%%%qQ%qQ%%%%%q%Qq%%%%Qq
17714B0%Qq%Q%%%%%%%q%Qq%%Qq%Qq%Q%%%%%%%%%%%%%%%%%%%%%%%%%%%%%%%%%qQ%%%%%%%%%
17698B8%%%%%%%%%%%%%%%%%%%%%%%%%%%%%%%%%%%%%%%%%%%%%%%%%%%%%%%qQ%qQ%%%%%%%%%
17682B8%%%%%%%%%%%%%%%%%%%%%%%%%%%%%%%%%%%%%%%%%%%%%%%%%%%%%%%%%%%%%%%%%%%%%
17666B8%%%%%%q%Q%%%%%%%%%%%%qQ%%%%%%%%%qQ%%%%%%%%qQQj6qQ%%%Q%%%%%%%qQ%%%qQ%%
17651B8qQ%%%%q%Q%%%%%qQ%qQ%%qQ%%%%%%%%%%%%%%%%%%%%%%qQ%%q%%%Q%%%%%%%%%%%%%%%
17635B8%%%%%%%%%%%%%%%qQ%%%%%%%%%%%%%%%%%%%%%%%%%%%%%%%%%%%%%%%%%%%%%%%%%%%%
17619B8%%%%%%%%%%%%%%%%%%%%%%%%%%%%%%%%%%%%%%%%%%%%%%%%%%%%%%%%%%%%%%%%%%%%%
17603B8%%%%%%qQqQ%q%Q%%%%%%%%%%%%%qQ%%%%qQ%q%Q%%%%qQ%%%%%%%%%%%%%%%%%%%%%%%%
17587B8%%%%%%%%%%%%%%%%%%%%%%%%%%%%%%%%%%%%%%%%%%%%%%%%%%%%%%%%%%%%%%%%%%%%%
17572B8%%%%%%%%%%%%%%%%%%%%%%%%%%%qQqQ%%%q%QqQ%%%%%%%%%%%%%%%%%%%%%%%%%%%%%%
17556B8%%%%%%%%%%%%%%%%%%%%%%%%%%%%%%%%%%%%%%%%%%%%%%%%%%%%%%%%%%%%%%%%%%%%%
17540B8q%Q%%%q%J6j6Q%%%%q%Q%%%%%%%%%%q%Q%%q%%J6%%q%%%%%qQ%qQ%%%qQ%%%%%%%%%%%
17525B8%%%%%%%%qQ%%%qQ%%%%%%%%%%%%%%%qQ%%%%%qQ%%%%%%%%%%%%%%%%%%%%%%%%%%%%%%
17509B8%%%%%%%%%%%%%%%%%%%%%%%%%%%%%%%%%%%%%%%%%%q%Q%%%%%%%%%%%%%%%%%%%%%%%%
17493B8%%qQqQ%%%%%%%%%%%%%%%%%%%%%%%%%%%%%%%%%%%%%%%%%%%%%%qQ%q%Q%Qj6Q%%%%%%
17478B8%%%%%%%%%%%%%%%%%%%%qQ%%%%%%%%%%%%%%%%%%qQ%%%%%%%%%%%%%%%%%%%%%%%%%%%
17462B8%%%%%%%%%%%%%%%%%%%%%%%%%%%%%%%%%%%%%%%%%%%%%%%%%%%qQ%%%q%QqQ%%%%%%%%
17446B8%%%%%%%%%%qQ%%%%%%%%%%%%%%%%%%%%%%%%%%%%%%%%%%%%%%%%%%%%%%%%%%%%%%%%%
17430B8%%%%%%%%%%%%qQ%%%%%%%%%%%%%%%%%%%qQ%%%%%q%%%%%%Q%qQ%%%qQ%%%%%%qQ%qQ%q
17415B0%Q%%qQ%%%%%%%%%%%%%%%%%%%%%%%%%%%%%%%%qQ%q%%Q%qQqQ%%%%%%%%%%%%%%%%%%%
17399B8%%%%%%%%%%%%%%%%%qQ%%%%%%%%%qQ%%%%%%%%%%%%%%%%%%%%%%qQ%%%%%%qQ%%%%%%%
17383B8qQ%%%%%%%%%%%%%%%%%%%%%%%%%%%%%%%%%%%%%%%%%%qQ%%%%%%%%%%%%%%%%%%%%%%%
17367B8%%%%%%%%%%%%%%%%%%%%%qQ%%%%%%%%%%%%%%%%%%%%%%%%%%%%%%%%%%%qQ%%%%%%%%%
17351B8%%%%%%%%%%%%%q%%Q%%%%%%%%%%%%%%%%%%%%%%%%%%%%%%%%%%%%%%%%%%%%%%%%%%%%
17336B8%%%%%%%%%%qQqQ%%%%%%%%%%%%%%%%%%%qQ%%%%%%%%%%%%%%%%%%%%%%%%%%%%%%%%%%
17320B8%%%%%%%%%%%%%%%%%%%%%%%%%%%%%%%%%%%%%%%%%%%%%%%%%%%%%%%%%%%%%%%%%%%%q
17304B0QqQ%%%%%%%%%%%q%Q%%%%%qQ%qQqQ%%q%%Q%%%%%%%qQ%%%%%%%%%%%%%%%%%%%%%%%%%
17288B8%%%%%%%%%%%%%%%%%%%%%%%%%%%qQqQ%%%%%%%%%%%%%%%%%%%%%%%%%%%%%%%%%%%%%%
17272B8%%%%%%%%%%%%%%%%%%%qQ%%qQ%%%%%%%%%%%%%%%%%%%%%%%%%%%%%%%%%%%%%%%%%%%%
17257B8%%%%%%%%%%%%%%%%%%%%%%%%%%%%%%%%%%%%%%%%%%%%%%%%%%%q%Q%%%%%%%%%%%%%%%
17241B8%%%%%qQ%%%%%%%%%%%%%%%%%%%%%%%%%%%%%%%%%%%%%%%%%%%%%%%%%%%%%%%%%%%%%%
17225B8%%%%%%%%%%%%%%%%%%%%%%%%%%%%%%%qQ%%%%%%qQ%%%%%%%%%%%%%%%%%%%%%%%%%%%%
17209B8%Qq%%%%%%%%%%%Qq%%%%%%%%%%%qQ%%%%%%%%%%%%%%%%%%%%%%%%%%%%%%%%%qQ%%%%%
17194B8%%Qq%qQ%%QqQqq%Q%qQ%q%K4j6qqQK4l2N6r6R6m8J6M0m8J6j6j6J6%%qJ6%%qQ%q%%%
17181B8Qj6Q%%qQ%%%%%%%%%%%%%%%%%%%%%%%%%%%%%%%%%qQ%%%%%%%%%%%%%%%%%%%%%%%%%%
17166B8%%%%%%%%%%%%%%%%%%%%%%%%%%%%%%%%%%%%%qQ%%%%%%%%%%%%%%%%%%%%%%%%%%%%%%
17150B8%%%%%%%%%%%%%%%%%%%%%%%%%%%%%%%%qQ%%%%%%%%%%%%%%%%%%%%%%%%%%%%%%%%%%%
17134B8qQ%%%%%%%%%%%%%%%%qQ%%%%%qQ%qQ%%%%%%%%%%%%%%%%%%%%%%%%%%%%%%%%%%%%%%%
17118B8%%%%%%%%%%%%%%%%%%%%%%%%%%%%%%%%%%%%%%%%%%%%%%%%%%%%%%%%%%%%%%%%%%%%%
17103B8%%%%%%%%%%%%%%%%%%%%%%%%%%%%%%%%%%%%%%%%%%%%%%%%%%%%%%%%%%%%%%%%%%%%%
17087B8%%%%%%%%%%%%%%%%%%%%%%%%%%%%%%%%%%%%%%%%%%%%%%%%%%%%%%%%%%%%%%%%%%%%%
17071B8%%%%%%%%%qQ%%%%%%%%%%%%%%%%%%%%%%%%QqqQqQ%%%%%%%%%%%%%%%%%%%%%%%%%%%%
17055B8%%%%%%%%%%%%%%%%%%%%%%%%%%%%%%%%%%%%%%%%%%%%%%%%%%%%%%%%%%%%%%%%%qQ%%
17039B8%%%%%%%%%%%%%%%%%%%%%%%%%%%%%%%%%%%%%%%%qQ%%%%%%%%%%%%%%%%%%%%%%%%%qQ
17024B8%%%%%%%%%%%%%%%%%%%%%%%%%%%qQ%%%%%%%%%%%%%%%%%%%%%%%%%%%qJ6q%%%%%%%%%
17008B8%%%%%%%%%%%%%%%%%%%%%%%%%%%%%%%%%%%%%%%%%%%%%%%%%%%%%%%%%%%%%%%%%%%%%
16992B8%%%%%%%%%qQ%%%%%%%%%%%%%%%%%%%%%%%%%%%%%%%%%%qQ%%%%%%%%%%%%%%%%%%%%%%
16977B8%%%%%%%%%%%%%%%%%%%%%%%%%%%%%%%%%%%%%%%%%%%%%%%%%%%%%%%%%%%%%%%%%%%%%
16961B8%%%%%%%%%%%%%%%%%%%%%%%%%%%%%%qQ%Qq%q%%Q%%%%%%%%%%%%%%%q%Q%%%%%qQ%%%%
16945B8%%%%%qQ%%%%%%%%%%%%%%%%%%%%%%%%%%%%%%%%%%%%%%%%%%%%%%%%%%%%%%%%%%%%%%
16929B8qQ%%%%%%%%%%%%%%%%%%%%%%%%%%%%%%%%%%%%%%%%%%%%%%%%%%%%%%%%%%%%%%%qQ%%
16913B8%%%%%%%%%%%%%%%%%%%%%%%%%%%%%%%%%%%%%%%%%%%%%%%%%%%%%%%%%%%%%%%%%%%%%
16898B8%%%%%%%%%%%%%%%%Qq%%%%%%%%%%%%%%%%%%%%%%%%%%%%%%%%%%%%%%%%%%%%%%%%%%%
16882B8%%%%%%%%%%%%%%%%%%%%%%%%%%%%%%%%%%%%%%%%%%%%%%%%%%%%%%%%%%%%%%%%%%%%%
16866B8%%%%%%Qq%%%%%%%%%%%%%%%%%%%%%%%%%%%%%%%%%%%%%%%%%%%%%%%%%%%%%%%%%%%%%
16850B8%%%%%%%%%%%%%%%%%%%%%%%%%%%%%%%%%%%%%%%%%%%%%%%%%%%%%%%%%%%%%%%%q%J6j6
16835B0Q%qQ%%%qQ%%%%%%%%%%%%%%%%%qQQ%q%%%%%%%%%%%%%%%%Qq%%%%%%%%%%%%%%%%%%%%
16819B8%%%%%%%%%%%%%%%%%%%%%%%%%%%%%%%%%%%%%%%%%%%%%%%%%%%%%%%%%qQ%%%%%%%%%%
16803B8%%%%%%%%%%%%%%%%%%%%%%%%%%%%%%%%%%%%%%%%%%%%%%%%%%%%%%%%%%%%%%%%%%%%%
16787B8%%%%%%%%%%%%%%%%%%%%%%%%%%%%%%%%%%%%%%%%%%%qQ%qQ%qQ%%%%%%%%%%%%%%%%%%
16771B8%%%%%%%%%%%%%%%%%%%%%%%%%%%%%%%%%%%%%%%%%%%%%%%%%%%%%%%%%%%%%%%%%%%%%
16756B8%%%%%%%%%%%%%%%%%%%%%%%%%%%%%%%%%%%%%%%%%%%%%%%%%%%%%%%%%%%%%%%%%%%%%
16740B8%%%%%%%%%%%%%%%%%%%%%%%%%%%%%%%%%%%%%%%%%%%%%%%%%%%%%%%%%%%%%%%%%%%%%
16724B8%%%%%%%%%%%%%%%%%%%%%%%Qq%qJ6j6Q%%%%%%%%%%%%%%%%%%%%qQ%%%%q%%Q%%%%%%%
16709B8%%%%%%%%%%%%%%%%%%%%%%%%%%%%%%%%%%%%%%%%%%%%%%%%%%%%%%%%%%%%%%%%%%%%%
16693B8%%%%%%%%%%%%%%%%%%%%%%%%%%%%%%%%%%%%%%%%%%%%%%%%%%%%%%%%%%%%%%%%%%%%%
16677B8%%%%%%%%%%%%%%%%%%%%%%%%%%%%%%%%%%%%%%%%%%%%%%%%%%%%%%%%%%%%%%%%%%%%%
16661B8%%%%%%%%%%qQ%%%%%%%%%%%%%%%%%%%%%%Qq%%%%%%%%%%%%%%%%%%%%%%%%%%%%%%%%%
16646B8%%%%%%%%%%%%%%%%%%%%%%%%%%%%%%%%%%%%%%%%%%%%%%%%%%%%%%%%%%%%%%%%%%%%%
16630B8%%%%%%%%%%%%%%%%%%%%%%%%%%%%%Qq%%%%%%%%%%%%%%%%%%%%%%%%%%%%%%%%%%%%%%
16614B8%%%%%%%%%%%%%%%%%%%%%%%%%%%%%%%%%%%%%%%%%%%%%%%%%%%%%%%%%%%Qq%%%%%%%%
16598B8%%%q%QqJ6qqQ%qJ6q%%Qk4QK4qj6Q%Q%%j6J6q%%%%Qq%%%%%%%%%%%%%%%%Qq%%%%%%%
16584B8%%%%%%%%%%%%%%%%%%%%%%%%%%%%%%%%%%%%%%%%%%%%%%%%%%%%%%%%%Qq%%%%%%%%%%
16568B8%%%%%%%%%%%%%%%%%%%%%%%%%%%%%%%%%%%%%%%%%%%%%%%%%%%%%%%%%%%%%%%%%%%%%
16552B8%%%%%%%%%%%%%%%%%%%%%%%%%%%%%%%%%%%%%%%%%%%%%%%qQ%%%%%%%%%Qq%%%%%%%%%
16537B8%%%%%%%%%%%%%%%%%%%%%%%%%%%%%%%%%%%%%%%%%%%%%%%%%%%%%%%%%%%%%%%%%%%%%
16521B8%%%%%%%%%%%%%%%%%%%%%%%%%%%%%%%%%%%%%%%%%%%%%%%%%%%%%%%%%%%%%%%%%%%%%
16505B8%%%%%%%%%%%%%%%%%%%%%%%%%%%%%%%%%%%%%%%%%%%%%%%%%%%%%%%%%%%%%%%%%%%%%
16489B8%%%%%%%%%%%%%%%%%%QqqQ%%j6J6Qq%%%%%%%%%%%%%%%%%%%%%%%%%%%Qq%%%%%%%%%%
16474B8%%%%%%%%%%%%%%%%%%%%%%%%%%%%%%%%%%%%%%%%%%%%%%%%%%%%%%%%%%%%%%%%%%%%%
16458B8%%%%%%%%%%%%%%%%%%%%%%%%%%%%%%%%%%%%%%%%%%%%%%%%%%%%%%%%%%%%%%%%%%%%%
16442B8%%%%%%%%%%%%%%%%%%%%%%%%%%%%%%%%%%%%%%%%%%%%%%%%%%%%%%%%%%%%%%%%%%%%%
16427B8%%%%%%%%%qQ%%%%%%%%%%%%%%%%%%%%%%%%%%%Q%%q%%%%%Qq%%%%%%%%%%%%%%%%%%%%
16411B8%%%%%%%%%%%%%%%%%%%%%%%%%%%%%%%%%%%%%%%%%%%%%%%%%%%%%%%%%%%%%%%%%%%%%
16395B8%%%%%%%%%%%%%%%%%%%%%%%%%%%%%%%%%%%%%%%%%%%%%%%%%%%%%%%%%%%%%%%Qq%%%%
16379B8%%%%%%%%%%%%%%%%%%%%%%%%%%%%%%%%%%%%%%%%%%%%%%%%%%%%%%%%%%%%Qq%%%%%%%
16363B8%%%%%%%%%%%%%%Q%%q%%%Qq%%%%%%%%%%%%%%%%%%%%%%%%%%%%%%%%%%%%%%%%%%%%%%
16348B8%%%%%%%%%%%%%%%%%%%%%%%%%%%%%%%%%%%%%%%%%%%%%%Qq%%%%%%%%%%%%%%%%%%%%%
16332B8%%%%%%%%%%%%%%%%%%%%%%%%%%%%%%%%%%%%%%%%%%%%%%%%%%%%%%%%%%%%%%%%%%%%%
16316B8%%%%%%%%%%%%%%%%%%%%%%%%%%%%%%%%%%%%%%%%%%%%%%%%%%%%%%%%%%%%%%%%%%%%Q
16300C6q%%%%%%%%%%%%%%%%%%%%%%%%%%%%%%%%%%%%%%%%%%%%%%%%%%%%%%%%%%%%%%%%%%%%
16284B8%%%%%%%%%%%%%%%%%%%%%%%%%%%%Q%q%%%%%%%%%%%%%%%%%%%%%%%%%%%%%%%%%%%%%%
16269B8%%%%%%%%%%%%%%%%%%%%%%%%%%%%%%%%%%%%%%%%%%%%%%%%%%%%%Qq%Qq%%Qq%%%%%%%
16253B8%%%%Qq%%QqQq%J6j6%%Q%q%%qJ6%q%%%%Qq%%%%%%%%%%%%%%%Qq%%%%%%%%%%%%%%%%%
16238B8%%%%%%%%%%%%%%%%%%%%%%%%%%%%%%%%%%%%%%%%%%%%%%%%%%%%%%%%%%%%%%%%%%%%%
16222B8%%%%%%%%QqQqQq%%%%%%%%%%%%%%%%%%%%%%%%%%%%%%%%%%%%%Qq%%%%%%%%%%%%%%%%
16206B8%%%%%%%%%%%%%%%%%%%%%%%%%%%%%%%%%%%%%%%%%%%%%%%%%%%%%%%%%%%%%%%qQQq%%
16190B8%%%%%%%%%%%%%%%%%%%%%Qq%%%%Qq%Qq%%%%%%%%%%%%%%%%%%%%%%%%%%%%%%%%%%%%%
16175B8%%%%%%%%%%%%%%%%%%%%%%%%%%%%%%%%%%%%%%%%%%%%%%%%%%%%%%%%%Qq%%%%%%%%%%
16159B8%%%%%%%%%%%%%%Qq%%%%%%%%%%%%QqQq%%%%%%%%%%%%%%%%%%%%%%%%%%%%%%%%%%%%%
16143B8%%%%%%%%%%%%%%%%%%%%%%%%%%%%%%%%%%%%%%%%%%%%%%QqQqqQQq%%%%%%%%%%%%%%%
16127B8Qq%%%%%Qq%Q%%%q%%%%%%%%%%%%%%%%%%%%%%%%%%%%%%%%%%%%Qq%%%%%%%%%%%%%%%%
16111B8%%%%%%%%%%%%%%%%%%%%%%%%%%%%%%%%%%%%%%%%Qq%%%%%%%%%%%%%%%%%%%%%%%%%%%
16096B8%%%%%%%%%%%%%%%%%%%%%%%%%%%%%%%%%%%%%%%%%%%%%%%%%%%%%%%%%%%%%%%%%%%%%
16080B8%%%%%%%%%%%%%%%%%%%%%%%%%%%%%%%%%%%%%%%%%%Q%%q%Qq%%%%%%Qq%%%%%%%%%%%%
16064B8%%%%%%%%%%%%%%%%%%%%%%%%%%%%%%%%%%%%%%%%%%%%%%%%%%%%%%%%%%%%%%%%%%%%%
16048B8%%%%%%%%%%%%%%%%%%%%%%%%%%%%%%%%%%%%%%%%%%%%%%%%%%%%%%%%%%%%%%%%%%%%%
16032B8%%%%%%%%%%%%%%%%%%%%%%%%%%%%%%%%%%%%%Qq%%%%%%Qq%%%%%%%%%%%%%%%%%%%%%%
16017B8%Qq%Qq%Q%j6J6q%%%%%%%%%%%%%%%%%%%Qq%%QqQqQq%%%%%%%%%%%%Qq%%%%%%%%Qq%%
16001B8Q%q%Qq%%%%%%%%%%%%%%%%%%%%%%%%%%%%%%%%%%%%%%%%%%%%%%%%%%%%%%%%%%%%%%%
15985B8%%%%%%QqQq%%%%%%%%%%%%Qq%%%%%%%%%%%%%%%%%%%%%%%%%%%%%%%%%%%%%%%%%%%%%
15970B8%%%%%%%Qq%%%%%%Qq%%%Qq%%Qq%%%%%%%%%%%%%%%%%%%%%%%%%Qq%%%%%%%%Qq%%%%%%
15954B8%%%%%%%%%%%Qq%%%%%%%%%%%%%%%%%%%%%%%%%%%%%Qq%%%%%%%%%%%%%%%%%%%%Qq%%%
15938B8%Qq%%%%%%%%%%%%%%%%%%%%%%%%%%%%%%%%%%%%%%%%%%%%%%%Q%qQq%%%%%%%%Qq%%%%
15922B8%%%%%%%%%%%%%%%%%%%%%%%%%%%%%%%%%%%%%%%%%%%%%%%%%%%%%%%%%%%%%%%%%%%%%
15907B8%%%%%Qq%%%%%%%%%%%%%%Qq%%Q%q%%%%%QqQqQqQqQ%q%%%%%Qq%Qq%%Qq%%%%%%%Qq%%
15891B8%%%%%%Qq%%%%%%%Qq%%%%%%%%%%%%%%%%%%%%%%%%%%%%%%%%%%%%%%%%%%%%%%%%%%%%
15875B8%%%%%%%%%%%%%%%%%%%%%%%Qq%%Qq%%Qq%%%%%%%%%%%%%%%%%%%%%%%%%%%%%%%%Q%q%
15859B8%%%%%%%%%%%%%%%%%QqQq%%%%%Q%q%Q%q%%%%%%%%%%%%%%%%%%%%%%%%%%%%%%%%%%%%
15843B8%%%%%%%%%%%%%%%%%Qq%Qq%%%%%%%%%%%%%%%%%%%%%%%%%%%%%%%%%%%%%%%%%%%%%%%
15828B8%%%%%%%%%%%%%%%Q%q%%%%%%%%%%%%%%%%%%%Qq%%%%%%%%%%%%%%%%%%%%%%%%%%%%%Q
15812C6q%%%%%%QqQq%%Qq%%%%%%%%%%%%%%%%%%%%%%%%%Qq%%%%%%%%%%%%%%%%%%%%Qq%Q%qQ
15796C6%%%qQ%%q%Qq%%%%%%%%%%%%%%%%%%%%%%%%%%%%%%%%%%%Q%q%%%%%%%%%Q%q%%QqQqQq
15780B8qJ6%qqQqQQj6Q%%%%%%%%%%%%%%%%Q%%q%%%%%%%%%%%%%%%%%%%Qq%Qq%%%%%%QqQq%%
15765B8%%%%%%%%%Qq%Qq%%%%%%%%Q%qQq%%%%%%%%%%%%%%%%%%%%%%%%%%%%%%%%%%Q%q%Q%%q
15749B8%Q%%%%%%qQ%q%%%%Q%q%%%%%Qq%%%%%%%%%%%%%%%%%%%%%Q%q%%%%%Qq%%%Qq%Q%q%%%
15733B8%%%%%%%%%%%%%%%%%%%%Qq%%%%%%%Qq%%Qq%%%%%%%%%%%%%%%%%Q%%q%%%%%%%%%%Qq%
15717B8%%%%%Qq%%%%%%Qq%Q%q%%Qq%%Qq%%%%%%%Qq%%%%%%%%%%%%%%%%%%%%%%%%%%%%%%%%%
15702B8%%%%%%%%%%%%%Qq%%%%%%%%%%%%%%%%%%%%%%%%%%Q%q%%QqQq%QqQqQq%%%%%%%Qq%%%
15686B8Qq%Q%q%%%%%%%%%%%%%%%%%%%%%%%Q%%%qQq%%%%%%%%%%QqQqQq%%%%%%Qq%%%%%%%%Q
15670C6qQq%%%%%%%%%%%%%%%%%Qq%Qq%%%QqqQ%%%%%%%%%%%%QqQ%%%%q%%Q%q%%%QqqJ6QqqQ
15655C6q%%%%%%Qq%%QqQq%%%%%%%%%%%%%%%%%%%%%%%%%Qq%%%%%%%%%%%%%%%%%Qq%%%%%%%%
15639B8%%%%%%%%Qq%%%%QqQ%%q%%Qq%%QqQq%%Qq%%Qq%Qq%%%%%Q%qQq%Q%q%%Qq%%%%%%%%%%
15623B8%%%%%%Qq%%%%%%Qq%Qq%%%QqQ%%qQqQq%%%%QqQq%%%%%Qq%%%%%%%Qq%%%%%%Qq%%%%Q
15607C6%%%%qQqQ%%qQqQq%%%%%%%%%QqQ%qQq%%%Qq%%Qq%Q%q%%%%%%%%%%%%%%%%%%%%%%%%%
15591B8%%Qq%Q%qQq%%%Qq%%%%%%%%%%%%%%%%%%Qq%%%%%%%%%%%%%%%%%%%%%%%%%%%%%%%%%%
15576B8QqQq%%%%%Qq%%%%%%%%%%%%Q%%%%qQqQqQq%%%%%%%%%%%%%%%%%%%%Q%%%qQ%q%%%Qq%
15560B8%Q%q%%%%%Q%%q%%%%%%%%%%%%%%%%%%%%Qq%Q%qQq%%%Qq%%Q%%%q%%Q%qQqQj6QQqQq%
15544B8%%%%%%Qq%%%Qq%Qq%%%%%%%%%%Q%q%%%%%%Q%%q%%%Qq%%Qq%%Q%%%%qQqQ%qQ%%qQ%%q
15528B8%Q%q%Q%qQqQ%%qQ%%%%%%%qQ%%%%q%Q%q%%%%Qq%%%Qq%%%%Qq%%Q%q%%%%%Qq%%Qq%%%
15513B8%%%%%%%%%%%%%%%%%%%QqQ%q%%%%%%%%%%%%%%%QqQq%%Q%%q%QqQ%q%%%%%%Q%q%QqQq
15497B8Q%q%%%%%%Q%%q%%%QqQq%%Qq%%%%QqQ%q%Q%%qQq%Q%%qQq%Qq%Q%q%%Qq%%Q%q%%%Qq%
15481B8%Q%%%%qQ%q%Qq%Q%%q%%%%%%%%%%%%%%%%%Q%%q%Qq%Qq%%%%QqQqQq%%Qq%%%%%%%%Qq
15465B8%%%%%%%%%%%%QqQq%%%%%%%%%%%%%%Qq%%Qq%%%%%%%%%%%%%Qq%%Q%q%Qq%QqQ%q%Qq%
15449B8%%Qq%%%Qq%%%%%%%%%Qq%QqQ%%q%Qq%%%%%%Qq%%%%%%%%%%%%%%%%%%%%%Qq%%%Qq%%%
15434B8%%%Qq%Qq%QqQ%qQq%%%QqQqQ%%%%qQ%%%%qQ%%q%Q%q%%%Q%%%q%Qq%%Q%qQq%%%%Q%%%
15418C6%q%Q%%%qQqQ%qQq%QqQq%%%%%%Qq%QqQqQqQ%qQqQq%%%%QqQqQqQ%%qQq%%QqQqQq%%Q
15402C6q%%%%%Qq%%%Q%qQqQq%Qq%%%%Qq%Q%%%q%Qq%%%%Qq%%%Qq%%%%Qq%%%%Qq%%%%%%Q%q%
15386B8%Qq%%Q%q%%%Q%q%%QqQq%%%%%%%%%%%%%%%%QqQq%%%Q%qQ%%qQ%%qQ%qQ%qQ%%q%Q%qQ
15370C6%%q%%Qq%%%%%Q%q%%QqQ%q%QqQq%%Qq%%%%Qq%Q%%qQ%qQq%Q%qQ%%%qQ%qQq%%Q%%%%%
15355C6%%%%%%%%%%qQ%%%%%%qQq%%QqQq%%%%%%%Q%q%%%Q%%%%%qQ%q%%%%%Q%%q%Qq%%Qq%%%
15339B8%%%Q%%qQ%qQ%%q%Q%q%QqQ%%%qQ%%q%%%QqQ%%q%%%Qq%%%%%Q%qQ%q%Qq%%%%%%%Qq%%
15323B8Qq%Qq%%%%%%%%Q%q%%Q%%%%qQq%%Q%qQ%q%QqQqJ6j6Q%%%j6K4j6%J6l2j6M0Qk4%%Q%
15310B8qJ6%qQ%%q%Q%%%q%%%%QqQ%%q%%QqQ%%%%%%q%%QqQq%%%%Qq%%%Q%q%QqQ%%%qQq%Qq%
15294B8%%%Qq%QqQq%Q%%%qQq%%%Q%qQ%%%qQqQqQqQ%%%%%%qQq%Qq%%%Qq%%%%%%%%%%%%%Q%%
15278C6q%Qq%Q%%%qQ%%%qQ%%%%%qQ%%%%qQqQ%%%%%q%Q%%qQ%%%%q%Q%%%%%%%%%q%%%%%%%%Q
15262C6qQqQ%qQqQ%%q%%Q%q%%%%QqQq%%%%%%Q%qQq%%Q%%%%%%qQ%%qQ%%q%Q%%%%%%%%q%Qq%
15247B8QqQq%%%Qq%Q%%%q%%%Q%qQq%%Q%qQ%%%%%%%qQ%qQqQqQ%%%%qQ%qQ%%%%%%%%%%%%%%%
15231C6%%%%%%%%%%%%%%%%%%qQ%qQq%%%%%Q%%q%%%%%%%Q%%%%qQ%q%%QqQ%%%q%%%Q%%%q%%Q
15215C6%%qQ%q%%Q%%%%%%q%Q%%qQ%q%%Q%%%q%%%Qq%%Q%q%%%%QqQq%Q%qQ%qQqQ%qQ%%q%Q%q
15199B8Q%%%%qQq%QqQ%q%%QqQ%q%%Qq%%%Q%qQ%%qQq%%Qq%%%QqQ%%qQq%%%QqQ%%%qQ%q%%%%
15183B8%QqQ%q%%%%Q%%%%%qQ%%%%%%qQ%%%%%%qQq%Q%%%%%%%%%%%%%%%%%%%%%%%%%%%%%%%%
15168C6%%%%%%%qQ%q%QqQqQ%%%%%%%qQqQ%%%%%%%%%%q%%%Q%%%%%%%q%QqQ%q%%Q%%%qQ%%%%
15152C6%qQ%qQ%qQ%%%%%%%%%%qQ%%%%%%%%%%%%%%q%%Qq%QqQqQ%%qQ%qQqQ%qQ%%%%qQ%qQ%q
15136B8Q%qQ%q%%%Q%q%QqQ%%%%qQ%%%q%QqQ%%q%Q%%%%%%qQ%%%%%%%%%%qQ%%%qQ%%%%%%%%%
15120C6%%%%%%%qQ%%%%%%%%%%%%%%%%%%%%%%%%qQ%%%%%%%%%%q%%%%%Q%%qQ%%%%qQqQ%%%%q
15105B8Q%%qQqQ%%%%qQ%qQ%qQqQqQq%%Q%%qQ%%qQq%%Q%%qQqQ%%%%%%qQ%%%q%%Q%%%%%%qQ%
15089C6%%%%%qQ%%%%%qQ%%%%%%%%%%%%%%%%%%%%%%%qQ%%%%%q%%%J6qqQq%QqQ%%%qQ%q%%Qq
15073B8%%%QqQq%QqQ%q%%Q%qQ%qQ%%%q%QqQq%%%Q%%%%%%%%q%QqQ%qQ%%%qQ%%%%%%%%%%%%%
15057C6%q%Q%%qQqQ%%%%%qQ%%%%%%qQ%q%%QqQ%%q%%Q%%%%qQ%%%%%%%%%%%%%%qQ%q%%%Qq%%
15042B8%Qq%Qq%Qq%Q%%%%%%%%%%%%%qQ%%%%%%qQ%qQ%%qQ%%%%%%%%%%%%%%%%%%%%%%qQ%%qQ
15026C6%%%%%qQ%%%%%%%%%%%%%%%%%%qQ%qQq%%QqQ%qQ%%%qQ%%%%%%%%%%%q%Q%%%%qQq%%Qq
15010B8Q%%%%%%%%%%%%%%%%%%%%%%%%%%%%%%%%%%%%%%%%%%%%%%%%%%qQ%%%qQ%%%%%%%%%%q
14994B8Q%qQ%%%%%%%%%%%%%%%%%q%%%%%QqQ%qQ%%%%%%%%%%%qQ%%%%q%Q%qQ%%%q%Q%%%qQqQ
14978C6%%%%%%%%%%%%%qQqQ%%%%%%%%%%%%%%%%%%%%%%qQ%%%%%%q%Q%qQqQqQ%%q%Q%%%qQ%%
14963C6%%%%%%%%%q%J6q%%%%%%%%%%%%%%%%qQ%%%%%%%%%%%%%q%QqQ%%qQ%q%Q%%%%qQqQq%%
14947B8%Q%qQ%q%Q%%qQ%%%%%%%%%qQ%%%%%%%qQ%qQ%%%qQ%%%%%%%%%%%%%%%%%%%%%%%%%%%%
14931C6%%%%%%%%%%%%%%qQ%%%qQq%Qq%%Q%%%qQ%%%%%qQ%%%%%%%%%%%%%%%%%%%%%%%qQ%%%%
14915C6%%%%%%%%%%%%%%%%%%%%%%%%%%qQ%%%%%%%%%%%%%%%%%%%%%%%%%%%%%%%%%%Qq%%%%%
14900C6%%%%%%%%%%%%%%%%%%%%%%%%%%%%%%%%%%%%%%%%%%%qQ%%qQ%%%%%%qQ%%%%%%%%%%%%
14884C6%%%%%%%%%%%%%%%%%%%%%%%%%%%%%%%%%%%%%%%%%%%%%%%%qQ%%%%%%%%%%%%%%%%%%%
14868C6%%%%%%%%qQ%%qQqQ%%qQq%%Q%%q%Q%%%%%%%%%%%%%%%%%%%%%%%%%%%%%%%%%%%%qQ%%
14852C6%%%%%%%%%%%%%%%%%%qQ%%%%%%%%%%%%%qQ%%%%%q%QQj6Q%%%%%%%%%%%%%%qQ%%%%%%
14837C6%%%qQ%qQ%%%%qQ%%%%%%%%%%%%%%%%%%%%%%%%%%%%%%%%%%%%%%%%%%%%%%%%%%%%%%%
14821C6%%%%%%%%%%%%%%%%%%%%%%qQ%%%%%qQ%%%%%%%%%%%%%%%%%%%%%%%%%%%%%%%%%%%%%%
14805C6%%%%%%%%%%%%qQ%%%%%%%%%%%%%%%%%%%%%%%%%%%%%%%%%%%%%%%%%%%%%%%%%%%%%%%
14789C6%%%%%%%%%%%%%%%%%%%%%%q%Q%%%%%%%%%%%%%%%%%%%%%%%%%%%%%%%%%%%%%%%%%%%%
14774C6%%%%%%%%%%%%%%%qQ%%%%%%%%%%%%%%%%%%%%%%%%%%%%%%%%%%%%%%%%%%%%%%%%%%qQ
14758C6%%%%%qQqQ%%%%%%%%%%%%%%%%%%%%%%%%%%%%%%%%%%%qQ%%%%%%%%%%%%%%%%%%%%%%%
14742C6%%%%%%%%%%%%%%%%%%%%%%%%%%%%%%%%%%%%%%%%%%%qQ%%%%%%%%%%%%%%Qq%%%%%qQ%
14726C6%%qQqJ6q%%%%qQ%%%%%Qj6QQk4J6j6K4%q%l2M0L2m8%L2k4J6j6Qqj6K4j6Q%%%%%qQ%
14714C6%%%%qQ%%%%qQ%%%%%qQ%%%%%qQqQ%%%%%%%%%%%%%%%%%%%%%%%%%%%%%%%qQ%%%%%%%%
14698C6%%%%%%%%qQ%%%%%%%%%%%%%%%%%%%%%%%%%%%%%%%%%%%%%%%%%%%%%%%%%%%%%%%%%%%
14683C6%%%%%%%%%%%%%%%%%%%%%%%%%%%%%%%%%%%%%%%%%%%%%%%%%%%%%%%%%%%%%%%%%%%%%
14667C6%%%%%%%%%%%%%%%qQ%%%%%%%%%%%%%%%%%%%%%%%%%%%%%%%%%%%%%%%%%%%%%%%%%%%%
14651C6%%%%%%%%%%%%%%%%%%%%%%%%%%%%%%%%%%%%%%%%%%%%%%%%%%%%%%%%%%%%%%%%%%%%%
14635C6%%%%%%%%%%%%%%%%%%%%%%%%%%%%%%%%%%%%%%%%%%%%%%%%%%%%%%%%%%%%%%%%%%%%%
14620C6%%%%%%%%%%%%%%%%qQ%%%%%%%%%%%%%%%%%%%%%%%%%%Qqq%%J6j6QqQ%%%%%%%%%%%%%
14604C6%%%%%%qQ%%%%%%%%%%%%%%%%%%%%%%%%%%%%%%%%%%%%%%%%%%%%%%%%%%%%%%%%%%%%%
14588C6%%%%%%%%%%%%%%%%%%%%%%%%%%%%%%%%%%%%%%%%%%%%%%%%%%%%%%%%%%%%%%%%%%%%%
14573C6%%%%%%%%%%%%%%%%%%%%%%%%%%%%%%%%%%%%%%%%%%%%%%%%%%%%%%%%%%%%%%%%%%%%%
14557C6%%%%%%%%%%%%%%%%%%%%%%%%%%%%%%%%%%%%%%%%%%%%%%%%%%%%%%%%%%%Qq%%%%%%%%
14541C6%%%%%%%%%%%%%%%%%%%%%%%%%%%%%%%%%%%%%%%%%%%%%%%%%%%%%%%%%%%%%%%%%%%%%
14525C6%%%%%%%%%%%%%%%%%%%%%%%%%%%%%%%%%%%%%%%%%%%%%%qQ%%%%%%%%%%%%%%%%%%%%%
14509C6%%%%%%%%%%%%%%%%%%%%%%%%%%%%%%%%%%%%%%%%%%%%%%%%%%%%%%%%%%%%%%%%%%%%%
14494C6%%%%qQ%%%%qJ6q%%%%%%%%%%%%%%%%%%%%%%%%%%%qQ%%%%%%%%%%%%%%%%%%%%%%%%%%
14478C6%%%%%%%%%%%%%%%%%%%%%%%%%%%%%%%%%%%%%%%%%%%%%%%%%%%%%%%%%%%%%%%%%%%%%
14462C6%%%%%%%%%%%%%%%%%%%%%%%%%%%%%%%%%%%%%%%%%%%%%%%%%%%%%%%%%%%%%%%%%%%%%
14446C6%%%%%%%%%%%%%%%%%%%%%%%%%%%%%%%%%%%%%%%%%%%%%%%%Qq%%%%%%%%%%%Qq%%%%%%
14431C6%%%%%%%%%%%%%%%%%%%%%%%%%%%%%%%%%%%%%%%%%%%%%%%%%%%%%%%%%%%%%%%%%%%%%
14415C6%%%%%%%%%%%%%%%%%%%%%%%%%%%%%%%%%%%%%%%%%%%%%Qq%%%%%%%%%%%%%%%%%%%%%%
14399C6%%%%%%%%%%%%%%%%%%%%%%%%%%%%%%%%%%%%%%%%%%%%%%%%%%%%%%%%%%%%%%Qq%%%%%
14383C6%%%%%%%%%%%%%%%%%%%%%%%%%%%%%Qq%Qj6Q%qJ6%l2K4J6j6qQqQ%%%%%%Qq%%%%%%%%
14369C6%%%%%%%%%Qq%%%%%%%%%%%%%%%%%%%%%%%%%%%%Q%q%%%%%%%%%%%%%%%%%%%%%%%%%%%
14353C6%%%%%%%%%%%%%%%%%%%%%%%%%%%%%%%%%%%%%%%%%%%%%%%%%%%%%%%%%%%%%%%%%%%%%
14337C6%%%%%%%%%%%%%%%%%%%%%%%%%%%%%%%%%%%%%%%%%%%%%%%%%%%%%%%%%%%%%%%%%%%%%
14322C6%%%%%%%%%%%%%%%%%%%Qq%%%qQ%%%%%%%%%%%%%%%%%%%%%%%%%%%%%%%%%%%%%%%%%%%
14306C6%%%%%%%%%%%%%%%%%%%%%%%%%%%%%%%%%%%%%%%%%%%%%%%%%%%%%%%%%%%%%%%%%%%%%
14290C6%%%%%%%%%%%%%%%%%%%%%%%%%%%%%%%%%%%%%%%%%%%%%%%%%%%%%%%%%%%%%%%%%%%%%
14274C6%%%%%%%%%%%%%%%%%%%%%%%%%%%%%%%%%%%%%%%%%%%%%%%%%%%%%%%%%%%%%%%%%%%%%
14258C6%%%%%qQ%%%QqQq%%%%%%%%%%%%%%%%%%%%qQqQ%QqQq%%%%%%%%%%%%%%%%%%%%%%%%%%
14243C6%Qq%%%%%Qq%%%%%%%%%%%%%%%%%%%%%%%%%%%%%%%%%%%%%%%%%%%%%%%%%%%%%%%%%%%
14227C6%%Qq%%%%%%%%%%%%%%%%%%%Qq%%%%%%%%%%%Qq%%%%%%%%%%%%%%%Qq%%%%%%%%%%%%%%
14211C6%%%%%%%%%%%%%%%%%%%%%%%%%%%%%%%%%%%%%%%%%%%%%%%%%%%%%%%%%%%%%%%%%%%%%
14195C6%%%%%%%%%%%%%%%%%%Qq%%%Q%q%%QqQq%%%%%%%%%%%%Qq%%%%%%%%%%%%%%%%%%%%%%%
14179C6%%%%%%%%%%%%%%%%%%%%%%%%%%%%%%%%%%%%%%%%%%%%%%%%%%%%%%%%%%%%%%%%%%%%%
14164C6%%%%%%%%%%%%%%%%%%%%%%%%%%%%%%%%%%%%%%%%%%%%%%%%%%%%%Q%qQ%qQq%%%%%%%%
14148C6%%%%%%%%%%%%%%%%%%%%%%%%%Qq%%%%%%q%%Q%%qQ%%%%%%%%%%%%%%%%%%%%Qq%%%%%%
14132C6%%%%%%%%%%%%%%%%%%%Qq%%%%%%%%%%%%%%%%%%%%%%%%%%%%%%%%%%%%%%%%%%%%%%%%
14116C6%Qq%%%%%%%%%%%%%%%%%%%%%%%%%%%%%%%%%%%%%%QqQ%%qQ%q%Q%%q%Qq%%%%%%%%%%%
14100C6%%%%%%%%%%%%%%%%%%%%%%%%%%%%%%%%%%%%%%%%%%%%%%%%%%%%%%%%%%%%%%%%%%%%%
14085C6Qq%%Qq%Q%q%%Qq%%%%%%%%%%%%%%%%%%%%%%Qq%%%%%%Q%q%%%Q%qQq%%Q%q%%%%%%%%%
14069C6%%%%%%%Qq%%%%%QqQqQq%%%%%Qq%%%%%%Q%qQqQq%Qq%%%%%%Qq%%%%%%%%%%Qq%%%%%%
14053C6%%%QqQ%q%%Qq%%%%%%%%%%%Qq%%%%%%%%Q%%q%%%Qq%%Qq%%%%%Qq%%%%%%%%%%%Qq%%%
14037C6%%%%%Qq%%%%%%%%%%%%%Qq%%%%Qq%%%%%%%%%%%%%%%%Qq%%%%%%QqQqQq%%%%%%%Qq%%
14021C6QqQq%%QqQq%%%%%%%%%QqQq%Qj6Q%Q%q%%Q%%qQ%q%%%%%%%Q%q%Qq%%Q%q%%%%%%%Qq%
14006C6%%%Q%q%Qq%%Qq%%Qq%%Qq%%%QqQ%q%%Qq%Q%qQ%%q%Q%%q%QqQq%%%%Q%q%Qq%%%%QqQq
13990C6%%%%%%Qq%Q%qQqQ%q%%%%%Qq%%QqQqQqQ%%q%%%%QqQq%%%%%%%%%%Qq%%%%Qq%Q%%qQ%
13974D4%%%%%%%%%%qQq%%%%QqQq%%%%%%%%%%%Qq%Qq%QqQq%%Qq%QqQq%%%Qq%%%%%%QqQ%qQq
13959C6Q%q%%%Qq%%%Q%q%%%%%%%%%%%Q%qQ%q%Qq%QqQ%%%%%q%Q%q%%%%%%Qq%Qq%Qq%Q%%q%%
13943C6Qq%%%Qq%%%%%%%%%%%%Qq%%%Q%q%Q%q%%%%%%QqQq%%%%%%%%Qq%%%Qq%%%%Q%%qQ%%%q
13927C6Qq%Qq%%%Q%q%Q%%qQ%q%Q%%%%%q%%Q%q%%%Qq%%%Q%%%q%Qq%%Q%%%%qQ%qQ%q%Q%%q%%
13911C6Qq%Qq%%%%Q%qQqQq%Q%%qQqQ%Qj6Q%%q%%Q%%qQ%qQ%%q%%%%%%%%QqQqQqQ%qQ%%qQ%%
13896D4%%qQ%%%%%%q%%%%%%%%Qq%%%%%%Qq%Qq%%%%%%%%%%%%Qq%%%%Qq%%%Q%q%%%%Qq%QqQ%
13880D4q%%%%QqQ%q%%Q%%q%Qq%%Q%q%Qq%%%%%%%Q%%%%q%%%%Q%q%%%Q%%%q%%%%Qq%%%%%%Qq
13864C6%%%%%Qq%%Q%q%Qq%%%%%%%%%%%%%%%%%%Qq%Qq%%QqQ%%q%%%Qq%%%%%%%Q%%qQ%qQ%qQ
13848D4%%%q%%%Q%qQq%%%Qq%QqQ%qQ%%%q%%%Qq%%%%QqQq%%%QqQq%Qq%%%%Q%%%q%QqQ%qQqQ
13832D4%q%Qq%%%%%%%Qq%%%Qq%%%%%%%%Qq%%%QqQq%Q%q%%QqQq%%%%%%%%Qq%%QqQ%q%Q%q%%
13817C6Q%%q%%%%QqQq%Qq%Q%%%%%%%%%qQ%qQ%%qQq%%%Q%%q%QqQ%q%Qq%Q%%%q%%%QqQ%%q%%
13801C6Q%%%q%Q%%%%%%%qQ%qQq%Q%%q%Qq%Q%qQq%%%Q%qQ%qQq%%QqQq%QqQ%%Qq%qQ%q%Q%%%
13785D4%%qQq%Q%%%%q%QqQ%%%%q%J6j6%%%QqQqQ%q%Qq%%QqQ%%%%%%%qQ%q%%Qq%Q%%q%%Q%%
13770D4%q%%Q%qQ%%%%%%%%%qQ%%%qQ%%%qQqQq%%%Q%%%qQ%%q%Q%%%%%qQ%%%%%%%%%%%%%%q%
13754C6Q%%%qQ%%qQ%%%%%%%%%qQ%%%%%%%%%%%qQ%qQ%%%qQ%q%Q%%q%QqQ%%%%%%%%qQq%%%%%
13738C6QqQq%Q%%qQq%Q%%%q%%%%%%Qq%%Q%%%qQ%qQ%q%%Q%q%Q%%q%%Q%%%%%%%qQ%qQ%q%Q%q
13722C6Q%qQ%%%%%q%%QqQqQ%%%%qQ%%%%%%%%%%%%%%%%%%%%%%%%%%%%qQqQ%%%%%%%%%%%%%%
13707D4%%%%%%%%%%%%%%%%%%%%%%%%%%%%%%%%%%%%qQ%%%qQ%%%%%%%%%%%qQ%q%Q%%%%%%%%%
13691D4%%%%%%%qQ%q%Q%%qQ%%%%%qQ%qQq%Q%%%%%%qQqQ%%%%%%qQ%%%%%%%%%%%%%%%%%%%%%
13675D4%%%%%%%%%%%qQ%qQqQ%%%%%qQ%%%%%%%%qQ%qQ%%%%%qQ%%%%%%q%Q%%%%%%%qQ%%%%%%
13659D4%%%%%%%qQ%%qQ%%%%%%%%%%%%%%%%%%%%%%%%%%%%%q%Q%%%%%%%%%%%%%%%%%%%%%%%%
13643D4%%%%%qQqQqQqQ%%%%qQ%%qQ%%qQ%%%%%%%%%%%%%%%%%%%%%%%%%%qQ%%%%%%%%%%%%%%
13628D4%%%%%%%%%%%%%%%%%%q%Q%%%%%%%%%%%%%%%%%%%%%%%%%%%%%%%%q%Q%%%%%%%%%%%%q
13612C6Q%%%%qQq%%Q%%%%%%%%%%%%%%%%qQ%%%%%%%%%%%%%%%%%%%%%%%%%%%%%%%%%%%%%%%%
13596D4%%%%%%%%%%%%%%%%%%%%%%%%%%%%%%%%%%%%%%%%%%%%%%%%%%%%%%%%%%q%%QqQ%%%qQ
13580D4%%%%%%qQ%%%%%%%%%%qQ%%%%%%%qQ%%qQ%%%%%%%%%%%%%%%%q%Q%%%qQ%%%%%%%%%%%%
13564D4%%qQ%%%%%%%%%%%%%%%%%%%%%%%%%%%%%%%%qQ%%qQ%%%%q%J6q%%%%%%%%%%%%%%%%%%
13549D4%%%%%%%Q%q%%%%%%%%%%%%%%%%%%%%%%%%%%%%%%%%%%%%%%%%%%%%%%%%%%%%%%%%%%%
13533D4%%%%%%%%%%%%%%%%%%%%%%%%%%%%%%%%%%%qQ%%q%%Q%%%%%%%%%%%%%%%%%%%%%qQ%%%
13517D4%%%%%%%%%%%%%%%%%%%%%%%%%%%%%%%%%%%%%%%%%%%%%%%%%%%%%%%%%%%%%%%%%%%%%
13501D4%%%%%%%%%%%%%%%%%%%%%%%%%qQ%%%%%%%%%%%%%%%%%%%%%%%%%qQ%%%%%%%%%%%%%%%
13486D4%%%%%%%%%%%%%%%%%%%%%%%%%%%%%%%%%%%%%%%%%%%%%%%%%%%%%%%%%%%%%%%%%%%%%
13470D4%%%%%%%%%%%%%%%%%%%%%%%%%%%%%%%%%%%%%%%%%%%%%%%%%%%%%%%%%%%%%%%%%%%%%
13454D4%%%%%%%%%%%%%%%%%%%%%%%%%%%%%%%%%%%%%%%%%%%%%%%%%%%%%%%qQqQQ%%j6Q%%Qj6
13438C6Q%qQ%%qK4%m0L2j6Q%Qj6Q%%qJ6k4J6%qJ6%q%%%qQ%%%%qQ%qQ%%%%%%%%%%%%%%%%%%
13425D4%%%%%%%%%%%%%%%%%%%%%%%%%%%%%%%%%%%%%%%%%%%%%%%%%%%%%%%%%%%%%%%%%%%%%
13409D4%%%%%%%%%%%%%%%%%%%%%%%%%%%%%%%%%%%%%%%%%%%%%%%%%%%%%%%%%%%%%%%%%%%%%
13393D4%%%%%%%%%%%%%%%%%%%%%%%%%%%%%%%%%%%%%%%%%%%%%%%%%%%%%%%%%%%%%%%%%%%qQ
13377D4%%%%%%%%%%%%%%%%%%%%%%%%%%%%%%%%%%%%%%%%%%%%%%%%%%%%%%%%%%%%%%%%%%%%%
13362D4%%%%%%%%%%%%%%%%%%%%%%%%%%%%%%%%%%%%%%%%%%%%%%%%%%%%%%%%%%%Qq%%%%%%%%
13346D4%%%%%%%%%%%%%%%%%%%%%%%%%%%%%%%%%%%%%%%%%%%%%%%%%%%%%%%%%%%%%%%%%%%%%
13330D4%%%%%%%%%%%%%%%%%%%%%%%%%%%%%%%%%%%%%%%%%%%%%%%%qQ%%%%%%%%%%%%%%%%%%%
13314D4qQ%%qQQqqQQq%%%%%%%%%%%%%%%%%%%%%%%%%%%%%%%%%%%%%%%%%%%%%%%%%%%%%%%%%
13298D4%%%%%%%%%%%%%%%%%%%%%%%%%%%%%%%%%%%%%%%%%%%%%%%%%%%%%%%%%%%%%%%%%%%%%
13283D4%%%%%%%%%%%%%%%%%%%%%%%%%%%%%%%%%%%%%%%%%%%%%%%%%%%%%%%%%%%%%%%%%%%%%
13267D4%%%%%%%%%%%%%%%%%%%%%%%%%%%qQ%%%%%%%%%%%%%%%%%%%%%%%%%%%Q%q%%%%%%%%%%
13251D4%%%%%%%%%%%%%%%%%%%%%%%%%%%%%%%%%%%%%%%%%%%%%%%%%%%%%%%%%%%%Qq%%%%Qq%
13235D4%%%%%%%%%Qq%%%%QqQq%%%%%%Qq%%%%%%%%%%%%%%%%%%%%%%%%%%Q%q%%%%Qq%%%%%%%
13219D4%%%%%%%%%%%%%%%%%%%%%%%%%%%%Qq%%%%%%%%%%%%%%%%%%%%%%%%%%%%%Qq%%%%QqQq
13204D4Qq%%QqQ%%%%qQq%Q%q%%%%%%%%%%%%%%%%%%QqQ%q%%%%%%%%%%%%%%%%%%%%%%%%%%%%
13188D4%%%%%%%%%%%%%%%%%%Qq%%%%%%%%%%Qq%%%%%%%%%%%%%%%%%%%%%%%%%%%%%%Q%%q%%%
13172D4%%%%%%%%%%%%%%%%%%%%%%%%%%%%%%%%%%%%%%%%%%%%%%%%%%%%%%%%%%%%%%%%Qq%%%
13156D4%%%%%%%%%%%%%%%%%%Qq%%%%%%%%%%%%%%%%%%%%Qq%%%%%%%%%%%%%qQ%%%%%%QqQ%qQ
13140E2%q%%%Qq%%%%%%%Qq%%%%%%%%%%%%%%%%Qq%%%Qq%%%%%%QqQq%Qq%%%%%%%%%%%%%%%Qq
13125D4%%%%%%%Qq%%Qq%%%Qq%%%%%%%%%%Qq%%%%%%%QqQq%%%%%QqQq%%%%%%%%%%%%%%%%%%%
13109D4%%%%%Qq%%%%%Qq%%Qq%Qq%%%%%%%Qq%%%Q%qQq%Qq%Qq%%%%%%%%%%%%%%%%%%%%%%%%%
13093D4%%%%%%%%%%%%%%%%%%%%%%%%%%%%%%Qq%%Qq%Q%q%Qq%Qq%Q%%q%%%%Q%q%%%Qq%Q%qQq
13077D4Q%q%Qq%%%%%%%%%%%%%%%%%%%Qq%%%%%%%%%%%%%%%%%%%%%%%%%%%%%%%%%Qq%QqQ%%%
13062E2%q%Q%q%%Qq%QqQqQ%%%%%%%%q%QqQ%qQ%q%%%Qq%%%%%%%%%%%%%%%%%%Qq%%Q%q%QqQ%
13046E2qQ%%%%%%qQq%%%%%%%%%%%%%Qq%%QqQqQqQqQ%qQ%q%%%%%%Qq%%%Qq%%Q%%%%%%%qQqQ
13030E2%q%Qq%%Q%qQqQq%%%%%%%%Qq%%Qq%%%%%%%%QqQqQqQqQ%q%%%%%%Qq%Qq%%Q%qQ%qQqQ
13014E2qQq%%%%%%%%Qq%%Qq%%Q%%%%qQ%%%%%qQ%%%%%%qQ%%%%%%%%%%q%%%%%%Qq%Q%qQ%%q%
12998D4Qq%%%Qq%Q%q%%%Q%qQq%Q%qQ%%%%%%%q%Q%%%%%qQqQ%%%%%%%%%%%%qQ%%%%%%qQ%q%Q
12983E2qQqQq%%%Q%%q%Qq%%%Qq%Q%%q%Qq%%%%%%%Q%%%%%qQ%%%%%%qQ%%qQ%q%%Qq%%qK4k4J6
12967E2qQ%%%%%%%qQ%q%Q%q%%QqQ%%qQ%%q%QqQqQ%qQq%Qq%Qq%%%Q%%%%%%qQ%%%%%%%%%qQq
12951D4%Q%%%qQ%qQ%%%%%%q%QqQqQ%%%%%%%%qQ%%%%%%q%Qq%Q%%%q%%Q%q%Q%%q%%%Qq%%%Qq
12936D4%%%%%%Qq%%%%%%QqQqQqQqQq%%%Q%%%qQ%%%%q%%%%QqQq%QqQqQ%qQ%%%%%%q%Q%%%%%
12920E2%%%%%%%%%%%qQ%%%qQ%qQ%%%%%%%%%%%%%%%%%%%%qQqQ%q%Q%%q%Q%%%%qQqQ%%%qQ%q
12904D4Q%%%%%%%%qQ%%%%%%%%%%%qQqQ%%%%%qQ%%%%%%%%%%%%%%qQqQ%%qQqQ%q%Q%%%%%%%%
12888E2%%qQqQ%%%%%%%%%%%%%%%%%%%%%%%%%%%qQ%qQ%%%%%%%%%%%%%%%%%%%%%%%%%%%%%%%
12872E2%%%%q%Q%qQqQ%qQ%%%%%%%%%%%%%qQ%%%%%%%%qQ%%%%%%%%%%%%%%%%%%%qQ%qQ%%%%%
12857E2%%%%%qQ%%%%%qQ%%%%%%%%%%%%qQ%qQ%%qQ%%%%%%qQ%%qQ%qQq%qJ6%J6qqqJ6j6Q%%Q
12842F0q%%%%%%%qQ%%%%%%qQqQ%%%%%%%%%qQ%qQ%%%%%%%%%%%%%%%qQ%%%%%%%%%%%%%%%%%%
12826E2%%%%%%%%%%qQqQ%%%%%%%%%%%%%%%%%%%%%%qQ%%%%%%%%%%%%%%%qQ%%%%%%%%%%%%%%
12810E2qQ%qQ%%%%%%%qQ%%%%%%%%%%%%%%%%%%%%%%%%%%%%%%%%%%qQ%qQ%%%%%%%%%%%%%%%%
12794E2%%%%%%%qQ%%%%%%%%%%%%%%%%%%%%%%qQ%%%%%%%qQq%Q%%%%%%%%%%%%%%%%%%%%%%%%
12779E2%%%%%%%%%%%%%%%%%%%%%%%%%%%%%%%%%%%%%%qQ%%%%%%%%%%%%%%%%%%%%%%%%%%%%%
12763E2%%qQ%%%%%%%%%%%%%%%%%%q%Q%qQ%%%%%%%%%%%%%%%%%%%%%%%%%%%%%%%%%%%%%%%%%
12747E2%%%%%%%%%%%%%%%%%%%%%%%%%%%%%%%%%%%%%%%%%%%%%%%%%%%qQ%qQ%%%QqqQ%%%%%%
12731E2%%%%%%%%%%%%%%%%%%%qQq%Q%%%%%%%%%%%%%%%%%%%%%%%%%%%%%%%%%%%%%%%%%%%%%
12715E2%%%%%%%%%%%%%%%%%%%%%%%%%%%%%%%%%%%%%%%%%%%%%%%qQ%%%qQ%%%%%%%%qQ%%%%%
12700E2%%%%%%%%%%%%%%%%%%%%%%%%%%%%%%%%%%%%%%%%%%%%%%%%%%%%%%%%%%%%%%%%%%%%%
12684E2%%%%%%%%qQ%%%%%%%%%%%%%%qQqQ%%%%%%qQ%q%Q%%%%%%%%%%%%%%%%%%%%%%%%%%%%%
12668E2%%%%%%%%%%%%%%%%%%%%%%%%%%%%%%%%%%%%%%%%%%%%%%%%%%%%%%%%%%%%%%%%%%%%%
12652E2%%%%%%%%%%%%%%%%%%%%%%%%%%%%%%%%%%%%%%%%%%%%%%%%%%%%%%%%%%%%%%Qq%%%%%
12636E2%%%%%%%%%%%%%%%%%%%%%%%%%%%%%%%%%%%%%%%%%%%%%%%%%%%%%%%%%%%%%%%%%%%%%
12621E2%%%%%%%%%%%%%%%%%Q%q%%%qQ%%%%%%%%%%%%%%%%%%%%%%Qq%Qq%%%%%%%%%%%%%%%%%
12605E2%%%%%%%%%%Qq%%%%%%%%%%%%%%%%%%%%%%%%%%%%%%%%%%%%%%%%%%%%%%%%%%%%%%%%%
12589E2%%%%%%%%%%%%%%%%%%%%%%%%%%%%%%%%%%%%%%%%%%%%%%%%%%%%%%%%%%%%%%%%%%%%%
12573E2%%%%%%Qq%%%%%%%%%%%%%%%%%%%%%%%%%%%%%%%%%%%%%%%%%%%%%%%%%%%%%%%%%%%qQ
12558E2%%%%Qq%%%%%%%%%%%%%%%%%%%%%%%%%%%%%%%%%%%Qq%%%%%%%%%%%%%%%%%%%%%%%%%%
12542E2%%%Qq%%%%%%%%%%%%%%Qq%%%%%%%%%%%%%%%%%%%%%%%%%%%%%%%%Qq%%QqQqQq%%%%%%
12526E2Qq%%%%%%%%%%%%%%%QqQq%%%%%%QqQ%%q%%%%Q%q%%%%%%%%%%%%%%%%%%%%%%%%%%%%%
12510E2%%%%%%%%%%%%%%%%%%%%%%%%%%%%%%%%%%%%%Q%q%%%%%%%%J6l2J6%QqQ%q%Qj6Q%%%%
12495E2%%%%%qQ%%%%QqQq%Q%%%qQqQ%%qQ%q%%%%%%%%%%%%Qq%%%%Q%q%%%%%%Qq%%Qq%%%%%%
12479E2%%%%%%%%%Qq%%%%QqQq%%%%%%Qq%%%%%%%%%%%%%%%Qq%%%%%%%%%%%%%%%%%%%%%%%%%
12464E2%%%%%QqQq%%%%%%%%%%%%%%%%%%%%Qq%%Q%qQq%%%%%%%%%%%%%%%%%%%%%%%%%Qq%%%%
12448E2%%%%Qq%%%%%%%%Qq%%%%%%%%%%%%%Qq%%%%%Qq%%%%%%%%%%%%%%%%%%%%%%%%%%%%%%%
12432E2%%%%%%%%%QqQq%%%%%%%%QqQqQqQqQq%%%%%%%%%%%%Qq%%%%%%%%%%QqQq%%%%%%%%%%
12416E2%%%%%%%%%%%%%%%%%%%%%Qq%QqQ%%%q%%Q%%qQqQq%%%%%%QqQqQqQqQ%q%Qq%%Qq%%Qq
12401E2%Q%%qQ%%%%%qQ%q%QqQ%%%%%%%qQ%%%%%%%%%%qQq%Qq%%%Q%%%%%%%%%q%%%%%%Qq%%Q
12385F0q%%%%%%QqqQ%%Q%%q%Q%%q%QqQq%%%Qq%Q%qQqQ%%%qQq%QqQq%%%%%Q%qQqQ%q%Q%%%%
12369F0%%%%%qQ%%qQqQ%qQq%%Q%q%%%%%%%%%%Qq%%%Q%qQ%q%Q%%q%Q%q%QqQ%%%q%QqQ%%%%q
12353E2Q%%%q%%%Q%%qQqQ%qQ%%q%%%%Q%q%Q%q%%QqQqQq%%%%%Q%qQ%%qQ%%%%%%%%%%qQ%%qQ
12337F0%%qQqQ%%%%q%Qq%%%Q%qQ%q%%%%Qq%%Qq%%%%Q%qQq%%%%%%Qq%Q%%%%%qQq%%%Q%q%%%
12322E2Q%%q%QqQq%Q%qQ%%%qQ%%q%Qq%%QqQ%%%%%%%%%%%%qQ%%%%%%%%%%%q%Q%%%q%Q%%%%%
12306F0%%qQ%%%%q%Q%q%Q%%%%%%%%%%%%%%%%%%%%%%%%%q%Q%%%%%%qQ%%%%%qQ%%%%%%%%%%%
12290F0qQ%q%Q%qQq%%Q%%%%%%%%%%%q%Q%%%%%%%%%%%%%%%%%%%%%%%%%%%%%%%%%%%%%%%%%%
12274F0%%%%%%%%%%%%%%qQ%%%%%%%%%%%%%qQ%qQ%%%qQ%QqqQ%%%%%%%qQ%%%%%qQ%%%qQ%%%%
12258F0%qQ%%%qQ%%%%%%%%%%%%%%%%%%%%%%qQ%%%%%%%%%%%%%%%%%%%%%%%%%%%%%%%%%%%%%
12243F0%%%%%%%%%%%%%%%%%%%%%%%%%%%%%%%%%%%%%%%%%%%%%%%%%%%%%%%%%%%%%qQ%%%%%%
12227F0%%%%%%%%%%%%%%%%%%%%%%%%%%%%%%%%%%%%%%%%%%%%%%%%%%%%%%%%%%%%%%%%%%%%%
12211F0%%%%%%%%%%%%%%%%%%%qQ%%qQ%%%%%%%%%%%%%%%%%%%%%%qQ%%%%%%%%%%%%qQ%%%%%%
12195F0%%%%%%%%%%%%%%%%%%%%%%%%%%%%%%%%%%%%%%%%%%%%%%%%%%%%%%%%%%%%%%%%%%%%%
12179F0%%%%%%%%%%%Qq%%%%%%%%%%%%%%%%%%%%%%%%%%%%%%%%%%%%%%%%%%%%%%%%%%%%%%%%
12164F0%%%%%%%%%%%%%%%%%%%%%%%%%%%%%%%%%%%%%%%%%%%%%%%%%%%%%%%%%%%%%%%%%%%Qq
12148F0%%%%%%Qq%%%%%%%%%%%%%%%%%%%%Qq%Qq%%%%%%%%%%%%%%%%%%%%%%%%%%%%%%%%%%%%
12132F0%%%%%%%%%%%%%%%%%%%%%%%%%%%%%%%%%%%%%%%%%%%%%%%%%%%%%%%%%%%%%%qQ%%%%%
12116F0%%%%%%%%%%%%%%%%%%%%%%%%%%%%%%%%%%%%%%%%%%%%%%%%%%%%Qq%%%%%%%%%%%%%%%
12100F0%%%%%%%%%%%%%%%%%%%%%%%%%%%%%%%%%%%%%%%%%%%%%%%%%Qq%%%%%%%%%%%%%%%%%%
12085F0%%%%%%%%%%qQ%%%%%%%%%%%%%%%%%%%%%%%%%%%%%%%%%%%%%%%%%%%%%%%%%%%%%%%%%
12069F0Qq%Qq%%%%%%%%%%%%%%%%%%%%%%%%%%%%%%%%%%%%%%%%Qq%%%%%%%%%%%%%%%%%%%%%%
12053F0%%%%%%%%%%%%%%%%%%%%%%%%%%%%%%%%%%%%%%%%%%%%%%%%%%%%%Qq%%%%%%%%%%%%%%
12037F0%%%%%%%%%Qq%%%%%%%Qq%%%Q%q%Q%qQj6QQq%Q%q%Q%q%%%%%%%%%%%%QqQ%q%%Q%%qQ%
12022F8qQ%%%%q%%%%%%%%%%%%%Qq%%%Qq%%%%%%%%Qq%%%%%%%%%%%%%%%%%%%%%Qq%%%%%%%%%
12006F0%%%%%%%%%%%%%%%%%%%%%%QqQq%%%QqQq%%%%%%%%%%%%%%Q%%q%%%Qq%%%%%%%Qq%Q%q
11990F0QqQq%Qq%%%%%%%%%%%%%%%%%%%%%%%%%%%%%%%%%%%%%%Qq%Qq%%%Q%q%%%%%%%%%%Qq%
11974F0Q%q%%%%Qq%Q%qQq%%%%%%Qq%%%%%Q%qQ%%%q%Qq%%%%%%%%%Qq%%%%%%%%%%%%%%%%%%%
11959F0%%%%%%%%Qq%%%%%%%%%%%%%%Qq%Qq%%%%%%Q%q%%QqQ%q%%%%%%Qq%%%QqQ%%q%QqQq%Q
11943F8%%q%%Qq%%%%%%%%%%Q%q%%%%%%%%%%%%Q%%q%Qq%%%%Q%q%%Qq%Q%q%Q%q%%%%%%QqQ%%
11927F8%%%%q%%%%%%%%%%%%%%%%%%%%Q%qQ%%%%qQ%q%%%Qq%%%%%%Qq%%%%%QqQq%%%%Q%q%%Q
11911F8q%%%Q%%q%%Qq%%%%Q%%qQ%qQ%%%q%%Q%qQq%%%%%QqQq%%%Q%qQ%%%%%%%%%qQ%%%%%%%
11895F8%%%%%%%%%%%%%%q%Q%%%%%%%%%%%%%%%%%%%%%%%%%qQq%%%QqQqQ%q%%%%%Qq%Qq%%%Q
11880F8qQ%%q%QqQ%%%qQ%q%%%QqQq%%%%QqQ%%qQqQ%qQ%qQ%%qQ%%%%q%Q%%%%%%%%%%%%%%%%
11864F8%%%%%%%%%%%%%%%%%%%%%%%%%%%%%%q%QqQ%%%%%q%%%Q%qQqQ%%%%%%%qQ%%%%%%%%%%
11848F8qQ%qQ%%%%qQ%qQq%%Q%%q%Q%qQ%%%%%%%%%%qQ%%%%%%%%%%%%q%Q%%%%%%%%%%%%%%%%
11832F8%%%%%%%%%%%%%%%%%%%%%%%%%%%%qQ%%%%%%%%%%%%%%q%Q%%%qQ%qQ%%%%%%%%%%%%%%
11816F8%%%%%%%%%%%%%%%%%%%%%%%%%%%%%%%%%%%%%%%%%%%%%%%%%%%%%%%%%%%%%%%%%%%%%
11801F8%%%%%%%%qQ%%%%%%%%%%j6J6qJ6q%%%qQ%%%%%%%%%%%%%%%%%%qQ%%%%%%%%%%%%%%%%
11786F8%%%%%%%%%%%%%%%%%%%%%%%%%%%%%%%%%%%%%%%%%%%%%%%%%%%%%%%%%%%%%%%%%%%%%
11770F8%%%%%%%%%%%%%%%%%%%%%%%%%%%%%%%%%%%%%%%%%%%%%%%%%%%%%%%%%%%%%%%%%%%%%
11754F8%%%%%%%%%%%%%%%%%%%%%%%%%%%%%%%%%%%%%%%%%%%%%%%%%%%%%%%%%%%%%%%%%%%%%
11738F8%%qQ%%%%%%%%%%%%%%%%%%%%%%%%%%%%%%%%%%%%%%%%%%%%%%%%%%%%%%%%%%%%%%%%%
11722F8%%%%%%%%%%%%%%%%%%%%%%%%%%%%%%%%%%%%%%%%%%%%%%%%%%%%%%%%%%%qQ%%%%%%%%
11707F8%%%%%%%%%%%%%%%%%%%%%%%%%%%%%%%%%%%%%%%%%%%%%%%%%%%%%%%%%%%%%%%%%%%%%
11691F8%%%%%%%%%%%%%%%%%%%%%%%%%%%%%%%%%%%%%%%%%%%%%%%%%%%%%%%%%%%Qq%%%%%%%%
11675F8%%%%%%%%Qq%%%%%Qq%%%%%%%%%%%%%%%%%%%%%%%%%%%%%%%Qq%%%%%%%%%%%%%%%%%%%
11659F8%%%%%%%%%%%%Qq%Qq%%%%%%%%%%%%%%%%%%%%%%%%%%%%%%%%%%%%%%%%%%%%%%%%%%%%
11643F8Qq%%%%%%%%%%%%%%%%%%%%%%%%%%%%%%%%%%%%%%%Qq%%%%%%%%%%%%%%%%%%Qq%%%%%%
11628F8%%%%%%%%%%%%%%%%%%%Qq%%Qq%Q%q%%QqQq%%%Q%q%%QqQq%%%%%%%%%%%%Q%qQ%q%%%%
11612F8%%%%%%%QqQq%QqQ%q%%QqQ%qQqQq%%%%%%%%%%%%%%%%Qq%%%%%QqQ%q%Q%%q%Q%qQqQq
11596F8%%QqQ%%%q%%Q%qQ%qQ%q%Q%%%qQ%%q%%Q%%%q%Qq%%%%%%%%QqQq%%Q%%%%%q%Qq%%%%%
11580F8Q%qQq%Q%qQ%q%%%%%Qq%%%%%%%Qq%Q%qQ%%q%%%Q%q%Q%%%qQ%%q%%Q%%%%qQqQqQq%Qq
11564F8Qq%%Q%j6J6qq%k4L2K4l2J6j6Q%%%%Qq%Q%qQq%%QqQq%Qq%QqQq%QqQqQ%q%Q%qQ%%%%
11550G6%%%%%%qQ%%%%%%%qQqQqQ%%q%Q%%qQ%%%%%%%%qQ%qQ%q%%QqQ%%%%q%Q%%%%%%q%Q%%%
11535G6%%%qQ%qQqQ%%%%%%qQ%%%qQ%qQqQ%%%%%%%%qQ%%%%%%%%%%%qQ%%%%%%%qQ%qQqQ%%%q
11519F8%QqQ%%%%%%%%%%%%%%%%%%%%%%%qQ%%%%%%%%%%%%%%%%%%qQ%%q%Q%%%%%%%%%%%%q%%
11503F8QqQ%%%qQ%%%%%%%%%%%%%%qQ%qQ%%qQ%%%%%%q%Q%%%%%%%%%%%%qQ%%%%qQqQ%q%QqQ%
11487G6%%%%%%%%%%%%%%%%%%%%%%%%%%%%%%%%%%%%%%%%%%%%%%%%%%%%%%%%%%%%%%%%%%%%%
11471G6%%%%%%%%%%%%%%%%%%qQ%%%%%%%%%%%%%%%%%%%%%%%%%%%%%%%%%%%%%%%%%%%%%%%%%
11456G6%%%%%%%%%%%%%%%%%%%%%%%%%%%%%%%%%%%%%%%%%%%%%%%%%%%Qq%%%%%%%%%%%%%%%%
11440G6%%qQ%%%qJ6%q%%qQ%%%%%%%%%%%%%%%%%%%%%%%%%%%%%%%%%%%%%%%%%%%%%%%%%%%%%
11424G6%%%%%%%%%%%%%%%%%%%%%%%%%%%%%%%%%%%%%%%%%%%%%%%%%%%%%%%%%%%%%%%%%%%%%
11409G6%%%Qq%%%%%%%%%%%%%%%%%%%%%%%%%%%%%%%%%%%%%%%%%%%%%%%%%%%%%%%%%%%%%%%%
11393G6%%%%%%%%%%%%%%%%%%%%%%%%%%%%qQ%%%%%%%%%%%%%%%Qq%%%%%%%Qq%%%%%%%%%%%%%
11377G6%%%%%%%%%%%%%%%%%%%%%%%%%Qq%%%%%%%%%%%%%%%%%%%%%%%Qq%%%%%%%%%%%%%%%%%
11361G6%%%%%%%%%%%%%%%%%%%Qq%Qq%%%%%%%%%%%%%%%%%%%%%%%%%%%%%%%%%%%%%%%%%%%%%
11345G6%%%%%%%%%%%%Qq%%%%%%%%%%%%%%Qq%%%%%%%%%%%%%%%Qq%%%%%%%%%%%%%%%%%%%%%%
11330G6%%%QqQq%Q%qQ%qQq%%%%Q%%q%%%%%%%Qq%Q%q%%%%%%%%%%%%%%%%%%%%%%%%%%%%%%%%
11314G6%%%%%%%Qq%QqQq%%%%%%%%%%%%%%%%Qq%%%%%%%%%%%%Q%qQ%%%q%%%Qq%%%%QqQq%%%Q
11298H4%%qQqQq%%%%%%%%%Qq%%%%%%Q%qQ%q%%Q%q%%%%%Qq%%%%Q%%%%%%qQ%qQ%%%%%%q%%%%
11282G6Qq%Qq%%%%%%Q%qQq%%%%%%QqQqQ%%qQ%%%%%%qQ%%%%%%qQ%%qQ%%%qQqQ%%%qQ%%%%%%
11266H4%%%%%%%%%qQ%%qQ%%%%%%%%%qQ%%%qQ%%q%Qq%Q%q%Q%q%%%%Q%%%qQ%%%%%qQ%q%QqQ%
11251H4%%q%Q%q%QqQqQ%qQ%%%%%%%%%%%%%%%%%%%%%%%%%%%%%%%%qQ%%%%%%%%%%%%%%%%%%%
11235H4%%%%%%%%%%%%%%%%%%%%%%%%%%%%%%%qQ%%%%%%%%%%%%%%%%%%%%%%%%%%%%%%%%%%%%
11219H4%%%%%%%%%%%%%%%%%%%%%%%%%%%%%%qQ%%%%qQ%%%q%%QqQqQ%%%%%qQ%qQ%%%%%%%%%%
11203H4%%%Qj6%Q%%%%%%%%%%%%%%%%%%%%%%%%%%%%%%%%%%%%%%%%%%%%%%%%%%%%%%%%%%%%%
11188H4%%%%%%%%%%%%%%%%%%%%%%%%%%%%%qQ%%%%%%%%%%%%%%%%%%%%%%%%%%%%%%%%%%%%%%
11172H4%%%%%%%%%%%%%%%%%%%%%%%%%%%%%%%%%%%%%%%%%%%%%%%%%%%%%%%%%%%%%%%%%%%%%
11156H4%%%%%%%%%%%%%%%%%%%%%%%%%%%%%%%%%%%%%%%%%%%%%%%%%%q%Q%%%%%%%%%%%%%%%%
11140H4%%%%%%%%%%%%%%%%%%%%%%%%%%%%%%%%%%%%%%%%%%%%%%Qq%%%%%%%%%%%%%%%%%%%%%
11124H4%%%%%%%%%%Q%q%%%%%%%%%%%%%%%%%%%%%%%%%Qq%%%Qq%%%%%%%%Q%q%%%%%%%%%%%%%
11109H4%%Q%%qQqQ%q%%%%%%%%%%%%%%%%%%%%%%%%%%%%%%%QqQq%%%%%%%%%%%Qq%%Qq%Qq%%%
11093H4Q%%qQj6QQq%%%%%Qq%%%%%%%%%%%%%%%%%%%%%%%%%Qq%Q%qQqQq%%%%%%%%%%%Q%qQqQ
11077I2q%Qq%%Qq%%%%%%%%%%%%%QqQqQq%%%%%%Qq%%%Q%qQqQ%q%QqQ%qQqQq%Q%%%%q%%Qq%%
11062H4%%%%Q%qQqQq%%Qq%%%%%%%Qq%%%%%%%%%%%%%%%QqQ%qQ%%qQ%%qQ%%q%%%%%Qq%%%%%%
11046H4%Q%qQ%qQ%%qQqQq%%%%QqQq%%%%Qq%%Q%%%%%%%%qQ%%q%Qq%Q%%%%q%Qq%QqQ%%qQq%Q
11030I2%%%qQ%%%qQq%Q%%%q%Q%%%%%%%%%%%qQ%%%%%%%%%%%%%%%%%%%qQ%%%%%%qQ%%%%%%%q
11014H4QqQ%%%%%%%%%%%%%%%qQqQ%%%%%%%%%%%%%%%%%q%Q%%%%%%%%%%%%%%%%%%%%%%%%%%%
10998I2%%%%%%%%%%%%%%%%%%qQ%%%%%%%%%%%%%%%%%%%%%%%%%%%%%%%%%%%%%%%%%%qQ%%%%%
10983I2%%%%%%%%%%%%%%%%%%%%%%q%Q%%qQ%%%q%QqQ%%%%qQ%%%qQqQ%qQ%%%%K4j6%k4M8m0J6
10968A00qQqj6J6QqqQ%%qQ%%%%%%%%%%%%%%%%%%%qQ%%%%%%%%%%%qQ%%%%%%%%%%%%%%%qQ%%
10953I2%%%%%%%%%%%%%%%%%%%%%%%%%%%%%%Qq%%%%%%%%%%Qq%%%%%%%%%%%%%%%%%%%%%%%%%
10937I2Qq%%%%%%%%%%%%%%%%%%%%%%%%%%%%%%%%%%%%%%%%%%%%%%%%%%%%%%%%%%%%%%%%%%%
10921I2%%%%%%%%%%%%%%%%%%%%%%%%Qq%%%%%%%%%%%%%%%%%%%%%%%%%%%%%%%%%%%%%%%%%%%
10905I2%%%%%%%%%%%%%%%Qq%%%%%%%%%%%%%%%%%%%%%%%%%%%%%%%%%%QqQq%%%%Qq%%%%%%%%
10890I2%Qq%Qq%%Qq%Qq%%%%%%%%%%%%%%%%%%%%%%%%%Q%q%Qq%%QqQq%Qq%%%%%%%%%%%%%%%%
10874I2%%%%%Qq%Q%qQ%%q%Q%qQqQq%Q%qQ%%q%%%%%%%%%%Qq%%Qq%Q%q%Q%%qQ%qQ%qQ%%%%Qj6
10858I2qJ6%q%%Qq%%%%%%%%%%%Qq%%%Qq%%Q%qQqQ%%%qQq%%Qq%%QqQ%%%q%%%%Q%q%%%%%%Qq
10843I2Q%%%%%%%%%%qQqQqQqQqQqQ%q%Q%%q%Q%q%%%%Qq%%QqQqQ%%q%%Qq%%Q%qQqQq%Qq%%%
10827I2%%%%%Q%q%%Q%%%%%%%%q%%QqQqQ%qQqQq%%%%QqQ%%qQq%%QqQ%q%Qq%%%%%Q%%%%qQq%
10811I2%Q%%%qQ%q%Q%%%%%%%%%%qQqQqQ%q%QqQ%%%%%%%%%%%%%%%%q%Q%%%%%%%%%%%%%%%%%
10795A00%%%%%%%%%%%%%%%%%%%%%qQ%%%%%%%%%%%%%%%%%%%%%%%%%%%%%%qQ%%%%%%%%%%%%%
10780A00%%%%%%%%%%%%%%%%%%%%%%%%%%%%%%%%%%%%%%%%%%%%%%%%%%%%%%%%%%%%%%%%%%%%
10764A00%%%%%%%%%%%%%%%%%%%%%%%%%%%%%%%%%%%%%%%%%%%%%%%%%%%%%%%%%%%%%%%%%%%%
10748A00%%%%%%%%%%%%%%%%%%%%%%%%%%%%%Qq%%%Qq%%%%%%%%%%%%%%%%%%%%%%%%%Q%%qqQ%
10733A00%%Qq%%%%%%%%%%%%%%%%%%%%%%%%%%%%%%%%%%%%%%%%%%%%%%%%%%%%%%%%Qq%%%%%%
10717A00%%%%%%%%%%%%%%%%%%%%%%%%%%%%%%%%%%%%%%%%%%%%%%%%%%%%%%Qq%Qq%%%Qq%%%%
10702A00%%Qq%%%%%%%%%%Qq%%%%%%%%%%%%%%QqQqQ%qQ%q%%Q%%%q%QqQq%%Q%q%%%%%%Qq%Q%
10686A08q%%%%%%%%%%%%%%Q%q%Qq%%Q%qQ%%qQq%%Q%%%qQq%Q%q%QqQ%%%%%%qQq%%%%%%%QqQ
10671A08q%%%%%%%%%%%%%%%%%Q%%%%%%%%q%Q%%%q%%%%%%Qq%QqQqQ%%%%%%%%%%%%%%qQq%%Q
10655A08%qQ%%%qQq%Q%%%%%%%%%%%%%%%%%%%%qQ%qQqQq%%QqQ%%%%%%%qQ%%q%%Q%%%%%qQ%%
10639A08%%%%%%%%%%%%%%%%%%%qQ%%%%%%%%%%qQ%%%%%%%%%%%%%%%%%%%%%%%%%%qQqQq%qQJ6
10624A16j6qJ6%%q%QqQ%%Qq%%%%%%%%%%%%%%%%%qQ%qQ%%%%%%%%%%%%%%%%%%%%%%%%%%%%%%
10609A08%%%%%%%%%%%%%%%%%%%%%%%%%%%%%%%%%%%%%%%%%%%%%%%%%%%%%%%%%%%%%%%%%%%%
10593A08%%%%%%%%%%%%%%%%%%%%%%%%%%%%%%%%%%%%%%%%%%%%%%%%%%%%%%%%%%%%%%%%%%%%
10578A08%%%%%%%%%%%%%%%%%%%%%%%%%%%%%%%%%%%%%%%%%%%%%%%%%%QqQ%q%%Q%q%Q%q%%%%
10562A08%%%%%%%%%%%%%%%%Q%q%%%%%%%%%%%%%%%%%%%%%%%%%%%%%%QqQ%q%%%%%Qq%%%%%%%
10547A08%%%%%%%%%%%%Q%q%%%%%%%%%%%%%%%%%%%%Q%q%Q%q%QqQ%q%%Qq%%%%%%%Q%q%%QqQq
10531A08%%QqQ%qQq%%%%%%%Qq%Qq%%%%%%%QqQ%%q%%Qq%%%%%QqQ%qQ%%qQ%%%qQq%%%%%%Q%%
10515A16%%%q%%%%QqQq%QqQ%q%Q%%%%%%qQ%%%qQ%%%%q%%Qq%Q%%qQ%%%qQq%Qq%%Qq%Q%%%%%
10500A16%qQ%%%%%%%qQq%Q%%%qQ%%%%%%%%%%%%%%%%%%qQ%%%%%%%%%%%%%%%%%%%%%%%%%%%%
10484A16%%%%%%%q%Q%%%%%%%%%%%%%%%%%%%qQ%%%%%%%%%%%%%%%%%%%%%%%%%%%%%%%%%%%%%
10469A16%%%%%%%%%%%%%%%%%%%%%%%%%%%%%%%%%%%%%%%%%%%%%%%%%%%%%%%%%%%%%%%%%%%%
10453A16%%%%%%%%%%%%%%%%%%%%%qQ%%%%%%%%%%%%%%%%%%%%%%%%%%%%%%%%%%%%%%%%%%%%%
10438A16%%%%%%%%%%%%%%%%%%%%%%%%%%%%%%%%%%%%%%%%%%%Qq%%%%%%%%%%%%%%%%%%%%%%%
10422A16%%%%%%%%%%QqQq%%%%%%%%Qq%%%%%%%%%%%%Qq%%%%%Qq%%%%%%%%%%%%%%%%%%%%%%%
10406A16%%%%%%%%%%%%%%%%%%%%%%%%%%%%Qq%%%%%%%%Qq%%%%%Q%%qQ%%qQq%%%%%%%%Qq%Qq
10391A16%Q%%j6J6%q%%%%%%%%%%Q%qQq%%%Q%%qQ%%qQqQ%q%Q%%%%%q%%Q%%%q%%Q%qQqQ%%%q
10376A16Q%%q%Q%qQ%%%%%%qQ%%%qQq%%QqQ%%%%%%%%%%%qQ%%%%%%qQ%%qQ%qQ%%%%%%%%%%%%
10360A24%%%%%%%%%%%%%%%%%%%%%%%%%qQ%%%%%%qQ%%%%%%%%%%%%%%%%%%%%%%%%%%%%%%%%%
10345A24%%%%%%%%%%%%%%%%%%%%%%%%%%qQ%%%%%%%%%%%%%%%%%%%%%%%%%%%%%%q%Q%%%%%%%
10329A24%%%%%%%%%%%%%%%%%%%%%%%%%%%%%%%%%%%%%%%%%%%%%%%%%%%Qq%%%%%%%%%%%%%%%
10314A24%%%%%%%%%%%%%%%%%%%%%%%%%%%%%%%%%%%%%%%Qq%%%%%%%%%%Qq%%%%%%%%%%%%%%%
10298A24%%%%%%%%%%%%%%%%%%%%%%%%%%%%%%%%%%%%%%%%%%%%%%%%%%%%%%%%%%Q%q%%%%%%Q
10282A32%q%Q%%%%qQq%%%%%%%%%%%%%%Qq%%%%Qq%%%%%Q%qQq%Qq%%Q%q%Q%qQq%%Qq%Qq%%Q%
10267A32%q%%%%%%Q%q%%%%%%%Qq%Q%q%Qq%%%%%Q%%%q%%%%%%%%%%Qq%%%Q%%qQ%q%Q%qQq%Qq
10251A24QqQq%%Q%qQ%%qQ%%qQ%%%%%%qQ%%%%%%qQ%qQ%%%%%%%%%%%%%%%%%%%%%%%%%%%%%%%
10236A32%%%%%%%%%%%%%%%%%%%%%%%%%%%%%qQ%%%%%%%%%%%%%%%%%%%%%%%%%%%%%%%%%%%%%
10220A32%%%%%%%%%%%%%%%%%%%%%%%%%%%%qQ%%%%%%%%%%%%%%%%%%%%%%%%%%%%%%%%%%%%%%
10205A32%%%%%%%%%%%%%%%%%%%%%%%%%%%%%%%%%%%%%%%%%%%%%%%%%%%%%%%%%%%%%%%%%%%%
10189A32%%%%%%%%%%%%%%%%%%%%%%%%%%Qq%%%%%Qq%%%%%%%%%%%%%%%%Qq%%%%Qq%%%%%%%%%
10173A32%%%%%%%%%%%%%%%%Qq%%%%%%%%%%Q%q%Qq%%QqQqQqQq%Qq%%%Qq%%Q%%qQ%q%Q%%%q%
10158A32%QqQq%Q%q%QQ%qqQ%%%%qQq%%%%%%%%%%%%%Qq%Q%%q%%%%Q%qQ%%qQ%qQ%%%%qQ%%%%
10142A40%%qQ%%%%%%%%%%%%%%%%%%%%qQ%%%%%%%%%%%%%%%%%%%%%%%%%%%%%%%%%%%%%%%%%%
10127A40qQ%qQ%%%qQ%%%%%%%%%%%%%%%%%%%%%%%%%%%%%%%%%%%%%%%%%%%%%%%%%%%%%%%%%%
10111A40%%%%%%%%%%%%%%%%%%%%%%%%%%%%%%%%%%%%%%%%%%%%%%%%%%%%%%%%%%%%%%%qQ%%%
10096A40%%%%%%%%%%%%%%%%%%%%%%%%%%%Qq%%%%%%%%%%%%%%%%%%%%%%%%%%%%%%%%%%%%%%%
10080A40%%%%%%%%%%%%%%%%%%%%%%%%%%%%%%%%%%%%%%%%%%%%Qq%Qq%Qq%Qq%%%Q%%%%%qQ%%
10065A48%%%%%%%%%qQ%%%%%q%%Qq%Q%q%Q%%qQ%%qQq%QqQ%q%%Qq%%%Q%q%Q%%%qQ%qQ%%%%%%
10049A48%%%%%%%%%%%%%%%%q%Q%%%%%%%%%%%%%%qQ%%%%%q%Q%q%QqQ%q%QqQ%%%%%%%%%%%%Q
10033A56j6Q%%%qqQQ%q%%Q%%%%%%%%qQ%%%qQ%%%%%%%%%%%qQ%%%%%%%%%%%%qQ%%%%%%%%%%%
10018A48%%%%%%%%%%%%%%%%%%%%%%%%%%%%%%%%%%%%%%%%%%%%%%%%%%%%%%%%%%%%%%%%%%%%
10003A48%%%%Qq%%%%%%%%%%%%%%%Qq%%%%%%%Qq%Qq%%%%%%%%%%%%%%%%%%%%%%%%%%%%%%%%%
9987A48%%%%%%%%%%%%%%%%%%%%%%%%%%%Qq%%%%%%%%%%%Qq%Q%qQ%qQ%q%%Q%qQq%Q%%q%%Qq%
9971A48%%%Qq%%QqQ%%%%q%Qq%QqQq%Qq%QqQqQ%qQ%%qQ%%%%%qQ%%%%%%%%%%%%%%%%%%%%%%%
9955A56%%%%%%%%%%%%%%%%%%%%%%%%qQ%%%%%%%%%%%%%%%%%%%%%%%%%%%%%%%%%%%%%%%%%%%
9940A56%%%%%%%%%%%%%%%%%%%%%%%%%%%%%%%%%%%%%%%%%%%%%%%%%%%%%%%%%%%%%%%%%%%%%
9924A56%%%%%Qq%%qQqJ6q%%%qQ%%%%%%%%%%%%%%%%%%%%%%%qQ%%%%%%%%%%%%%%%%%%%%%%%%
9908A56%%%%%%%%%%Qq%%%%%%%%%%%%%%%%%%%%%%%%Qq%%%%%%%%%%%%%%%%%%%%%Q%qQqQ%%q%
9892A56%Q%%q%Q%%%%%%qQ%%%q%Qq%%%%%Q%q%%%%Q%%%%%qQ%%%%%%%%%%%%%qQ%%%%%%q%Q%%%
9877A64%q%Qq%Q%%%%%%%%%%%%%%%%%%%%%%%%%%%%%%%%%%%%%%%%%qQ%%%%%%%%%%%%%qQqQ%%
9861A64%%%%%%%%%%%%%%%%%%%%%%%%%%%%%%%%%%%%%%%%%%%%%%%%%%%%%%%%%%%%%%%%%%%%%
9845A64%%%%%%%%%%%%%%%%%%%%%Qq%Qq%%%%%%%%%%%%%%%%%%%%%%%Qq%Qq%Qq%%%%%%%%%%%%
9829A64%%%%%Qq%%%Qq%%Q%qQq%%%%%%%%%%%%%%%%%%%%QqQ%%q%QqQqQq%%%%%%Qq%%Q%%%%q%
9813A64%%Qq%Qq%Qq%Qq%%%Q%%%%%q%%%%%Q%q%%Qq%Qq%Qq%Qq%QqQ%qQqQq%Q%%%qQ%%%%qQ%q
9798A64Q%%Qq%qQ%%%%%%%%%%%%%%%%%%%%%%%%%%%%%%%%%%%%%%%%%%%%%%%%%%%%%%%%%%%%%
9782A72%%%%%%%%%%%%%%%%%%%%%%%%%%%%%%%%%%%%%%%%%%%%%%%%%%%%%%%%%%%%%%%%%%%%%
9766A72%%%%%%%%%%%%%%%%%%%%%%%%%%%%%%%%%%%%%%%%%Qq%%%%%%Qq%%%%%%%%Qq%Q%qQ%qQ
9750A80q%%%%%%QqQqQqQ%%%qQ%qQ%qQ%%%%%%%%%%%%%%%q%%QqQ%%q%Q%%qQ%%%%%%%%%%%%%%
9734A80%%%%%qQ%qQqQqQ%%%%%%%%%%%%%%%%%%%%%%%%%%%%%%%%%qQ%%%%%%%%%%%%%%%%%%%%
9719A80%%%%%%%%%%%%%%%%%%%%%%%%%%%%%%%%%%%%%%%%%%%%%%%%%%%%%%%%%%%Qq%%%%%%%%
9703A80%%%%%%%%%%%%%%Qq%%%%%%Q%q%%%%QqQq%%Q%q%Qq%%%%%%Qq%%qQ%QQqQqqJ6qqQ%qM0
9688B20m0%k4M0j6J6m8J6k4M8j6QQQqqQ%j6QQ%%%%q%Q%j6QQqQqQ%qQ%%%qQ%qQ%%%%%%%qQ%
9675A88%%%%%%%qQ%qQ%%%qQ%q%QqQ%%%%%%%%%%%%%%%qQ%%%qQ%%%%%%%%%%%%%%%%%%%%%%%%
9659A88%%%%%%%%qQ%%%%%%%%%%%%%%%%%%%%%%%%%%%%%%%%%%%%%%%%%%%%%%%%%%%%%%%%%%%
9643A88%%%%%%%%%%%%%%%%%%%%%%%%%%%%%%Q%q%%%%%%%%%%Q%q%%%%%%%%%%%%%%%%QqQ%%%q
9627A88%Q%%%%%%qQ%%qQq%%Qq%Qq%QqQ%%%qQq%Q%%%%%%%qQ%%%%%%%%%%%%%%qQ%qQ%%%%%%%
9611A96%%%%%%%%%%%%%%%%%%%%%%%%%%%%%%%%%%%%%%%%%%%%%%%%%%%%%%Qq%%%%%%%%%%%%%
9596A96%%%%%%%%%%%%%%%%%%%%%%%%%%%%%%%%%%%%%%%%%%%%%%%%%%%%%%%%%%%%%%%%%%%%%
9580A96%%%%%%%%Qq%%%%%%%%%%%%%%%%%%%%Qq%%%QqQqQ%%%%q%%QqQ%%qQ%%qQ%%qQqQ%%qQq
9564A96QqQqQqQqQqQ%qQ%%qQ%qQ%%%%%%qQ%%q%Q%%%%%qQ%%qQ%%%%%%%%%%%%%%%%%%%%%%%%
9548B04%%%%%%%%%%%%%%%%%%%%%%%%%%%%%%%%%%%%%%%%%%%%%%%%%%%%%%%%%%%%%%%%%%%%%
9532B04%%%%%%%%%%%%%%%%%%%%%Qq%%%%Q%q%%%%%%QqQq%%%%%%%%%%Qq%Qq%Q%%%%q%%%%Q%%
9517B12%q%%Q%%qQ%%qQ%%%%%%%qQ%%%%q%Q%%%%%%%%%%%%%%%%%%%%%%%%%%%%%%%%%%%%%%%%
9501B12%%%%%%%%%%%%%%%%%%%%%%%%%%%%%%%%%%%%%%%%%%%%%%%%%%%%%%%%%%%%%%%%%%%%%
9485B12%%%%%%%%%%%%%%%%Q%q%%%%%%%%%%%%%Qq%%%%%%%%%%%%%%%Qq%QqQq%%%Q%q%%Qq%%Q
9469B20%qQq%%%%%Q%%qQ%%%%%%qQ%%%%%%%%%%%%%%%%%%%%%%%%%%%%%%%%%%%%%%%%%%%%%%%
9453B20%%%%%%%%%%%%qQ%%%%%%%%%%%%%%%%%%%%%%%%%%%%%%%%%%%%%%%%%%%%%%%%%%%%%%%
9438B20%%%%%%%%%%%%%%%%%%%%%%%%%Q%q%%%%Q%%q%%%%%Q%q%%%%%%%%%%%QqQ%q%Q%q%%%%%
9422B20%%%Q%%%%%%%q%Q%%%%%%%qQq%Q%%%%%%%%%%%%%%%%%%%%%%%%%%%%%%%%%%%%%%%%%%%
9406B28%%%%%%%%qQ%%%%%%%%%%%%%%%%%%%%%%%%%%%%%%%%%%%%%%%%%%%%%%%%%Qq%%%%%%%%
9390B28%%%%%%%%%Qq%%%%%Q%qQ%qQq%%%%%Q%%qQqQq%Q%qQq%Q%%%%qQ%qQ%qQqQqQ%%q%Q%%%
9374B36%%%%%qQ%%%%%%qQ%%%%%%%%%qQ%%%%%%%%%%%%%%%%%%%%%%%%%%%%%%%%%%%%%%%%%%%
9359B36%%%%%%%%%%%%%%%%Qq%%%%%%%%Qq%%Qq%%%%%%%%%%%%%%%%%%%%%%%%%%%%%%%%%%Q%q
9343B36QqQq%Q%%qQq%%%%%QqQ%%%%q%%%%Qq%Qq%Q%%%%qQ%q%Qq%QqQ%q%%Q%%qQ%%Qq%%%%qQ
9327B44%%%%%%%%%%%%%%%%%%%%%%%%%%%%%Qq%%%%%%%%%%%%%%%%%%%%%%%%%%%%%%%%%%%%%%
9311B44%%%%%%%%%%%%%%%%%%%%%%QqQqQq%Q%%qQqQ%qQ%qQ%qQ%q%%Qq%%Q%%%qQqQ%q%%Q%q%
9296B44Q%q%Qq%%Q%%%%%%%%%qQ%%%qQ%%%%%%%%%%%%%%%%%%%%%%%%%%%%%%%%%%%%%%%%%%%%
9280B52%%%%%%%%%%%%%Qq%%%%%%%%Q%q%Qq%%%%Qq%%%%%%%Qq%%%%Qq%%%%QqQ%q%Q%%qQ%%%q
9264B52%%%Q%q%QqQqQq%QqQ%%qQ%%qQ%%%%%%%%%%%%%%%%%%%%%%%%%%qQ%%%%%%%%%%%%%%%%
9248B60%%%%%%qQ%%%%%%%%%%%%%%%%%%%%%%%%%Qq%%%%%%%%%Qq%%%%%%%%%%%%%%%%%QqQ%qQ
9232B68q%%%%%%%%QqQq%Qq%Q%%%%%%%%%%%%%%qQ%%%%qQqQ%%%%%%%%%%%%%qQqQ%Qj6%%%QqQ
9217B68%qQ%%%%%%%Qq%%%%%%%qQ%%%QqQq%%%%%Qq%%%%%%%Qq%%%%%%%%%%%%%%%Qq%%Qq%%%%
9201B68%%QqQqQqQ%%%q%%%%%%%%%Qq%Q%%%%%%%%%%qQqQqQq%%Q%%%%%%%%%qQqQ%%%%%%%%%%
9185B76%%%%%%%%%%%%%%%%%%%%%%%%%%%%%%%%%%%%%%%%%%%%%%%%%%%Qq%%%%%%%%%%%%%%%%
9169B76%%%%QqQq%%QqQqQ%%%%%%%%%%%%%%qQ%%%%qQ%%%%qQq%Q%%qQ%%%%%%%%%%%%%%%%%%%
9154B84%%%%%%%%%%%%%%%%%%%%%%%%%%%%%%%%%%%%%%%%%%%%%%%%%%%%%%%%%%%%%%%%%%%%%
9138B84%%%%Qq%%%%%%%%Qq%Qq%%%%%Qq%Q%%q%%%Q%%%%%%%%%%%%%%%%%%%%%%%qQ%%%q%Q%%%
9122B92%%%%%%%%%%%%%%%%%%%%%%%%%%%%%%%%%%%%%%%%%%%%%%%%%%%%%%%%%%%%%%%%%%%Qq
9106B92%QqQ%%%%%q%Q%%%%%qQQq%qQ%%%%%%%%%%%%%%%%%%%qJ6q%Q%Qk4%QQqQqQq%qQ%%%%%
9091C00%%Qq%%%%%%%%%%%%%%%%%%%%%%%%%%%%%%%%%%%%QqQ%%%%%%%qQqQqQqQqQqQ%%qQ%%%
9075C08%%%%qQ%%%qQ%%%qQqQ%%%%%%%%%%%%%%%%%%%%%%%%%%%%%%%%%%%%%%%%%%%%%%%%%%%
9059C08%%%%%%%%%Qq%%%Qq%%%Qq%Q%qQ%%qQqQ%%%%%%%q%QqQqQ%%%%%%%%%%%%%%%%%qQ%%%%
9044C16%%%%%%%%%%%%%%%%%%%%%%%%%%%%%%%%%%%%%%%%%%%%%%%%%%%%%%%%%%%%Q%%%%%%%%
9028C24%%qQqQqQ%qQ%q%%Qq%Q%q%%Q%%%%%%%%%%%%%%%%%%%%%%%%%%%%%%%%%%%%%%%%Qq%%%
9012C24%%%%%%%%%Qq%%%%%%%%%%%%Qq%QqQqQ%qQqQq%%%%Q%%q%Q%%qQq%%Q%%%qQ%%qQ%%%%%
8996C32%%%%%%%%%%%%%%%%%%%%%%%%%%%%%%%%%%%%%%%%%%%%%Qq%Qq%%Qq%%Qj6Q%QqQ%qQq%
8981C32QqQ%q%Q%%qQ%%%%%%qQ%%%%qQ%%%%%%%%%%%%%%%%%%%%%%%%%%%%%%%%%%%%%%%%%%%%
8965C40%%%%%%%%%%%%%%%%%%%%%%Qq%%%%%%%%%%%%%%Q%%q%Q%%%q%Q%%%%%%%%%%%%%%%%%%%
8949C48%%%%qQ%qQ%%%%%%%%%%%%%%%%%%%%%%%%%%%%%%%%%%%%%%%%%Qq%%%%%%%%Q%%%%%%%q
8933C48Q%%qQ%%%%%%%%%%%%%%%%%%%%%%%%%%%%%%%%%%%%%%%%%%%%%%%%%%%%%%%%%%%%%%%%
8917C56%%%Q%q%%%%Qq%%%%%%%Qq%Q%%qQ%%%qQ%%%%%qQ%%%qQ%%%%%%%%%%%%%%%%%%%%%%%%%
8902C64%%%%%%%%%%%%%%%%%%%%%%%Qq%QqQq%%%%%%Q%q%QqQ%%%%%%%%%%%%%%%%%%%%%%%%%%
8886C72%%%%%%%%%%%%%%%%%%%%%Qq%%%%%Qq%%%%%%Qq%%Qq%%%Qq%Q%%%%%%%%%%%%%%%%%%%%
8870C80%%%%%%%%%%%%%%%Qq%%Qq%%%%%%Qq%%%%%%%%%%%%%%%%%%%%%%%%%%%%%%%%%%%%%%%%
8854C80%%QqQ%%%%%%%%%%%%%%%%%%%%%%%%%%%%%%%%%%%%%%%%%%%%%%%%%Qq%%%QqQq%%%%%%
8838C88%Qq%Qq%%%Q%qQ%%%%%%%%%%%%%%%%%%%%%%%%%%%%%%%%%%%%%%%%%%%%%%%%%Q%%%q%%
8823C96QqQ%qQ%qQ%%qQ%%%%qQ%%%%%%%%%%%%%%%%%%%%%%%%%%%%%%%%%%%%%%%%%%%%%%%%%Q
8807D12q%%%%%Qq%%%%%%QqQ%qQ%%%qQqQ%%%%%%%%%%%%%%%%%%%%%%%%%%%%%%%%%%%%%%%%%%
8791D12%%QqQ%qQq%Q%%q%Qq%Q%qQ%%qQ%%%%%%%%%%%%qQ%%%%%%%%%%%%%%%%%%%%%%%%%%%%%
8775D20%%%%%%%%%%%%Q%qQq%Q%qQ%%%qQq%%%%Q%%%%%%%%%%%%%%%%%%%%%%%%%%%%%%%%%%%%
8759D28%Qq%%Qq%%Q%q%Q%q%%%%%%%QqQ%%%qQqQ%%q%%QQqj6K4%q%J6%k4J6qqQ%qQ%%Q%q%%%
8745D36%%Qq%%%%%%%%Qq%%%%Q%%%%%%%%%%%%%%%%%%%%%%%%%%%%%%%%%%%%%%%%%%%%%%%%%%
8729D44%%%Q%%qQq%Q%q%%%%QqQ%%%%%%%%%%%%%%%%%%%%%%%%%%%%%%%%%%%%%QqQq%%%Qq%%%
8713D52%%Qq%%Q%%%q%QqQ%%%%%%%%%%%%%%%%%%%%%%%%%%%%%%%%%%%%%%%%%%%%%%%%%%%QqQ
8697D68%%%qQ%%%%%%%%%%%%%%%%%%%%%%%%%%%%%%%%%%%%%%%%%%%%%%%%%Q%q%%Q%%%q%Q%%%
8682D76%%%%%%%%%%%%%%%%%%%%%%%%%%%%%%%%%QqQ%%qQ%%%%%%%%%%qQ%%%%%%%%%%%%%%%%%
8666D84%%%%%%%%%%%%%%%%%%%Q%qQq%QqQ%%%%%%%%%%%%%%%%%%%%%%%%%%%%%%%%%%%%%%%%%
8650D92%%%%%%%%%%%%%%Q%q%Q%%%%%%%%%%%%%%%%%%%%%%%%%%%%%%%%%%%%%%%%%%Q%q%QqQq
8634E00Q%q%Q%q%Q%qQqQ%%%%%%%%%%%%%%%Qq%%%%%Qq%%qJ6qQq%%%%Qq%%Q%%q%Q%%%%%%%%%
8619E16%%%%%%%%%%%%%%%%%%%%%%%%%%Qq%QqQ%%%%%%%%%%%%%%%%qQ%%%%%%%%%%%%%%%%%Qq
8603E24%QqQqQ%%%qQ%%%%%%%%%%%%%qQ%%qQ%%%%%%%%%%%%%%%%%%%%%%%%Qq%Qq%%%Q%qQ%%%
8587E40%%%%%%%%%%%%%%%%%%%%%%%%%%%%%%%%%%Q%q%%QqQ%qQqQ%%%%%%%%%%%%qQ%%%%%%%%
8571E48%%%%%%%%%Qq%%Qq%Q%%%qQ%q%Q%%%qQ%%%%%%%%%%%%%%%%%%%%Q%%%%%%%%%%%%%%%%%
8556E64%%%%%%%%%%%%%%%%%%%%%%%%%%%%%%%%%%%%Qq%%Q%%qQ%qQ%%%%%%%%%%%%%%%%%%%%%
8540E72%%%%%%%%%Q%q%QqQ%%%%%%%%%%%%%%%%%%%%%%%Qq%QqQ%%%%%%%%%%%%%%%%%%%%%%%%
8524E88%%%Qq%%%%%%%%%%%%%Qq%Q%qQ%qQqQqQ%%%q%Q%qJ6j6Q%%%%%%%%Qq%%%%%%%%Qq%QqQ
8509F04%%q%%%Q%%qQ%%%%%%%%%%%%%%%Qq%%%%%Qq%%Qq%Q%%%%%%%%%%%%%%%%%%%%%Qq%%%%Q
8493F20q%%%%Q%%qQqQ%%%%%%%%%%%%%%%%%%QqQ%%q%Q%%%%%%%%%%qQ%%%%%%%%%%%%%%%%%%%
8477F28%%%%Q%%%%%%%%qQ%%%%%%%%%%%%%%%%%%%%%%%%%%%%%%%%%Q%%%%%%%%%%qQ%%%%%%%%
8461F44%%%Q%%%%%q%%%Q%%%%%qQ%%%%%qQ%%%%%%%%%%%%%%%%%%%%QqQ%%q%%%%Q%%%%%%%%%%
8445F60%%%%%%%%%Q%qQ%%%%%%%%%%%%%%%%%%%%%%%%%%%%%%Qq%Q%%%%%%%%%%%%%%%%%%%%%%
8430F76%%%%%%%%Qq%%%%Q%qQqQ%%%%%%%%%%%%%%%%%%%%%%%%%%%Qq%Q%%%%%%%%%%%%%%%%%%
8414F92%%%%%%%%Q%qQq%Q%%%%%%%%%%%%%%%%%%Qq%Qq%QqQ%%%%%%%%%%%%Qq%%%%%Qq%Q%%q%
8398G08QqQ%qQ%%%%%%%%%%%%%%%%%%%%Qq%%%Q%qQqQ%%%%%%%%%%%%%%%%%%%Q%qQ%%%%%%%%%
8382G32%%%%%%%%%%%%%%%%%%%%%%Q%%q%Q%%%%%%%%%%%%%%%%%QqQqQ%%%%%%%%%%qQ%Qq%%%%
8366G48%%%Qq%QqQ%%%%%%%%%%%%%%%%%%%%%%QqQqQ%%%%%%%%%%%%%%%%%%%%%%%%Q%%%%%%%%
8351G72%%%%%%%%%%%%%%Qq%%%Q%%%%%%%%%%%%%%%%%%%%%%%%%%%%Q%qQ%qQ%%%%%%%%%%%%%%
8335G88%%QqQq%Q%%%%%%%%%%%%%%%%%%%%%%%%Q%%%%%%%%%%%%%%%%%%%QqQq%Q%%qQ%%%%%%%
8319H12%Qq%%QqQ%%%%%%%%%qQ%%%%%%%%%%%%%%QqQ%%%%%%%%%%%%%%%%%%%%%Q%qQ%%%%%%%%
8303H36%%qQ%%%%%%%%%%Q%%%%%%%%%%%%%%%%%%%%%Q%%%%%%%%%%%%%%%%%%QqQqQqQ%qQ%%%%
8288H60%%%%%%%%%%%%%%Q%qQ%%%%%%%qJ6qQ%%qQq%Q%qQqQqQ%%%%%%%%%%%Q%%%%Q%q%%%%%%
8272H84%%%%Qq%%%Qq%%Q%%%%%%%%%%%%%%%%%%QqQ%%%%%%%%%%%%%%%%Qq%Q%%%%%%%%%%%%%%
8256I08%%%%%%%QqQ%%%%%%%%%%%%%%%%%Q%%%%%%%%%%%%%%%%%%%%%%Q%qQ%%%%%%%%%%%Q%%%
8240I40%%%%%%%%%%Qq%Qq%Q%%%%%%%%%%%%%%%Q%%%%%%%%%%%%%%%%%%Q%%%%%%%%%%%%%%%%%
8225I64%%%%QqQ%qQ%%%%%%%%%%%%%QqQ%%%%%%%%%%%%Q%%qQ%%%%%%%%%%%%%%%%Qq%Q%%%%%%
8209I96%%%%%%%%%%QqQ%%%%%%%%%%%%Q%%%%%%%%%%%%%%%%%Q%%%%%%%%%%%%%%%%%%%Q%%%%%
8193A028%%%%%%%Q%%%%%%%%%%%%%%%%%%Q%%%%%%%%%%%%%%%%%Q%%%%%%%%%%%%%%%%Q%%%%%%
8177A060%%%%%%%Q%qQ%%%%%%%%%%%%%%Q%%%%%%%%%%%%%Q%%%%%%%%%%%%%%Qq%Q%%%%%%%%%%
8162A092%%%%Q%%qQ%%%%%%Qq%%qJ6%Q%qqQ%Qq%%%Qq%QqQ%%%%%%%QqQq%%Q%%%%%%%%%%Q%%%
8147A132%%%%%%%%%%%%%Q%%%%%%%%%%Q%%%%%%%%%%%%Qq%%Q%%%%%%%%%%%Q%%qQ%%%%%%%%%%
8131A164%%%Q%qQ%%%%%%%%%Q%%qQ%%%%%%%%Q%%%%%%%%%%%%QqQqQ%%%%%%%%%%%%Q%%%%%%%%
8115A204%Qq%%Q%%%%%%%%%%Q%%%%%%%%%%%%Q%%%%%%%%%%Q%%qQ%qQ%%%%%%%%%Q%%%%%%%%%Q
8100A252qQ%%%%%%%%%Q%qQ%%%%%%%%%Q%%%%%%%%%%%Q%%%%%%%%%%%%%Q%%%%%%%%QqQ%%%%%%
8084A292%%%%QqQ%%%%%%%%%%Q%%%%%%%%%%%%%Q%qQ%%%%%Q%%%%%%%%%Q%%%%%%%%%%%Q%qQ%%
8069A340%%%%%Q%qQ%%%%%%%%%%%Q%%%%%%%Qq%Q%%%%%%%%%Q%%%%%%%%%%%%Q%%%%%%%%%%%Q%
8053A388%%%%%%Q%%%%%%%%%QqQqQ%%%%%%%Q%qQ%%%Q%q%Q%%%%%%Qq%Q%%%%%%%%%%%Q%%%%%%
8038A436%%Q%%%%%%%Q%qQ%%%%%%Q%%%%%%%%%QqQ%%%%%%%%Q%%%%%%%%%Q%%%%%QqQ%%%%%%%%
8022A492%Q%%%%%%%%%Q%%%%%%%%%Q%%%%%%%%%Q%%%%%%%%Q%%%%%%%%%Q%%%%%%%%Q%%%%%%%%
8006A548%Q%%%%Q%%%%%%%%%%%Qq%%Q%%%%Q%%%%%%%%Q%%%%%%Q%%%%%%QqQ%%%%%%%%Q%%%%%%
7991A612%%%Q%%%%%%QqQqQ%%%Q%%%qQ%%%%%Q%%%%%%%Q%%%%Qq%Q%%%%%%%Q%%%%%%QqQ%%%%%
7975A676%%Q%%%%%%%%Q%%%%Q%%%%%%%%Q%%%%%%%Q%%%%%%%Q%%%%%%Q%%%%QqQ%%%%%%Q%%%%%
7960A748%%%%Q%%%%%%Q%%%%%Q%%%%%%%Q%%%%%Qq%Q%%%%%Q%%%%%%%Q%%%%%%Q%%%%%%Q%%%%%
7944A820Q%q%Q%QqQ%%%%%%Q%%%%%Q%%%%%%%Q%%%%%%%Q%%%%%Q%%%%%QqQ%%%%%%%Q%%%%Q%%Q
7929A908%%q%%Q%%Q%%%%%Q%qQ%%%%Q%%%Q%qQqQ%%%%Q%QqQ%%%%%QqQ%%%%Q%%%%%%%QqQ%Q%%
7913A988%%%QqQ%%%%%%Q%%%%%%Q%%%Q%%%%%Q%%%%%%Q%%%%%Q%%%%%Q%%%%Q%%%%%%%Q%%%QqQ
7897B076%%%%Q%%%%%Q%%%Q%%%%%Q%%%%%Q%%%%Q%%%%%Q%%%%Q%%%%%%Q%%%%Q%%%%%Q%%%Q%%%
7882B172%%Q%%%%Q%%%%%Q%%%Qq%Q%%Q%%%%%QqQ%%Q%%%%%Q%%%%Q%%%%%QqQ%%Q%%%Q%%%%Q%%
7866B276%%Q%%%%%Q%%Q%%%%Q%%%%%Q%%%%Q%%%%%Q%%%Q%%%Q%%%%Q%%QqQ%%%%Q%%%%Q%%%Q%%
7851B388%%Q%%%%Q%%%%Q%%%%Q%%%Q%%%%Q%%Q%%%%Q%%%Q%%%%%Q%%%Q%%%Q%%%%%Q%%Q%%%Q%%
7835B508%Q%%%%Q%%%Q%%%%%Q%%Q%%%%Q%%%%Q%%Q%%Q%%%Q%%%%%Q%%Q%%%%Q%%%Q%%Q%%%Q%%%
7820B636%Q%%%Q%%%%Q%QqQ%%Q%%%%QQq%%J6q%J6qj6J6J6l2K4%J6%%%qJ6%%%Q%QqQ%%%%Q%%
7806B756Q%%%%Q%Q%%%Q%%%Q%%%Q%%Q%%%Q%%Q%%%%Q%%Q%%%Q%%Q%%%%Q%Q%%%%Q%%%Q%%Q%Q%%
7791B908%QqQ%Q%%Q%%%%Q%Q%%%Q%%Q%%Q%%%Q%%Q%%Q%%%Q%%%Q%%Q%%Q%%Q%%%%Q%%Q%%Q%%Q%
7775C068Q%%%Q%%%Q%%Q%Q%%Q%%Q%%Q%%Q%QqQ%%Q%%Q%%Q%%Q%%Q%%%Q%%Q%%Q%Q%%Q%%Q%%Q%%
7759C244Q%Q%%Q%%Q%%Q%%Q%%Q%%Q%%%Q%QqJ6qQ%Q%Q%%%Q%Q%%Q%%Q%%Q%QqQQ%%Q%%%QQ%%Q%
7744C436%Q%Q%%Q%%Q%Q%%Q%%Q%Q%%%QQ%%Q%%Q%%Q%Q%%Q%Q%%Q%%Q%Q%%Q%Q%Q%%Q%Q%Q%%%Q%
7729C644Q%Q%%Q%Q%%Q%Q%Q%%Q%%Q%Q%Q%%Q%Q%%Q%Q%Q%Q%%Q%Q%%QQ%%Q%%Q%Q%Q%%QQ%%Q%Q%
7713C876Q%%Q%Q%%QQ%Q%Q%Q%%Q%Q%Q%Q%%Q%Q%Q%Q%Q%Q%Q%%Q%Q%Q%Q%Q%%QQ%Q%%Q%Q%Q%Q%Q
7697D132%Q%Q%%Q%QQ%Q%Q%Q%Q%Q%%QQ%%QQ%Q%Q%QQ%%QQ%Q%QQqQQ%QQ%Q%%Q%QQ%Q%Q%%QQ%Q
7682D412%Q%Q%Q%QQ%Q%Q%Q%QQ%Q%Q%QQ%Q%%QQ%QQ%Q%Q%Q%QQ%Q%QQ%Q%QQ%QQ%Q%%QQ%Q%QQ%
7666D716QQ%Q%Q%QQ%QQ%QQ%Q%QQ%Q%Q%QQQ%QQ%Q%QQ%Q%QQ%QQ%Q%QQ%QQ%QQ%Q%QQ%QQ%QQQ%
7651E060QQ%QQ%QQ%QQ%Q%QQQQ%Q%QQ%QQQ%Q%QQQQ%Q%QQQ%QQQ%Q%QQQ%QQQ%QQQ%QQQ%QQ%QQ
7635E444Q%QQQQ%QQQ%QQQ%QQQ%QQQ%QQQ%J6%QQ%QQQQ%QQ%J6%QQQ%QQQQQ%QQQQQ%QQQ%QQQQ
7620E860QQQ%QQQQ%QQQQQ%QQQQ%J6%QQQQQ%J6%QQQQQ%J6%QQQQQQQQQ%QQQQQQQ%QQQQQQQQQ
7605F316QQQQ%QQQQQQQQQQQQQQQQQQ%J6QQ%QQQQQQQQQQQQQQQQQQQQQQQQQQJ6%QJ6%QQJ6QQ
7591F820QQQQQQQQQQQJ6QQQQQQQQQQJ6%QJ6QQQQQQQJ6%QJ6QQQQQQJ6QQQQQQQJ6J6%J6%J6J6
7577G340qQK4%QQQJ6QQJ6QQQQJ6QQQQQJ6QQQJ6QQJ6%K4%QQJ6QJ6QQQQJ6QQQJ6QQQJ6QQJ6Q
7565G860J6QQQQQJ6QJ6QQJ6QQQJ6QQJ6QQJ6QQJ6QQJ6QJ6QQJ6QJ6QQQJ6QJ6J6QQJ6QJ6QQJ6
7553H404QQJ6J6QJ6QQJ6QJ6QJ6QJ6QJ6QQJ6QJ6QJ6QJ6J6QJ6QJ6QQJ6J6QJ6QJ6QJ6QJ6J6QJ6
7543H956QJ6QJ6J6QJ6J6QJ6QJ6J6QJ6QJ6QJ6J6QJ6J6QJ6J6J6QJ6J6QJ6J6QJ6J6J6QJ6QJ6J6
7533I508J6QJ6J6QJ6J6J6QJ6J6J6J6QJ6J6J6QJ6J6J6QJ6J6J6J6J6QJ6J6J6QJ6K4J6J6QJ6J6
7524A0068J6J6J6J6QJ6J6J6J6J6J6J6QK4QK4QJ6K4QJ6J6J6J6J6J6K4QJ6J6J6J6J6J6J6J6J6
7516A0644K4QK4J6J6J6J6J6J6J6J6J6J6J6J6K4J6QK4K4QJ6K4J6J6J6J6K4J6J6J6J6J6K4QK4
7508A1260J6J6K4J6J6J6K4J6J6J6K4J6J6J6K4J6K4J6J6K4J6J6J6K4J6J6K4J6K4J6J6K4J6K4
7500A1892J6K4J6J6K4J6K4J6J6K4J6K4K4J6K4J6K4J6K4J6K4J6K4J6K4J6K4K4J6K4J6K4K4J6
7492A2572K4J6K4K4J6K4K4J6K4J6K4K4K4K4J6K4K4J6K4K4K4K4J6K4K4K4K4J6K4K4K4K4J6K4
7484A3316K4K4K4K4J6L2J6K4K4K4K4K4K4K4K4K4K4K4K4K4K4K4K4K4K4K4K4K4L2J6L2K4K4K4
7477A4132K4K4K4K4L2K4K4K4K4L2K4K4K4L2K4K4K4K4L2K4L2K4K4K4L2K4K4L2K4L2K4K4L2K4
7469A5020K4L2K4L2K4L2K4L2K4L2L2K4L2K4L2K4L2K4L2L2K4L2L2K4L2L2K4L2L2K4L2L2L2K4
7461A5996L2L2L2L2K4L2L2L2L2L2L2K4L2L2L2L2L2L2L2L2L2L2L2L2L2L2L2L2L2L2L2M0L2L2
7453A7076M0K4L2M0L2L2L2M0L2L2L2M0L2L2L2M0M0L2L2M0L2M0L2L2M0L2M0L2M0L2M0L2M0M0
7445A8268L2M0L2M0M0M0L2M0M0L2M0M0M0M0M0M0L2M0L2M8L2M0M0M0M0M0M0M0M0M0M0M0M0M0
7438A9580M0M8M0M0M0M0M8M0M0M8M0M0M0M8M0M0M8M0M8M0M0M8M0M8M0M8M0M8M8M0M8M8M0M8
7430B1052M8M0M8M8M8M0M8M8M8M8M8M8M8M8M0N6M0M8M8N6M0N6M8M8M8N6M0N6M8M8N6M8M8N6
7422B2692M8N6M8N6M8M8N6N6M8M8N6N6M8N6N6M8N6N6N6N6N6M8N6N6N6N6N6N6N6N6O4N6N6N6
7414B4532N6N6N6O4N6N6O4N6N6O4N6O4N6N6O4O4N6O4N6O4O4N6O4O4O4O4O4N6O4O4O4O4O4P2
7407B6604O4O4O4O4O4P2O4O4P2O4O4P2P2O4O4P2P2P2O4P2O4P2P2P2P2O4P2Q0O4Q0O4Q0P2P2
7399B8948P2Q0P2P2P2Q0P2Q0P2Q0P2Q0P2Q0Q0Q0Q0P2Q8P2Q0Q0Q0Q0Q0Q0Q8Q0Q0Q0Q8Q0Q8Q0
7391C1620Q8Q0Q8Q0Q8Q8Q8Q0Q8Q8Q8Q8Q8Q8Q8Q8R6Q8Q8R6Q8R6Q8Q8R6R6R6Q8R6R6Q8R6R6R6
7383C4676J04Q8J04R6R6J04R6J04R6R6J04J04J04R6J04J04J04J04J04J04J04J12J04J04J04
7377C7220J12J04J12J04J12J12J12J04J12J12J12J20J12J12J12J20J12J20J12J12J28J12J12
7372C9812J20J20J28J12J20J28J20J28J20J28J20J28J28J28J20J28J28J28J36J28J28J28J36
7367D2700J28J36J36J28J36J36J36J36J36J36J36J44J44J36J44J44J36J44J44J44J44J44J52
7362D5900J44J52J44J52J52J52J52J52J52J52J52J60J52J60J60J52J60J60J60J60J68J68J60
7356D9476J68J60J68J68J68J68J68J76J68J76J76J68J76J76J76J84J76J76J84J76J84J84J84
7351E3484J92J84J84J92J92J84J92J92J92J92K00J92K00K00K00K00K00K00K08K00K16K00K08
7346E8004K08K08K16K16K16K08K16K16K24K32K08K24K24K24K24K24K32K40K24K32K32K32K40
7341F3124K40K40K40K40K40K48K48K48K48K48K56K48K56K56K56K56K64K64K64K64K72K64K72
7335F8956K72K72K72K80K80K80K72K88K80K88K88K96K88K96K88L04K96L04K96L12L04L04L12
7330G5628L12L12L20L20L20L20L28L20L28L36L28L36L28L44L44L44L36L52L52L44L60L52L60
7325H3324L60L68L60L68L76L68L76L76L84L84L84L84L92L92M00L92M08M00M08M08M16M08M24
7320I2260M16M24M24M32M32M32M40M40M48M48M48M56M56M64M56M72M72M72M72M88M80M88M88
7314A02708M88N04M96N12N04N20N12N20N20N36N28N36N36N44N44N52N60N60N60N68N76N76
7309A14460N84N84N92N92O00O08O08O08O24O24O24O32O40O40O48O56O56O64O72O72O80O88
7304A28356O88O96P04P04P20P20P20P28P44P44P44P60P60P68P76P84P84P92Q00Q08Q16Q24
7299A44940Q32Q40Q40Q48Q56Q64Q72Q88Q88Q96R04R12R20R28R36R44R52R68R68R84R84J000
7294A64964J008J016J024J032J048J056J064J072J080J096J104J120J128J136J144J160J168
7290A83420J184J192J200J216J232J240J248J264J280J288J304J312J328J344J352J376J384
7286B05164J400J408J424J440J456J472J488J504J520J528J552J560J592J600J616J632J656
7282B31012J672J688J704J728J744J760J792J800J824J840J864J888J904J928J952J976K000
7279B62076K016K040K072K088K112K144K160K192K216K240K280K296K320K360K384K408K440
7275B99844K480K496K536K568K592K632K672K696K728K768K800K840K880K920K952K992L024
7271C46420L072L112L160L192L240L280L336L368L424L472L512L568L616L664L720L776L824
7267D04756L880L936L992M056M112M176M232M296M368M424M496M560M632M704M776M848M928
7263D79172N000N080N160N248N320N416N504N592N672N784N864N968O072O168O272O384O488
7259E76164O600O712O832O952P072P200P328P456P592P728P872Q008Q160Q320Q464Q632Q792
7255G05884Q960R128R312R480R680R864J0056J0256J0464J0680J0888J1112J1344J1584J1824
7252H60516J2064J2328J2584J2864J3136J3424J3720J4024J4336J4656J4984J5336J5680J6048
7249A055700J6416J6808J7200J7616J8040J8480J8920J9400J9880K0368K0896K1424K1976
7246A303124K2544K3136K3744K4384K5032K5712K6416K7144K7904K8688K9504L0352L1224
7243A648908L2136L3088L4080L5096L6168L7280L8432L9648M0896M2208M3576M5000M6488
7240B153004M8048M9672N1368N3152N5008N6960N9000O1144O3392O5744O8216P0824P3560
7237B929092P6432P9464Q2656Q6016Q9576R3320R7272J01464J05896J10584J15560J20832
7234D088164J26432J32384J38720J45456J52648J60312J68496J77248J86616J96656K07440
7231E880572K19000K31456K44872K59328K74968K91863L10185L30064L51680L75216M00904
7229I170108M28984M59744M93503N30649N71608O16872O67056P22800P84911Q54337R32168
7226A6232740J019704J118512J230456J357799J503217J670096J862456K085361K345057K649423
7224C3074821L008400L434687L944680M559779N308119O227337P368313Q800943J0622555
7222H6349634J2971366J6046686K0141979K5697765L3388124M4263285N9977209Q3121107
7220C81957155J17566629J68143180K36792260L06858006L09604093J41646823j41646823
7219A520921323l09603987l06858112k36792314j68143126j17566629q3121107n9977209m4263298
7217A94595541l3388111k5697739k0142005j6046686j2971366j0622555q800937p368319o227330
7215E3330493n308126m559779l944693l434681l008393k649416k345064k085361j862456j670096
7212B2462428j503223j357793j230456j118512j019704r32168q54329p84919p22800o67056
7210A2271468o16880n71600n30649m93503m59744m28976m00912l75216l51680l30064l10185
7208G402059k91863k74960k59336k44864k31464k19008k07432j96656j86616j77248j68496
7205D944116j60312j52648j45456j38720j32384j26432j20832j15560j10584j05896j01464
7203C533828r7280r3312q9576q6016q2656p9464p6432p3560p0824o8216o5744o3392o1144
7200B526212n9000n6960n5008n3152n1368m9672m8048m6488m5000m3576m2208m0896l9640
7197A895196l8440l7280l6168l5104l4072l3080l2144l1224l0352k9504k8688k7896k7152
7194A474092k6416k5712k5032k4376k3752k3136k2544k1976k1424k0896k0368j9880j9392
7191A179188j8928j8480j8040j7608j7208j6808j6416j6048j5680j5328j4992j4656j4336
7188I64660j4024j3712j3424j3144j2856j2592j2328j2064j1824j1576j1344j1120j0888j0680
7185G93084j0464j0256j0056r864r672r488r304r136q960q792q624q464q320q160q016p872
7181F47636p728p592p456p328p200p072o952o832o712o600o496o376o272o168o064n968n872
7177E32948n776n680n592n496n416n328n240n160n088n000m928m848m776m704m632m560m496
7173D46228m424m368m296m232m176m112m048m000l936l880l824l768l720l672l616l560l520
7169C79076l464l424l376l328l288l240l192l160l112l064l040k984k952k920k872k840k800
7165C26020k776k728k704k656k632k600k568k528k504k472k448k408k384k352k328k296k272
7161B83364k240k216k192k168k136k120k088k064k048k016k000j968j952j928j912j880j864
7158B48572j848j824j800j784j768j744j728j704j688j672j656j632j616j600j584j568j544
7154B19812j536j520j496j488j472j456j440j432j408j400j384j368j352j344j328j320j296
7150A95772j296j272j264j256j240j224j216j208j192j176j176j152j152j136j128j112j104
7146A75468j096j088j064j072j056j040j040j024j016j008j000r84r84r68r60r60r44r36r28
7141A56300r20r12r04q96q88q80q72q64q56q56q40q40q32q24q08q08q00q00p84p84p76p68
7136A37788p60p52p52p44p36p28p28p20p12p12p04o96o88o88o80o72o64o64o64o48o48o48
7131A22380o32o32o32o24o16o16o08o08n92o00n92n84n76n84n68n68n68n60n52n52n44n44
7126A09428n44n36n28n28n28n20n12n12n12n04m96n04m96m88m80m88m80m80m72m72m64m64
7121I8420m56m56m56m48m48m48m40m40m32m32m32m24m24m24m16m16m08m08m08m08m00l92m00
7116H8604l92l92l84l92l76l84l76l76l76l68l68l68l60l68l52l60l52l52l52l44l44l44l36
7111H0188l44l36l36l28l28l28l28l28l20l20l28k96l28l04l12l04l04l12l04k96l04k96k96
7106G2908k96k88k88k88k88k88k80k80k80k72k80k80k72k72k64k72k64k64k72k56k64k56k64
7100F6580k48k56k56k48k48k56k40k48k48k40k48k40k40k32k40k32k32k32k32k32k32k24k24
7095F1052k24k24k24k24k16k24k16k16k16k08k16k16k08k08k08k08k08k00k08k00k00k08k00
7090E6172j92k00k00j92j92j92j92k00j84j92j84j84j92j84j84j84j84j84j76j84j76j76j76
7085E1868j76j76j76j76j68j76j68j68j68j68j68j68j68j60j68j60j68j60j60j60j60j60j60
7079D8028j52j60j52j52j60j52j52j52j52j52j44j52j44j44j52j44j44j44j44j44j44j44j36
7074D4612j44j44j36j36j36j36j36j36j36j36j36j28j36j36j28j36j28j28j28j28j28j28j28
7069D1540j28j20j28j20j28j28j20j20j20j20j20j28j20j12j20j20j20j12j20j12j12j20j12
7063C8780j12j12j20j12j04j20j12j04j12j12j04j12j04j12j04j04j12j04j04j04j04j12r6
7058C6284j04j04j04r6j04j04r6j04r6r6j04r6r6j04r6r6r6r6r6r6r6q8r6r6q8r6r6q8q8r6
7051C3372q8r6q0r6q8q8q8q8q8q8q8q8q8q0q8q8q8q0q8q0q8q0q0q8q0q8q0q0q0q0q0q0q0q0
7044C0484q0q0q0q0p2q0q0q0p2q0p2p2q0q0p2p2q0p2p2p2p2p2q0p2p2p2p2o4q0o4p2p2p2p2
7036B7948o4o4q0o4p2o4p2p2o4o4p2o4o4p2n6p2o4o4p2o4o4o4o4o4o4n6p2n6o4o4o4n6o4o4
7028B5724o4n6o4n6o4o4n6o4n6o4n6n6o4n6n6o4n6n6n6n6n6n6o4n6n6n6n6n6m8n6n6o4m8n6
7020B3756n6n6n6m8n6n6m8n6n6m8n6m8n6n6m8n6m8m8n6m8m8n6m8n6m8m8m8n6m8m8m8m8m8m8
7012B2004n6m0m8n6m8m8m8m0m8m8m8m8m8m8m8m0m8m8m8m0m8m8m0m8m8m0m8m0m8m0m8m0m8m0
7005B0436m8m0m8m0m0m8m0m0m0m8m0m0m0m0m8m0m0m0m0m0m8m0m0m0m0m0m0m0m0m0m0m0m0m0
6997A9028l2m0m0m0m0l2m0m0m0l2m0m0l2m0m0m0l2m0l2m0m0m0l2m0l2l2m0m0l2l2m0l2l2m0
6989A7772m0l2l2m0l2l2m0l2m0l2l2l2l2m0l2l2m0k4m0l2l2l2l2l2l2m0l2l2l2l2l2l2l2l2
6981A6628l2k4m0l2l2l2l2k4l2l2l2l2l2l2k4l2l2l2k4l2l2l2l2k4l2l2l2k4l2l2l2k4l2k4
6973A5596l2k4l2k4l2l2k4l2k4l2k4l2k4l2k4l2k4l2k4l2k4l2k4k4l2k4k4l2k4k4l2k4l2k4
6966A4652k4k4k4l2k4k4k4k4l2k4k4l2k4k4k4k4k4l2k4k4k4k4k4k4k4k4k4l2k4k4k4j6l2j6
6958A3804l2k4k4k4k4k4k4j6l2k4j6k4k4k4k4k4k4k4k4k4j6k4k4k4k4k4j6k4k4k4k4j6k4k4
6950A3012k4j6k4k4k4j6k4k4j6k4k4k4j6k4j6k4k4j6k4k4j6k4j6k4k4j6k4j6k4j6k4k4j6j6
6942A2300k4j6k4k4j6k4j6k4j6k4j6k4j6j6k4j6k4j6j6k4j6k4j6k4j6j6k4j6j6k4j6j6k4j6
6935A1636k4j6j6j6k4j6j6k4j6k4qk4j6j6k4j6j6j6j6k4j6j6j6k4j6j6j6j6k4j6j6j6j6j6
6927A1028j6k4j6j6qk4j6k4qk4j6j6j6j6j6j6j6j6j6j6j6j6j6j6j6j6j6j6j6j6j6j6j6j6j6
6919A0452j6j6j6j6j6j6j6j6j6j6j6j6j6j6j6j6qj6j6j6j6j6j6qk4qj6j6j6j6j6qj6j6j6j6
6911I900j6qj6j6j6j6j6qj6j6j6j6qj6j6j6qj6j6j6qj6j6j6qj6j6qk4qj6qj6qj6j6j6qj6j6
6901I340qj6j6j6qj6qj6j6qj6j6qj6qj6j6qj6j6qqj6j6qj6j6qj6j6qj6qqj6j6qj6qj6qj6j6
6892H788qj6qqj6j6qj6qj6qj6qj6qqj6qj6qj6qj6qqj6qj6qqj6j6qqj6qj6qj6qj6qqqj6qj6
6881H244qj6qqqj6qj6qj6qqqj6qqj6j6qj6%qj6%k4%j6%m0J6m0J6j6qj6%j6qqqj6qj6qqj6q
6870G748qqj6qqqqj6qqqk4%qqj6qqj6qqqqqqj6qqqqqqj6qqqj6qqqqj6qqqqqqqj6qqqqqqj6
6857G204qqqqqj6qqqqqqqj6qqqqqqqqqqj6qqqqqqqqqqqqj6%qqqqqj6qqqqq%j6qqqqqqqqqq
6843F676qqqqqqqqqqqqqqqqqqqqqqqqqqq%qqqqqqqqqqqqqqq%qqqqqqqqqqq%qqqqqqq%qqqq
6827F164qqqq%j6%qqqqqq%qqqqqqq%qqqqqqq%qqqq%qqqqq%qqqq%qqqq%qqqqqqqq%qqq%qqq
6812E708%qqq%qqqq%qqqq%qqq%qqqq%qq%qqq%qqqq%qqq%qqq%qqq%q%j6%qq%qqq%qq%qq%qq
6797E308q%qq%q%qqqq%qq%qq%qq%qq%qqq%qq%qq%qq%qq%qqq%q%qq%qqq%q%qq%qq%q%qq%qq
6781D940%qq%q%qq%q%qq%qq%q%qq%q%qq%qq%q%qq%q%qq%q%qq%q%qq%q%q%q%qq%qq%q%qq%q
6765D612%qq%q%%qqq%q%%j6%%q%qq%q%q%q%q%q%qq%%j6Qj6Qqqq%q%q%qq%%qq%%q%qq%%qq%
6751D332j6Q%j6%%qq%qq%%q%%qq%%qq%q%q%q%q%q%%qq%%qq%%qq%q%q%%q%qq%%q%q%q%q%q%
6735D068q%%qq%%q%q%%q%q%q%q%%q%q%q%q%q%q%%q%qq%%qq%%q%%q%q%q%q%%q%q%q%q%%q%%
6720C828qq%%q%q%%qq%%q%q%%q%%q%q%q%%q%q%%%qq%%q%q%q%%q%q%%q%q%q%%q%%q%q%%qq%
6704C596%%q%%q%q%q%%q%%q%q%%%q%%qq%%q%%q%q%%%q%q%q%%%qq%%q%%%q%q%%q%q%%%q%%q
6689C396%q%%q%%q%q%%q%%q%%q%%q%%q%q%%%q%q%%%qq%%%q%%q%q%%%q%q%%%q%q%%%q%q%%%
6673C212q%%q%%q%%%q%q%%q%%%q%q%%%q%%q%%q%%q%q%%%q%%q%%%q%%q%%q%%%q%%q%%q%%%q
6658C036%%q%q%%%%q%%%q%q%%%q%%%q%q%%%q%%q%%q%%q%%%q%%qQq%q%%q%%%%q%%%q%%q%%q
6642B876%%%q%q%%%%%q%qQj6Qq%%%q%%%q%%%q%q%%%q%%%q%%%%q%%q%%%q%%%q%%%q%%q%%%q
6627B732%%%q%%%q%%%%q%%%q%%q%%%q%%%q%%%%q%%%q%%%q%%%q%%%q%%%q%%%q%%q%%%%%q%%
6611B604%%q%%q%%%%q%%q%%%q%%%q%%%q%%%%%q%%qQq%%%q%%%q%%%q%%%%q%%%q%%%q%%%qQq
6596B476%%%q%%%q%%%q%%%%q%%%qQq%%%q%%%%q%%%q%%%q%%%%%q%%%q%%%%q%%%%q%%Qq%q%%
6580B364%q%%%%q%%%%%q%%%q%%%%q%%%qQq%%%q%%%%q%%%q%%%%q%%%%%q%%%%q%%%%q%%%%%q
6564B252%%%%q%%%%q%%%%q%%%%qQq%%%%q%%%q%%%%%q%%%%q%%%%%q%%%%q%%%%%%%q%%%%q%%
6549B156%q%%%%q%%%%%%q%%%%q%%%%qQ%q%%%q%%%%%q%%%%q%%%%%%%q%%%%q%%%%%%q%%%%%%
6533B068q%%%q%%%%qQq%%q%%%%%%%q%%%%q%Qq%%%%%q%%%%q%%qQ%q%%%%%%q%%%%%%%q%%%%%
6518A980q%Qq%q%%%%qQq%%%%%q%%%%%q%%%%%q%%%%%q%%%%%%%%q%%%%%q%Qq%%%q%%%%%%q%%
6502A892%%%q%Qq%%%%%%q%%%%%%%q%%%qQq%%%%%qQq%%%qQqQq%%%q%%%%%%q%%%%%%%q%%%%%
6487A820%q%%%%%%q%%%%%%%q%%%%%%%q%%%%%%%q%%%%%%qQq%%%%%q%%%%%%%q%%%%%%%q%%%%
6471A748%%q%%%%%%%q%%%%%%q%Qq%%%%q%%%%%%%%q%%%%%q%%%%%%%%q%%%%%%%%q%%%%%%%q%
6456A676%%%%%q%%%%%%%%%q%%%%%%%%%%q%%%%%%%q%%%%%%%q%%%%%%%%q%%%%%%%qQq%%%%qQ
6440A620%q%%%%%%%%q%%%%%%%%q%%%%%%%q%%%%%%%q%%%%%%%%%qQq%%%%%%%q%%%%%%%%q%%%
6424A556%%%%%q%%%%%%%%%%q%%%%%%%q%%%%%%%q%%%%%%%%%%q%%%%%%%%%qQq%%%%%%%q%%%%
6409A500%Qq%%%%qQ%q%%Qj6Qj6J6qQq%%%qQ%q%%Qq%%%%%q%%%%%%%%%q%%%%%%%%%q%%%%%%%
6394A452%%%q%%%%%%%%q%Qq%%%%%q%%%Qq%%%%%%%%%%q%%%%%qQ%q%%%%%%%%%%q%%%%%%%%%q
6378A396Qq%%%%%%%%%q%%%%%%%%%%%%q%%%%%%%qQq%%%%%%%qQ%%%qQq%%%%%%%%%q%%%%%%%%
6363A356%%qQq%%%%%%%%%q%%%%%%%%%%%q%%%%%%%%%q%%%%%%%%%%%%%qQqQq%%%%%%%%%qQq%
6347A308%%Qq%%%%%%q%%%%%%%%%q%%%%%%%%q%Qq%%%%%%%%%%%q%%%%%%%%%%%%q%%%%%%%%qQ
6332A268%%%q%%%%%%%%%%%%%%q%%%%%%%%qQ%q%%%%%%%%%%%qQq%%%%%%%%%qQqQq%%%%%%%%%
6316A228%%q%%%%%%%%%%%%%%%%q%%%%%%%%%%%%%q%%%%%%%%%%%%q%%Qq%%%%%%%qQqQq%%%%%
6301A188%%%%%%%%%q%%%%%%%%%%%%%%%q%%%%%%%%%%%%qQqQq%Qq%%%%%%%qQ%%q%Qq%%%%%%%
6285A156qQqQqQqQqQq%%j6J6%%qqQQq%%%%%qQ%%%%%%qQ%q%%%%%q%Qq%%%Qq%%%%%%%%%%%%%
6270A124%q%%%%%%%%%%%q%%%%%%%%%%%%q%%%%%%%%%%%%%%%%%%%q%Qq%%%%%%%%%%%%%%%qQq
6254A084%%%%%%%%%%%q%%%%%%%%%%%%%%%q%%%%%%%%%%%%%%%%%q%Q%%q%%%%%%%%%%%qQ%q%Q
6239A060q%%%%%%%%%%%%%%%q%%%%%%%%%%%%%%%%%%q%%%%%%%Qq%%%%qQ%q%%%%%%%%%%%%%%%
6223A028%q%%%%%%%%%%%%%%%%%%%%q%%%%%%%%%%%%%%%%qQq%%%%%%%%%%%%%%%%q%%%%%%%%%
6208I96%%%%%%%%%%%%%q%%%%%%%%%%%%%%%%%qQq%%%%%%%%%%%%%%%%%%%%q%%%%%%%%%%%%%%
6192I72%%%%%%%%%q%%%%%%%%%%%%%q%%%Qq%%%%%%%%%%%%%%%%%qQq%%%%%%%%%%%%%%%%%qQ%
6176I48%q%%%%%%%%%%%%%%%%qQ%j6J6%q%%%%%%%%%%%%%%qQq%Q%%%q%%Qq%%%%%%qQ%%%%%%%
6161I24q%%%%%%%%%%%%%%qQ%%%%%qQqQ%q%%%%%%%%%%%%%%%qQq%%%%%%%%%%%%%%%%%%%q%%Q
6145I00%q%QqQq%%%%%%%%%%%%%%%qQq%Qq%%%%%%%%%%%%qQqQ%%%q%%%Qq%%%%%%%%%%%%%%%%
6129H76qQ%%qQq%%%%%%%%%%%%%%%%%%qQq%%%%%%%%%%%%%%%%%%%%%%%%%qQq%%%%%%%%%%%%%
6113H52%%%%%%q%%%%Qq%%%%%%%%%%%%%%%%%q%%Qq%Qq%Qq%%%%%%%%%%%%%%%%%%qQ%%%qQ%q%
6098H28%Qq%%%%%%%%%%%%%%%%%q%%%%%%%%%%%%%%%%%%%%%%%%%%%%%q%%%%%%%Qq%%%%%%%%%
6082H12%%%%%%qQ%q%Q%qQ%q%%%Qq%%%%%%%%%%%%%%%q%%Qq%%%%%%%%%%%%%%%%%%%%%%%%qQ%
6066G96%%q%%%%%%%%%%%%%%%%%qQ%q%QqQ%q%%%%%Qq%%%%%qQ%%%q%Q%%q%%Q%qQ%qQ%q%%%Qq
6050G72%%%%%%%%%%%qQ%%%%%%qQ%q%Qq%%%%%%%%%%%%%%%%%%%%%%%%%q%Qq%%%%%%%%%%%%%%
6034G56%%%%%%%%%%%%%qQq%%%%%%%%%Qq%%%%%%%%%%%%%%%%%%q%%%%%%%%%%%%%%%%%%%%%%q
6019G32Qq%Q%%%%qQqQq%%%%%%%%%%%%%%%%%%%%%%%%%%%qQ%%%%%%qQq%%%%%%%%%%%%%%%%%%
6003G24%%%%%%%%q%%%%%%%%%%%%%%%%%%%%%%%%%%%%%%%%%%%%%%q%%%Q%q%%Qq%%%%%%%%%%%
5987G08%%%%%%%%%%%%%%%%%qQ%q%%%%%%%%%%%%%%%%%%%%%%%%%%%%%qQ%q%%%Qq%%%%%%%QqQ
5971G00q%%%%%%%%%%%%%qQ%%qQ%%%%%q%%%%%%%%%%%%%%%%%%%%%%%%%%%%%%%%%qQ%qQ%%q%Q
5955F84%q%%Qq%%%%%%%%%%%%%qQ%%%qQ%%%q%Q%%qQ%q%%%%%%%%%%%%%%%%%%qQqQ%%%%%%q%Q
5940F68%%q%%%Q%l2M8m0QM8k4J6j6k4%J6qqQQ%j6J6q%qQ%qQ%%%%%%q%Qq%%%Q%%%q%%%%%%%
5926F52%%%%%%%%%%%%%%%%%%qQ%%qQ%%%qQq%Qq%%%Qq%%%%%%%%%%%%%%%%%%%%%%%%%%%%%%%
5911F44%%%%q%Q%qQq%%%Qq%%%%%%%%%%%%%%%%%%%%%%%%%%%%%%%%%qQ%qQqQq%Qq%Q%q%%%%%
5895F28%%%%%%%%%%%%%%%%%%%%%%%%%%%%%qQ%q%Qq%%%%%%%%%%%%%%%%%%%%%%%%%%%%qQ%%%
5879F20%%%qQq%%%Q%q%%%%%%%%%%%%%%%%%%%%%%qQ%%%%%%%%%%%%%%%%qQq%Q%%%qQ%%q%%Q%
5863F12q%%%%%%%%%%%%%%%%%%%%%%%%%%%%%qQq%%%Qq%Q%%%%%q%%%%%%%%%%%%%%%%%%%%%%%
5847E96%%%%%%%%%%%%%%%qQqQq%Qq%Qq%Q%%qQ%qQ%q%QqQq%%%%%%%%%%%%%%Qq%%%%%%%%%%%
5832E88%qQ%%%%%%q%QqQqQq%%%%%%%%%%%%%%%%%%%%%%%%%%%%%%%%%%%%qQqQ%%%%%qQ%qQqQ
5816E80q%%%Qq%%Qq%qJ6j6QqQQqQq%Qq%%%%%qQ%%%%qQ%%%%q%%Q%q%%%%%%Qq%%%%%%%%%%%%
5800E64%%%%%%%%%%%%%%%%%%%%%%%%q%Q%%%%q%Q%%%q%%%%%Qq%%%%%%%%%%%%%%%%%%%%%%%%
5785E56%%%%%%%qQ%qQ%%%%%%%%%%qQ%%%%qQ%%q%%%%%%%Qq%%%%%%%%%%%%%%%%%%%%%%%%%%%
5769E48%%%%%%%%%%%%%%%%%q%Q%qQ%qQq%%Qq%%%%%%%%%%%%%%%%%%%%%%%%%%%%%%qQqQ%%%%
5753E40%%%%%%%%qQ%%%%%%q%%%%%%%%%%%%%%%%%%%%%%%%%%%%%%%%%%%%%%%%%%%qQ%%%%%qQ
5737E32qQ%%%%%%%%%%%%%%%qQq%%%%Qq%%%%%%%%%%Qq%%%%%%%%%%%%%%%%%%%%%%%%%%%%%%%
5722E24%%qQqQq%%Q%%%qQ%q%%%%%Qq%%Qq%%%%%%%%%%%%%%%%%%%%%%%%%%%%%%%%%%%%%%%qQ
5706E16%%%%qQ%%%qQ%%%%qQj6J6%q%%Qq%Qq%%%%%%Qq%%%Qq%%Qj6Q%%Qq%%%%%%%%%%%%%%%%
5691E08%%%%qQ%%%%%%%qQ%%%%%%%%%q%%Qq%%%%%%%%%%Qq%%%%%%%%%%%%%%%%%%%%%%%%%%%%
5675E00%%%%%%%%%%%%%%%%%%%%%%qQ%%qQ%qQ%%%q%Q%q%%%%%%%%%%%%%%%%%%%%%%%%%%%%%%
5659D92%%%%%%%%%%%%%%%%%%%%%%%%%%%%%%%%%%%%q%Q%qQ%%q%Qq%%%%Qq%%Qq%%%Qq%%%%%Q
5643D92%q%%%Qq%%%%%%%%%%%%%%%%%%%%%%%%%%%%%%%%%%%%%%%%%%%%%qQ%qQq%%%%Qq%%%%%
5627D76%%%%%Qq%Qq%QqQq%%%%%%%%%%%%%%%%%%%%%%%%%%%%%%%%%%%%qQ%%%%%%%%%%%%%%%%
5612D76%%%q%Qq%%%%%%%%%%%Qq%%Qq%%%%%%%%%%%%%%%%%%%%%%%%%%%%%%%%%%%%%%%%%%%%%
5596D68%%%%%%%%%%%qQq%Q%%%%%%%%%%%q%%Qq%%%%%%%%%%%%%%%%%%%%%%%%%%%%%%%%%%%%%
5580D60%%%%%%%%%%%%%%%%%%%%%%%%%%%%%%%%%%%%%%%%%%%%%%%%%%%q%Qq%%%Q%%qQ%q%%%Q
5564D60qQqQq%%%%%%%%%%%%%%%%%%%%%%%%%%%%%%%%%%%%%%%%%%%%%%%%%%%%%%%%%%%qQ%%%
5548D52%%%%%%%%%%%%%%%%%%%%%qQ%%%%q%%Q%q%%%%QqQq%%%%%%%%%%%%%%Q%%q%%%%%%%%%%
5533D44%%%%%%%%%%%%%%%%%%%%%%%%%qQ%%%%%%%%%%qQ%qQ%%%%%%%%%%%%%%%q%%%Qq%Qq%%%
5517D36Qq%%%%%%Qq%%%%%%%%%%%%Qq%%%%%%%%%%%%%%%%%%%%%%%%%%%%%%%%%%%%%%%%%%%%%
5501D36%%%%%%%%%qQ%%%%%%%qQqQ%%%%qQ%%%q%%%%%Qq%%%%%%Q%q%%Q%q%%Q%q%QqQq%%%%%%
5485D28%%%%%%%%%%%%%%%%%%%%%%%%%%%%%%%%%%%%%%%%%%%%%%%%%%%%qQ%%%%qQ%%%%%qQqQ
5470D28%%%%%qQ%%j6QQqJ6q%%qQq%Q%q%%%%QqQ%q%QqQq%%Q%q%%Q%q%%%%%%%%%%%%%%%%%Qq
5454D20%%%%%%%%%%%%%%%%%%%%%%%%%%%%%%%%%%%%%%%%%%%%%%%%%%%%%%%%%%%%%%%%%%%%%
5438D20%%%%%qQ%%qQq%Q%qQ%%qQ%%%qQ%q%%%%%Qq%%%Q%%%%qQq%QqQq%%%%%%%%%%%%%%%%%%
5423D12%%%%%%%%%%%%%%%%%%%%%%%%%%%%%%%%%%%%%%%%%%%%%%%%%%%%%%%%%%%%%%%%%%%%%
5407D12%%%%%%%%%qQ%q%Q%%q%%Qq%QqQ%%%%%%qQ%q%%%Q%q%Qq%%%%%QqQq%Qq%%%%%%%%%%%%
5391D04%%%%%%%%%%%%%%%%%%%%%%%%%%%%%%%%%%%%%%%%%%%%%%%%%%%%%%%%%%%%%%%%%%%%%
5375D04%%%%%%%%%%%qQ%%%%%%%%%%%%%%%%%%%%%%%%%qQq%Q%%%q%Qq%%Qq%%%Qq%Q%%q%%%%Q
5359D04q%%%%%%%%%%%%%%%%%%%%%%%%%%%%%%%%%%Qq%%%Qq%%QqQq%%%%%%%%qQqQ%Qj6%K4k4
5344C88J6k4%J6Qqj6K4qQq%%%%%%qQqQ%%%%%%%%%%qQ%%%%%%%%%%%qQ%%%%%%qQq%Qq%Q%%%%
5330C96%%%q%Qq%%%%%%%%%%%%Qq%%Qq%%%%%%%Qq%%%%%Qq%%%%%%%%%%%%%%%%%%%%%%%%%%%%
5314C88%%%%%%%%%%%%%%%%%%%%%%%%%%%%%%%%%%%%%%%%%%%%%%%qQ%%%%%%%%%%%%%%%%%%%%
5298C88%%qQ%%%%%%qQ%qQ%%%%%%%%%%%q%Q%%%%%%%%%%%qQ%q%%%%%QqQqQqQq%Q%q%QqQ%qQq
5282C80QqQq%%%%%%%%%%%%%Qq%%%%%%%%%%%%%%%%%%%%%%%%Qq%%%%%%%%%%%%%%%%%%%%%%%%
5266C80%%%%%%%%%%%%%%%%%%qQ%%%qQ%%%%%%%%%%%%%%%%%%%%%%%%%%%%%%%%%%%%%%%%%%%%
5251C80%qQ%qQ%%%%qQ%%%%qQ%%%%%%%qQqQq%%%%%%%%Q%qQ%%%q%Qq%%%%%%Qq%%Q%%%qQqQq%
5235C72Q%%q%Q%%qQqQ%%q%%Qq%Qq%%%Qq%Q%q%%Qq%%Qq%%%%%%%%%%%%%%%%%%%%%%%%%%%%%%
5219C72%%%%%%%%%%%%%%%%%%%%%%%%%%%%%%%%%%%%%%%%%%%%%%%%%%%%%%%%%%%%%%%%%%qQ%
5203C72%%%%%%%%%%%%%%%%%%%%%%%%%%qQ%%%%%%%%%%%%%qQ%qQqQq%%QqQq%%Q%%q%Q%%%%q%
5188C64Qq%%%%%%Qq%%%%Qq%%%QqQqQqQq%Q%qQq%%%%%%%Qq%%%%%%%Q%q%Q%%q%%%QqQ%%q%Qq
5172C64%%Qq%%%%%%%%%%%%%%%Qq%%Qq%%%%%%%%%%%%%%%%%%%%%%%%%%%%%%%%%%%%%%%%%%%%
5156C64%%%%%%%%%%%%%%%%%%%%%%%%%%%%%%%%%%%%%%%%%%%%%%%qQ%%%%%%%%%%%%%%%%%%%%
5140C64%%%%%%%%%%%%%%%%%%%%%%%%%%%%%%%%%%%%%%%%qQ%%%%qQ%q%Qq%%QqQq%QqQ%%%%%%
5124C64%%%%q%Q%%qQ%q%%%%%QqQq%%%%%Qq%%Qq%qJ6qQqQ%%q%Qq%Q%qQqQqQqQqQ%%qQ%%q%%
5109C56QqQ%%%q%%%Qq%%Qq%%%%%Qq%Qq%%Qq%%%%%%%%%%%%%%%%%%%%%%%%%%%%%%%Qq%%%%%%
5093C56%%%%%%%%%%%%%%%%%%%%%%%%%%%%%%%%%%%%%%%%%%%%%%%%%%%%%%%%%%%%%%%%%%%%%
5077C56%%%%%%%%%%%%%%%%%%%%%%%%%%%%%%%%%%%%%%%%%%%%%%%%%%%%%%%%%%%%%%%%%%%%%
5061C56%%%%%%%%%%%qQ%%%%%%%%%%%%%%%%%%%%%%%%%%%qQ%%q%Q%%%qQ%%%%%%%%%%%%%%%%%
5046C56%%%%%%%%%%%%%%%%%%%%%%%%%%%%%%%%%%%%%%%%%%%%%%%%%%%%q%Q%%%%%%%%%%qQ%%
5030C56%%%%qQ%qQ%%%%%%q%Qq%%Q%q%%%%%QqQq%%%Q%q%QqQ%qQ%qQqQqQq%%%Qq%%Qq%%%%Q%
5014C56%qQqQ%q%%QqQ%%%%qQq%%%%Qq%%Qq%%Qq%%%%%%%%%Q%%q%%%%%Qq%%%%%%QQj6%%qQQq
4998C48Qq%QQj6%Q%%q%Qq%Qq%%%%%%%%%%%%Qq%%%%%%%%%%%%%%%%%%%%%%%%%%%%%%%Qq%%%%
4983C48%%%%%%%%%%%%%%%%%%%%%%%%%%%%%%%%%%%%%%%%%%%%%%%%%%%%%%%%%%%%%%%%%%%%%
4967C48%%%%%%%%%%%%%%%%%%%%%%%%%%%%%%%%%%%%%%%%%%%%%%%%%%%%%%%%%%%%%%%%%%%%%
4951C48%%%%%%%%%%%%%%%%%%%%%%%%%%%%%%%%%%%%%%%%%qQ%qQqQ%%%%%%%%%%%%%%%%%%%%%
4936C48%%%%%qQ%%%%%%%%%%%%%%%%%%%%%%%%%%%%%%%%%%%%%%%%%%%%%%%%%%%%%%%%%%%%%%
4920C48%%%%%%%%%%%%%%%%%%%%%%%%%%%%%%%%%qQ%%%%%%%%%%%%%%%%%%%%%%%%%%%%%%%%%%
4904C48%%%%%%%%%%%%%%%%%%%%%%%%%%%%%%%%%%%%%%%%%%%%%%%%%%%%%%%%%%%%%%%%%%%q%
4888C40Q%%%qQ%%qQqQ%q%%%%QqQ%%%%%%%qQ%q%Q%qQ%%%%%%%%%q%Q%qQ%%qQqQqJ6j6%%Q%q%
4873C40%%Q%q%%Qq%Q%q%%Q%qQ%%%%%%%%%%%%%%%%%qQ%qQ%%%%%qQq%Qq%%Q%%%q%QqQqQ%%%%
4857C48%%%%%%%%%%%qQq%Qq%QqQ%q%%%%%%%%QqQ%%%%q%%QqQq%%Q%%qQ%%qQ%%qQ%%%%%%%%%
4841C48%%%%q%%Q%%%%%qQ%%%%%%%%%%%%%%%%%%%%%%%%%qQ%qQqQqQq%%Q%%%%qQqQ%%%qQq%Q
4825C48%qQq%Q%%qQqQ%%%%%q%Qq%%%%%%Qq%Q%q%Q%%qQ%%%qQ%%%%%q%%%%%Q%q%Q%qQq%%%%Q
4810C48%%%%%%qQ%qQ%%%%%%%%%%%%%%%%%%%%qQ%%q%QqQqQq%%Qq%%%%%%Q%%%%%%qQ%%%%%qQ
4794C48qQq%%QqQ%qQ%qQqQq%Qq%%%QqQ%q%Q%%%%qQ%%%%%qQ%%%qQ%qQ%q%Q%%%q%Qq%QqQq%%
4778C40Q%%%%%%%%%%%%%%%%%qQ%%q%Qq%Q%qQ%%q%Qq%%%%%%Q%%%qQq%%Qq%Q%qQq%%Q%%q%%%
4762C40%Q%%q%Q%%q%QqQ%%%%q%Q%qQ%%%qQ%%%%%q%Q%%%%%%%%%%%%%%%%%%%%%%%%%qQ%%%%%
4746C48%qQ%%%%%%%%%%%%%%%qQ%%%%%%%%%%%%%%%%%%%%%%%qQ%%%%%%q%Q%%%%%%%%%%%%%%%
4731C48%%qQ%%%%%%%%%%%%%%%%%%%%%%%%%qQ%%%%%%%%%%%%qQqQ%%%%%%q%QqQqQ%%%%%%%%%
4715C48%%%%%%%%%%%%%%%%%%%%%%%%%%%%%%%%%%%%qQ%qQ%%%%%%%%%%%%%%%%%%%%%%%%%%%%
4699C48%%%%%qQ%%%%%%%%%%%%%%%%%%%%%%%%%%%%%%%%%%%%%%%%%%%%%%%%%%%%%%%%%%%%%%
4683C48%%%%%%%%%%%%%%%%%%%%%%%%%%qQ%%%%%%%%%%%%%%%%%%%%%%%%%%%%%%%%%%%%%%%%%
4668C48%%%%%%%%%%%%%%%%%%%%%%%%%%%%%%%%%%%%%%%%%%%%%%%%%%%%%%%%%%%%%%%%%%%%%
4652C48%%%%%%%%%%%Qq%%%%%%qQ%%%%%%%%%%%%%%%%%%%%%%%%Qq%%%%%%%%%%%%%%%%%%%%%%
4636C48%%%%%%%%%Qq%%%%%%%%%%%%%%%%%%%%%%%%%%%%%%%%%%%%%%%%%%%%%%%%%%%QqQ%q%Q
4620C56q%%%%%%%%%%%%%%%%%%%%%%%Q%q%%%%%Q%q%Qq%%%%%%%%%%%Qq%%%%%%%%%QqQq%%%%Q
4604C56qQqQqQ%%%%%%%%%%%%%%%qQ%q%Q%q%%Q%%%%q%Q%q%%%%Q%%%%%q%QqQ%%%%%%q%QqQ%%
4589C56%%%%%q%QqQq%%Q%qQ%%%%%qQ%%%%%%%qQ%%qQ%%%%%%qQ%q%%%%%Q%%qQq%%Q%%%%%%%%
4573C56%%%%%%%%qQ%%%%%%%%%%%%%%%%%%%%%%%%%%%%%%%%%%%%%%%%%%%%%%%%%%%%%%%%%%%
4557C56%%%%%%%%%%%%%%%%%%qQ%%qQ%%%%%%%%%%%%%%%%%%%%%%%%%%%%%%%%%%%%%%%%%%%%%
4541C56%%%%%%%%%%%%%%%%%%%%%%%%%%%%%%%%%%%%%Qq%%%%%%qQJ6j6%%q%J6q%Qq%%Qq%%%%
4526C56%%%%%%%%%%%%%Q%q%%%Qq%%%%%%%%%%%%%%%%%%%%%%%%%%%%%%%%%%%%%%Qq%Q%q%%%%
4510C56%%%Q%q%%%%%Q%q%%Qq%Q%%%%qQqQ%%%%qQ%qQ%%qQ%q%%QqQ%qQq%%Q%%%%%%%%%%%%%q
4494C56Q%%%%%%%%%%%%%%%%%qQ%%%%%%%%%%%%%%%%%%%%%%%%%%%%%%%%%%%%%%%%%%%%%%%%%
4479C64%qQ%%%%%%%%%%%%%%%%%%%%%%%%%%%%%%qQ%%%%%%%%%%%%%%%%%%%Qq%%%%%%%%%%%%%
4463C64%%%%%%%%%%%%%%%%%%%%%%%%%%%%%%%%%%%%%%%%%%%%%%%%%%%%%%%%%%%%%%%%%%%%%
4447C64%%%%%%%%%%%%%%%%Qq%%%%Q%q%Qq%%%%%%%%%%%%%%%%%%%%%%%%Qq%%Qq%%%Q%%%%qQq
4431C64Qq%QqQ%%qQ%q%%Q%q%%Q%%%%%%qQqQq%%%%Q%%%%q%Q%%%q%Q%%%%%%%%%%%%%qQqQ%%%
4416C72%%%q%Q%%%%q%QqQ%%%%%%%%%%%%%%%%%%%Qj6%QQj6Qj6J6%%%Qq%%%%%%%%%%%%%%%%%
4401C72%%%%%%%%%%%%%%%%%%%%%%%%%%%%%%%%%%%%%%%%%%%%%%%%%%%%%%%%%%%%%%%%%QqQq
4385C72QqQq%%%%Qq%%%%%%%%%%%%%%%%%%Qq%%%%Qq%Qq%%Qq%%QqQ%%%qQq%Q%%%qQ%%%qQ%%%
4369C80%%%%qQ%%%%%%%%%qQ%%%%%%%%q%QqQ%qQ%%%%%%%%%%%%%%%%%%%%%%%%%qQ%%%%%%%%%
4353C80%%%%%%%%%%%%%%%%%%%%%%%%%%%%%%%%%%%%%%%%%%%%%%%%%%%%%%%%%%%%%%%%%%%%%
4337C80%%%%%%%%%%%%%%%%%%%%%%%%%%%%%%%%%%%Qq%%%%Q%qQq%Q%%qQqQqQ%%%%%qQqQ%qQ%
4322C88%%qQ%%%%qQ%%%%qQq%%Q%%%%%%%%%%%%%%%%%%%%qQ%%%%%qQ%%%%%%%%%%%%%%%%%%%%
4306C88qQ%%%%%%%%%%%%%%%%%%%%%%%%%%%%%%%%%%qQqQ%%%%%%Qq%%%%%%%%%%%%%%%%%%%%%
4290C88qQ%%%%%%%%%%%%%%%%%%%%%QqQqQqQ%qQ%q%%%%%Q%q%%%%%%Qq%%Qq%%Q%q%%%QqQ%q%
4274C88%%%Q%%q%Qq%%Q%q%QqQ%%%%%%%%%%%%%%%%%%%%%%%%%%%%%%%%%%%%%%%%%%%%%%%%%%
4258C96%%%%%%%%%%%%%%%%%%%%%%%%%%%%%%%%%%%%%%%%%%%%%%%%%%%%%%Q%q%%%%%Q%%%%q%
4243C96%%%%%%%QqQ%q%%%QqQqQq%%%Q%qQ%%%%%%%%%%%%%%qQ%%%%%%%qQ%%%%%%%%%%%%%%%%
4227D04%%%%%%%%%%%%%%%%%%%%%qQ%%%%%%%%%%%%%%%%%%%%%%%%%%%%%%%%%%%%%%%%%%%%%%
4211D04%%%%%%%%%%Qq%%%%%%Qq%%%%%Q%%%%%%%%q%Q%q%%Q%q%%%Q%%%%qQ%%%%%%%%%%%%%qQ
4195D12%%%%%%%%qQ%%%%qQ%%%%%%%%%%%%%%%%%%%%%%%%%%%%%%%%%%%%%%%%%%%%%%%%%%%%%
4180D12%%%%%Qq%%%%%%%%%%%%Q%%q%%%Qq%Q%%%q%Qq%QqQ%%%q%%%Q%qQ%%q%%QqQ%q%Q%%%qQ
4164D20%%%%%%%%%qQ%%%qQ%%%%%%%%%%%%%%%%%%%%%%%%%%%%%%%%%%%%%%%%%%%%%%%%%%%%%
4148D20%%%%%%%%%%%%%%%%%%%%%%%%%%%QqQq%%%%%%%%%%%Q%%%%%qQ%%%%qQqQ%qQq%QqQ%%%
4132D28qQ%%%qQ%%%%%%%%%%%%%%%%%%%%%%%%%%%%%%%%%%%%%%%%%%%%%%Qq%%%%Qq%%%%%%%%
4116D28%%%%%%%%%%%%%%Qq%%%%%%%%%%%%%Qq%%%%%%%%%%%%%%%%QqQ%%%%%%%%%%%%%%%%%%%
4101D36%%%%%%%%qQ%%%%%%%%%%%%%%%%%%%%%%%%%%%%%%%%%%%%%%%%%%%%%%%%%%%%%%%%%%%
4085D36%%%%%%%%%%%Qq%%%%%%%%Q%%q%%Q%qQqQ%%%%qQ%%%qQ%%%%qQ%%%qQ%%%%%%%%%%%%%%
4069D44%%%%%%%%%%%%%%%qQ%Qj6Q%QqqQ%Q%qQk4QQ%Qq%%%%%%%Qq%%%%%%Qq%%Q%qQ%qQq%%Q
4054D52q%Q%qQ%qQ%%%q%%%Qq%Qq%Q%%qQ%%%%%%%%%%%%%%%%%%%%%%%%%%%%%%%%%%%%%%%%%%
4038D52%%%%%%%%%%%%%%%%%%%%%QqQq%%%%%%%Qq%%Q%q%Qq%%Q%qQqQq%%Q%%qQ%qQ%%%%%%%%
4022D60%%%%%%%%%%%%%%%%%%%%%%%%%%%%%%%%%%%%%%%%%%%%%%%%%%%%%%%%%%%%%%%%%%%Qq
4006D60%%Q%%q%Q%%qQ%%%%qQ%%%qQ%%%%%%%%%%%%%%%%%%%%%%%%%%%%%%%%%%%%%%%%%%%%%%
3990D68%%%%%%%%%%%%Qq%%%%%%%%%%%%%%%%%%%Q%%%%%%qQ%%qQ%%%%%%%%%%%%%%%%%%%%%%%
3975D76%%%%%%%%%%%%%%%%%%%%%%%%%%%%%%%%%%%%%%%%%%%%%Qq%%%%%%%%Q%q%%%%Q%qQq%%
3959D76%%Q%q%Qq%QqQqQ%%qQqQ%%%%%%%%%%%%%%%%%%%%%%%%%%%%%%%%%%%%%%%%%%%%qQQq%
3943D84%Qq%%Qq%%Q%qQ%%%qQ%%q%%%QqQqQ%%qQ%%%%%%%%%%%%%%%%%%%%%%%%%%%%%%%%%%%%
3927D92%%%%%%%%%%%%%%%%%%%%%Qq%%%%%%%%%%%%Qq%Q%q%QqQqQ%%%%%%%%%%%%%%%%%%%%%%
3912E00%%%%%%%%%%%%%%%%%%%%%%%%%%%%%%%%%Q%qQ%%%qQ%%q%Q%%%%q%Q%qQ%%q%%%Qq%%Q%
3896E08%%%%%%%%%%%%%%%%%%%%%%%%%%%%%%%%%%%%%%%%Qq%%%%%%%Q%qQq%Qq%%%%%%%%%Qq%
3880E08Q%%%q%QqQ%%%qQ%%%%%%%%%%%%%%%%%%%%%%%%%%%%%%Qq%%%Qq%Qq%Q%qQ%%%%%%qQ%%
3864E24%%%%%qQ%%%%%%%%%%%%%%%%%%%%%%%%%%%%%%%%%%%%%%%%%%%%%%%%%%%%%%%Qq%QqQq
3848E24Qq%Q%%%%%qQ%%%q%Q%%%%%%%%%%%%%%%%%%%%%%%%%%%%%%%%%%%%%%%%%%%%%Qq%%%%%
3833E32%%%%Qq%Q%%%qQqQ%%q%Q%qQ%%qQ%%qQ%%qQqQ%%%%%%%%%%%%%%qJ6q%%%%%%%%%%%%%%
3817E40%%%%%%%%%%%%%%Q%q%%Q%%%%%%%%%%%%%%%%%%%%%%%%%%%%%%%%%%%%%%%%%%Qq%Qq%%
3801E48Q%qQqQqQ%q%Qq%%%%%%Q%%qQ%%%%%%%%%%%%%%%%%%%%%%%%%%%%%%%%%%%%%%%%%Q%q%
3785E56%%Q%%%%%%%%%%%%%%%%%%%%%%%%%%%%%%%%%%%%%%%%%%%%%%%%%%%%%%%%%Qq%Qq%Q%q
3770E64%Q%%%qQqQ%%%%%%%%%%%%%%%%%%%%%%%%%%%%%%%%%%%%%%%%%Qq%%%Q%%q%QqQ%%%%%%
3754E80qQ%%%%%%%%%%%%%%%%%%%%%%%%%%%%%%%%%%%%%%%%%%%%%%%%%Qq%%QqQ%%%%%%qQ%%%
3738E88%%%%%%%%%%%%%%%%%QqQq%%%Q%%%qQ%%%qQ%%%%%%%%%qQ%qQ%%%%%%%%%%%%%%%%%%%%
3722E96%%%%%%%%%%%%%%Q%qQq%%%Qq%%Q%q%Q%%%%%qQ%%%%%%%%%q%Q%%%Qj6J6q%%%%%%%Qq%
3707F04%%%%%Q%%%%%%%qQqQ%%%%%%%%%%%%%%%%%%%%%%%%%%%%%%%%%%%%%%%%%%Qq%%%%%%Qq
3691F12%Q%qQ%%qQ%%%%%%%%%%%%%%%%%%%%%%%%%%%%%%%%%%%%%%Qq%%%%QqQ%%%%%%%%%%%%%
3675F28%%%%%%%%%%%%%%%%%%%%%%%QqQ%%%%%q%Q%%%%qQqQ%%%%%%%%%%%%%%%%%%%%%%%%%%%
3660F36%Qq%QqQ%qQ%%%qQ%%%%%%%%%%%%%%%%%%%%%%%%%%%%%%%%%%%%%%%%%%%%QqQq%Q%%%%
3644F52%%%%%%%%%%%%%%%%%%%%%%%%%%%%Qq%%%%%%%%%%%QqQqQ%%%%%%%%%%%%%%%%%%%%%%%
3628F60%%%%%%%%%%%QqQqQ%%%%%%%%qQqQ%%%%%%%%%%%%%%%%%%%%%%%%Q%%q%Qq%QqQ%%%%%%
3612F76%%%%%%%%%%%%%%%%%%%%%%%%%QqQq%QqQ%q%Q%%qQ%%%%%%%%%%%%%%%%%%%%%%%%%%Qq
3596F84%%%%Qq%%%Q%q%qQqJ6%q%QqQ%%%%%%%%%%%%%%%%%QqQq%%%%QqQ%qQ%qQ%%%%%%%%%%%
3581G00%%%%%%%%%%Qq%Qq%%%%%QqQ%%%%%%%%%%%%%%%%%%Qq%%%%%Q%%%%q%%%QqQq%%%%QqQ%
3565G16q%Q%%q%QqQ%%%%%%%%%%%%%%%%%%Qq%%%Qq%Q%%%%%%%%%%%%%%%%%%%%%%%%%%%%%%%%
3549G24%QqQ%%qQqQ%%%%%%%%%%%%%%%%%%%%%%%%QqQqQqQ%%%%%%%%%%qQ%%%%%%%%%%%%%%%%
3533G40Q%qQqQ%%%%%%%%%%%%%%%%%%%%%%%%%%%%%%%%%QqQ%qQqQ%q%%Q%%%%%%%%%%%%%%%%%
3518G56%%%%%%Q%%%%%%%%%%%%%%%%%%%%%%%%%%%%%%%%%Q%%qQq%Q%%%%%qQ%qQ%%%%%%%%%%%
3502G72%%%%%Qq%%%Q%%%%%qQ%qQ%%%%%%%%%%%%%%%%%%%%%QqQ%%%qQ%%%%%%%%%%%%%%%%%Qq
3486G88%%%%%%%%Q%qQqQ%%%%%%%%%%%%%%%%%%%%Q%%%%%%qQ%%%qQ%%%qQqQ%Qq%%qJ6q%Q%q%
3470H04%QqJ6%j6M0k4qj6Q%%J6qQqqJ6q%qQ%qQQq%%%%%%%%Q%qQ%%%%%%%%%%%%%%%%%%%%%%
3456H20QqQ%qQ%qQ%%%%%%%%%%%%%%%%%%%%%QqQ%%%%%%%%%%%%%%%%%%%%%%%%%%Qq%Q%%%%%%
3440H44%%%%%%%%%%%%%%%%%%%%%%%Qq%Q%%%%%%%%%%%%%%%%%%%Qq%%Q%q%Q%%%%%%%%%%%%%%
3425H60%%%%%%%%%%%%%%%QqQ%qQ%%%%%%Qq%%Q%qQ%qQ%%%%%%%%%%%%%%%%%%%%%%%%Q%%q%%Q
3409H84qQ%qQ%%%%%%%%%%%%%%%%%%%%Q%%%%qQ%%%%%%%%%%Qq%QqQq%QqQ%%%%%%%%%%%%%%%%
3393I00%%%%%%%Q%qQ%q%%Q%%%%%%%%%%%%%%%%%%Q%%%q%QqQ%%%%%%%%%%Qq%QqQ%%%%%%%%%%
3377I24%%%%%%%%%Q%%%%%%%%%%%%%%%%%%%%%%%%Qq%Q%%%%%%%%%%%%%%%%%%%%%%%%%QqQ%%%
3362I48%%%%%%%%%%%%%QqQq%Q%%%%%%%%%%%%%%%%%%%%%%QqQq%%Q%%%%%%%%%%%%%%%%Q%qQ%
3346I72%%%%%%%%%%%%%%%Q%%%%%%%%%%%%%%%%%%%%%%%QqQ%%%%%%%%%%%%%%%%%%%QqQq%Q%%
3330I96%%%%%%%%%%%%%%%QqQ%%%%%%%%%%%%%%%%%Qq%Q%%%%%%%%%%%%%%%%%%%%%%QqQqQ%%%
3314A020%%%%%%%Qq%%%%%Q%%%%%%%%%%%%%%%%%%%%Q%%%%%%%%%%%%%%%%%Q%%%%qQ%%%%%%%%
3299A044%%%Qq%%%%Q%%%%%%%%%%%%%%%%%Qq%%Q%%%%%%%%%%%%Q%%%%%%%%%%%%%%%Qq%%%%%%
3283A068Q%%%%%%%%%%%%%%%Q%qQ%%%%%%%%%%%%%%%Q%qQ%qQ%%%%%%%%%%Q%qQqQqQ%%%%%%%%
3267A100%%%QqQ%%%%%%%%%%%%%%%%%%Q%%%%%%%%%%%%%%%%%%%%Q%qQ%%%%%%%%%%%Q%%%%%%%
3252A132%%%%%%%Q%qQ%%%%%%%%%%%%%%%QqQ%%%%%%%%%%%%%%%Q%%qQqQ%%%%%%%%%%Q%qQ%%%
3236A164%%%%%%Qq%Q%q%Q%%qQ%%%%%%%%%%%%%Q%%%%%%%%%Q%%q%Q%qQ%%%%%%%%%%%%QqQ%%%
3221A196%%%%%%Qq%%%Q%%%%%%%%%%%%%Q%%%%%%%%%%%Q%%qQ%qQ%%%%%%%%%%%Q%%%%%%%%%%%
3205A228%%%%%Q%%%%%%%%%%Q%%%%%%%%%%%%%Qq%QqQqQ%%%%%%%%Q%%%%%%%%%%%%%%%Q%%%%%
3190A268%%%%%%%%%%%Qq%Q%%%%%%%%Qq%Q%%qQ%%%%%Qq%%%%Q%%%%%%%%%%%%Q%%%%%%%Qq%%Q
3174A308%%qQ%%%%%%%QqQ%%%%%%%%%%%%%%%%QqQ%%%%%%%%%QqQ%%%%%%%%QqQ%%%%%%%%%%%Q
3158A348q%Q%%%%%%%%%%%%Q%%%%%Qq%%%%Q%%%%%%%%%%QqQ%%%%%%%%%%%%%QqQ%%%%%%%%%%%
3143A380%Q%%%%%%%%%%%Q%%%%%%%%Q%%%%%%%%%%%%Q%%%%%%%%Qq%%Q%%qQ%%%%%%%%Q%q%Q%%
3127A428%qQ%%Q%%qJ6j6QQj6J6j6QqQ%%%QqQ%%%%QqQq%Q%%Qq%Q%%qQ%%%Qq%Q%%%%%%%%Qq%
3113A468%Q%%%%%%%%QqQ%%%%%%%%%%%Q%%%%%%%%Q%%%%%%%%%%%%QqQ%%%%%%%%%Q%%%%%%%%%
3097A516%Q%%%%%%%%Qq%%QqQ%%%%%%%Q%%%%%%%%Q%%%%%%%%%%%Q%%%%%%%%%Q%%%%%%%%%%Q%
3082A572%%%%%%Q%%%%%%%%%%%%QqQ%%%%QqQ%%%%%%%%Q%qQ%%%%%%%%%%%Q%%%%%%%%Q%%%%%%
3066A620%%%%Q%%%%%Q%%%%%%%%QqQqQ%%%%Q%q%%Q%%%%%%Q%%%%%%%Q%%%%%%%%Q%%%%%%%%%Q
3051A684qQ%%%%%%%Q%%%%%%%%Q%%%%%%%%%%Q%%%%%%%%Q%%%%%%%%Q%%%%%%Q%%%%%%%%%%QqQ
3035A740%%%%%Q%%%%%%%%Q%%%%%QqQ%%%%%%%%%%%Q%%%%%%%Q%%%%%%Q%%%%%%%Q%%%%%%Q%%%
3020A804%%%%%%%Q%%%%%%%Q%%%%%%%%Q%%%%%%Q%%%%%%Q%%%%%%%%QqQ%%%%Q%qQ%Qq%Qq%Q%%
3004A868%%%%Q%%%%%Q%%%%%%%%Q%%%%%Qq%Q%%%%%%%Q%%%%%Q%%%%%%%%%Q%%%%QqQ%%%%%%%Q
2988A940%%%%Q%%%%%Q%qQ%%%%%%Q%%%%%%Q%%%%%%%Q%%%%%%Q%%%%%%Q%%%%%%Q%%%%%%%QqQ%
2973B012%%%Q%%%%QqQ%%%Qq%Q%%%%%Q%%%%%Q%qQ%%%Q%%%%%Q%%%%%%%Q%%%%%QqQ%%%%Q%%%%
2957B092QqQ%%%%%%Q%%%%%Q%%%%%Q%%%%%%%%Q%%%QqQqQ%%%%Q%%QqQ%%%%%%Q%%%%%%Q%%%%%
2942B172%Q%%%%Q%%%Q%%%%%%%Q%%%%%Q%%%%Q%%%%%%Q%%%%%Q%%%%Q%%%%%%Q%%%Q%%%%%%Q%%
2926B268%%%%Q%%%%Q%%%%%Q%%%%%Q%%%%%%Q%%%%%Q%%%%Q%%%%Q%%%%%Q%%%%%Q%%Q%%%%%%Q%
2911B364%%%%Q%%%%%Q%%%%Q%%%%%Q%%%%Q%%%%%Q%%%%%Q%%%Q%%%Q%%%%%Q%%%%%Q%%QqQ%%%Q
2895B468%%%%%%Q%%%Q%%%QqQ%%%%Q%%%%Q%%Q%%%QqQ%%%%Q%%%Q%%%%%%Q%%%Q%%%%Q%%%%Q%%
2879B572%Q%%%%%Q%%%Q%%%%Q%%%Q%%%%Q%%%%Q%%%%Q%%%%Q%%%%Q%%Q%%%%Q%%%%Q%%%Q%%%%Q
2864B692%%%%%Q%%QqQ%%Q%%%Q%%%Q%%%Q%%%%Q%%%Q%%%Q%%%%Q%%%%Q%%Q%%%%Q%%%%Q%%%Q%%
2848B812%%Q%Q%%%%Q%%%Q%%%Q%%%%Q%%Q%%%%%Q%%%Q%Q%%%Q%%%%Q%%%Q%%%%Q%%Q%%%Q%%%Q%
2833B948%%Q%%Q%%QqQ%%Q%%%Q%%%Q%%Q%%%%Q%Q%%%%Q%Q%%%%%Q%%Q%%%Q%%%Q%%Q%%%Q%%Q%%
2817C092%Q%%%Q%%%Q%%%Q%%Q%%%Q%%%Q%%%Q%Q%%%Q%Q%%%%Q%%Q%%Q%%%Q%Q%%%%Q%%%QQ%%%%
2802C244Q%%Q%%%Q%%Q%%%Q%%Q%%Q%%%Q%Q%%Q%%%Q%Q%%%%Q%Q%%%Q%%Q%%Q%%%Q%%Q%%Q%Q%%%
2786C412Q%%%Q%%Q%%Q%%Q%%Q%%Q%%Q%%Q%%%Q%Q%%Q%Q%%%Q%%Q%%Q%%Q%Q%%Q%%Q%%Q%%Q%%Q%
2771C596%Q%%Q%Q%%QqQ%Q%%%J6qQQqQ%%J6%%%%Q%%Q%Q%Q%%%Q%Q%%Q%Q%%Q%%Q%%Q%%Q%Q%%Q
2755C788%%Q%Q%%Q%Q%%Q%Q%%%QQ%Q%%%Q%%Q%Q%%Q%%Q%Q%%Q%%Q%Q%Q%%Q%Q%%Q%Q%Q%%%QQ%%
2740C996Q%Q%%Q%Q%%Q%%QQ%%Q%Q%%Q%Q%Q%Q%%Q%Q%%Q%Q%Q%Q%%Q%Q%%Q%%QQ%%Q%Q%Q%%Q%Q%
2724D228Q%Q%Q%%Q%Q%%Q%Q%Q%Q%Q%Q%%Q%Q%Q%Q%Q%Q%%Q%Q%%J6%%QQ%%%QQ%%Q%QQ%%Q%QQ%%
2709D476Q%Q%Q%Q%Q%Q%Q%Q%%QQ%Q%%QQ%Q%Q%Q%Q%%QQ%%QQ%Q%Q%Q%Q%Q%Q%Q%Q%QQ%%Q%QQ%Q
2693D756%Q%Q%Q%Q%Q%Q%QQ%Q%QQ%Q%Q%Q%Q%Q%QQ%Q%Q%QQ%Q%Q%Q%QQ%Q%Q%QQ%Q%Q%QQ%%QQ%
2678E052QQ%Q%QQ%Q%Q%QQ%QQ%Q%QQ%Q%QQ%Q%QQ%Q%Q%QQ%QQ%Q%QQ%Q%QQ%QQ%Q%QQ%QQ%QQ%Q
2662E388Q%QQ%Q%QQQ%QQ%QQ%QQ%%Q%QJ6qJ6%%J6%QQQ%Q%QQ%QQQ%QQ%QQ%QQ%QQQ%QQ%QQ%Q%
2647E732J6%Q%QQQ%QQ%QQQQ%QQ%QQQQ%Q%QQQ%Q%J6%QQQ%QQ%QQQ%QQQQ%QQQ%QQQ%QQQQQ%QQ
2632F132Q%QQQ%QQQ%QQQQ%QQQQ%QQQQ%J6%Q%QQQQQQ%QQQQQQQ%QQQ%QQQQQQ%QQQQQQ%QQQQ%
2617F564QQQQQQQQQ%QQQQQQQQ%QQQQQQQQQQ%QQQQQQQQQQQ%QQQQQQQQQQQQQ%QJ6%QQQQQQQQ
2602G060QQQQQQQQQQQQ%QQJ6QQ%J6QQQ%J6Q%QJ6Q%QJ6QQQQQQQQQQQQQQQQQQQJ6QQQQQ%J6Q
2588G556QQQQQQQJ6QQQQQQQQQJ6QQ%J6QQQQJ6%J6QQQQJ6QQQQQQQJ6QQQQQJ6QQQQQQJ6QQQJ6
2574H092QQQQQJ6QQQQQJ6QQQQJ6QQJ6QQQQQJ6QQQJ6QJ6QQQQQJ6QQJ6QQJ6QQJ6QQQJ6QQQJ6
2562H636QQJ6QQQJ6QQJ6J6QQJ6QQJ6QQQJ6QQJ6QJ6QQJ6QJ6QQJ6QQJ6QJ6QQJ6QJ6QJ6QJ6QQ
2550I180J6QJ6QQJ6J6QQJ6QJ6QJ6QJ6QJ6QJ6J6QQJ6QJ6QJ6QJ6QJ6QJ6J6QJ6QJ6QJ6J6QQJ6
2540I724J6J6QQJ6J6QJ6QQK4QQJ6J6J6QJ6QJ6QJ6J6QJ6J6J6%J6J6J6J6QQK4J6QJ6QK4QQJ6
2530A0284J6J6QJ6J6QJ6J6J6QJ6J6QJ6J6J6QJ6J6J6J6J6QJ6J6J6QJ6J6J6J6QJ6J6QK4QJ6J6
2521A0836J6J6J6QJ6J6J6J6J6J6J6J6QJ6K4QJ6J6J6J6QJ6J6J6J6J6J6J6J6J6J6J6J6J6J6J6
2513A1388J6J6J6J6J6J6J6J6J6J6J6J6J6K4QK4J6J6J6J6J6J6J6J6J6J6K4J6QK4J6J6J6J6K4
2505A1972J6J6J6J6J6J6J6K4J6J6J6J6K4J6J6J6J6K4J6J6J6K4J6J6J6K4J6J6K4J6J6K4J6J6
2497A2572J6J6K4J6K4J6J6J6K4J6K4J6J6K4J6K4J6J6K4J6K4J6K4J6J6K4J6K4J6K4J6J6K4J6
2489A3220K4J6K4K4J6J6K4K4J6J6K4K4J6J6K4K4K4J6K4J6K4K4J6K4K4J6K4K4J6J6K4K4K4K4
2481A3932J6K4K4J6K4K4K4J6K4J6L2J6K4J6K4K4K4K4J6K4K4K4K4K4K4K4K4J6K4K4K4K4K4K4
2474A4692K4J6K4K4K4K4K4K4K4K4K4K4K4K4K4K4K4K4K4K4K4K4K4L2K4K4K4K4K4K4L2K4K4K4
2466A5516K4K4L2K4K4K4K4L2K4L2J6L2K4K4K4L2K4K4L2K4K4L2K4K4L2K4K4L2K4K4L2K4L2K4
2458A6412L2K4K4L2K4L2L2K4K4L2L2K4L2K4L2L2K4L2K4L2L2K4L2L2K4L2K4L2L2L2L2K4L2L2
2450A7396L2K4L2L2L2L2K4L2L2L2L2L2K4L2L2L2L2L2L2L2L2L2L2L2L2L2L2L2L2L2L2L2L2M0
2443A8468L2L2L2L2L2M0L2L2L2L2L2M0L2L2L2M0L2L2M0L2L2M0L2M0L2L2M0L2L2M0L2M0M0L2
2435A9636L2M0L2M0M0L2M0L2M0M0L2M0M0L2M0M0M0L2M0M0L2M0M0M0M0M0M0M0L2M0M0M0M0M0
2427B0924M0M0M0M0M0M0M0M0M0M0M0M0M8M0M0M0M0M8L2M8M0M0N6M0M0M0M0M0M8M0M8M0M0M8
2419B2340M8M8M0M0M8M0N6M0M8M0M8M0M8M8M8M0M8M8M0M8M8M8M8M8M0N6M0M8M8M8M8M8M8N6
2411B3916M0N6M0N6M8M8M8N6M8M8M8N6M8M8N6M8M8N6M8N6N6M8M8N6M8N6M8N6M8N6N6N6M8N6
2404B5652N6N6N6M8N6N6N6N6N6M8N6N6N6N6N6O4N6N6N6N6N6O4N6N6N6O4N6O4N6N6O4N6O4N6
2396B7588O4N6O4N6O4O4N6O4O4O4O4N6O4O4O4O4O4O4O4O4O4O4O4O4O4O4P2O4O4P2O4O4P2O4
2388B9756P2O4O4P2P2O4P2O4P2P2O4Q0O4P2P2P2O4Q0O4Q0P2P2P2P2P2P2P2Q0P2P2Q0P2P2Q0
2380C2188Q0P2Q0Q0P2Q0P2Q0Q0Q0Q0P2Q0Q0Q0Q0Q0Q0Q8Q0Q0Q0Q8Q0Q0Q8Q0Q8Q0Q0Q8Q8Q0Q8
2373C4932Q8Q8Q8Q0Q8Q8Q8Q8Q8R6Q8Q8Q8Q8Q8R6Q8R6Q8R6Q8R6R6R6Q8R6R6R6R6R6R6R6R6R6
2365C8044R6R6J04R6R6J04J04R6J04R6J04J04J04R6J12J04R6J12J04J04J04J04J12J04J04
2359D0604J12J04J12J12J04J12J12J04J20J12J04J20J12J12J12J12J20J12J20J12J20J12J20
2354D3196J20J20J20J20J20J20J20J20J28J20J28J20J20J28J20J28J28J28J28J28J28J28J28
2348D6044J36J28J28J36J28J36J36J36J28J36J36J36J44J36J36J36J44J36J44J44J44J36J44
2343D9188J44J44J44J52J44J52J44J44J52J44J52J52J52J52J52J52J52J60J52J60J60J52J60
2338E2660J60J60J60J60J68J60J68J60J68J68J60J68J68J76J68J68J76J68J76J68J76J76J76
2333E6516J84J76J76J76J84J84J76J84J84J84J92J84J84J92J92J84J92J92J92J92K00K00J92
2327F0812K00J92K08K00K00K00K08K00K08K08K08K08K08K08K16K16K08K16K16K16K24K16K24
2322F5620K24K16K24K24K32K24K32K24K32K32K32K32K40K40K40K40K40K40K40K48K40K48K48
2317G1012K56K48K48K56K56K56K64K56K56K64K64K64K64K72K64K72K72K72K72K80K80K80K80
2312G7108K80K88K80K88K88K96K88K96K96K96K96L04L04L04L04L04L12L12L04L20L20L12L20
2306H4020L28L20L20L28L28L28L44L28L36L44L36L44L36L52L52L44L60L60L52L60L60L60L68
2301I1908L68L68L76L68L84L76L84L84L84L92L92L84M00M00M00M00M08M08M08M16M16M16M24
2296A00964M24M24M24M32M40M32M40M48M48M40M56M56M56M56M64M64M72M72M72M80M80M88
2291A10932M88M88M96N04M96N04N12N12N12N20N20N28N20N36N36N44N36N52N44N60N60N60
2286A22460N68N68N76N76N84N84N84O00O00O00O08O16O16O16O24O24O40O32O48O48O48O64
2281A35884O56O72O64O80O80O88O88P04O96P12P12P20P20P28P36P36P44P52P60P60P68P76
2276A51636P84P84P92P92Q08Q16Q16Q24Q32Q40Q40Q48Q56Q64Q72Q80Q80Q96Q96R12R12R20
2271A70300R28R36R44R52R68R68R68R84J000R92J008J024J024J032J048J056J056J072J080
2266A89340J096J096J104J120J128J136J152J152J168J184J184J200J208J224J232J240J256
2262B09220J264J280J288J304J312J328J336J344J360J376J392J400J408J432J440J456J464
2259B32404J488J496J504J528J544J552J568J584J608J616J632J648J664J688J696J712J736
2255B59668J752J768J792J800J824J848J856J880J904J920J936J960J984K000K024K048K064
2251B92028K088K112K136K160K176K208K232K248K280K304K328K352K384K408K440K464K488
2247C30836K520K552K576K608K640K672K696K736K760K800K824K864K904K928K968L008L040
2243C77932L080L112L152L192L240L272L312L352L400L440L488L528L576L616L672L720L752
2239D35836L824L864L912L968M016M080M128M184M240M304M352M424M480M544M600M672M744
2235E08172M800M872M944N016N080N160N232N312N392N472N544N640N720N800N896N984O072
2231F00108O168O264O360O464O560O672O776O872O992P112P216P344P456P584P704P840P968
2227G19460Q104Q240Q384Q520Q680Q816Q984R136R296R464R632R800R984J0168J0352J0544
2224H67564J0736J0944J1144J1360J1568J1792J2024J2248J2496J2744J2992J3248J3512J3792
2221A038164J4072J4352J4656J4952J5272J5592J5920J6264J6608J6968J7344J7720J8112
2218A245996J8512J8936J9360J9800K0256K0720K1216K1704K2224K2744K3304K3864K4448
2215A523084K5056K5672K6320K6984K7672K8392K9120K9880L0672L1496L2328L3216L4120
2212A904012L5064L6040L7056L8104L9200M0336M1512M2736M4016M5336M6720M8144M9656
2209B447932N1200N2824N4520N6288N8120O0056O2056O4160O6352O8656P1056P3568P6208
2206C262996P8976Q1872Q4928Q8120R1472R5016R8728J02640J06760J11112J15696J20536
2203D438852J25648J31056J36784J42832J49264J56080J63312J71000J79176J87888J97160
2200F179052K07064K17640K28952K41040K54023K67937K82880K98968L16288L34975L55153
2198I183972L76992M00655M26337M54248M84664N17832N54103N93833O37440O85416P38328
2195A5053820P96800Q61615R33617J013839J103520J204048J317120J444745J589343J753809
2193B7072276J941664K157209K405672K693591L029043L422167L885830M436465N095226N889701
2191F2028844O856330Q043650R517405J1367854J3720829J6754680K0726952K6016757L3192930
2189B08226231M3126308N7173394P7470520J07364842J51856874K17184870L05856676L96358303
2187A564618018L99905198J82960431j82960431l99905198l96358303l05856676k17184870
2185F45218169j51856927j07364789p7470493n7173421m3126308l3192930k6016757k0726966
2183A28289578j6754666j3720829j1367854r517405q043650o856323n889702n095232m436465
2181D6607452l885830l422177l029033k693591k405679k157202j941664j753809j589351j444737
2179B2284379j317112j204056j103520j013839r33625q61607p96800p38328o85416o37448
2177A2992628n93825n54103n17832m84656m54256m26337m00655l76992l55160l34968l16288
2174H177556k98960k82888k67937k54015k41056k28936k17648k07064j97168j87880j79176
2172E614828j71000j63312j56080j49256j42840j36784j31056j25648j20536j15696j11112
2169D091508j06760j02640r8728r5016r1472q8120q4920q1880p8976p6208p3576p1056o8648
2166B973508o6352o4160o2056o0048n8128n6288n4512n2832n1200m9648m8152m6720m5336
2163B258076m4008m2744m1512m0336l9192l8112l7056l6040l5064l4120l3216l2336l1488
2160A772852l0672k9880k9128k8384k7672k6984k6320k5672k5056k4448k3864k3304k2752
2157A428716k2216k1704k1208k0728k0256j9800j9368j8928j8512j8112j7728j7336j6968
2154A175852j6608j6264j5920j5592j5272j4952j4656j4360j4064j3792j3512j3248j2992
2151I84620j2744j2488j2264j2016j1792j1576j1352j1152j0936j0736j0544j0352j0168r984
2148H26516r808r632r464r296r128q984q824q672q528q376q240q104p976p832p712p576p464
2144F80900p336p224p104o992o880o776o664o560o464o360o264o168o080n976n896n808n712
2140E70636n640n552n464n392n312n232n160n088n008m944m872m808m736m672m608m536m480
2137D85132m424m352m304m240m184m128m080m016l968l920l856l824l760l712l672l616l576
2133D17500l528l488l440l400l352l312l280l232l192l152l120l072l040l008k968k936k896
2129C63084k864k824k800k768k728k704k664k640k608k576k552k520k488k464k440k408k384
2125C18652k352k328k304k280k256k224k208k184k152k136k112k088k064k048k024k000j984
2121B81908j960j944j912j904j880j856j848j824j808j784j768j752j736j712j704j680j664
2117B51172j648j640j616j600j584j568j560j536j528j512j496j480j472j448j448j424j416
2113B25196j400j384j376j360j352j336j328j312j296j288j280j264j256j240j232j224j208
2109B03060j200j192j176j168j160j144j136j128j120j112j096j088j080j072j056j056j048
2105A84028j032j032j016j008j000r92r84r76r68r60r52r44r36r28r20r12r12q96q96q80q80
2101A64004q72q64q56q56q40q40q32q16q24q08q00q00p92p92p76p76p68p68p52p52p44p44
2096A46332p36p28p20p20p12p04p04o96o88o88o80o80o72o64o64o56o56o48o40o40o32o32
2091A31372o16o24o16o16o00o08n92o00n92n84n76n76n76n76n60n68n52n60n44n52n44n36
2085A18604n36n36n28n20n28n12n20n12n04n04n04m96m96m88m88m88m80m80m72m72m72m64
2080A07604m64m64m56m48m56m48m48m40m40m40m32m32m32m24m24m24m16m16m08m16m00m08
2075I8068m08m00m00l92l92l92l92l84l84l84l76l76l76l68l76l60l68l60l60l68l52l60l44
2070H9396l52l52l44l44l52l28l44l36l36l36l28l28l28l28l20l20l20l20l12l20l12l12l04
2065H1820l12l04l04k96l04k96k96l04k88k96k88k88k88k80k80k88k80k80k80k80k72k72k72
2060G5172k72k72k64k72k64k56k64k64k56k56k56k56k56k56k48k48k48k48k48k40k40k48k40
2054F9300k40k40k32k32k40k32k32k32k32k24k32k24k24k24k24k24k16k24k16k16k16k16k16
2049F4092k16k08k08k16k00k08k08k08k08k00k08k00k00k00k00k00j92k00j92j92j92j92j92
2044E9452j92j92j84j84j92j84j84j84j84j84j76j84j76j84j76j76j84j68j76j76j76j68j76
2039E5292j68j68j68j76j60j68j68j68j60j68j60j68j60j60j60j60j52j60j60j52j60j52j52
2033E1564j52j60j52j52j44j52j52j44j52j44j52j44j44j44j52j36j44j44j44j44j36j44j36
2028D8196j44j36j36j36j36j36j36j36j28j44j28j28j36j36j28j28j36j28j28j28j28j28j20
2023D5148j28j28j20j28j20j28j20j28j20j20j20j20j20j20j20j12j20j20j12j20j12j20j12
2018D2380j12j20j12j12j12j12j12j12j12j12j12j04j12j04j12j04j12j04j12j04j04j04j12
2012C9852r6j04j04j04j04j04j04r6j04r6j04r6j04r6j04r6r6j04r6r6r6r6r6r6r6r6q8r6
2006C7084r6q8j04q0r6r6q8r6q8q8r6q8q8q8q8q8r6q0r6q0q8q8q8q0q8q8q8q0q8q0q8q0q0
1998C4172q8q0q0q8q0q0q8q0q0p2q8p2q0q0q0q0p2q0q0q0p2q0q0p2q0p2q0p2p2q0p2p2q0p2
1991C1508p2p2p2p2p2p2p2p2p2p2p2p2o4p2p2p2o4p2p2o4p2o4p2o4p2o4p2o4o4p2o4o4o4p2
1983B9148o4o4o4o4o4o4o4o4o4o4o4o4n6o4o4o4o4n6o4o4n6o4o4n6o4n6o4n6n6o4n6o4n6n6
1975B7052n6o4n6o4n6n6n6n6n6n6n6o4m8n6n6n6n6n6n6n6n6n6m8n6n6n6m8n6n6m8n6m8n6n6
1967B5164m8m8n6n6m8n6m8n6m8m8n6m8m8n6m8m8m8m8n6m8m8m8m8m8m8m8m8m8n6m0m8m8m8m8
1959B3476m8m8m8m8m0m8m8m8m0m8m8m8m0m8m8m0m8m8m0m8m0m8m0m8m0m8m0m8m0m8l2n6m0m8
1952B1940l2m0n6l2m8m0m0m8l2m8m0m0m0m0m8l2m8m0m0m0m0m0m0m0m0m0m0m0m0m0m0l2m0m0
1944B0564m0m0m0l2m0m0m0l2m0l2m8l2m0m0l2m0m0l2m0l2m0l2m0m0l2m0l2l2m0m0l2m0l2l2
1936A9308l2m0l2m0l2l2m0l2m0l2l2l2l2m0l2l2l2m0k4m0l2l2l2l2l2m0l2l2l2l2l2l2l2l2
1928A8164l2l2l2l2l2l2l2l2l2l2k4l2l2l2l2l2l2l2l2k4l2l2l2k4l2k4m0l2k4l2k4l2l2l2
1920A7116k4l2l2k4k4m0k4l2k4l2k4l2l2k4l2k4l2k4l2k4l2l2k4k4l2k4l2k4k4l2k4k4l2k4
1913A6164l2k4k4l2k4k4l2k4k4l2k4k4k4k4l2k4k4l2k4k4k4l2k4k4k4k4l2k4k4k4k4k4k4k4
1905A5284l2j6l2k4k4k4k4k4k4k4k4k4k4k4k4k4k4k4k4k4k4k4j6k4k4k4k4k4k4k4k4k4j6k4
1897A4476k4k4k4k4k4j6k4k4k4k4j6k4k4k4j6k4k4k4j6k4k4k4j6k4k4j6k4k4j6k4k4j6k4j6
1889A3732k4k4j6k4k4j6k4k4j6j6k4j6l2j6j6k4j6k4j6k4k4j6j6k4k4j6j6k4j6k4j6k4j6k4
1882A3036j6j6k4k4j6j6k4j6k4j6j6k4j6j6k4j6k4j6j6j6k4j6j6k4j6j6k4j6j6k4j6j6j6k4
1874A2396j6j6k4j6j6j6k4j6j6j6j6j6k4j6j6j6k4j6j6j6j6j6j6j6k4j6j6j6j6j6j6k4j6j6
1866A1804qk4j6j6j6j6j6j6j6k4qk4j6j6j6j6j6j6j6j6j6j6j6j6j6j6j6j6j6j6j6j6j6j6q
1858A1244k4j6j6j6qj6k4qj6j6j6j6j6j6j6j6j6qj6j6j6j6j6j6qj6j6j6j6j6j6qj6j6j6qj6
1850A0684j6j6qj6j6j6j6qj6j6j6qj6j6j6j6j6qj6j6qj6j6qj6j6qj6j6j6qj6j6j6qj6j6qj6
1841A0140j6qj6j6qj6j6qj6qk4qqj6j6qj6qk4qqj6qj6j6j6qj6qj6qj6qj6j6qqj6j6qj6qj6
1831I588j6qj6qj6qj6qqj6j6qj6qqj6qj6j6qj6qqj6qj6qj6qj6qqj6qj6qj6qj6qqj6qj6qj6
1820I044qqj6qj6qj6qqqj6qj6qqj6qqj6qqj6qj6qqj6qqqj6qqj6qj6qqj6qqqj6qqj6qqj6qq
1809H500qj6qqqj6qqqj6qqqj6qqqj6qqqj6qqqj6qqqqj6qqqj6qqqj6%j6qqqqqj6qqqqqj6qq
1796G964qqj6qqqqqqj6qqqqqqj6qqqqqqj6%qj6qqqqqj6%j6qqqqqqqqqqqj6%qj6qqqqqqqqq
1782G444qj6%qj6qqqqqqqqqqqqqqqqqqqqqqqj6%qqqqqqqqq%j6qqqqqqqqq%qj6q%qj6%qqj6
1768F948%qqqqqqqqqq%qqqqqqqqqqqq%qqqqqqqqq%qqqqqqqq%qqqqqqqq%qqqqqq%qqqqqqq%
1753F468qqqqqq%qqq%qqqqq%qqqqq%qqqqq%qqq%j6%qq%qqqq%qqqq%qqq%qqqq%qqqq%qqqq%
1738F036qqq%qqq%qq%qqq%qqq%qqq%qq%qqqq%qq%qqq%qq%qqq%qq%qqq%qq%qqq%qqq%q%q%q
1722E644qqq%qq%qqqQqqj6qJ6k4Qqqqq%q%qq%qqq%qq%qq%q%q%qqq%q%j6%%qqq%q%qq%qq%q
1707E300%qq%q%qq%qq%q%qq%q%qq%q%qq%q%qq%qq%q%q%q%qq%qq%qq%%qq%qq%q%qq%q%q%qq
1692D972%q%q%q%q%q%q%qqq%q%q%q%q%qq%q%qq%%qq%%qq%q%q%q%q%qq%q%q%q%q%q%qq%q%%
1676D684qq%%q%qq%q%q%q%q%%qq%q%q%q%q%q%qq%%q%q%q%q%q%q%q%q%q%q%q%q%q%%qq%q%q
1661D404%%q%q%q%%qq%%qq%q%%q%q%q%q%q%q%%qq%%q%%q%q%q%q%%qq%%q%q%q%%q%q%q%q%%
1645D164q%%qq%%q%q%%qq%q%q%%%q%%q%q%q%q%%q%%qq%%q%q%%q%%q%q%q%q%%q%q%%%qq%%q
1630C932%q%%q%q%q%%q%%q%q%%q%q%%q%%q%q%%q%q%%%q%q%q%%%q%q%q%q%%q%%q%q%%q%%%q
1614C724%q%q%%%q%%q%%q%q%%q%%q%q%%q%q%%q%%q%%q%%q%q%%%q%q%%q%qQq%%q%%j6%Qq%q
1599C532%%q%%q%q%%%qQj6qQqQq%K4j6j6j6Qq%%q%%%q%%qqQ%qq%%%q%%%q%%q%qQqq%%%%q%
1584C372q%%q%%q%%q%%q%%q%%%q%%q%%%q%%q%%q%q%%%%q%q%%%q%%q%%%%q%q%%q%%%q%%%q%
1569C204%q%%q%%q%%q%%%%q%%q%%%q%%q%%q%%%q%%%q%%q%%%q%%q%%%q%%%q%%%q%%q%%q%%%
1553C052q%%q%%%%q%%%q%%%qq%%%%q%%%q%%%q%%%%q%q%%%%q%%%q%q%%%%%q%%q%%q%%%q%%%
1538B908q%%%%q%%%q%Qqq%%%q%%%q%%q%%%q%%%q%%%%q%%qQq%%%q%%%q%%%q%%%q%%%q%%%q%
1522B772%%q%%%q%%%%q%%%q%%%q%%%%q%%%q%%%q%%%q%%%q%%%%%q%%%q%%%q%%%q%%%%%q%q%
1506B644%%%%%q%%q%%%%q%%%%%q%%%q%%%%q%%%%q%%%q%%%q%%%q%%%%%q%%%%%q%%%%q%%q%%
1491B532%%q%%%%%q%%q%%%%qQq%%q%%%%%%%q%%q%%%%qQq%%%q%%%%%q%%qQq%%%q%%%q%%%%%
1475B428%q%%%%q%%%q%%%%%q%%%%q%%%%qQ%q%%%q%%%q%%%%q%%%%%%%q%%%%q%%%%q%%%%q%%
1460B324%q%%%%%q%%%%%q%%%%%%q%%%q%%%%q%%%%%q%%%%%q%%%%%q%%%%%q%%%%%%q%%%%q%%
1444B228%%%%%q%%q%%%%%q%%%%qQq%%%%%%q%%%%q%%%%q%Qq%%%q%%%%qQq%%%%q%%%%%%q%%%
1429B140%q%%%%%%q%%%%%qQqqQ%%q%%%%%%q%%%%%q%%%%q%%%%%%%%q%%%%%q%%%%q%%%%%%q%
1413B052%%%%%q%%%%%%%q%%%%%qQq%%%%%q%%%%%q%%%%%qQq%%%%%%q%%%%%q%%%%%q%%%%%%q
1397A972%%%%%qQq%%%%qQq%%%%%%q%%%%%%%q%%%%%%qQq%%%%q%%%%%%q%%%%%%q%%%%%%%q%%
1382A900%%%q%%%%%%%%%qQq%%%q%%%%%%%%q%%%%%%%q%%%%%q%%%%%%%%q%%%%qQ%q%%%%%%%%
1366A836%q%%%%%q%%%%%%%%qQq%%%%%%qQq%%qqJ6q%%%%%%q%%%%%%%q%%%%%%%q%%%%%%%%q%
1351A764%%%%%q%%%%%%%%%q%Qq%%%%q%Qq%%%%qQq%%%%%q%%%%%%%%%q%%%%%%%%%%%q%%%%qQ
1335A708q%%%%%%%%q%%%%%%%q%%%%%%%%q%%%%%%%%qQq%%%%%qQq%%%%%%qQq%%%%%%%q%%%%%
1320A644%%%%%q%%%%%%qQq%%%%%%%%%q%%%%%%%%q%%%%%%%%%qQq%%%%%%q%%%%%%qQ%q%%%%q
1304A580Qq%%%%%%%%%%%qQq%%%%%%%%q%%%%%%%%%%q%%%%%%%q%%%%%%%%%qQq%%%%%%%%q%%%
1289A532%%%%%qQq%%%%%%%%%q%%%%%%%q%%%%%%%%%%%%%%q%%%%%%qQqQ%q%%%%%%%qQq%%%%%
1273A484%%q%%%%%%%%%%%qQq%%%%%%%%%%q%%%%%%%%%%%qQq%%%%%%%%%q%%%%%%%%%%qQq%%%
1258A436%%%%%%q%Qq%%%%%%q%%%%%Qj6Q%q%%q%QqQqQj6Qj6J6%%qJ6qq%%%%%%%%%%Qq%%%%%
1243A396q%%%Qq%%%%%%%q%%%%%%%%%%%%q%%%%%%%%%%%q%%%%%%%%qQq%%%%%%%%%%%%%q%%%%
1228A348%%%%%q%%%%%%%%%%%qQqQq%%%%%%%%qQq%%%%%%%%%q%%%%%%%%%%%%%%q%%%Qq%%%%%
1212A308%%%%q%%%%%%%%qQq%%%%%%%%%%%%%%qQq%%%%%%%%%%q%%%%%%%%%%%%%qQq%%%%%%%%
1197A268%%%qQq%%%%%%%%%%%%q%%%%%Qq%%%%%%%%q%%%%%%qQq%%%%%%%%%%%%%qQ%%%%qQq%%
1181A228%%%%%q%%%%%%%%%%%%%%%%%%%q%%%%%%%%%%%%q%%Qq%%%%%%%%%%q%%%%%%%%%%%%%%
1165A196q%%%%%%%%%%%%%%%%%q%%%%%%%%%%qQq%%%%%%%%%%%%%%%q%%%%%%%%%%%%q%%%%%%%
1150A156%%%%%%%%%qQq%%%%%%%%%%%%%%q%%%%%%%%%%%%%qQq%%%%%Qq%%%%%%%%%q%%%%%%%%
1134A124%%%%%%%q%Q%%%q%%%%%%%%%%q%Qq%%%%%%%%q%J6j6%Qj6QQq%%%%%%%%%%%%%%q%%%%
1119A092%%%%%%%%qQ%%qQq%%%%%%%%%%%%%%%q%%%%%%%%%%%%%%%%%q%%%%%%%%%%%%%%%%q%%
1104A060%%%%%%%%%%%%%%%%%%qQq%%%%%%%%%%%%%%%%%qQq%%%%%%%%%%%qQqQq%%%%%%%%%%%
1088A036%%%%%q%%%Qq%%%%%%%%%%%%%%%%q%%%%%%%%%%%%%%%%q%%%%%%%%%%%%%%%%%%q%%%%
1073A004%%%%%%%%%%%%qQq%%%Qq%%%%%%%%%%%%qQ%%qQq%%%%%%%%%%%%%%%%q%%Q%q%%%%%%%
1057I80%%%%%%qQq%Q%q%%%%%%%%%%%%%%%%%%%qQq%%%%%%%%%%%%%%q%%%%%%%%%%%%%%qQ%qQ
1041I56qQ%q%%%%%%%%%%%%%%%%%%%%qQq%%%%%%%%%%%%%%%%%qQ%%qQqQqQq%%%%%%%%%%%%%%
1026I32%%%q%%%%%%%%%%%%%%%%%%qQq%%%%Qq%%%%%%%%%qQ%%%qQQq%%q%Qq%%%%%%%%%%%%%%
1010I08%%q%%%Qq%%%%Qq%%%%%%%%%%%%q%%%%%%%%%%%%%%%%%%%%%%%%q%%%%%%%%%%%%%%%%q
994H76%%Q%%qQq%%%%%%%%%%%%%%%%%%%%%q%%%%%%%%%%%%%%%%%%%%%q%%%%%%%%%%%%%%%%%%
978H60%%%%%%qQ%%%%%%%%q%%%%%%%%%%%%%%%%q%%%%Qq%%%%%%%%%%%%%%%%%%%%%q%Qq%%%%%
962H36%%%%%%%%%%%%%%%%qQq%%%%%%%Qq%%%%%%%%q%QqQ%%q%Qq%%%%%%Qq%%%%%%%%%%%qQ%q
946H12Q%%%q%%%%%%%%%%%%%%%qQ%%%%%%qQq%%%%%%%%%%%%%%%%%%%q%QqQ%%%q%%%%%%%%%%%
930G96%%%%%%%%%%%%%%%%%%%%%%%%%qQq%%%%%%%%%%%%%%%%%%qQq%Qq%%%%%%%%%%%%%%%%%%
914G80%%q%%Qq%%%%%%%%%%%%%%%%%%%%%%%%%%%q%%Qq%%%%%%%%%%%%%%%%%%%%%q%QqQ%q%%%
898G56Qq%%Qq%%%%%%%%%qQ%%%%%%%qQ%q%Q%%qQq%%%Qq%%%%%%%%%%%%%%%%q%%%%%%%%%%%%%
882G40%%%%%%%%%%%%%%%%%qQ%%%%%qQq%%%%%%%%%%%%%%%%%%%%%q%Q%q%Qq%%Q%qQq%%%%%%%
866G24%%%%%%%%%%qQ%qQq%%%%%%%%%%%%%%%%%%%%%%%%%%qQqQqQ%%%%%%q%%%%%%%%%%%%%%%
850G08%%%%%%%%%%%%%%%%q%%%%%%%%%%%%%%%%%%%%%%%%%%%%q%Qq%%%%%%%%%%%%%%%%%%%%%
834F92%%%%%%%%qQ%qQ%q%%%%%%%%%%%%%%%%%%%%%%%%%qQqQ%%%q%%%Qq%%%%%%%%%%%%%%%%%
818F76%%%%%%%%%%qQ%%%%qQqQq%%%%%%%%%%%%%%%%%%%%%%%%%%%%%qQ%qQq%Q%q%Q%q%Qq%%%
802F60%%%%%%%%%%%%%%%qQ%%%%%q%%%Qq%%%%%%%%%%%%%%%%%%%%%%%%%%%%%%%%%qQq%%%%%Q
786F52q%%%Qq%%%%%%%%%%%%Qj6QqJ6j6%J6qq%Q%%q%%%%Q%q%%%%%%Qq%%%qQ%%%%%%%%%%%%%
771F36%%%%%q%%%%%%%%%%%%Qq%%%%%%%%%%%%%%%%%%%%%%%%%%qQqQ%q%%%%%%%%%%%%%%%%%%
755F20%%%%%%%%qQqQqQqQq%QqQq%%%%%%%%Qq%%%%%%%%%%qQ%qQ%%%%%%qQ%q%%%%%%%%%%%%%
739F04%%%%%%%%%%%%%%%%%%%%%%%%%%%%%%%%%%%%%%q%%%%%%%%%%%%%%%%%%%%%%%%%%%%%%%
723E96%Qq%%%%%%%qQ%qQq%Qq%Qq%Qq%%%%%%%%%%%%%%%%%%%%%%%%%%%%%%%%q%%Q%q%%%%%%%
706E80%%%%%%%%%%%%%%%%%%%%%%%%%%%%q%QqQqQq%Qq%%%Qq%%%%%%%%%%%%%%%%%%%%%%qQ%%
690E72%q%%%%Qq%%%%%%%%Qq%%%%%%%%%%%%%%%%%%%%%%%%%%%qQ%%%%qQqQ%qQq%Qq%%%%%%%%
674E56%%Qq%%%%%%%%%%%%%%%%%%%%%%%%%%%%%%%%%%%%q%%%%%Q%qQ%%q%%%%%%%%%%%%Qq%%%
658E48qQ%j6QJ6k4QJ6qqQq%QqQq%%Qq%Qq%Q%qQq%Qq%%%%%%%%%%%%%%%%%%%%%%%%%%%%%%%%
643E40%q%Q%%q%%Qq%%%%%%%%%%%%%%%%%%%%%%%%%%%%%%%%%%%%%%%%%%%%%%q%%QqQq%%%Qq%
627E24%%%%%Qq%%%%%%%%%%%%%%%%%%%%%%%%%%%%%qQ%%%%q%%%QqQq%%%%%%%%%%%%Qq%%%%%%
611E16%%%%%%%%%%%%%%%%%%%%%%%q%%%%Qq%%Q%%%qQ%%%%q%%%%%%%%%%%%%%%%%%%%%%%%%%%
595E08%%%%%%%%qQ%%%%%%%%%%%%%%%q%%%%%%%%%%%%%%%%%%%%%%%%%%%%%%%%%%%%%%%%%%%%
579E00%q%%%Q%q%%%%%Qq%%%%%%%%%%%%%%%%%%%%%%%%%%%%%%%%%%%%%%%%%%%%%%%%%%qQ%%%
563D92q%%%%%%%%%%%%%%%%%%%%%%%%%%%%%%%%%%%%%qQ%%%%qQ%%%%%%%%%qQ%%q%Qq%Qq%%%Q
547D84q%%%%Q%%q%%%%%%Qq%%%%%%%%%%%%qQ%%%qQqQ%%%%%qQ%%qQ%%%q%QqQ%q%%%%%%%%%%Q
531D76q%%%%%%%%%%%%%%%%%%%%%%%%%%%%%%%%%%%%qQ%%%%%q%%Qq%QqQqQq%%%%%Qq%%%%%%%
515D60%%%%%%%%%%%%%%%%%%%%%%%%%%%%%%%%%%%%%%qQqQ%%%q%%QqQ%q%%Qq%%%%%%%%%%%%%
499D52%%%%%%%%%%%%%%%%%qQ%%qQ%%qQ%%%%qQ%%qQ%%%%%%%%%%%%q%%%%%Qq%%%%%%%%%%%%%
483D44%%%%%%%%%%%%%%%%%%%%%%%%%%%%%%%%%qQ%%%%%%q%Qq%%%%%%%%%%Qq%%Qq%%%%%%%%%
467D36%%%%%%%%%%%%%%%%%%%%%%%%%%%%%%%%%qQqQq%Q%%q%%%%%%%%%%%%%%%%%%%Qq%%%%%%
451D28%%%%%%%%%%%%%%%%%%%%%%%%%%%%%%%%%%%%%%%%%%%%%q%%%Q%qQq%%%%%Qq%%%%%Q%q%
435D20%%%%%%%%%%%%Qq%%%%%%%%%%%%%%qQ%%%%%%%%%%%%%%%%%%%%%%%qQ%%qQq%%Q%qQq%%%
419D12%%%%%%%%%%%%%%%%%%%%%%%%%%%%%%%%%%%%%%%%%%%%%%%%%qQq%QqQ%qQ%qQq%%%%%%%
403D04%%QqQqQq%%%%%%%%%%%%%%%%%Qq%%%%%%%%%%%%%%%%%%%%%%%%%%%%%%%%%%%%%%%%%%%
387D04qQqQ%%%%%%%%%%qQq%%%%%%%%%%%%%%%%%%%%%%%%%%%%%%%%%%%%%%%%%%%%%%%%%%%%%
371C96q%QqQq%Qq%%Q%qQ%%qQ%qQ%q%%%%%Qq%%Qq%%%%%%%%%%%%%%%%%%%%%%%%%%%%%%%%%%%
355C88%%%%%%%%%%%%%%%%%%%%%%%%%%%%%qQqQ%q%QqQ%%%%%%qQq%%%Q%%%qQqQ%%q%%%%%Qq%
339C80%%%%%%%%%%%%%%%%%%%%%%%%%%%%%%%%%%%%%%%%%%%%%%qQ%%%%qQ%%%%q%%Qq%QqQq%%
323C72%%%%%Qq%%%%%%%%%%%%Q%q%Qq%%%%%%%%%%%Qq%q%Q%%%qQqJ6Ql2%J6j6J6%%%qJ6qqQ%
308C72qQ%%qQ%%%%%qQq%%%%%%Q%%q%%%Q%qQ%q%%%%%%%%%%%Qq%%%%%%%%%%%%%%%%%%%%%%%%
292C64%%%%%%%%%%%%%%%%%%%%%%%%%%%%q%QqQq%Qq%Q%q%%%%%Q%%%qQ%q%%%%%%%%%%%%Qq%%
276C56%%%%%%%%%%%%%%%%%%%%%%%%%%%%%%%%%%%%%%%%%%%%%%%%%qQ%%%%%%%%%%%%qQq%%%Q
260C56%%%%qQ%q%Q%%%q%Qq%%%Qq%%%%Qq%%Q%%q%Qq%%%Qq%%%%%%%%%%%%%%%%%%%%%%%%%%%%
244C48%%%%%%%%%%%%%%%%%%%%%%%%%%%%%%%%%qQ%%%qQ%%%%%%qQ%%%q%QqQ%%q%%%%QqQq%%%
228C40%%%%%%%%%%%%%%%%%%%%%%%%%%%%%%%%%%%%%%%%%%%%%%%%%%%%%%%%q%QqQ%%%qQ%qQ%
212C40%%%%%qQqQqQ%qQ%qQqQ%q%%%%%%%%%%%%%%%%%%%%%%%%%Qq%%%%%%%%%%%%%%%%%%%%%%
196C32%%%%%Qq%%Qq%%%%%%%%%%%%q%QqQ%%%%%qQ%%%qQqQq%%%QqQqQ%%q%%QqQ%%qQq%Q%%q%
180C24%%%%%%%%%%%%%%%%%%%%%%%%%%%%%%%%%%%%%%%%%%%%%%%%%%%%%%%%%%%%%%%qQ%%%%%
164C24%%%%%%%%%%%%%%%%%%qQqQ%%%%%qQ%qQqQq%Q%%q%%%%%%%%%%%%%%%%%%%%%%%%%%%%%%
148C16%%%%%%%%%%%%%%%%%%%%%%%%%%%%%%%%%%%%%%%%%%%%%%%qQ%q%Q%%%%%%%%%%%%%%%%%
132C16%%%%%qQ%qQ%%q%Q%%%qQ%%%qQqQ%%q%%%%Qq%%%%%%Qq%%%%QqQq%%%%%%%%%%%%%%%%%%
116C08%%%%%%%%%%%%%%%%%%%%%%%%%%%%%%%%%%%%%%%%%%%%%%%%%qQ%%%%%%qQ%%%q%QqQ%q%
100C00Q%q%%Q%qQ%%%q%%%%%Qq%%%Qq%%%%%%%%Qq%Qq%%%%%%%%%%%%%%%%%%%%%%%%%%%%%%%%
84C00%%%%%%%%%%%%%%%%%%%%%%%q%Q%%%%%q%Q%%%%qQ%qQ%%%%qQ%%q%%Qq%%Qq%Q%q%Q%qQ%%
68C00q%%%QqQq%%%%QqQ%q%%%QqQqQqQq%%%%%%%%%%%%%%%%%%%%%%%%%%%%%%%%%%%%%%%%%%%
51B92%%%%%%%%%%%%qQ%%%%%%%%%%%%%qQqQqQq%%Qq%%QqQq%%Q%%qQ%%q%%%%%%%%%%%%%%QqQ
35B92%q%%%Qq%%%%%%%%%%%%%%Qq%%%%%%%%%%%%%%%Qq%%%%%%%%%%%%%%%%%%%%%%%%%%%%%%%
19B84%q%Q%%%qQ%%%%%%%%%%%%%%qQ%%%%q%%Q%%qQ%%%%%%%%%%%%%qQ%%q%Q%%q%%QqQ%qQq%%
3B76%%%%%%%%%%%%%%%%%%%%%%%Qq%%%Qq%%%%%%%%%%%%%%%%%%%%%%%%%%%%%%%%%%%%%%%%%%
-14B76%%%%%%%%%%%%%%%%%%%%%%%%%%%%%%%%%%%%%%%%%%%%%%qQ%qQ%%q%Q%qQ%%q%%QqQqQq
-30B68Q%q%%%QqQq%%%QqQ%q%%Q%qQqQq%%%%%%%%%%%%%%%%%%qQ%%%%%%%%%%%%%%%%%%%%%%%
-46B68%qQ%%%%%%%%%%%%%%%%%%%%%%%%%%%%%%%%%%qQ%%%%%%%%%%%%%%%%%%%%%%%%%%%%%q%
-62B60Q%%qQ%%%%%%%%%q%%%%%%%%%%%%%%%Qq%%%%%%%%%%%%%%%%%%%%%%%%%%%%%Qq%%Qq%%%
-78B60%%%%%%%%%%%%%%%%%%%%%%%%%%%%%%%%%%%%%%%%%%%%%%%%%%%%%%%%%%%%%%%%%%%%%%
-94B60%%%%%%%%%%%qQqQq%%%%QqQq%QqQ%qQqQ%qQq%Qq%QqQ%%q%%Qq%Qq%%%Qq%%%%%%QqQq%
-110B52%%%%%%%%%%Q%q%%%%%%%%Qq%%%%%%%%%%%%%%%%%%%%%%%%%%%%%%%%%%%%%%%%%%%%%%
-126B52%%%%%%%%%%%%%%%%%%%%%%%%%%%%%%%%%%%%%%%%%%qQ%%%%%%%%%%%%%%%%%%%%qQq%%
-142B44%Qq%Qq%%Q%%%%%%%%%%q%%%%%%%%%%Qq%%%%%Qq%%%%%%%Qq%%%%%%%%%%%%%Qq%%q%J6
-157B52%qQj6Q%%%qQ%%%%%%%%%%%%%%%%%%%%Qq%%%%%%%%%%%%%%%qQ%%%%%%%%%%%%%%%%%%%
-173B44%%%%%%%%%%%%%%qQ%%%%%%%%%%%%%%qQ%%qQ%%qQ%%%%%%%q%%Qq%%%%%%%%%%%%%%%%%
-188B36%%%%%%%Q%%qQq%QqQq%%%Q%qQqQq%QqQ%q%Qq%%%%%%%%%%%%%%%%%%%%%%%%%%%%%%%%
-204B36%%%%%%%%%%%%%%%%%%%%%%%%%%%%%%%%%%%%%%%%%%%%%%%%%Qj6Q%q%QqQ%%%%%%%%qQ
-220B36%%%%%%%%%%%%%%%qQ%qQ%%qQ%q%%%%%%%%%%QqQ%q%Qq%%Qq%%%%%%%%%%%%%%%%%%%%%
-236B28%%%%%%%%%%%%%%%%%%%%%%%%%%Qq%%%%%%%%%%%%%%%%%%%%%%%%%%%%%%%%%%%%%%%%%
-251B28%%%%%%%%%%%%%%%%%%%%%%%%%%%%%%%%%qQ%%%%%%%%%%%%%%%%%%%%qQ%%%%%%%%%%%%
-267B28%%%%%%%qQ%%%q%QqQ%%%%%%%q%QqQ%qQqQq%Q%%%%qQ%qqQ%J6%j6%%J6qqJ6k4%%QQj6
-282B12QQqqqK4%j6Q%%%%%%Qq%%%Qq%%%%Qq%Qq%%%Qq%%%%%%Qq%%%%%%%%%%%%%%%%%%%%%%%
-297B20%%%%%%%%%%%%%%%%%%%%%%%%%%%%%%%%%%%%%%%%%%%%%%%%%%%%%%%qQ%%%%qQ%%%%%%
-313B20%%%%%%%%%%%%%%%%%%%%%%%%%%%%%qQqQ%%%%qQ%%%%%%%qQ%q%Qq%Qq%%Qq%%%Qq%Qq%
-329B12Q%q%%%%%%%%Qq%%Qq%%%%QqQ%q%%%%%%%%%%%%%%%%%QqQqQq%%Q%q%%%%%%%%%%%%%%%
-344B12%%%%%%Qq%%%%%%%%%%%%%%%%%%%%%%%%%%%%%%%%%%%%%%%%%%%%%%%%%%%%%%%%%%%%%
-360B12%%%%%%%%%%%%%%%%%%%%%%%%%%%%%%%%%%%%%%%qQ%%qQ%%%%%%%%%%%%%%%%%%%%%%%%
-376B12qQ%%%qQ%%%%qQ%%%%%%qQ%%%qQqQq%%%%%%%%%%%%%%%Qq%%%%%%%%Qq%Qq%Q%qQq%%Qj6
-392A96Q%%%%%%%%%Qq%%%%%%%%%%%%%%%Qq%%%%%%%%%%%%%%%%%%%%%%%%%%%%%%%%%%%%%%%%
-407B04%%%%%%%%%%%%%%%%%%%%%%%%qQ%%%%%%%%%%%%%%%%%%%%%%%%%%%%%%qQ%%%%qQ%%%%%
-423B04%%%%%%%%%%%%%%%%%%%%%%%%%%qQ%%%%%%%%%%%%%%%qQ%%%%%%%%q%%Q%%q%%%%%Qq%%
-439A96Q%q%QqQ%qQqQqQ%q%%%QqQq%%%%%%%%%%%%%%%%%%%Q%q%%%%%%%%%%%%%%%%%%%%%%%%
-455A96%%%%%%%%%%%%%%%%%%%%%%%%%%%%%%%%%%%%%%%%%%%%%%%%%%%%%%%%%%%%%%%%%%%%%
-471A96%%%%%%%%%%%%%%%%%%%%%%%%%%%%qQ%qQ%%q%Q%%%%%qQ%%%%%%%%%%%%%%%%%%%%qQqQ
-486A96%q%%%%%Qq%%%QqQqQq%%Qq%%Q%q%Qq%Q%q%%%%%%%%%%%%Qq%%%QqQq%%%%%%%%%%%%%%
-502A88%%%%%%%%%%Q%%qQq%%%%%%%%%QqQq%%%%%%%%%%%%%%%%%%%%%%%%%%%%Q%q%%%%%%%%%
-518A88%%%%%%%%%%%%%%%%%%%%%%%%%%%%%%%%%%%%%%%%%%%%%%%%%%%%%%%%%%%%%%%%%%%%%
-534A88%%%%%%%%%%%%%%%%%%%%%%%%%%%%%%%%%%%%%%%%%%%%%%%%%%qQ%qQ%%qQ%%%%%%%%%%
-550A88%%%%%%%%%%%%%%%%%%%%%%%%%%%%%%%%%%%%%%%qQqQq%Q%%q%Q%%q%QqQ%%%qQ%q%Qq%
-565A80QqQqQq%%%%%%%%%%Q%q%%%%Q%q%%QqQqQq%Q%q%%%%%%%%%%%%%%%%%%%%%%%%%%%%%%%
-581A80%%%%%%%%%%%%%%%%%%%%%%%%%%%%%%%%%%%%%%%%%%%%%%%%%%%%%%%%%%%%%%%%%%%%%
-597A80%%%%%%%%%%%%%%%%%%%%%%%%qQ%%%%%qQ%%%%%%%%%%%%%%%%%%%%%%%%qQ%%qQ%%%%%%
-613A80qQ%%qQqQ%%%%%%%qQ%%%%%%qQ%%%%%%%%%qQqQ%%%%q%Q%%q%Q%qQqQqqK4qj6Q%%%%Q%
-628A80j6QQ%%qQ%q%Qq%QqQq%Q%qQ%qQqQqQq%%%%Qq%%%Qq%Qq%%%%%%%%%%%%%%%%%%%%%%%%
-644A72%%%%%Qq%%%%%%%%%%%%%%%%%%%%%%%%%%%%%%%%%%%%%%%%%%%%%%%%%%%Qq%%%%%%%%%
-659A72%%%%%%%%%%%%%%%%%%%%%%%%%%%%%%%%%%%%%%%%%%%%%%%%%%%%%%%%%%%%%%%%%%%%%
-675A72%%%%%%%%%%%%%%%%%%%%%%%%%%%%%%%%%%%%%%%%%qQ%%%%%%qQ%%%%%%%%%%%%%%qQ%%
-691A72QqqQqQ%%%%%%%qQ%%qQ%%q%Q%%q%Q%%%qQq%%Q%%%q%%%%Qq%%%%%%%%%%%Q%q%Q%%%%%
-707A72%%q%%%%%%Qq%%%Qq%%Qq%%%%%%%Qq%%%%Qq%%%%%%%%%%%%%%%%%%Qq%%%%%%%%%%%%%%
-723A64%%%%%%%%%%%%%%%%%%%%%%%%%%%%%%%%%%%%%%%%%%%%%%%%%%%%%%%%%%%%%%%%%%%%%
-738A64%%%%%%%%%%%%%%%%%qQ%%%%%%%%%%%%%%%qQ%%%%%%%%%%%qQQj6J6q%qQ%%%%%%%%%%%
-754A64%%%%%%%%%%%%%%%%%%%%%%%%%%%%%%%%%%%%%%%%%%%%%%qQ%%%%%%%%%%%%q%%%%Q%%%
-770A64%%%%%%%%%q%Q%qQ%%%%%%%%%qQ%%q%%Qq%%Q%q%%%%%Q%qQ%%q%%%%%%Qq%%%%Qq%%%Q%
-785A64%%%q%%%%%%%%%%%%%%%%%%%Q%q%Qq%%Qq%%Qq%%%%%%Q%qQq%Qq%%%%%Qq%%%%%%%%%%%
-801A56%%%%%%%%%%%%%%%%Qq%%%%%%%%%%%%%%%Qq%%%%%%%%%%%%%%%%%%%%%%%%%%%%%%%%%%
-817A56%%%%%%%%%%%%%%%%%%%%%%%%%%%%%%%%%%%%%%%%%%%%%%%%%%%%%%%%%%%%%%%%%%%%%
-833A56%%%%%%%%%%%%%%%%%%%%%%%%%%%%%%%%%%%%%qQ%%%%%%%%%%%%%%%%%%%%%%%%%%%%%%
-849A56%%%%%%%%q%Q%qQqQ%qQ%%%%%q%%Q%%%qQ%%%%%%%%%%%%%%%q%Q%%%%%q%Q%%%%%qQqQ%
-864A56%%%qQ%%%qQ%%qQ%q%Q%%q%Qq%Q%qQq%%%%%%%Q%%%%%%%%%%%%%%%q%%%%Qq%%Qq%%Qq%
-880A48%%Qq%%%%%%%%%%%%%%Qq%%%%%%%%%%%%%%%%%%Qq%%%%Qq%%%%%%Qq%%%%%%%%%%%%%%%
-896A48%%%%%%%%%%%%%%%%%%%%%%%%%%%%%%%%%%%%%%%%%%%%%%%%%%%%%%%%%%%%%%%%%%%%%
-912A48%%%%%%%%%%%%%%%%%%%%%%%%%Qq%%%%qQ%%%%%%%%%%%%%%%%%%%%%%%%%%%%%%%%%%%%
-928A48%%%%%%%%%%%%%%%%%%%%%%%%%%%%%%%%%%%%%%%%%%%%%%%%%%%%%%%%%%%%%%%%%%%%%
-943A48%%%%%%%%%%%%%%%%%qQ%%%%%q%Q%%%%%%%%%%%%%%%%%%%%qQ%%%qQqQ%q%Q%%%q%%Q%%
-959A48%%q%%Q%qQ%qQ%%%%%%%%%%%%%qQq%%%%Qq%%%%%%%QqQq%Q%%%%%%%%%%%%%qQqQq%QqQ
-975A48qQ%%q%%Q%q%%%%QqQq%%Qq%Qq%%%%Qq%%QqQq%%%%Qq%%Qq%Q%qQq%%Q%q%%%%%Q%q%Qq
-991A40%%%%%%Qq%%%%%%%%%%%%%%%%%%%%Qq%%%%Qq%%%%%%%%%%%%%%%%%%%%%%%%%%%%%%%%%
-1006A40Qq%%%%%%%%%%%%%%%%%%%%%%%%%%%%%%%%%%%%%%%%%%%%%%%%%%%%%%%%%%%%%%%%%%
-1022A40%%%%%%%%%%%%%%%%%%%%%%%%%%%%%%%%%%%%%%%%%%%%%%%%%%%%%%%%%%%%%%%%%%%%
-1038A40%%%%%%%%%%%%%%%%%%%qQ%%%%%%%%%%%%%%%%%%%%%%%%%%%%%%%%%%%%%%%%%%%%%%%
-1053A40%%%%%%%%%%%%%%%%%%%%%%%%%%%%%%%%%%%%%qQqQ%q%%Q%q%QqQ%%q%%%%%QqQ%qQqQ
-1069A40q%Qq%%Q%%qQ%%%q%%%%%Q%%qQqQ%q%Q%q%%%%%%%%%%%%%%%%%%%%%%%%%%%%%%%%%%%
-1084A32%%%%%%%%%%Q%qQq%%%%%Qq%%%%%%%Qq%%%%Qq%%%qQQ%%q%%%%%Qq%%%%Qq%%%%%%%%%
-1100A32%%%%Qq%Qq%%%%%%%%%%%%%%%%%%%%%%%%%%%%%%%%%%%%%%%%%%%%%%%%%%%%%%%%%%%
-1115A32%%%%%%%%%%%%%%%%%%%%%%%%%%%%%%%%%%%%%%%%%%%%%%%%%%%%%%%%%%%%%%%%%%%%
-1131A32%%%%%%%%%%%%%%%%%%%%%%%%%%%%%%%%%%%%%%%%%%%%%%%%%%%%%%%%%qQ%%%%%%%qQ
-1147A32%%%%%%%%%%%%%%%%%%%%%%%%qQ%%%%%%%%%%qQ%%%%%%%%%%%%%%%%%%%%%%%%%%%%%%
-1162A32%%%%%%%%%%%%%%%%%%%%%%%%%%%%%%%%%%%%%%%%%%%%%%%%%q%Q%%%%%%%%%%%%%q%%
-1178A24%Qq%%%Qq%Q%%qQqQqQ%qQ%%%qQ%%%%qQqQ%q%%%%%%%%%Q%%%%qQqQ%q%%%%%%%%%%%%
-1193A24%%%%%%%%%%%%Q%%q%%%%%%%%%%Qq%%%Q%q%%QqQqQ%qQqQq%%%%Qq%QqQqQq%%%%%%%%
-1209A24%%%%%%%%QqQq%%%Qq%%Qq%%%%%%%%%Qq%Qq%qQ%Q%%j6QQq%qQ%%%%%%%%%%%%Q%%q%%
-1224A24%%%%Qq%QqQqQq%%%%%%%%%%%%%%%%%%%%%%%%%%%%%%%%%%%%%%%%%%%%%%%%%%%%%%%
-1240A24Qq%%%%%%%%%%%%%%%%%%%%%%%%%%%%%%%%%%%%%%%%%%
-1250A24
##$OBSERVED MULTIPLETS=	(I, X, Y, Hs, Vs, An, H, C, N, (J))
$$ I: Multiplet Index
$$ X: Strt Coordinate
$$ Y: End Coordinate
$$ Hs: Horizontal Chemical Shift
$$ An: Normalised Integral Area
$$ H: Hydrogens
$$ C: Category
$$ N: Name
$$ (J): Coupling Constants
(1, 57.696611029988986274, 57.817804540098720167, 57.757207785043853221, 0.87272732161834665199, 1, s, 2)
(2, 17.432782594949344457, 17.553976104757623489, 17.493379349853483973, 1.127272678381653126, 1, s, 1)
##$OBSERVED MULTIPLETS AREAS=	
(1, 1.2118019024253205984)
(2, 1.5652439683930905456)
##$OBSERVED MULTIPLETS PEAKS=	(I, X, Y)
$$ I: Multiplet Peak Index
$$ X: Peak x Position
$$ Y: Peak Intensity
(1, 57.757207785043853221, 0.11656857281923294067)
(2, 17.493379349853483973, 0.15056772530078887939)
##$PREDICTED PEAKS=	(X Y T A)
(17.491512553123392593,  , 3, <1>)
(57.750117139662947352,  , 5.8700000000000001066, <2>)
##$PREDICTEDCOUPLINGCONSTANTS=	J(A,B)	$$ (Hz)
126.19(1, 1)
3.41(1, 2)
3.41(2, 1)
138.19(2, 2)
##END=		$$ NMR SPECTRUM
##TITLE=	Predicted 13C NMR Spectrum
##JCAMP-DX=	6.0	$$ MestReNova 17.0.0-41178
##DATA TYPE=	NMR PEAK TABLE
##DATA CLASS=	PEAK TABLE
##BLOCK_ID=	4
##ORIGIN=	Mestrelab Research S.L.
##OWNER=	ctheodore
##CROSS REFERENCE=	NMR SPECTRUM: BLOCK_ID=3                                     
##.OBSERVE FREQUENCY=	125
##.OBSERVE NUCLEUS=	^13C
##NPOINTS=	2
##FIRSTX=	17.493379349853483973
##LASTX=	57.757207785043853221
##XFACTOR=	1
##YFACTOR=	1
##FIRSTY=	0.15056772530078887939
##XUNITS=	PPM
##YUNITS=	ARBITRARY UNITS
##PEAK TABLE=	(XYW..XYW)
17.493379349853483973,0.15056772530078887939,0.012119350980827756775
57.757207785043853221,0.11656857281923294067,0.012119351010973911445
##$MNOVA/PEAK_DATA_TABLE=	(T,F,A,ST,SP,APT,APC)
$$ Complementary to PEAK TABLE
$$ T: Type
$$ F: Flags
$$ A: Annotation
$$ ST: Shape Type
$$ SP: Shape Parameter
$$ APT: Attached Peaks Type
$$ APC: Attached Peaks Count
Compound,None,,0,0,0,0
Compound,None,,0,0,0,0
##END=		$$ NMR PEAK TABLE
##END=		$$ LINK
