##TITLE=	diethyl ether 13c
##JCAMP-DX=	6.0	$$ MestReNova 17.0.0-41178
##DATA TYPE=	LINK
##BLOCKS=	4    
##ORIGIN=	Mestrelab Research S.L.
##OWNER=	ctheodore
##$MNOVA/METADATA=	(DOCUMENT,BASE64)
eyJuYW1lIjoiL1VzZXJzL2N0aGVvZG9yZS9Eb2N1bWVudHMvY2xhc3Nlcy9OTVIgZXhwZXJpbWVudC9
naXRodWIgZmlsZXMvZGlldGh5bCBldGhlci9kaWV0aHlsIGV0aGVyIDEzYy5tbm92YSIsInBhZ2VzIj
pbeyJpdGVtcyI6WyIxIiwgICAgICAgICAgICAgICAgICAgICAgICAgICAgICAgICAgICAgIjMiICAgI
CAgICAgICAgICAgICAgICAgICAgICAgICAgICAgICAgIF19XX0=
##TITLE=	
##JCAMP-CS=	3.7	$$ MestReNova 17.0.0-41178
##BLOCK_ID=	1
##ORIGIN=	Mestrelab Research S.L.
##OWNER=	ctheodore
##$MNOVA/METADATA=	(ITEM,BASE64)
eyJhbmdsZSI6MC4wLCJwb2ludHMiOlt7IngiOjUzMjEuMCwieSI6NTgzNS4wfSx7IngiOjU3NzAuMDE
0MDQ4MDQ3NTI3NSwieSI6NTgzNS4wfSx7IngiOjU3NzAuMDE0MDQ4MDQ3NTI3NSwieSI6NTk2Mi4wOT
Y1OTg2NDMxNzZ9LHsieCI6NTMyMS4wLCJ5Ijo1OTYyLjA5NjU5ODY0MzE3Nn0seyJ4Ijo1MzIxLjAsI
nkiOjU4MzUuMH1dLCJ6IjoxLjB9
##NAMES=	
##ATOMLIST=	
$$ AN	AS	NH
	1	C	3
	2	C	2
	3	O	 
	4	C	2
	5	C	3
##BONDLIST=	
$$ AN1	AN2	BT
	1	2	S
	2	3	S
	3	4	S
	4	5	S
##MAXRASTER=	32768
##XY_RASTER=	
$$ AN	X	Y	Z
	1	-32767	4730	0
	2	-16385	-4728	0
	3	0	4730	0
	4	16385	-4730	0
	5	32767	4728	0
##END=		$$ JCAMP-CS
##TITLE=	Predicted 13C NMR Spectrum
##JCAMP-DX=	6.0	$$ MestReNova 17.0.0-41178
##DATA TYPE=	NMR PEAK ASSIGNMENTS
##DATA CLASS=	ASSIGNMENTS
##BLOCK_ID=	2
##ORIGIN=	Mestrelab Research S.L.
##OWNER=	ctheodore
##CROSS REFERENCE=	STRUCTURE: BLOCK_ID=1                                     
NMR SPECTRUM: BLOCK_ID=3                                     
##.OBSERVE FREQUENCY=	125
##.OBSERVE NUCLEUS=	^13C
##NPOINTS=	4
##XUNITS=	PPM
##YUNITS=	ARBITRARY UNITS
##PEAKASSIGNMENTS=	(XYWA)
(16.17670619549401323, 0.30113545060157775879, 0.0060596754412678421886, <1>)
(66.609499896551128018, 0.2331371307373046875, 0.0060596759163757951683, <2>)
(66.609499896551128018, 0.2331371307373046875, 0.0060596759163757951683, <4>)
(16.17670619549401323, 0.30113545060157775879, 0.0060596754412678421886, <5>)
##END=		$$ NMR PEAK ASSIGNMENTS
##TITLE=	Predicted 13C NMR Spectrum
##JCAMP-DX=	6.0	$$ MestReNova 17.0.0-41178
##DATA TYPE=	NMR SPECTRUM
##DATA CLASS=	XYDATA
##BLOCK_ID=	3
##ORIGIN=	Mestrelab Predictor
##OWNER=	ctheodore
##NUMDIM=	1
##$MNOVA/METADATA=	(ITEM,BASE64)
eyJhbmdsZSI6MC4wLCJheGVzIjp7IngiOnsibWF4IjoyMzAuMDI1MzAyNzgzMzA2MTYsIm1pbiI6LTk
uOTk5MjY4ODY0ODg3NjM4fSwieSI6eyJtYXgiOjAuMzMxMjQ4OTk2Nzc5MzIyNiwibWluIjotMC4wMz
AxMTM1NTA2NDQyNjEzNTV9fSwicG9pbnRzIjpbeyJ4Ijo1MzIxLjAsInkiOjU4MzUuMH0seyJ4Ijo4N
zIyLjAsInkiOjU4MzUuMH0seyJ4Ijo4NzIyLjAsInkiOjgyMDguMH0seyJ4Ijo1MzIxLjAsInkiOjgy
MDguMH0seyJ4Ijo1MzIxLjAsInkiOjU4MzUuMH1dLCJ6IjowLjB9
##.OBSERVE FREQUENCY=	125
##.OBSERVE NUCLEUS=	^13C
##.SOLVENT NAME=	DMSO-d6
##.PULSE SEQUENCE=	
##.ACQUISITIONMODE=	SIMULTANEOUS (DQD)
##$ORIGINAL FORMAT=	Predictor
##$MNOVA/SCALES_VERSION=	9
##$PARAMETER FILE=	(parameters, ASCII, , 0)
$$ <?xml version="1.0" encoding="utf-8"?>
$$ <PredictorParameters>
$$     <Title>Predicted 13C NMR Spectrum</Title>
$$     <Origin>Mnova: NMR Prediction</Origin>
$$     <Name>Mestrelab Predictor</Name>
$$     <Version>1.7</Version>
$$     <Nucleus>13C</Nucleus>
$$     <Solvent>DMSO-d6</Solvent>
$$     <From>-10</From>
$$     <To>230</To>
$$     <Frequency>125</Frequency>
$$     <LineWidth>1.5</LineWidth>
$$     <Size>131072</Size>
$$     <DEPT>0</DEPT>
$$     <ProtonatedCarbons>0</ProtonatedCarbons>
$$     <ExcludeLabile>false</ExcludeLabile>
$$     <FastPrediction>0</FastPrediction>
$$     <ProtonDecoupled>1</ProtonDecoupled>
$$     <Reference/>
$$     <Options>
$$         <Settings>
$$             <Predictor Name="Mestrelab Predictor">
$$                 <Settings>
$$                     <Model>/Applications/MestReNova.app/Contents/Resources/data/13C.mbst</Model>
$$                 </Settings>
$$             </Predictor>
$$         </Settings>
$$     </Options>
$$     <MoleculeID>{67355309-8511-40aa-9f86-44410e56edb0}</MoleculeID>
$$ </PredictorParameters>
$$ 
##XUNITS=	HZ
##YUNITS=	ARBITRARY UNITS
##FIRSTX=	28750
##LASTX=	-1249.7711181640625
##DELTAX=	-0.2288818359375
##XFACTOR=	1
##YFACTOR=	1.4022712164642515895E-10
##FIRSTY=	1.9091640268698029104E-08
##MINY=	-4.4665164899981846247E-09
##MAXY=	0.30113545060157775879
##NPOINTS=	131072
##XYDATA=	(X++(Y..Y))
28750A36%q%%%%%QqQq%%%%%%%%Qq%%%%%%%%Qq%%Q%Qqj6J6qqQQqQ%%q%Q%%q%QqQq%Qq%QqQq
28735A28Qq%QqQq%Qq%%%%%%%%%%%%%%%%%%%%%%%%%%%%%%%%%%%%%%%%%%%%%%%%%%%%%%%%%%
28719A28%%%%%%%%%%%%%%%%%%%%%%%Qq%%%%%%%%%%%%%%%%%%%%%%%%%%%%%%%%%%%%%%%%%%%
28704A28%%%%%%%%%%%%%%%%%%%%%%%%%%%%%%%%%%%%%%%%%%%%%%%%%%%%%%%%%%%%%%%%%%%%
28688A28%%%%%%%%%%%%%%%%%%%%%%%%qQ%qQ%%%%%%%%qQ%%%%%%%%%%%%%%%%qQ%%%%%%%%%%%
28673A28%%%%%%%%%%%%%%%%%%%%%%%%%%%%%%%%%%qQ%%%%%%%%%%%%%%%qQqQ%%%%%qQqQ%%%q
28657A20Q%%%%%%q%QqQ%%%%%%%qQ%qQ%%%%qQqQ%qQqQqQ%%%%%qQ%%%qQq%%Q%q%%%%%Qq%%%Q
28642A28q%Q%q%Qq%%%%%%%%%%Q%%q%%%QqQq%%%%%Qq%%%%%%%Q%qQ%%%%%%%%%%%qQ%%%%%q%%
28626A20Q%%qQq%%Qq%%%%Qq%%%%%%QqQqQ%q%%%%%%%%%%%%%Qq%Q%q%%%%%%%%Qq%%%%%%%%%%
28610A20%%%%%%%%%%%%QqQ%q%%%%%%%%%%%%%%%%%%%%%Qq%%%%%%%%%Qq%QqQq%%%%%%%%%%%%
28595A20%%%%%%%%%%%%%%%%%%%%%%%%%%%%%%%%%%%%%%%%%%%%%%%%%%%%%%%%%%%%%Q%q%%%%
28579A20%%%%%%%%%%%%%%%%%%%%%%%%%%%qQqQ%%%%%%%%%%%Qq%%%%%%%%%%%%%%%%%%%%%%%%
28564A20%%%%%%%%%%%%%%%%%%%%%%%%%%%%%%%%%%%%%%%%%%%%%%%%%%%%%%%%%%%%%%%%%%%%
28548A20%%%%%%%%%%%%%%%%%%%%%qQ%%%%%%qQ%qQ%%%%%%%%%%%%%%%%%%%%%%%%%%%%%%%%%%
28533A20%%%%qQ%%%%%%%%%%%%%%%%%%%%%%%%%%%%%%%%%%%%%%%%%qQ%%q%Q%%%%qQ%%q%%%%Q
28517A20%qQ%%%%%qQ%%%%%%%%%qQqQ%qQ%q%%%QqQ%%qQq%%%%%%%QqQq%%Qq%%%QqQqQ%%%%%q
28501A12%%Qq%Q%qQq%Qq%%%%%%%%%Qq%%%%%Qq%%%%%%%%%%QqQq%Qq%%%%%%Qq%%%%%%%%%%%%
28486A12%%%%%%%%%%%Qq%%%%QqqJ6q%%%%%%%%Qq%%qQ%Qq%Q%qQq%%%%%%%%%%%%%%%%%Q%%q%
28471A12%%%Q%q%%%%%%%%%%%%%%%%%%%%%%%%%%%%%%%%%%%%%%Qq%%%%%%%%%%%%%%%%%%%%%%
28455A12%%%%%%%%%%%%%%%%%%%%%%%%%%%%%%%%%%%%%%%%%%%%%%%%%%%%%%%%%%%%%%%%%%%%
28439A12%%%%%%%%%%%%%%%%%%%%%%%%%%%%%%%%%%%%%%%%%%%%%%%%%%%%%%%%%%%%%%%%%%%%
28424A12%%%%%%%%%%%%%%%%%%%%%%%%%%%%%%%%%%%%%%%%%%%%%%%%%%%%%%%%%%%%%%%%%%%%
28408A12%%%%%%%%%%%%%%%%%%%%%%%%%%%%%%%%%%%%qQ%%%%%%%%%%%%%%%%%%%%%%%%%%%%%%
28393A12qQqQ%%%%%%qQ%%%q%Q%Qq%%%%%%%q%Q%%%%%%%%%%%%%%%%%%%qQqQ%%%%qQ%%%%%%%%
28377A12%%%%%%%%%%%%%%%%%%%%%%%%%%%%%%%%%%%%%%%%%%%q%Q%%q%Q%%qQqQqQ%%q%%Q%%%
28362A12%qQqQ%%%%qQqQq%%%%%%%%%Q%%%qQ%%%%%%%%%%q%Q%q%%%%%Qq%%%%%%%%%%%Qq%%Q%
28346A12q%%Q%%qQ%%q%%%%Qq%%%%Qq%Q%%%q%Qq%%Qq%%%%%%Qq%%%%%%%%%%%%%Q%q%Qq%%%%%
28330A04%Q%qQq%%%%%%%%%%%%Qq%%%%%%%%%%%%%%Qq%%%Qq%%%%%%%%%%%%%%%%%%%%%%%%Q%%
28315A12%q%%QqQ%q%%%%Qq%%%%%%%%%%%%%%%%%%%%%%%%Qq%%%%%%%%%%%%%%%%%%%%%%%%%%%
28299A04%%%%%%%%%%%%%%%%%%%%%%%%%%%%%%%%%%%%%%%%%%%%%%%%%%%%%%%%%%%%%%%%%%%%
28284A04%%%%%%%%%%%%%Qq%%qQ%%q%Q%%%%%%%qQ%q%Q%Qq%qJ6j6%QQ%j6Qj6QQQj6J6qJ6j6q
28270I6%J6qQ%q%%%%%%Qq%%%%%%%%qQqQ%%%%%%%%%%%%%%%%q%Q%%%%%%%%%%%%%%%%%%%%%%%
28254A04%%%%%%%%%%%%%%%%%%%%%%%%%qQ%%%%%Qq%%%%%%%%%%%%%%%%%%%%%%%%%%%%%%%%%%
28239A04%%%%%%%%%%%%%%%%%%%%%%%%%%%%%%%%%%%%%%%%%%%%%%%%%%%%%%%%%%%%%%%%q%%%
28223I6%%%Qq%%Qq%%%Q%%%%%%%%%%%%qQ%%%%%%%q%Qq%Q%q%%Qq%%Q%%%%%%%%%%%%%%%%%%%%
28208A04%%%%%%%%%%%qQ%qQ%%qQ%%qQ%%%%%%%%%%%%%%qQ%%%%%%%%%%q%Q%%%qQ%%%%q%%%%Q
28192A04qQq%Q%q%%%%Q%%%%q%%%%Qq%QqQq%Qq%%Qq%%%%%%%%%%%%%%%%%Q%qQ%%%%%%qQ%%qQ
28176A04%q%QqQ%q%Qq%%Q%qQq%Q%%%%qQqQq%%Q%q%%%%Qq%%%%%%%%%%%%Qq%%%%%%Q%q%%%Qq
28161I6Q%%%qQ%%%qQq%%%%%Qq%%%%%%QQj6Qq%%%%%QqQqQqQ%q%%%Qq%%%%%%%%%%%%%%%%%%%
28145I6%%%%%Qq%%%%%%Qq%%%%%%Qq%%%%%%%%%%%%%%Qq%%%%%%%%%%%%%%%%%%%%%%%%%%%%%%
28130I6%%%%%%%%%%Qq%%%%%%%%%%%%%%%%%%%%%%%%%%%%%%%%%%%%%%%%%%%%%%%%%%%%%%%%%
28114I6%%%%%%%%%%%%%%%%%%%%%%%%%%%%%%%%%%%%%%%%%%%%%%%%%%%%%%%%%%%%%%%%%%%%%
28098I6%%%%%%%qQ%%%%%%%%%%%%%%%%%%%%%%%%%%%%%%%%%%%%%%%%%%%%%%%%%%%%%%%%%%%%
28082I6%%%%%%%%%%%%%%%%%%%%%%%%%%%%%%%%%%%%%%%%%%%%%%%%%%%%%%%%%%%%%%%%%%%%%
28066I6%%%%%%%%%%%%%%%%qQ%%%%%qQ%%q%Q%%%%q%QqQq%Q%qQ%%%%%%%%%%%%%%%%%%%%%%%%
28051I6%%%%%%%qQ%%%%%%%%%%%%%%%%%%%qQ%%%q%%Q%%%%q%Q%%%%%%%%%qQ%qQq%Q%%%qQqQ%
28035I6%%%qQ%%%%%qQ%%%%%%%%%%%%%%%%%%%%%%%%%%%%%%%%%%%%%qQ%%%%%%%qQ%%%%qQqQ%
28019I6%q%Q%q%Q%%%q%QqQ%%%%q%Qq%Qj6J6%qQ%qQqQqQq%Qq%%Q%q%Qq%%%%Q%%q%QqQqQ%%q
28004H8%%Qq%%%Qq%%%%%%%%%%%%%%Qq%%%%%Qq%%Qq%%Q%q%Q%qQ%%%%%%%qQ%%%%%q%Q%%%%%%
27988I6%%%q%%Q%%qQqQ%%%qQ%%%%qQ%%%qQqQ%%q%%Qq%%%Qq%%%Q%%%%qQ%%q%%%%%%%%%%%%%
27972H8%%%%Qq%%%%%%Qq%QqQqQqQqQq%%Qq%%%%%%Qq%Q%q%%%%%%%%%%%%%%%%Q%q%%%%%%%%%
27956H8%%%%Qq%%%%%%%%%%%%Qq%%%Qq%Qq%Q%qQqQq%%Qq%%%%%%%%%%%%Qq%%%%%%%%%%%%%%%
27940H8%%%%%%%%%%%%%%%%%%%%Qq%%%%%%%%%%%%%%%%%%%%%%%%%%%%%%%%%%%%%%%%%%%%%%%
27925H8%%%%%%%%%%%Qq%Qq%%Qq%%%%%%%%%%%%%%%%%%%%%%%%%%%%%%%%%%%%%%%%%%%%%%%%%
27909H8%%%%%%%%%%%%%%%%%%%%%%%%%%%%%%%%%%%%%%%%%%%%%%%%%%%%%%%%%QqQq%%%%%%%%
27893H8%%%%%%%%%%%%%%%%%%%%%%%%%%%%%%%%%%%%%%%%%%%%%%%%%%%%%%%%%%%%%%%%%%%%%
27877H8%%%%%%%%%%%%%%%%%%%%%%%%%%%%%%%%%%%%%%%%%%%%%%%%%%%%%%%%%%%%%%%%%%%%%
27861H8%%%%%qQ%%%%%%%%%%%%%%%%%%%%%%%%%%%%%%%%%%%%%%%%%%%%%%%%%%%%%%%%%%%%%%
27846H8%%%%%%%%%%%%%%%%%%%%%%%%%%%%%%%%%%%%%%%%%%%%%%%qQ%%%%%%%%qQ%%%%%%%%%%
27830H8%%%%%%%%%%%%%%%%%%%%%%%%%%%%%%%%%%%%%%%%%%%qQ%%qQ%qQ%%qQ%%%%%%%%%%%%%
27814H8%%%%%%%%%%%%%%%%%%%%q%%Q%q%Q%%%%%%%%%q%Q%%q%QqQqQQq%%%qQ%%%%qQ%%%%qQ%
27798H8%%%%%%%%qQ%%q%%QqQ%qQ%%%qQ%%%%%%%%%%q%Q%q%%Q%%%%q%Q%%%%%%%q%Q%%%%qQ%%
27783H8%%%qQ%%q%Q%%qQq%%QqQ%%%%q%%%%Qq%Q%%%%%%%%%%%%%%%%q%QqQ%%%%%%%%%qQq%Qq
27767H0Q%%%%qQ%%qQ%%%%qQq%%Qq%%%%Q%q%Q%%qQq%%%%Qq%%Q%qQqQq%QqQ%%q%%%QqQ%qQqQ
27751H8%%%%%qQ%q%%Q%q%QqQ%%%q%Q%%qQq%%%%%%Q%%%%qQq%%%%%%Qq%Q%qQqQq%%Qq%%Q%%%
27735H8%qQq%Q%%%%%q%Q%%qQ%%q%Q%q%%%%Qq%Q%q%%Qq%%%%%%%%%%Q%q%QqQ%q%%%%%QqQq%%
27719H0%%%%Q%q%%%%%Qq%Q%%%%qQq%%%%%%%%%%%%%%%%%%%%%%%%%%%%%%%%%%%%%%%%%%%%%%
27704H0%%%%%%%%%%%%%%%%%%%%%%%%%%%%%%%%%%%%%%%Qq%%%%%Qq%%%%%%%%%%%%%%%%%%%%%
27688H0%%%%qQ%%%Qq%%%%%%%%%%%%%%%%%%%%%%%%%%%%%%%%%%%%%%%%%%%%%%%%%%%%%%%%%%
27672H0%%%%%%%%%%%%%%%%%%%%%%%Qq%%%%%%%%%%%%%%%%%%%%%%%%%%%%%%%%%%%%%%%%Qq%%
27656H0%%%%Qq%Qq%%%%%%%%%%%%%%%%%%%%%%%%%%%%%%%%%%%%%%%%%%%%%%%%%%%%%%%%%%%%
27640H0%%%%%%%%%%%%%%%%%%%%%%%%%%%%%%%%%%%%%%%%%%%%%%%%%%%%%%%%q%%Q%%%%%%%%%
27625H0%%%%%%%%%%%%%%%%%%%%%%%%%%%%%%%%%%%%%%%%%%%%%%%%%%%%%%%%%%%%%%%%%%%%%
27609H0%%%%%%%%%%%%%%%%%%%%%%%qQ%%%%%%%%%%%%%%%%%%%qQ%%%%%%%%%%%%%%%%%%%%%%%
27593H0%%%%%%%%%%%%%%%%%%%%%%%%%%%%%%%%%%%%%%%%%%%%%%%%%%%%%%%%%%%%%%%%%%%%%
27577H0%%%%%%%%%%%%%%%qQ%%%%%%%%%%%%%qQ%%%Qq%Qq%%%%%%%%%%%%%qQ%%q%QqQ%qQ%%%%
27561H0%%%%%%%qQ%%%%%q%%QqQ%%q%Q%%qQ%%qQ%%qQ%%%%%%%qQq%Q%%%%qQq%QqQq%Q%%%%%%
27546H0%%%qQqqQ%%%%%QqQqQ%%qQq%Q%%%qQ%%%qQqQqQq%%%%Q%%%%%%%%%%qQqQ%%%%%%%%%%
27530H0%%qQq%%QqQ%%q%%Qq%QqQ%qQ%%%%qQqQ%q%QqQ%%%%qQqQ%%%%%%q%Q%%qQq%Q%%qQ%%%
27514H0qQq%%%%Q%%q%Qq%Q%qQqQqQq%%%%Q%%%%%%%%%%%%%%q%%Q%%qQ%qQqQq%Q%qQ%%qQqQq
27498G2%%%%%%%%%QqQ%%qQq%%Qq%%%%%%Qq%%%Q%qQq%%%Qq%Q%%qQ%%%qQq%Q%q%%%%%%%%%%%
27482G2Qq%Q%qQ%qQ%%q%%QqQ%%%qQ%qQq%%%%%%%%%%%%%%%Qq%%Qq%Q%q%Qq%QqQq%%%%%%%%%
27467G2Qq%%%Q%q%QqQq%%Qq%%%%%Q%qQqQq%Q%qQ%q%%Q%%qQqQqQqQq%%%%%%%%%%%QqQ%%%%%
27451H0qQq%%%%%%%%%Qq%%%%%%%%%%%%%%%Qq%%%%%%%%%%%%%%%%%%%%%%%%%Qq%%%%%Q%%q%%
27435G2%%%%%%%%%%%Qq%Qq%%%%%%%%%%%%%%%QqQq%Qq%QqQq%%Qq%%Qq%%%%%%%%%%%%%%%%%%
27419G2%%%%%%%%%%%%%%%%%%%%Qq%%%%%%%%%%%%%%%%%%%%%%%%%%%%%%%%%%%%%%%%%%%%%%%
27403G2%%%%%%%%%%%%%%%%%%%%%%%%%%%%%%%%%%%%%%%%QqQq%%%%%%%%%%%%%%%%%%%%%%%%%
27388G2%%%%%%%%%%%%%%%%%%%%%%Qq%%%%%%%%%%%%%Qq%%%%%%%%%%%%%%%%%%%%%%%%%%%%%%
27372G2%%%%%%%%%%%%%%%%%%%%%%%%%%%%%%%%%%%%%%%%%%%%%%%%%%%%%%%%%%%%%%%%%%%%%
27356G2%%%%%%%%%%%%%%%%%%%%%%%%%%%%%%%%%%%%%%%%%%%%%%%%%%%%%%%%%%%%%%%%%%%%%
27340G2%%%%%%%%%%Qq%%qQ%Qq%%Qj6Q%%Qj6QqQ%%qQ%%%%%%%%%%%%%%%%%%%%%%%%%%%%%%%%
27325G2%%%%%%%%%%%%%%%%%%%%%%%%%%%%%%%%%%%%%%%%%%%%%%%%%%%%%%%%%%qQ%%%%%%%%%
27309G2qQ%qQ%%%%%%%%qQ%%%%%%%%%%%%%%%%%%%%%%%%%%%%%%%%%%%%%%%%%%%%%%%%%%%%%%
27293G2%%%%%%%%%%%%%%%%%%%%%%%%%%%%%%%%%%%%%%%%%%%%%%%%%%%%%%%%%%%%%%%%%%%%%
27278G2%%%%%%%%%%%%q%Qq%%%QqQ%%%%%%%%%%%%%%%%%%%%%%%%%%%%%%%%%%%%%%%%%%%%%%%
27262G2%qQ%%%%%%qQ%%%%%%%%%%%%%%%%%qQ%%%%%%%%%%%%qQ%qQ%%%%%%%%%%%%%%%q%%Q%%%
27246G2%%%%%%%%%%q%Q%%%%%%qQ%%%%%qQ%%%%%qQ%%qQ%qQ%qQ%%%%%qQ%%qQ%%%%%%qQ%qQ%%
27230G2%%%q%Q%%%%%%%%%%%%%%qQ%%%%qQ%%qQ%qQ%%qQ%%%qQqQ%%%%%%%q%%%%%Q%qQqQ%%qQ
27214G2%%qQqQ%%%%%%%%qQ%%%q%Q%q%%Q%%qQqQq%%Q%%%%qQ%%%%qQ%%qQqQqQq%QqQ%%qQqQ%
27199G2%%%q%%%%QqQqQ%%%%q%Q%%%%%%%%qQ%qQqQ%q%%%%QqQqQqQq%QqQqQq%%%%%%%%%%%%%
27183F4%%%%Q%%%%%%q%%%Qq%%%Q%%%%%%%%%qQ%%%%%%%%%%qQqQ%%qQq%%Qq%%Q%qQq%%%Qq%%
27167F4%Q%qQ%q%%Qq%%Qq%%QqQqQ%q%QqQ%%%%%qQ%%%qQqQ%%%q%%%Q%%%%q%%QqQq%%%%Q%%%
27151G2%%%q%%%%%%%Qq%%%%%%%Q%q%%%%%%%%Qq%%%%%QqQqQq%%%%%%%%%%%%%%%%%%Qq%Q%q%
27135F4%%%%%Qq%%%%%%Qq%%QqQ%qQqQq%%%Qq%%%%%%%Q%%qQ%q%%%%%%%%%%%%%%%Qq%%Qq%%Q
27120G2q%Qq%%%%%%%%%%%%%%%%%QqQqQqQqQqQ%%q%%%%%%%%%%QqQ%q%Qq%%Qq%%%%%%Qq%Q%q
27104F4%%%%Qq%%%%%Qj6%J6%qQq%QqQq%%%%%%%%%%%%%%%%%%%%%Q%q%%%%%%%%%%%%%%%%%%%
27089F4%%%%%%%%%%%%%%%%%%%%%%%%%%%%%%%%%%%%%Qj6Q%%%QqqJ6%qQj6Q%QqqJ6j6qK4j6K4
27074H0qq%%qJ6qQqQq%%%Qq%%%%Qq%%%%%%%%%%%%%%%%%%%%%%%%%%%%%%%%%%%%%%%%%%%%%%
27059F4%%%%%%%%%%%%%%%%%%%%%%%%%%%%%%%%%%%%%%%%%%%%%%%%%%%%%%Qq%Qq%%%%%%%%%%
27043F4%%%%%%%%%%%%%%%%%%%%%%%%%%%%%%%%%%%%%%%%%%%%%%%%%%%%%%%%%%%%%%%%%%%%%
27027F4%%%%%%%%%%%%%%%%%%%%%%%%%%%%%%%%%%%%%%%%%%%%%%%%%%%%%%%%%%%%%Qq%%%%%%
27011F4%%%%%%%%%%%%%%%%%%%%%%%%%%%%%%%%%%%%%%%%%%%%%%%%%%%%%%%%%%%%%%%%%%%%%
26996F4%%%%%%%%%%%%%%%%%%%%%%%%%%%%%%%%%%%%%%%%%%%%%%%%%%%%%%%%qQ%%%%%%%%%%%
26980F4%%%%%%%%%%%%%%%%%%%%%%%%%%%%%%%%%%%%%%%%%%%%%%%%%%%%%%%%%%%%%%%%%%%%%
26964F4%%%%%%%%%%%%%%%%%%%%%%%%qQ%%%%%%%%%%%%%%%%%%%%Qq%%%%%%%%%%%%%%%%%%%%%
26948F4%%%%%%%%%%%%%%%%%%%%%%%%%%%%%%%%%%%%%%%%%%qQ%%%%%%%%%%%%%%%%%%%%%qQ%%
26932F4qQ%%%%%%%%%%%qQ%%%%%%%%%qQ%%%%%%%%%%%%%%%%%%%%qQ%%%%%%%%%%%%%%%%%%%%%
26917F4%%%%%%%qQ%%%qQ%%%%%%%%%%%%%%%%%%%%%%%%%%%%%%%%%%%%%%%%%%%%%%%%%%%%%qQ
26901F4%%qQ%%%%%%%%%%%%%%%%%%%%%%%%%%%%%%%%%%%%%%%%q%Q%%%%qQ%%%%%%%%%%%%%%%q
26885E6%Q%%%%%%%%%%%qQqQ%qQ%%%%%%%%%%%%%%%%%%%%%%%%%%%%%%%%%%%%%%%%%%%%%q%Q%
26869F4%%qQqQqQ%q%QQq%j6J6Qq%%%%qQ%%%%%%%%%%%%%%%%%%%%%%%%%%qQ%%%%%%%%%%%%%%
26854F4%%%%%%%%%%%%%%%%%%%%%%%%%%%%%%%%%%%%%%%%%%%%qQ%%%q%Q%%%%%q%J6q%%%%%%q
26838E6QqQqQ%%%qQqQ%%%%qQqQ%qQqQqQ%%%%%%%%%%%%qQ%%%%%%qQqQ%%%%%%%%%%q%Q%%%q%
26823E6QqQ%qQ%%%%%%%qQ%%qQq%%%QqQ%%%%%%qQqQ%%%%%%%%qQqQq%%QqQq%Q%%%%%%%%%qQq
26807E6Q%%%%%%qQ%%%%q%%%Q%%%%%%%%%%q%Q%%%%%qQq%Q%%qQ%%%%%%%%%%%%%%%%q%Qq%%%%
26791E6%%%%%%%Qq%Qq%%%%Q%%%%qQ%%%q%Q%%%%%%%%%%q%%Qq%%%%%%QqQqQ%%qQ%%qQqQ%q%Q
26775F4qQ%qQqQ%%%%%%%%%%q%Qq%%%Qq%%%%%%%Qq%Q%%q%Q%qQ%%%%%%q%QqQ%%%q%%%%%Q%q%
26759E6Qq%%%%%Q%%%%%qQ%%%%qQq%%%Q%%q%Qq%%%%%%Qq%QqQ%%%%qQq%QqQ%%q%%%%%%%%Qq%
26744E6%%%%%%%Qq%Qq%%%%%Qq%%%%Qq%%%%%%%Q%%qQ%qQ%q%%Q%q%Qq%%%%%%%%%%%Qq%%%%%Q
26728F4q%%Qq%%%%%Q%qQq%Qq%Qq%%%%Q%q%%Q%%q%%QqQ%q%%%%%QqQq%Q%q%%%%%%%%%QqQqQ%
26712F4q%%%%%%%%%Q%q%%Qq%%%%%%%%%%%%%%%%Qq%%Qq%%%%%%%%Qq%%%%%%%%%%%%%%Qq%%%%
26696E6%%%%%%%%%%%%%%%%%%%Qq%%%%%%%%%%QqQq%%%%%%Qq%%%%%%%%%%%%%%%%%%%%%%%%%%
26680E6%%%%Q%q%%%%%%%%%%%%%Qq%%%%%%%%%%%%%%%%%%%%Q%q%%Qq%%%%Qq%%%%%%%%Qq%%%%
26665E6%%%%%%%%%%%%%Qq%%Qq%%%%%%%%%%%%%%%%%%Qq%%%%%%Q%%q%%Qq%%%%%%%%%%%%%%%%
26649E6%%%%%%%%%%%%Qq%%%%%%%%%%%%%%%%%%%%%%%%%%%%%%%%%%%%%%%%%Qq%QqQqQq%%Qq%
26633E6QqQj6QQqJ6j6Qq%%%%Qq%%%%%%%%%%%%%%%%%%%%%%%%%%Qq%%%%%%%%%%%%%%%%%%%%%
26618E6%%%%%%%%%%%%%%%%%%%%%%%%%%%%%%%%%%%%%%Q%q%%Qq%%%%QqQqQq%%%%%%%%%%%%%%
26602E6%Qq%%%%%%%%%%%%%%%%%%%%%%%%%%%%%%%%%%%%%%%%%%%%%%%%%%%%%%%%%%%%%%%%%%
26586E6%%%%%%%%%%%%%%%%%%%%%%%%%%%%%%%%%%%%%%%%%%%%%%%%%%%%%%%%%%qQ%%%%%%%%%
26571E6%%%%%%%%%%%%%%%%%%%%%%%%%%%%%%%%%%%%%%%%%%%%%%%%%%%%%%%%%%%%%%%%%%%%%
26555E6%%%%%%%%%%%%%%%%%%%%%%%%%%%%%%%%%%%%%%%%%%%%%%%%%%%%%%%%%%%%%%%%%%%%%
26539E6%%%%%%%%%%%%%%%%%%%%%%%%%%%%%%%%%%%%%%%%%%%%%%%%%%%%%%%%%%%%%%%%%%%%%
26523E6%%%%%%%%%%%%%%%%%Qq%%%%%%%%%%%%%%%%%%%qQ%%%%%%%%%%%%%%%%%%%%%%%%%%%%%
26507E6%%%%%%%%%%%%%%%%%%%%%%%%%%%%%%%%%%%%%%%%%%%%%%%%%%%%%%%%%%%%%%%%%%%%%
26492E6%%%%%%%%%%qQ%%%%%%%%%%%%%%%%%%%%%%%%%%%%%%%%%%%%%%%%%%%%%%%%%%%%%%%%%
26476E6%%%%%%%%%%%%%%%%%%%%%%%%%%%%%%%%%%%%%%%%%%%%%%%%%%%%%%%%%%%%%%%%%%%%%
26460E6%%%%%%%%%%%%%%%%%%%%%%%%%%%%%%%%%%%%%%%%%%%%%%%%%%%%%%%%%%%%%%%qQ%%%%
26444E6%%%%%%%%%%%%%%%%%%%%%%%%%%%%%%%%%%%%%%%%%%%%%%%%%%%%%%%%%%%%%%%%%%%%%
26428E6%%%qQ%%%%%%%%%%%%%%%%%%%%%%%%%%%%%%%%%%%%%%%%%%%%%%%%%%%%%%%%%%%%%%%%
26413E6%qQ%%%qQ%qQ%q%Q%%%%%%%%%%%%%%%%%%%%%%%%%%%%%%%%%q%QqQ%%%%%qQq%QQk4J6Q
26397F4j6Q%j6J6%qQj6J6%%q%%QqQ%%%%%%%%%%%qQ%%%%qQ%%%%%%%%%%%%%%%%%%%%%%%%%%q
26383D8%Q%%%%%%%%qQ%%%%%%%%%%%%%%%%%qQ%%%%%%%%%%%qQq%Q%%%qQ%%%%%%%%%%%%%%%%%
26367E6%%%%%%%%%%%%%%%%%%%%%%%%%%%%%%%%%%%%qQ%%%%qQ%%%%%%%%%%%%%%%%%%%%%%qQ%
26351E6%%%qQ%%qQ%%%%%%%%%%%%%%%%qQ%%%%%%%%%%%%%%%%%%%%%qQ%qQ%%qQ%%%qQ%qQ%%%%
26335E6%qQ%%%%%%%%%%%%%%%%%%%qQ%%%%%%%%%%%%qQ%%%%%%%%%qQqQ%%qQqQ%%%%%%%%%%%%
26320E6%qQqQ%qQqQ%qQqQ%%%%%%qQ%%%%%qQ%%q%%%Q%%%qQq%%Q%%%%%%%%%%%%%%%%%%%%%%%
26304E6%%%%%%%qQ%%%%%%qQq%Q%%%qQ%%%%%%%%%%%qQ%%q%Q%%q%%%%Q%q%Q%%%q%%%Qq%%%%%
26288D8%%%%Qq%%%Qq%%%Qq%%Q%q%%%%%Q%%%%%%%qQq%Q%qQ%%%%%%%q%Qq%%%Qq%%%%Q%%%%q%
26272D8%%%Qq%%%Qq%Qq%Q%%%qQ%q%Q%q%Q%qQqQqQqQ%%%%%qQ%%%%%qQ%%%%%%%%%qQ%qQ%%%%
26256E6%%q%QqQ%q%%%%Q%%%qQqQqQ%%qQqQq%Q%%q%QqQ%qQqQq%Q%%%q%%Qq%Q%qQqQ%%%%qQ%
26241E6%q%Q%%q%%%%%%%QqQq%%%%%%%%%%%Q%qQq%%%%Qq%Qq%%%Q%%q%Q%%%%%%%%%qQ%%%%%%
26225E6%%%%%%%%qQ%%%q%Q%qQqQq%Qq%%%%QqQ%qQ%%q%%%Qq%%%%%%%Qq%Qq%%%%%%Q%q%%%%%
26209D8%%Qq%%%%%%%%%%Qq%%%%%%%%%%%%%Qq%Qq%%Qq%%Qq%%%Qq%%%%%QqQq%Qq%%%%%%%%%%
26193D8%%Q%q%Qq%QqQ%%%q%Q%q%%Qq%%%%%%%%%%%Qq%%QqQq%%%%QqQq%%%%Qq%%%%%Qq%%%%%
26177D8Qq%%Qq%%%QqQq%Qq%%%%%%Qq%Q%qQq%%%%Q%qQq%%QqQq%Qq%%Qq%%Q%%qQ%q%%%Qq%%%
26162D8Qq%Qq%QqQ%%%%q%Q%q%%%Qq%Qq%%%%%%%%%%%%%%%Qq%%%Qq%%%%Q%q%Q%%%%q%%%%%%%
26146D8%Qq%%Qq%%%%%%Qq%%%%%Q%q%%Qq%qQQj6QQq%%J6j6%%%%%%Qq%%%%%Qq%%%%%%%%%%%%
26131D8%%Qq%%Qq%Q%q%%Qq%%Qq%%Qq%%QqQ%%q%%%%%%%%%%%%%%%%%%%%%%%%%%%%%%%%%%%%%
26115D8Qq%%%%%%%%%%%%%%%%%%%%%%%%%%Q%q%Qq%%%%%%%%%%%%%Qq%%%%%%%%%%%%%%%%%%Qq
26099D8Q%q%%%%%%%%%%%%%%%%%Qq%%%%Qq%%%%%%%%%%%%%%%%%%%Qq%%%%%%%%%%%%%%%%%%%%
26083D8%%%%%%%%%%%%%%%%%%%%%%%%%%%%%%%%%%%%%%%%%%%%Qq%%%%%Qq%%%%%%%%%%%%Qq%%
26068D8%%%Qq%%%%%%%%%%%%%%Qq%%%%%%%%%%%Qq%%%%%%%%%%%%%%%%%%%%%%%%%%%%%%%%%%%
26052D8%%%%%%%%%%%%%%%%%%%%%%%%qQ%Qq%%%%%%%%%%%%%%%%%%%%%%%%%%%%%%%%%%%%%%%%
26036D8%%%%%%%%%%%%%%%Qq%%%%%%%%%%%%%%%%%%%%%%%%%%%%%%%%%%%%%%%%%%%%%%%%%%%%
26020D8%%%%%%%%%%%%%Qq%%%%%%Qq%%%%%%%%%%%%%%%%%%%%%%%%%%%%%%%%%%%%%%%%%%%%%%
26004D8%%%%%%%%%%%%%%%%%%%%%%%%%%%%%%%%%%%%%%%%%%%%%%%%%%%%%%%%%%%%%%%%%%%%%
25989D8%%%%%%qQ%%%%%%%%%%%%%%%%%%%%%%%%%%%%%%%%%%%%%%%%%%%%%%%%%%%%%%%%%%%%%
25973D8%%%%%%%%%%%%%%%%%%%%%%%%%%%%%%%%%%%%%%%%%%%%%%%%%%%%%%%%%%%%%%%%%%%%%
25957D8%%%%%%%%%%%%%%%%%%%%%%%%%%%%%%%%%%%%%%%%%%%%%%%%%%%%%%%%%%%%%%%%%%%%%
25941D8%%%%%%%%%%%%%%%%%%%%%%%%%%%%%%%%%%%%Qq%%%%%%%%%%%QqQq%Qj6Q%%Qq%%%%%%Q
25926E6q%%%%%%%%%%%%%%%%%%%%%%%%%%%%%%%%%%%%%%%%%%%%%%%%%%%%%%%%%%%%%%%%%%%%
25910D8%%%%%%%%%%%%%%%%%%%%%%%%%qQ%%%Qq%%%%%%%%%%%%%%%%%%%%%%%%%%%%%%%%%%%%%
25894D8%%%%%%%%%%%%%%%%%%%%%%%%%%%%%%%%%%%%%%%%%%%%%%%%%%%%%%%%%%%%%%%%%%%%%
25878D8%%%%%%%%%%%%%%%%%%%%%%%%%%%%%%%%%%%%%%%%%%%%%%%%%%%%%%%%%%%%%%%%%%%%%
25862D8%%%%%%%%%%%%%%%%%qQ%%%%%%qQ%%%%%%%%%%%%%%%%%%%%%%%%%%%%%%%%%%%%%%%%%%
25847D8%%%%%%%%%%%%%%%%%%%%%%%%%%%qQ%%%%%%%%%%%%%%%%%%%%%%%%%%%%%%%%%%%%%%%%
25831D8%%%%%%%%%%%%%%%%%%%%%%%%%%%%%%%%%%%%%%%%%%%%%%%%%%%%%%%%%%%%%%%%%%%qQ
25815D8%%%%%%%%%%%%%qQ%q%%Q%qQ%%%%%%%%%%%%%%%%%%%%%%%%%%%%%%%%%%%%%%%%%%%%%%
25799D8%%%%%%%%%%%q%Q%%%%%%%%%%%%%%%%%%%%%%%%%%%%%%%%%%%%%%%%%%%%%qQ%%%%%%%%
25783D8%%%%%%%%%%%%%%%%%%%%%%%%%%%%%%%%%%%%%%%%%%%%%%%%%%%%%%%%%%%%%%%%%%%%%
25768D8%%%%%%%%%%%%%%%%%%%%%%%%%%%%%%%%%%%%%%%%%%%%%%%%%%%%%%%%%%%%%%%%q%QqQ
25752D8%%qQ%%%%%%%%%%%%%%%%%%%%%%%%%%%%%%%%%%%%%%%%%%%%%%%%%%%%%%%%%%qQ%%%qQ
25736D8qQq%%Q%%%%%q%QqQ%%%%qQqQ%%qQ%%%%%%%%%%%%%%%%%%%%%%%%%qQqQ%%%%%qQ%%%%%
25720D8%%%%%%%%%%%%%%%qQ%%%%%%%%%%%%%%%%%%%%%%%%%%%%%%%%%qQ%%%%%%q%%Q%%%%%%%
25704D8%%%%%%%%%%%qQ%%%qQ%qQ%qQqQ%%%q%Q%%qQqQ%qJ6qqQ%qQq%%Q%%%qQ%%%%qQ%%%%%%
25689D8%%%qQ%%%%%%qQq%Q%%q%QqQqQ%qQ%%%%%%%%%%%%%%%%%%%%%%%%%%%%%%%%qQ%q%Q%%%
25673D8qQ%qQ%%q%Q%%%q%%QqQq%Q%%%qQ%q%Q%q%Q%%%%%%%%%%%%%%%%%%%%%%%%%%%%%%%%%%
25657D8%%%%qQ%%%%%%%%%%%%%%%%%%%%%%%%%%%%%%%%%%%%%%q%%Qq%%%Qq%QqQ%%%%%%%%%%q
25642D0%%%%Q%%qQ%%q%%Q%q%Q%%%%q%Q%q%%%%Qq%Q%qQ%%%%%%%%%%%%%%q%Q%%%qQqQ%%%%%%
25626D8%%q%Q%%%%qQqQ%%%%qQ%%%%%%%%%%%%%qQ%%%%qQqQ%%%%q%%%%Q%%qQ%%%qQ%q%Q%qQ%
25610D8%%%%%%%%%%%%%q%%%%Qq%Qq%Q%%qQq%%%%Q%q%Q%%%%%%%%%%%%%%%%%%%qQ%%%%%%%%%
25594D8%%%%%q%Q%%%%%%%qQ%%%%qQ%%qQ%%%%%%%qQ%%q%%Q%%%%%%%qQq%%%%%%QqQqQ%%%%qQ
25578D8%%qQq%%%Q%%q%Q%q%Q%%q%Qq%%%%%%%%Qq%Q%qQ%%%qQq%%%QqQqQqQ%%%qQ%%%%%%%%%
25563D8%%qQ%%%%%%%%%%q%%Q%%%%%%%%%%%%%%%qQq%Qq%Qq%%%Q%q%Q%qQ%%qQ%%%qQ%%%%%q%
25547D0Q%%%%%%qQqQqQ%%q%%QqQqQ%%%%%q%QqQqQq%%QqQ%%%%qQ%%%q%%%Qq%QqQ%%%q%QqQq
25531D0Qq%%%%QqQ%qQ%%%%%%%%%%%%%qQ%%q%%%%Q%qQq%%%%%Qq%Q%%%qQqQ%%q%%Qq%%%Qq%%
25515D0Q%%%q%%%%%%Q%%%qQ%%%%%%%%%qQ%%%%%%%%qQ%%q%Q%%qQq%%%QqQ%%%%%%%%%%q%%%Q
25499D8q%Qq%%%Qq%%Qq%%%%%%%%%%%%%Qq%%%%QqQ%qQ%%q%%Q%qQqQq%Qq%Q%%qQq%%%%%%%%%
25484D0%%Qq%%Qq%Qq%%%%%%%%%%%%Qq%%%%%%%%%%%%%%Qq%%%%%%%%%%%%QqQqQ%%q%Qq%Qq%%
25468D0QqQ%q%QqQqQ%%q%Q%qQqQ%%%qQq%%Qq%%QqqJ6qj6QQ%%%Q%%q%%%Qq%Q%q%%%%QqQq%%
25452D0%%Q%qQ%q%Q%%qQqQqQq%%%%QqQ%qQ%%%%q%QqQ%qQqQ%q%%Q%%qQq%%%%%%QqQqQqQqQq
25437D0QqQq%%%%QqQq%Qq%Qq%%%%Qq%Q%q%%Q%%qQqQ%qQ%q%%%%%%%%%%%%%%Q%%q%%%%%%%%%
25421D0%%%%%%%Q%q%Q%qQqQq%Q%%%qQq%Qq%%%%%%%%%%%%%%%%Q%%%%qQq%%Qq%Qq%%%QqQqQq
25405D0%Qq%%Qq%QqQq%%%Qq%%%QqQq%Q%qQq%%%%%Qq%Qq%Qq%%Q%q%Qq%%%%%%%%%%%%%%%%%%
25389D0%%%%%%%%%%%%%%Qq%%QqQq%%%%%Qq%%%%%%%Qq%%%%%%%%%%%%%Qq%Qq%Qq%%%%Q%q%Qq
25374D0Q%q%%Qq%Q%%%q%%QqQq%%%%%%%%%%%%%%Qq%%%%%%%%%%%%%%%%%%%Qq%%%%%%%%%%%%%
25358D0%%%%%%%%%%%%%%%%%%%%%%%%%%%%%%%Qq%Q%q%%%%Q%%q%%%%QqQq%%%%%%%%%%%QqQqQ
25342D8q%%%%%%%%%%%%%%Qq%%%%%%QqQ%%%q%Q%qQqQ%q%%%%%%%%%%%%%%%%%%%%%%%%%%%%%%
25326D0Qq%Qq%%%Q%q%%%Q%%%%%q%%%%%%%%%%%%%Q%q%%%%QqQq%%%%%%%%%%%%%%%%%%%%%%Q%
25310D8qQqQq%%Qq%%%%%%%%%%%%Qq%%%%Q%q%%%%%%Q%qQq%%%%%%%%%%%%%%%%%%Qq%Qq%%%%%
25295D0%Qq%%%Qq%Qq%%%Qq%%%%%%%%%%%%%%%%%%%%%%%%%%%%%%%%Qq%%%%%%%%%%%%%%%%%%%
25279D0%%%%%%%%%%%%%%%%%%%%%%%%%%%%%%%%%%%%%%%%%%%%QqQq%%%%%%%%%%%%Q%q%%%%%%
25263D0%%%%%%%%%%%%%%%%%%%%%%%%%%%Q%q%%%%%%%%%%%Qq%%Qq%%%%%%%%%Qq%%%%%%%%%%%
25247D0Qq%%%Qq%%%%%%%%%%%%%%%%%%%%%%%%%%%%%%%%%%%%%%%%%%%%%%%%%%%%%%%%%%%%%Q
25231D8q%%%Qq%%%%Qq%%%%%%%%%%Qq%%%%qJ6q%%%%Qq%%%%%Qq%%%%%%Qq%%%%%%%%%%%%%%%%
25216D0%%%%%%%%%%%%%%%%%QqQ%q%%%%%%%%%%%Q%q%Qq%%%%%%%%%%%%%%%%%qQQqQ%qqQJ6j6
25201D0qQQk4K4%q%%%Qj6Q%%%%Qq%Qq%Qq%%%%%%%%%%%%%%%%%%%%%%%%%%Qq%%%%%%%%%%%%%
25185D0%%%%%%%%%%%%%%%%%%%%Qq%%%%%%%%%%%%%%%%%%%%%%%%%%%%%%%%%%%%%%%%%%%%%%%
25170D0%%%%%%Qq%QqQqQq%%%%%%%%%%%%%%%%%%%%%%%%%%%%%%%%%%%%%%%%%%%%%%%%%%%%%%
25154D0%%%%%%%%%%%%%%%%%%%%%%%%%%%%%%%%%%%%%%%%%%%%%%%%%%%%%%%%%%%%%%%%%%%%%
25138D0%%%%%%%%%%%%QqQq%%%%%%%%%%%%%%%%%%%%%%%%%%%%%%%%%%%%%%%%%%%%%%%%%%%%%
25122D0%%%%%%%%%%%%%%%%%%%%%%%%%%%%%%%%%%%%%%%%%%%%%%%%%%%%%%%%%%%%%%%%%%%%%
25106D0%%%%%%%%QqQq%%%%%%%%%%%%%%%%%%%%%%%%%%%%%%%%%%%%%%%%%%%%%%%%%%%%%%%%%
25091D0%%%%%%%%%%%%%%%%%%%%%%%%%%%%%%%%%%%%%%%%%%%%%%%%%%%Qq%%%%%%%%%%%%%%%%
25075D0%%%%%%%%%%%%%%%%%%%%%%%%%%%%%%%%%%%%%%%%%%%%%%%%%%%%%%%%%%%%%%%%%%%%%
25059D0%%%%%%%%%%%%%%%%%%%%%%%%%%%%%%%%%%%%Qq%%%Qq%%%%%%%%%%%%%%%%%%%%%%%%%%
25043D0%%%%%%%%%%%%%%%%%%%%%%%%%%%%%%%%%%%%%%%%%%%%%%%%%%%%%%%%%%%%%%%%%%%%%
25027D0%%qQ%%q%Q%qQ%%%%%%%%%%%%%%%%%%%%%%%%%%%qQ%%%%%%%%%%%%%%%%%%%%%%%%%%%%
25012D0%%%%%%%%%%%%%%%%%%%%%%%%%%%%qQ%%%%%%%%%%%%%%%%%%%%%%%%%%%%%%%%%%%%%%%
24996D0%%%%%%%%%%%%%qQ%%%%%qJ6q%Q%qqQ%%%%qQ%%%%%%%%%%%%%%%%%%%%%%%%%%%%%%%%%
24980D0%%%%%%%%%%%%%%%%%%%%%%%%%%%%%%%%%%%%%%%%%%%%%%%%%%%%%%%%Qq%%Qq%%qQqQ%
24965D0%%%%%%%%%%%%%%%%%%%%%%%%%%%%%%%%%%%%%%%%%%%%%%%%%%%%%%%%%%%%%%%%%%%%%
24949D0%%%%%%%%%%%%%%%%%%%%%%%%%%%%%%%%%%%%%%%%%%%%%%%%%%%%%%%%%%%%%%%%%%%%%
24933D0%%qQqQ%%%%%%%%%%%%%%%%%%%%%%%%%%%%%%%%%%%%%%%%%%%%%%%%%%%%%%%%%%%%%%%
24917D0%%%%%%%%%%%%%%%%%%%%%%%%%%%%%%%%%qQqQ%%%%q%%Q%qQ%%%%%%%%%%%%%%%%%%%%%
24901D0%%%%%%%%%%%%%%%%%%%%%%%%%%%%%%%%%%%%%%%%%%%%%%%%%%%%%%%%%%%%%%%%%%%%%
24886D0%%%%%%%%%%%%%%%%%%%%%%%%%%%%%%%%%%%%%%%%%%%%%%%%%%%%Qq%%Qq%%%%%q%QqQ%
24870D0qQ%%%qQ%%%%%%qQ%%%%%%%%%%%%%%%%%%%%%%%%%%%%%%%%%%%%%%%%%%%%%%%%%%%%%%
24854D0%%%%%%%%%%%%%%%%%%%%%%%%%Qq%%%%%%%%%%%%%%%%%%%%%%%%%%%%%%%%%%%%%%%%%%
24838D0%%%%%%%%%%%qQ%%%%%%%%%%%%%%%%%%%%%%%%%%%%%%%%%%%%%%%%%qQ%%qQ%%%%%%%%%
24822D0%%%%%%%%%%%%%%qQ%%%%%%%%%%%%%%%%%qQ%%%%%%%%%%%%%%%%%%%%%%%%%%%%%%%%%%
24807D0%%%%%%%%%%%%%%%%%%%%%%%%%%%%%%%%%%%%%%%%%%%%%%%%%%%%%%%%%%%%%%%%%%%%%
24791D0%%%%%%qQ%%%%%q%Q%qQ%qQ%%%%%%%%%%%%%%%%%%%%%%%%%%%%%%%%%%%%%%%%%%%%%%%
24775D0%%%%%%%%%%%%%%%%%%%%%%%%%%%%%%%%%%%%%%%%%%%%%%%%%%%%%%%%%%%%%qQ%%qQ%%
24759D0%%%%%%%%qQ%qJ6j6QqQ%q%Q%%%%%qQ%%%%%%%%%%%%%%%%%%%%%%%%%%%%%%%%%%%%%%%
24744D0%%%%%%%%%%%%%%%%%%%%%%%%%%q%Q%%%%%%%%%%%%%%%%%%%%qQQj6Q%%Q%qqQ%%%%%%%
24728D0%%%%%%%%%%%%%%%%%%%%%%%%%%%%%%qQqQqQ%%qQ%%%%%%%%%%%%%%%%%q%%Q%%%qQ%%%
24713D0%%%%%%%%%%%%%%%%%%%%%%%%%%%%%%%%%%%q%%Q%%qQ%%%%%qQ%%%%%%%%%%%qQ%%%%%%
24697D0qQ%%%%%%%%%%%%%%%%%%%%%%%%qQ%%%%%%%%%%%%%%%%%%%%%%%%%%%%%%qQq%Q%%%%q%
24681C2QqQ%%%%%qQ%%%%%%%%qQ%%qQ%%%%%q%Q%%qQqQ%%%%%qQ%%%%%%%%q%%%%%Qq%QqQ%%%%
24665D0%%%%%%%%%%%%%%%%%%%%%%%%%%%%%%%%%%%%%%%%%%%%%%%%%%%%%%%%%%%%%%%q%%Qq%
24649C2Q%qQ%%%%%%%%%%%qQqQ%%%%qQ%%%%%%%%%%%%%%qQq%Qq%%Q%%%%%%%%%%%%%%%%%%qQ%
24634D0%%%%%%%%%%%%%%%%%%%%qQ%%%%%%%%%%%%%%%%%%%qQqQ%%%%%%%%%%%%%%%%%%%%%%%%
24618D0%%%%%%%q%%%%QqQ%%%%%%q%QqQ%qQ%%%qQ%%qQ%q%QqQq%Q%q%%Q%%%%%%%%%%%%%%%%%
24602D0%%%qQ%%%%%%%%%%%%%%%%%%%%%%qQ%%%%%%%%%qQ%%%%%%%%%%%%%%%%%%%%%%%%%%%%%
24586D0%%%%%%%%%qQ%%%%%qQ%%%%q%Q%%qQ%q%%%Q%%%%%qQ%%%%qQ%%%%%%%qQ%%qQ%%%%%%%%
24570D0qQqQqQ%%%%%%%%%%%q%Q%q%%Q%%%%qQ%q%%%QqQqQqQq%%%%%%%Q%%%%%qQ%%qQ%%%q%Q
24555D0%%qQ%q%%Qq%%%Qq%%%Q%qQ%qQ%%%%q%%Q%%%%%%%%%%%%%%%%%%%%%%qQqQ%%qQq%%%Q%
24539D0qQ%%%%%%%q%%QqQqQ%%%%%%%%%q%QqQqQqQqQ%%%%q%Q%%qQ%qQ%%Qj6QqQ%%%q%qJ6j6
24524B4%J6qK4l2M8m8j6L2k4L2l2O4qm8%QQq%%%%%Q%%%qQ%%%%%%%%q%Q%qQq%QqQqQ%qQq%%
24511C2%Q%%%%%%%%%%%qQqQ%q%Q%q%%%Q%qQq%%%%%%Qq%%Q%%q%Q%%%%qQq%%%%Q%%%%%q%%Q%
24495D0%qQqQ%q%Q%%%%%%qQ%%%qQq%%Q%q%%%QqQ%qQ%qQqQ%%%%qQ%%%%%%%%q%%%%QqQq%Q%%
24479D0qQ%%q%Q%%qQ%qQ%%%%%%%%q%%Q%%qQq%Q%%%%%%%%%%qQ%%qQq%QqQ%%qQ%%qQq%QqQqQ
24463D0%%%qQ%%%%%%%%%qQ%%%%%%%%%%qQq%%Q%%%%qQ%%%qQ%qQq%%%QqQ%%%%%%%%%qQ%q%Q%
24447D0%%%%%%%%%%%%%q%Q%%%qQqQ%%%q%QqQ%%qQ%q%%Q%%qQ%q%Q%q%%%%%%Q%q%%%Q%%%%%%
24432D0%%qQqQ%%%%%%%%%%%qQ%qQqQ%q%Qq%%Q%%%%%%%%%%%%%%q%Q%q%Q%%qQ%%qQq%%%%%%%
24416C2Q%q%Q%qQqQq%%%%%%%%%%%Q%q%%%%Q%q%Q%%%%%%qQ%%%%%%qQq%%Q%%%%%%%%q%Qq%%Q
24400D0%%%%%qQ%%%qQq%%%%%Qq%%%%%%%%%%%%%%Q%qQ%%q%Q%q%QqQ%q%%Qq%Q%qQ%qQqQ%%%%
24384D0%%%%%qQ%%qQ%q%Q%q%%QqQqQq%%%%Qq%%Q%q%%QqQ%%%qQ%%%%%qQ%q%%%%%%%Qq%Q%%q
24369C2Q%%qQ%%%%%%qQ%%%%%%%q%Qq%%%%%%%Qq%%%Q%%q%%Q%qQ%%%qQq%%Qq%%%Qq%%Q%q%%%
24353C2%%%%%%%QqQq%%%%%%Q%q%%Qq%Qq%%%%Qq%%%%Q%%%%qQqQq%%%%%%%Qq%Q%%q%QqQq%Qq
24337C2%%%%%%%%%%%Qq%%%%%%%%%%Q%%qQ%q%%%%%%%%%%%%%%%%Qq%%%%%%%Q%%%%%qQ%%%%%q
24321C2Q%qQq%%QqQq%QqQq%Q%%%q%Qq%%%Q%%qQq%%%%%%Qq%%Qq%Qq%%%%%Q%%%%qQqQ%q%Q%q
24305C2%Q%qQ%q%%Qq%%Qq%%%%%Q%q%%%%%%Qq%%Qq%Q%qQqQ%%qQ%q%Qq%Qq%QqQq%%%%%%%%%Q
24290D0q%%%%Q%qJ6q%q%%%Q%qQq%Q%%%qQ%%q%Qq%%%%%%%%%%%%Qq%%%%%%%%Qq%%%%Qq%%%%%
24274C2%%%%%%Qq%%Qq%Q%%%qQq%Q%%qQqQ%%%%qQqQqQ%%%%q%%%Q%j6J6%%j6Q%J6j6Qq%%Qq%
24259C2%%%QqQqQq%Qq%%%Qq%%Qq%%%%%QqQ%q%%%%%%Q%q%%%%%%QqQq%%%Qq%%%%%%Qq%%%Q%q
24244C2Q%q%%%%%%%%%%%%%%%%%%%%%%%QqQq%%%Qq%%%%%%%Q%q%%%Qq%%%%Qq%%%%Qq%%%%%%%
24228C2%%%%%%%%%%%%%%%%%%%%%%%%%%%%%%Qq%%%%Q%q%%%%Qq%%%%%%%%%%%%%Qq%%%%%Qq%%
24212C2%%%%%%Qq%%%%%%%%%%Qq%%%%Qq%%%QqQqQq%%%%QqQ%%%%q%%%%%%%%%%%%%%%%Qq%%%%
24196C2%Qq%QqQq%%%%%Qq%%%%%%%%QqQ%q%%%%%%%%%%%QqQq%Q%%%%%%q%Q%%%qQ%q%%%Q%%%%
24180D0%%%%%%%q%%%%%Q%q%%%%%%Q%q%%%%%Qq%%Q%q%%Qq%%Qq%%%%%%%QqQq%%%%Q%%q%Qq%Q
24165D0q%%%%%%%%%%%%%%%%%Qq%%%%%%%%%%%%%%%%%%%%%%Qq%%%%%%%%%%%%%%%%%Qq%Qq%%Q
24149D0%%q%%%Qq%Qq%%Q%qQq%Q%%q%%%Qq%%%%%%%%%%%%%%%%%%%%%%%%%%%%%%%%%%%%%%%%%
24133C2%%%%%%%%%%%Q%%q%%%%%%%%%%Qq%%%%%%%%%%%%%%%%%%%%%%%%%%%%%%%%%%%%%%%%%%
24117C2%%%Qq%%Qq%%Qq%%%%%%%%%Q%q%%%Qq%%%%%%%%%%%%%%%%%%%%%%%%%%%%%%%%%%%%%%%
24101C2%%%%%%%%Qq%%%%%%%%%%%%%%%%%%%%%Qq%%%%%%%%%%%%%%%%%%%%%%%%%%%Qq%%%%%%%
24086C2QqQq%%%%%%%%%Q%q%%%%%%%%%%Qq%%%%Qq%%%%%%Qq%%%%%%%%%%%%%%%%%%%%%%%Qq%%
24070C2%%%%%%%%%%Qq%%%%%%%%%%%%%Qq%%%%%Qq%Qq%QqQq%%Q%q%Qq%Q%%%q%Qq%%%%Qq%%%%
24054C2%%q%J6%qQqqQ%%%%QqQq%Qq%%%%%%%%%%%%%%Qq%%Qq%%%%%%%%%%%%%%%%%%%%%%%%%%
24038C2%%%%%%%%%%%%%%%%%%QqQqQq%%%Qq%%%%%%%%%%%%qJ6%q%Q%qQ%%q%%%Q%q%%%%Qq%%%
24023C2%%%%%%%%%%%%%%%%%%%%%%%%Qq%%%%%%%%%%%Q%%qQq%%%%%%%%%%%Qq%%%%%%%%%%%%%
24007C2%%%%%%%%%%%%%%%%%%%Qq%%%%Q%q%%%%%%%%Q%q%Qq%%Qq%%%%%%Qq%%%%%%%%%%%%%%%
23991C2%%%%%%%%%%%%%%%%%%%%%%%%%%%%%%%%%%%%%%%%%%%%%%%%%%%%%%%%%%%%%%%%%%%%%
23976C2%%%%%%%%%%%%%%%%%%%%%%%Q%q%%%%%%%%%%%%%%%%%%%%%%%%%%%%%%%%%%%%%%%%%%%
23960C2%%%%%%%%%%%%%%%%%%%%%%%%%%%%%%%%%%%%%%%%%%%%%%%%%%%%%%%%%%%%%%%%%%%%%
23944C2%%%%%%%%%Qq%%%%%%%%Qq%%Qq%%%%%%%%%%%%%%%%%%%%%%%%%%%%%%%%%%%%%%%%%%%%
23928C2%%%%%%%%%%qQ%%%%%%%%%%%%%%%%%%%%%%%%%%%%%%%%%%%%%%%%%%%%%%%%%%%%%%%%%
23912C2%%%%Qq%%QqQq%%%%%%%%%%Qq%%Qq%%%%%%%%%%%%%%%%%%%%%%%%%Qq%%%%%%%%%%%%%%
23897C2%%%%%%%%%%%%%%%%%%%%%%%%%%%%%%%%%%%%%%%%%%%%%%%%%%%%%%%%%%%%%%%%%%%%%
23881C2%%%%%%%%QqQq%%%%%%Qq%%%%%%%%%%%%%%%%%%%%%%%%%%%%%%%%%%%%%%%%%%%%Qq%%%
23865C2%%%%%%Qq%%%%%%%%%%%%%%%%%%%%%%%%%%%%%%%%%%%%%%%%%%%%%%%%%%%%%%%%%%Qq%
23849C2Qq%%%%%%%%%%%%%%%%%%%%%%%%%%%%%%Qq%%%%%%%%%%%%%%%%%%%%%%%%%%%%%%%%%%%
23833C2%%%%%%%%%%%%%%%%%%%%%%%%%%%%%%%%Qq%%Qq%%%%%%%%%%%%%%%%%%%%%%%Q%qQq%%%
23818C2%%%%%%%%%%%%%%%%%%%%%%%%%%%%%%%%%%%%%%%%%%%%%%%%%%%%%%Q%%%q%%%%%%%%%%
23802C2%%%%%%%%%%%%%%%%%%%%%%Qq%%%%%%qJ6q%%Qq%%%%%%%%Qq%%%%%%%%%%%%%%%%%%%%%
23786C2%%%%%%%%%%%%%%%%%%%%%%%%%%%%%%%%%%%%%%%%%%%%%%%%Qq%%%%%%%%%%%%%%%%%%%
23770C2%%%%%%%%%%%%%%%%%%%%%%%%%%Qq%%%%%%%%%%%%%%%%%%%%%%%%%%%%%%%%%%%%%%%%%
23755C2%%%%%%%%%%%%%%%%%%%%%%%%%%%%%%%%%%%%%%%%%%%%%%%%%%%%%%%%%%%%%%%%%%%%%
23739C2%%%%%%%%%%%%%%%%%%%%%%%%%%%%%%%%%%%qQ%%%%%%%%%%%%%%%%%%%%%%%%%%%%%%%%
23723C2%%%%%%%%%%%%%%%%%%%%%%%%%%%%%%%%Qq%%%%%%%%%%%%%%%%%%%%%%%%%%%%%%%%%%%
23707C2%%%%%%%%%%%%%%%%%%%%%%Q%%q%%Qq%%%%%%%%%%%%%%%%%%%%%%%%%%%%%%%%%%%%%%%
23691C2%%%%%%%%%%%%%%%%%%%%%%%%%%%%%%%%%%%%%%%%%%%%%%%%%%%%%%%%%%%%%%Qq%%%%%
23676C2%%%%%%%%%%%%%%%%%%%%%%%%%%%%%%%%%%%%%%%%%%%%%%%%%%%%%%%%%%%%%%%%%%%%%
23660C2%%%%%%%%%%%%%%%%%%%%%%%%%%%%%%%%%%%%%%%%%%%%%%%%%%%%%%%%%%%%%%%%%%%%%
23644C2%%%%qQ%%%qQ%%%%%%%%%%%%%%%%%%%%%%%%%%%%%%%%%%%%%%%%%%%%%QqQq%%%Qq%%Qq
23628C2%%%%%%%%%%%%%%%%%%%%%%%%%%%%%%%%%%%%%%%%Qq%%%%%%%%%%%%%%%%%%%%%%%%Qq%
23613C2%%%%Qq%%%%%%%%%%%%%%%%%%%%%%%%%%%%%%%%%%%%%%%%%%%%%%%%%%%%%%%%%%%%%%%
23597C2%%%%%%%%%%%%%%%%%%%%%%%%%%%%%%%%%%%%%%%%%%%%QqqQ%q%QQj6J6%q%Qj6J6j6Q%
23582C2%%qQ%%%%%%%%%%%%%%%%%%%%%%%%%%%%%%%%%%%%%%%%%%%%%%%%%%%%%%%%%%%%%%%%%
23566C2%%%%%%%%%%%%%%%%%%%%%%%%qQ%Qq%%%Qq%%%%%%%%%%%%%%%%%%%%%%%%%%%%%%%%%%%
23550C2%%%%%%%%%%%%%%%%%%%%%%%%%%%%%%%%%%%%%%%%%%%%%%%%%%%%%%%%%%%%%%%%%%%%%
23535C2%%%%%%%%%%%%%%%%%%%%%%%%%%%%%%%%%%%%Qq%%%%%%%%%%%%%%%%%%%%%%%%%%%%%%%
23519C2%%%%%%%%%%%%%%%%%%%%%%%%%%%%%%%%%%%%%%%%%%%%%%%%%%%%%%%%%%%%%%%%%%%%%
23503C2%%%%%%%%%%%%%%%%%%%%%%%%%%%%%%%%%%%%%%%%%%%%%%%%%%%%%%%%%%%%%%%%%%%%%
23487C2%%%%%%%%%%%%%%%%%%%%%%%%%%%%%%%%%%%%%%%%%%%%%%%%%%%%%%%%%%%%%%%%%%%%%
23472C2%%%%%%%%%%%%%%%qQ%Qq%%%%%%%%%%%%%%%%%%%%%%%%%%%%%%%%%%%%%%%%%%%%%%%%%
23456C2%%%%%%%%%%%%%%%%%%%%%%%%%%%%%%%%%%%%%%%%%%%%%%%%%%%%%%%qQ%%%%%%%%%%%%
23440C2%%%%%%%%%%%%%%%%%%%%%%%%%%%%%%%%%%%%%%%%%%%%%%%%%%%%%%%%%%%%%%%%%%%%%
23424C2%%%%%%%%%%%%%%%%%%%%%%%%%%%%%%%%%%%%%%%%%%%%%%%%%%%%%%%%%%%%%%%%%%Qq%
23408C2%%%%%%%%%%%%%%%%%%%%%%%%%%%%%%%%%%%%%%%%%%%%%%%%%%%%%%%%%%%%%%%%%%%%%
23393C2%%%%%%%%%%%%%%%%%%%%%%%%%%%%%%%%%%%%%%%%qQ%%%%%%%%%%%%qQ%%%%%%%%%%%%%
23377C2%%%%%%%%%%%%%%%%%%%%%%%%%%%%%%%%%%qQ%%%%%%%%%%%%%%%%%%%%%%%%%%%%%%%%Q
23361D0q%%%%%%%%%%%%qQ%%%%%%%%%%%%%%%%%%%%%%%%qQ%Qq%%qQ%%Qj6%Q%%%%%%%%%%%%%%
23345C2%%%%%%%%%%%%%%%%%%%%%%%%%%%%%%%%%%%%%%%%%%%%%%%%%%%%%%%%%%%qQ%%%%%qQ%
23330C2%%%%qQqJ6j6QQ%qQqN6k4l2m8j6M8K4k4K4%%q%qQ%%%qQqQ%%qQ%Qq%%%%qQ%%%%%qQ%
23316C2%%%%%%%%%%%%%%%%%%%%%%%%%%%%%%%%%%%%%%%%%%%%%%%%%%%%%%%%%%%%%%%%%%%%%
23301C2%%%%%%%%%%%%%%%%%%%%%%%%%%%%%%%%%%%%%%%%%%%%%%%%%%%%%%%%%%%%%%%%%%%%%
23285C2%%%%%%%%%%%%%%%%%%%%%%%%%%%%%%%%%%%%%%%%%%%%%%%%%%%%%%%%%%%%%%%qQ%%%%
23269C2%%%%%%%%%qQ%%%%%%%%%%%%%%%%%%%qQ%%%%%%%%%%%%%%%%%%%%%%%%%%%%%%%%%%%%%
23253C2%%%%%%%%%%%%%%%%%%%%%%%%qQ%%%%%%%%%%%%%%%%%%%%%%%%%%%%%%%%%%%%%%%%%%%
23237C2%%%%%%%%%%%%%%%%%%q%Q%%%%q%Q%%%qQ%%%%%%%%%%%%%%%%%%%%%%%%%%%%%%%%%%%%
23222C2%%%%%%%%%%%%%%%%%%%%%%%%%%%%%%%%%%%%%%%%%%%%%%%%%%%%%%%%%%%%%%%%%%%%%
23206C2%%%%%%%%%%%%%%%%%%%%%%%%%%%%%%%%%%%%%%%%%%%%%%%%%%%%%%%%%%%%%%%%%%%%%
23190C2%%%%%%%%%%%%%%%%%%%%%%%%%%%%%%%%%%%%%%%qQ%%%%%%%%qQ%%%%%%%%%%%%%%%%%%
23174C2qQ%%%%%qQ%%%%%%%%%%%%%%%%%%%%%%%%%%%%%%%%%%%%%%%%%%%%%%%%%%%%%%%%%%%%
23158C2%%%%%%%%%%%%%%%%%%%%%%%%%%%%%%%%%%%%%%%%%%%%%%%%%%%%%%%%%%%%%%%%%qQq%
23143B4%Q%qQ%%%%%%qQ%%%%%%%%%%%%%%%%%%%%%%%%%%%%%%%%%%%%%%%%%%%%%%%%%%%%%%%%
23127C2%%%%%%%%%%%%%%%%%%%%%%%%%%%%%%%%%%%%%%%%%qQ%%%Qqj6J6%Qj6Q%%%qQ%qQ%%%%
23112C2%%%%%%%%%%%%%%%%%%%%%%%%%%%%%%%%%%%%%qQ%%%%%%%%%%%%%%%%%%%%%%%%%%%%%%
23096C2%%%%%%%%%%%%%%%%%%qQ%%%%%%qQ%%%%%%%%%%qQ%%%%%%%%%%%%%%%%%%%%%%%%%%%%%
23080C2%%%%%%%%%%%%%%%%%%qQ%%%%%%%%%%%%%%%%%%%%%%%%%%%%%%%%%%%%%%%%qQ%%q%QqQ
23064C2%qQ%%%%%%%%%%%%%%%q%Q%%%%%%%%%qQ%%%%%%%%%%%%%%%%%%%%%%%%%%%%%%%%%%%%%
23049C2%%%%%%%%%%q%%Q%%%%%%%%%%%qQqQ%%%%%%%%%%%%%%%%%%%%%%%%%%%%%%%%%%%%%%%%
23033C2%%%%%%%%%%%%%%%%%%%%%%%%%%%%%%%%%%%%%%%%%%%%%%%%%%%%%%%%%%%%%%%%%%%%%
23017C2%%%%%%%%%%%%%%%%%%%%%%%%%%%%%%%%%%%%%%%%%%%%%%%%%%%%%qQ%%%%%%%%%%%%%%
23001C2%%%%q%%%Q%%%qQqQ%qQ%%%%%%%qQ%%%%%%%%%%%%%%%%%%%%%%%%%%%%%%%%%%%%%%%%%
22985C2%q%Q%%%%%%%%%%%%%%qQ%%%%%%%%%%%%%%%%%%%%%%%%%%%%%%Qq%%%%%%%%%%%%%%%%%
22970C2%%%%%%%qQ%%%%%%%%%%%%%%%%%%%%%%%%%%%%%%%%%%%%%%%qQ%%%%%%%%%%%%%%%%%%%
22954C2%%%%%%%%%%%%%%%%%%%%%%%%%%%%%%%%qQq%Q%q%Q%%%%%%%%%%%%%qQ%%%%qQ%%%%%%%
22938C2%%%%%%%%%%%%qQ%%%%%%%%%%%%%%%%%%%%%qQ%%%%%%%%%%%%%%%%%%%%%%%%%%%%%%%%
22922C2%qQ%%%%%%%%%%%%%%%%%%%%%%%%%%%%qQ%%%%%qQ%%qQ%%%%q%Q%%%%%%%%%%%%%%%%%%
22906C2qQqQqQ%%%%%%qQqQ%%%%%%%%qQq%Q%q%%Qq%Qq%Q%%qQ%%%qQ%%qQ%%%%%%qQ%%%qQ%%%
22891C2%%%%%%qQqQ%%%%%qQ%%%%%%%%%%%%%%%%%%qQQq%%%%%%qQqQ%%q%Q%%%%%%%%%%%%%%%
22875C2%%%%qQ%q%%%Q%%%qQq%Q%q%Q%%%%%qQ%%%%%qQ%%%qQqQ%%qQqQ%%qQ%%%%%%%%qQ%%%q
22859B4QqQ%%q%%Qq%QqQ%%qQqQqQqQ%%qQ%%%%%%%%%%%%%qQ%%%%%%%%%%%%%%%%%%%%%%%%%%
22843C2%%%qQ%%%%qQ%%%%%%%%qQ%%%%%%%%%%%%%%%%%%%%%%%%%%%%qQ%%%%%%%%%%%%%%%%%%
22827C2qQqQ%%%%%%%%%%%%%%%qQ%%%%%%%%%%qQ%%%%%%%%%%%%%%%%%qQ%%%%%%%%%%qQ%%%%%
22812C2%%%%%%%%%%%%%%%%%%%%%%%%%%%%%%%%%%%%%%%%%%%%%%%%%%%%%%%qQ%%%%%%%%%q%Q
22796C2%%%%%%%qQ%%%%%%qQ%%%%%%%%%%%qQ%%%qQqQ%%%%%%%%%%%%%%%qQqQ%%%%%%%%%%%%%
22780C2%%%%%%%%%%%%%%%%%%%qQ%qQ%q%%%%Q%q%%%QqQ%%%%%%qQ%%%%%%%qQ%%%%%%%%%qQ%%
22764C2qQ%%%%%%%%%%%%%%%%%%%%%%%%%%%qQ%%%%%%%%%%%%qQqQ%qQ%%%qQ%%%%%%%%%%%%%q
22748B4Q%%%%%%%%%%%%%%%%%%%%%%%%%%%%%%%%%%%%%qQQqqQ%%%%%%%%%%%%%%%%%%%%qQ%qQ
22733C2%%%%%%%%%%%%%%%%%%%%%%%%%%%%%%%%%q%%%Q%qQ%%%%%%%%%%%%%%%%%%%%%%%%%%%%
22717C2%%%%%%%%%%%%%%%%%%qQ%%%%%%%%%%%%%%%%%%%%%%%%%%%%qQ%%%%%%%%%%%%%%%%%%%
22701C2%%%%%%%%%%%%%%%%%%%%%%%%%%%%%%%%%%%%%%%%%%%%%%%%%%%%%%%%%%%%%%%%%%%%q
22685B4Q%%%%%%%%%qQ%%qQ%%%%%%qQqQ%%qQqQ%%%%qQ%%%%%%%%%%%%%%%%%%%%%%%%%%%qQ%q
22670B4%Q%%%%%%%%%%%%%%%%%%%qQ%%%%%%%%qQ%%%%%%%%%%%%%%%%%%%%%%%%%%qQ%%%%%qQ%
22654C2%qQ%%%%%%%%qQqJ6qj6Q%%J6qqJ6j6%J6j6QqM8m0qQ%%qQ%%q%%%Qq%%Q%%%%qQqQ%%%
22640C2%%q%%%QqQq%Q%%%qQ%%%%%%qQ%%qQ%%%%%qQ%%%%%%qQ%%%%%%qQ%%%%%%%%q%Q%%%%%%
22624C2q%Q%%q%%Q%Qj6Q%%%qQ%%%q%QqQ%qQ%%%%%%%%%%%%%%q%Q%%%%%%%%%%%%%%%%%%%%%%
22609C2%%%%qQ%%%%%%%%%%%%%%%%%%%%%%%%%%%%%%%%%%%%%%%%%%%%%%%qQ%%%%%%%%qQ%%%%
22593C2%q%%Q%%%%%%qQ%q%Q%%q%%Q%%%%%%%%%%%%%%%%%%%%qQ%q%Q%%qQ%%%qQ%%qQ%q%%%%%
22577B4QqQ%%%%%%%%%%%q%Q%%q%%%Q%%%qQ%%%%%%%%%q%%%%QqQq%%%Q%q%%%QqQqQ%%%%%%%%
22561C2%%%%%%%qQ%%%%%%%%%%%%%%%%%%%%%%%%%%%%%%%%%%%%%%%%%%%qQqQ%%%%%%%%%%%%%
22545C2%%%q%%%%%%Qq%QqQq%%%%%%%%%%%%%%Q%%qQqQqQ%%%%%%%%%%%%%%%%%%qQ%%q%Q%qQ%
22530C2%%%%qQq%Q%q%Qq%%%Q%qQqQ%%%qQqQqQq%%QqQ%%%%%%%%%%%%%qQ%qQ%%q%Qq%%%Q%q%
22514B4%Q%%%%%%%%%%%%%%qQ%qQ%qQ%%%%%%%%%%qQ%qQ%qQqQ%q%Qq%%Q%%qQq%QqQ%q%%%%Q%
22498C2q%QqQ%qQ%%qQ%%%%q%Q%%qQ%qQ%qQ%qQ%%%%q%%Qq%Q%%qQ%%%%q%Q%%%%%%%%%%%%%%%
22482C2%%%%qQqQ%qQ%%%%%%%%%%%%%q%%Q%%%%%qQ%%%%%%%%qQ%%%qQ%%%%%%%%%%%%%%%%%qQ
22467C2%%%%%%%%%%%qQ%q%%Q%%q%Qq%Qq%Q%%%%%%%%%%%%%%%%%%%%%%%%qQ%%%%q%%%%%Qq%%
22451B4%%%%Q%qQ%q%Qq%%%%%%Q%qQ%%%q%Qq%%%%%%%%%Q%%%%%%%q%%%%%Q%%%%%%%%%%%%%%%
22435C2%%%%%%%%%%%%%%%%%%qQ%%%%%%%%%%%%qQ%%%%%q%%QqQqQq%QqQq%QqQ%%%q%QqQqQq%
22419B4Q%%%qQ%%%%%%q%%%%%%%QqQq%%J6j6%Q%%%%%%%%%qQ%%%%%%%%%%qQ%%%%%%%%qQqQ%%
22404C2qQ%%%%%%qQ%%%%%%%%%q%Q%%%qQ%%%qQ%%%%%qQ%%%%qQ%%%%%q%%Q%%%%qQ%%%%%%%%%
22388C2j6K4k4J6q%Q%%qQqQ%q%Q%%qQq%%Qq%%Q%%%%qQq%%%%Qq%%%%%%%%%%Q%%%%%%%%q%Q%
22373C2%%%%qQ%%%qQqQ%%%%%q%%QqQq%%Q%%%%%%%%qQ%q%Q%%%%q%%QqQ%q%%%%%%%Q%q%%QqQ
22357C2%q%%QqQ%%q%Q%%%%q%Qq%QqQq%%QqQqQqQ%%q%Qq%Qq%%%Qq%%%%%%%%%QqQ%%%%%q%%Q
22342C2q%%Q%%qQ%%q%Q%%%%%%%%%%%%%%%%%%%%qQqQ%%%qQ%%%%%qQ%%%%q%Q%%%%%%q%%Q%%q
22326B4QqQq%Q%%%qQ%%%%%%%%qQqQ%%%%%%qQ%%%%q%%%%%%QqQq%%%%%%Q%%qQqQ%%%q%%Q%qQ
22310C2q%%Q%%%%qQqQ%%q%%QqQ%%%%%%%%%%qQ%%%%%%%qQ%%%%%%%%%%%%%%%%%%%q%Qq%%%Qq
22294B4Q%qQ%%qQ%%%%%%q%QqQqQqQqQ%%%%%%%%q%%%%%Q%%%%%%%%%%%%%%q%%%%Q%%%%%%%%%
22278C2%%%%%%qQ%%%%%qQq%QqQqQq%%Q%q%%%Qq%%%Q%qQqQqQqQqQqQqQ%%qQ%%%%%%%%qQ%q%
22263B4%%QqQq%%%%Q%qQ%%qQqQq%QqQq%Qq%%%%%%Qq%Qq%%%%%%QqQqQq%%%%%Qq%%%Qq%Q%%%
22247C2%%%%%%%%%%%%%%%%%%%%%q%Q%%qQqQq%QqQq%%%%QqQ%q%%Q%%%%q%%%%%%Q%q%%Qq%Qq
22231B4%%%Qq%%%QqQ%%%%%%%%%%q%%%Q%%qQ%%%%%%%%%qQ%%%%qQ%qQqQ%qQ%%%%%%%qQ%%%%%
22215C2%%%%%qQ%%qQ%%qQq%Q%q%%%%%%%%QqQ%qQq%%%%%%Qq%%%%%%%%%%Qq%Q%%%%%q%Q%%%%
22199C2%q%%%%%%%%Q%%q%%Q%%%%%%qQ%qQ%q%Q%q%QqQqQq%%%%QqQ%%qQ%%q%QqQqQq%%Q%qQq
22184B4Q%%%%q%Q%q%%%Q%%%%q%Qj6qJ6Qq%%%Qq%%%%%%Q%%qQqQ%q%%QqQq%%%QqQ%q%%Qq%Q%
22168C2%%%%%%%qQ%%%%%%%%%%qQqQ%q%%%QqQqQq%%%%%Q%qQqQ%%%%qQ%qQ%%%%qQq%Q%q%%Qq
22152B4Q%%qQ%q%Q%q%Q%qQq%%%%%%%%%%QqQ%q%%%Q%qQ%qQ%%%qQ%%qQ%%%%%qQ%qQqQq%%Qq%
22137B4%%%Q%%%%%%%%%%%qQ%%%qQq%Qq%%%%%%Q%q%QqQq%%%%Qq%Q%q%%QqQ%%%%%%%%%%%%%q
22121B4Q%%%%%qQ%q%Q%%%qQ%qQ%q%%Q%%%%%q%%%QqQqQq%%Qq%%QqQ%%q%%%%Qq%Q%%%%%%%%%
22105C2%%%%%%%%qQ%%%%qQ%%%%%%%%%%%%%%%%%qQqQ%q%QqQ%qQ%qQ%%%%%qQ%%%%%%%%qQqQ%
22089C2%%qQ%%%%%%%%qQqQ%qQq%%%Qq%%%Q%%%%%%qQ%%q%%Q%qQ%%q%%Q%q%%%%%%%%Q%qQ%%%
22074C2%%q%%%%%QqQ%qQqQ%%%%qQ%qQq%Q%%%%%%%%%%%%%%q%QqQq%%QqQq%%%%Q%q%Q%q%Qq%
22058B4Qq%%%QqQq%QqQq%%%%Q%q%QqQq%%QqQq%QqQq%Qq%Q%%%q%%%Q%%%qQ%%qQ%%q%Qq%Q%%
22042C2qQqQ%qQ%%%qQ%q%%%Q%%qQqQ%%qQqQ%%q%Q%q%%Q%%%%%qQ%%%%%qQ%%%%%%qQ%%qQ%%%
22026C2%%qQ%%%%q%%QqQq%%%%QqQ%%%%%%%%%%%%%%%q%%%QqQqQ%%%qQqQq%%%%%%%%Qq%QqQ%
22010C2qQqQ%q%%%%%%Qq%QqQ%%%qQq%%Q%q%Qq%QqQq%Q%%%%qQqQq%%%%Qq%Q%qQq%%%%%%Q%q
21995B4%%%Qq%%%%%%%%%%Qq%Qq%Q%q%%%%Q%%%%qQ%%%%%%%%q%%%%%%%%%Q%qQ%q%%%%%%%%%%
21979B4%%Q%q%%%%%%%%%%%%Qq%%%%Q%qQ%q%Q%%%%%%%qQq%Q%%%%%q%QqQqQ%q%%%Qq%%Qq%%Q
21963C2%%qQqQq%%%%%%%%Qq%%QqQq%%QqQqQ%%%%%%%%qQ%q%Qq%%Q%%%%%%%%%qQ%%qQ%%%%qQ
21947C2qQqQ%%qQ%qQq%Qq%Q%q%Q%%%qQ%q%%%%Q%q%Qq%%Q%q%Q%%%%%q%%%%Qq%%Q%qQ%%%%q%
21931B4%%QqQ%%%q%%Q%%qQ%%%%%%%q%Q%%%%%%q%%%%Qq%Qq%Qq%%%%QqqQQ%%%q%Q%%%%%q%Q%
21916C2%%%%%qQqQq%%%%%%Q%qQ%qQq%Q%%%%qQ%%qQq%%%%Q%%%%qQq%%%%Q%%qQ%%q%%%%%%%%
21900B4%Qq%%%%%%%%%%%%%%%Qq%%%Qq%QqQ%%qQqQq%Q%qQqQqQ%%q%%QqQq%%%%%%%Q%qQqQ%q
21884B4%%%Qq%Q%qQq%%%Qq%%Qq%Qq%QqQq%%Qq%%Qq%Qq%Q%q%Q%q%%%%%%QqQ%%q%%QqQq%Qq%
21868B4QqQ%qQq%Qq%QqQq%%%Q%q%%%%%%Qq%%Q%qQ%qQqQqQ%qQqQqQq%Q%q%%%%Q%q%%%%%%%%
21852B4%%QqQ%%%%%q%%QqQ%%qQqQ%%%%%%%q%Qq%%Qq%%%%%%%%%%%%QqQ%%%qQq%Qq%%Q%q%%%
21837B4%%%%%%%%%%QqQq%Q%q%Q%qQqQqQ%%%%q%Q%q%Qq%QqQ%%q%QqQ%qQ%qQ%q%Q%qQ%%q%Q%
21821C2qQ%q%%%Qq%%Q%%%%qQ%%%%%%%%%%%q%%%%%QqQq%%%Qq%%%QqQq%%%%%Qq%%%%Q%%q%%Q
21805C2qQ%%%%%%%q%%%%Q%qQ%%%qQ%%qQqQ%%%%qQq%%Qq%Qq%Qq%Q%%q%%%%%Qq%%%%QqQq%Qq
21789B4%Q%%q%Q%qQ%%q%%%%%%Q%%q%%%Qq%%%Q%q%Qq%%%%%%%%QqQ%%%%%%q%%%%%Qq%%Q%q%Q
21773C2%%q%Q%qQ%%qQ%%q%Qq%%Q%q%%%%%%Qq%%Qq%Qq%%%%%%%%%%%Qq%Qq%%%QqQq%%%%QqQq
21758B4%%%Q%q%%%%%Q%%%q%%%%%%Qq%Qq%%Q%qQ%q%%%%%%%Q%qQqQ%q%%%Q%%qQq%Qq%%%%%%%
21742B4%%%%%%%%%%%%%%%%%%%%%Qq%%Q%qQ%qQ%qQq%%%%%Q%qQ%%qQqQ%%%qQ%%%q%%%%%%%%Q
21726C2%%%q%%%%%%%QqQq%Qq%%%%Q%q%Qq%Q%qQ%%%q%%%%%%%%%QqQqQqQqQ%%%%qQ%%qQq%Q%
21710C2%j6L2k4QQk4J6q%Q%%q%%%%%Q%q%Q%qQq%%%%%Q%%qQqQqQq%%Q%q%%Q%q%%%%%%%%%Qq
21696B4%%%%%Q%q%Qq%%Qq%%Qq%%%Qq%%%Qq%Q%q%%%Qq%%Qq%%Q%%%%%qQ%%q%%%%%Qq%Qq%%%Q
21680C2%q%%Q%%%%%%%%qQq%%%%%%%QqQqQ%%%qQ%%%%q%%QqQq%%%%%%%%QqQ%qQq%Q%%%q%%%%
21664B4%%%%%%%Qq%%%%%%%%%%%%%%%%%%%%%%%Q%q%Q%qQ%qQq%Qq%%%%%%%%Q%q%QqQqQq%%%Q
21648C2%qQqQ%q%Q%%%%q%Qq%%%%%%%%%Qq%%%%Q%q%%%%%QqQq%%%%%%%%%%%%%%%Q%%%%q%%Qq
21632B4Q%%%q%%Q%qQ%%q%Qq%%%%%%%%%%%%Q%q%%%%Qq%%%%%%Q%qQq%Qq%%%%%%%%%%%%Qq%%Q
21617C2q%%%%%%Qq%%Qq%%Qq%%%Qq%%%%%%%%%%QqQ%q%Q%q%%%Q%qQ%q%%%%%%%%%%%%%Qq%%%%
21601B4%%%%%%%%%%%%%%%%Qq%%%%%%%%%%%%QqQqQqQ%%q%%QqQ%qQ%qQq%%%%%%%%%%%%%%%%Q
21585C2q%%%%Qq%%%%%%%%%%%%%%%%%%%%%Qq%%%QqQq%%%%Qq%Qq%Qq%%%%%%%%%%%%%%%%%%%%
21569B4%%Qq%Q%q%%%Qq%%Qq%Qq%Q%%q%%%%%%Q%qQ%%%%%%q%%Qq%%%%%%%%%%%%%%%%%%Qq%%%
21553B4%%%Qq%%Qq%%%%%%%%Q%qQqQq%QqQq%Q%%qQqQqQqQq%%QqQq%Qq%%%%Qq%%%%%%%%%%%%
21538B4%%Q%q%%%Q%%q%%Q%%q%%QqQ%%qQ%%%%qQq%%%%%%%%%%%Q%qQ%%%%%%%%%q%Q%%%%q%Q%
21522C2q%%%%%Qq%Qq%Q%%qQq%%%%%%%Qq%%%%%%%%%%%%%Qq%%%%%%%%%%Qq%%Qq%%QqQq%%%%Q
21506C2q%%Q%q%%Q%%qQqQ%%q%%%%%%%%%%%%%%Qq%%%%%Qq%%%%%%%%%%%%Q%q%Qq%%%Qq%%Qq%
21490B4Qq%Qq%%Qq%%%%%Q%q%%Q%q%%%Qq%Qq%QqQqQ%%qQ%%%%%%q%Q%q%%Qq%QqQ%%%%%%Q%qq
21475B4Qq%Q%q%%%%%%%%%QqQqQ%qQq%%%Qq%%%Qq%%QqQq%%%Q%q%%%%%%%%%%Q%qQq%%%%%%%%
21459B4%%%%%%%Q%qQq%%%%%%Qq%%%%Q%q%%%%QqqJ6j6J6J6k4Q%%%%%%qQqQ%%%qQq%%%%Qq%%
21444B4QqQqQqQq%%%Qq%Q%%%q%%%Q%qQq%%%%%%%%Qq%QqQqQq%%Q%%%%q%Q%q%%%%%Q%%qQqQq
21428B4%Q%%%%q%%%%%%Q%qQqQqQ%q%%%%%%%%%Qq%%%%%%%%Qq%Q%%qQq%%Q%%qQ%%q%%%%%%%%
21413B4Qq%%%Qq%%%%%%%%%%%%%%%%%%%%%%%%%%%%%%%%%%%%%%%%%%%%%%%%Qq%%%%%%%%%%%%
21397B4%%%%%%%%%%%%%Q%q%%%%%%%%%%%Qq%%%%%%%%%%%Q%qQq%%%%%%%%%%%%%%%%%Qq%%%Qq
21381B4Qq%%Qq%%Qq%%%%%%%Qq%Qq%%%%%%%%%%Qq%%%%%%%%%%%%Qq%%%%%%%%%%%%%QqQq%%Qq
21365B4Qq%%%%%%Qq%%Qq%%%%%%%%QqQq%QqQ%qQq%QqQ%q%%QqQ%%qQ%%%%%%q%Qq%Qq%%%Qq%Q
21349C2qQ%q%%%%%%%%%%%Qq%%%%%Qq%%%Qq%%%%Qq%QqQ%q%%%%%%%%%%%%%%%%%%%%%%%%%Q%%
21334C2q%%%QqQ%qQqQqQq%%%%%Qq%QqQ%%%%%q%Q%%%%q%%%%%%%%%%%%%%%Q%q%%%%%%Q%q%Qq
21318B4%%%Qq%%%%%%Q%q%%%%Q%%%%%qQ%%%%qQqQq%%%%%%%%%%QqQ%%%%%qQqQqQq%%Qq%%%%%
21302B4Qq%%Q%%%q%Q%q%%%Q%qQq%Qq%%%%%%%%%%%%%%%Q%q%%Qq%%%%%%Qq%%%%%%%%%%%%%%%
21286B4Qq%%%%%%%%%%%%%%%%%%%%%%Q%qQ%%%%%%%%qQq%%%%Qq%Qq%%Qq%QqQq%%Qq%%%%%%%%
21270B4%%%%%%QqQqQ%%%%%%q%%%Q%%%q%%%%%%%%%%%%%%%%%%%Qq%%%%%%%%%%%%%%%%%%%%%%
21255B4Q%q%%Qq%%%%%%Qq%%%%%%%%%%%Qq%%Qq%%%Q%qQq%%%%%%%Qq%%Q%%q%%%%%%Qq%%%%%%
21239B4Q%%q%%QqQq%Q%%%q%%%%%%%%%%%%%%%%%%%%%%%%%%%QqQqQqQq%%%%%%%%%%%%%%%%Q%
21223C2q%%%Q%q%%%%%%%%%%%%QqQ%qQ%%%q%%%%%%%%%Qq%%%%%QqQ%%qQqQ%q%%%%%%%%%%%%%
21207B4%%%%%%%%%%%%%%%%%%%%%%%%%%%%%Qq%%%%%%%%QqQq%%%%%%%%%Qq%%%%%%Qq%%%%%%Q
21191C2q%%%%%%%%%%%%%%%%%%%QqQ%%q%Qq%%%%%%%Qq%%%%%%%Qq%%%%%%%Qq%%%QqQq%%Qq%%
21176B4%%%%%%%%%%%%%%%%%%%%%%%%%%%%%%Qq%%%%%Qq%%%%%%%%%%%%%%%%%%%%%%%%%%%%%%
21160B4%%%%%Qq%%%%%%%%%%%%%%Qq%%%%%%%Qq%%%%%%%%%%%%%Q%q%%%%%%%%%%%%%%%%%Qq%%
21144B4%Qq%%%%QqQq%Q%%qQq%%%%%%%%%%%%%%%%Qq%Qq%%%%%Q%%qQq%%%%%%%Qq%%%%%%%%%%
21128B4%%%Qq%%%%%%%%%%%%%J6j6%Q%qQq%Q%qQ%qQ%%q%%%%%%Qq%%%%%%%%%%%%%%%%%%%%%%
21113B4%%%%%%%%%Q%q%%%%%%%%%%%%%%%%%%%%%%%%%%Qq%%Qq%%%%%%%QqQq%%%%%Qq%%%%%%%
21097B4%%%%%%%%%%%%%%%%%%%%%%%%%%%%%%%%%Qq%%%%Qq%%%Q%q%%%%%%%%%%%%%%%%%Qq%%%
21081B4%%%%%%%%%%%%%%%%%%%%%%%%%%%%%%Qq%%QqQq%Qq%QqQqQq%%%%%%%Qq%Qq%%%%%%%%%
21066B4%%%%%%Qq%%%%%%%%%%%%%%%%%%%%%%%%%%%%%%%%%%%%%%%%%%Qq%%Q%q%Qq%%%%%%%%%
21050B4%%%%%%%%Qq%%%%%%%%%%%%%%%Qq%%%%QqQ%q%%%Q%q%%%%%%%%%%Qq%%%%%%%%Qq%Qq%Q
21034C2q%%%%%%Qq%QqQq%Qq%%%%%%%%%%%%%%%%%%Qq%Q%%%q%Qq%%Qq%%%%Q%%q%%Qq%%%%%%%
21018B4%%Q%%qQqQq%%%%%%Q%q%%Qq%%%%%%%%%%%%%%%%%%Qq%Qq%%Q%q%qQQ%q%%%%%%%%%%%%
21002B4%%%%%%%%%Qq%%%%Qq%%%%%%%Qq%Qq%%%%%%%%%%%%%%%%%%%%%%%%%%%%%%%%%%%%%%%%
20987B4%%%%%%%Q%q%Q%%%q%%Qq%qQQq%%%%QqQ%q%%%%%%%%%%%%%%%%%Qq%%%Qq%%QqQ%q%%%%
20971B4%%%%Qq%%%%%%%%%%%%%%%%%%%%%%%%%%%%Qq%%%%%%%%%%%%%%%%%%%%%%%%%%%Qq%%%%
20955B4%Qq%%%%%%%%%%%%%%%Q%qQ%qQq%Qq%Qq%Qq%%%Q%q%%%%%%%%%%%%%Q%%%%%qQ%%%%%qQ
20939C2q%%%%%%%%%%%%%%%%%%%%%%%%Qq%Q%q%%%%%%%%%%%%%%%%%%%%%%%%%%%%%%%%%%%%%%
20923B4Qq%%%%%%%%%%%%%%%%%%%Qq%%%%Qq%%%%%Q%q%%%Q%q%%%%%%%%%%%%%%%%%%%%%%%%%%
20908B4%%%%%%%%%%%%%%%%%%%%%%%%%%Qq%%%%Qq%%%%%%%%%%%%%%%%%%Qq%%%%%%Qq%%%%%%%
20892B4%%%%%%%Qq%%Q%q%%%%%%%%%%%%%%%%%Qq%%%%%%%%%%Q%q%%%%%%%%%Qq%%%%%%%%%%%%
20876B4%%%%%%%%%%%%%%%%%%%%%%%%%%%%%%Qq%%%%%%%%%%%%%%%%%%%%%%%%Q%q%%%Qq%%%%%
20860B4%%%%%%%%%%%%%%%%%%%Qq%%%%%%Qq%Qq%%%Qq%%%%%%QqQq%%%%Qq%%Qq%%%%%Qq%%%%%
20844B4%%Qq%%%%%%%%%%%%%%%%%%%%%%%%%%%%%%%%%%%%%%%%%%%Qq%%Qq%%%Qq%%%%%%%Q%q%
20829B4%%%%%%%%%%%%%%%%%%%%%%%%%%%%%%%%%%%%%%%%%%%%%%%%%%%%%%%%%%%%%%%Qq%Qq%
20813B4%%%Q%%%q%%Qq%%Qq%%%%Qq%%%%Qq%%Q%%qQqQq%%%%%%%%Qq%%Q%q%%%%%%%%%%%%%%%%
20797B4%%%%Qq%%%%%%%%%%%%%%%%Qq%%%Qq%%Qq%Qq%%%%%%Qq%%Qq%%%%%%%%%%%%%%%%%%%Q%
20781C2q%%Qq%%QqQ%qQ%q%J6j6%%%%QqQ%q%%%Qq%%qQqQqQqqJ6K4k4j6QJ6%qqJ6j6Q%%Qq%%
20768B4%%%%%Qq%%QqQ%q%%%%%%%%Qq%%%%%Qq%%%Q%qQ%qQq%QqQqQ%%%q%Qq%%%%%%%%%%QqQ%
20752C2q%%%QqQq%%Qq%%%%%%%%qJ6q%%Qq%%%%%Qq%%%%Qq%%%%%%%%Qq%%%%%%%%%%%%%%%%%%
20736B4%%%%%%%%%%%%%%%%%%Qq%%%%%%%%%%%%%%%%%%%%%%%%%Qq%%%%%QqQq%%%%%%%%%%%%Q
20720C2q%%%%%%%%%%%%%%%%%%%%%%%%Qq%%Q%%q%%%%%%%%%%%%%%%Qq%%%%%%Qq%Q%qQ%%qQqQ
20705C2%q%%Q%qQ%%q%%%%%%Qq%%Q%q%%%%%%%%%%%%%%%%%%%%%%%%%%%%%%%%%%%Qq%%%%%%%%
20689B4%%%%%%%%%%%%%%%%Qq%%%%%%%%%%%%%%%Qq%%%%%%%%%%%%%%%%%%%%%%%%%Qq%%%Qq%%
20673B4%%%%%%%%%%%%%%Qq%%Qq%%%%%%%%%%%%%%%%%%Qq%%%%%%%%%%Qq%%%%%%%%%%Qq%%%%Q
20657C2%%q%%%%%Qq%%Qq%%%%%%%%%%%%%%%%%%%%%%%%%%%%%%%%%%%%%%%%%%%%%%%%%%%%%%%
20641B4%%%%%%%%%%%%%%%Qq%%%%%%%%%%%%%%%Q%q%QqQ%q%Qq%%%%%%%%Qq%%%%%%%%%%%%QqQ
20626C2q%%Qq%%%%%%%%%%%%%%%%%%%%%%%%%%%%%%%%%%%%%%%%%%%%%Qq%%%%%%%%%%%%Qq%%%
20610B4%%%%%%%%%%%%Qq%%%%%%%%%%%%%%%%%%%%%%%%%%%Qq%%QqQq%%%%%%%%Q%q%%%%%%%%%
20594B4%%%Qq%%%%%%%%%Qq%Qq%%%%%%%%%%%%%%%%%%%%Qq%%%%%%%%%%%%%%%%%%%%%%%%%%%%
20578B4%%%%%%%%%%%%%%%%%%%%%%%%%%Qq%%QqQq%%QqQq%Qq%%%%%%%%%%%%%%%%%%%%%Qq%Qq
20562B4%%%%%%%%%%%%%%%%%%%%%%%%%%%%%%%%%%%Qq%Qq%%%%Qq%%%%%%%%%%%%%%%%%%%%%%%
20547B4%%%Qq%%%%%%%%%%%%%%%%%%%%%%%Qq%%%%Qq%%%Qj6QQ%q%%%%%%%%Q%q%%%%%%%%%%%%
20531B4%Q%q%%%%%QqQq%%%%%%%%%%%%%%%%%%Qq%%%%Q%%q%%%%%%%%%%%%%%%%%%%%%%%Qq%Qq
20515B4%%%Q%qqQ%Q%%%Qq%qQ%%q%%Qq%%%%%%%%Qq%%%Qq%%%%%%Qq%%Q%%%%%qQq%Qq%%Qq%%%
20499B4%%%%%%%%%%%%%%%%%%%%%%%%%%%%%%%%%%%%%Q%qQ%q%%%%%%%%%Qq%%%%%%%%%%%%%%%
20484B4%%Qq%%%%%%%%%%%%Qq%%QqQq%%Qq%%%%%%Qq%QqQqQq%QqQ%qQq%%%Qq%%%%%%%%%%QqQ
20468C2q%%%%%%%%%%Qq%%%%%%%%Qq%%%%%%%%%%%%%%%%%%%%%%%%%%%%%%%%%Qq%Qq%%%%%%%%
20452B4%%%%%%%%%%%%%%%%%%%%%%%%%%%%%%%%%%%%%%%%%%%%%%%%%%%%%%%%%%%Qq%Qq%%%Qq
20436B4%%%%%%%%%%%%%%%%%Qq%%%%%%%%%%%%%%%%%%%%%%%%%%%%%%%%%%%%%%%%%%%%%Qq%Qj6
20421A6J6qQq%%%%%%%%%%%%%%%%%%%%%%%%%QqQq%%%%%Q%%qQ%%%%qQ%%qQq%%%%%%%%%Q%q%%
20405B4%%%%%%%%%%%Qq%%%%Q%q%%%%%%%%%%%%%%%QqQq%%Qq%%%%%%%%Qq%Qq%%%%%%Qq%%Q%q
20389B4%%%%%%%%%%%%%%%%%%%%%%%%%%%%%%%%%%%%%%%%%%%%%%%%%%%%%%%%%%%%%%%%%%%%%
20373B4%%%%%%%%%%%%%%%%%%%%%%%%%%%%%%%%%%%%%%%%%%%%%%%%%%Q%q%%%%Qq%%%%%%%%%%
20358B4%Qq%%%%%%%%%%Qq%%%%%%Qq%%Q%q%Q%%q%Q%%%q%%%%%%%%%%%%%Q%q%%%%%%%%%%%%%%
20342B4%%%%%%%%%%%%%%%%%%%%%Q%%q%Qq%%Q%q%%%%Qq%%%%%%%%%%%%Qq%Qq%%%%QqQ%qQq%%
20326B4%%%%%%%%%%%%%%%%%%%%%%%%%%%%%%%%%%%%%%%%%%%%%%%%%%%%%%%%%%%%%%%Q%qQqQ
20310C2%q%%%%%%%%%%%Qq%%%%%%%%%%%QqQ%k4QQqQQq%%%%%%%%%%%%%%%%%%%%%%%%%%Qq%%%
20295B4%%%%%%%%%%%%%%%%%%%%%%%%%%%%%%%%%%Qq%Qq%%%%%%%%%%%%%%%%%%%%%%%%%%Qq%%
20279B4%%Qq%%%%Qq%%Qq%Qq%%%%%%%%Qq%%%%%%%%%%%%%%%%%%%%%%%%%%%%%%%%%%%%%%%%%%
20263B4%%%%%%%%%%%Qq%%%%%Q%q%%%%%%%%%%%%%%%%%%%%%%QqQq%Qq%Q%qQ%%%%q%%Q%qQ%%q
20247B4%%QqQqQ%q%Q%%qQq%%%%%Qq%%%%%%%%%%%%%%%%%%%%Qq%%%%%%%%%%%%%%%%%%%%%%%%
20231B4%Qq%%Qq%Q%q%%%%%%%%%%%%%%%%%%%%%%%%%%%%%%%%%%%%%%%%Q%q%%%%%%Qq%%%%%%%
20216B4Qq%%%Q%q%%%%%%%%%%%%%%%%Qq%%%%%%%%%%%%%%%%%Qq%%%%%%%%%%%%%%%%%Q%q%Qq%
20200B4%%%%%%%%%%%%%%%%%%%%%%%%%%%%%%%%%%%%%%%%%%Qq%%%%%%%%%%%%%QqQq%Qq%%%%Q
20184C2qQ%q%%%%%%%%%%%%%%%%%%%%%%Qq%Qq%%%%%%%%%%%Q%qQq%%%%%%%%%%%%%%%%%%%%Qq
20168B4%%%%QqQqQq%Qq%%%%%Qq%%%%%%Qq%%%%Qq%%%%%%%%%%%%%%%%%%%%%%%%%%%%%%%%%%%
20153B4%%%%%%%%%%%%%%%%%%%%%%%%%%%Qq%%%%%%%%%%%%%%%%%%%Qq%%QqQqQq%Q%q%Q%q%%Q
20137C2q%%%%Q%%q%Qq%%Qq%%Qq%%%Qq%%QqQ%q%%%%%%%%%%%%%%%%%%%%%%%%%%%%%%%%%%%%%
20121B4%%%%%%%%%%Qq%%Qq%%Q%qQ%q%%%%%%Qq%%%%%%%%%%%Qq%%%%%%%%%%%%%%%%%%%%%%%%
20105B4%%%%%%%%%Qq%%%Q%qQ%q%%%%%%%%%Qq%%QqQq%Qq%%%%%%Qq%%%%%%%%%%%%%%%%%%%%%
20089B4%%%%Qq%%%%%%%%%%%%%%%%%%%qQ%%%%%%%%%%%%%%%%%%%%%%%%%%%%%%%%Qq%%%%%%Qq
20074B4%%%%%%%%%%Qq%%%%%%%Q%%q%%Qq%%%%%%%%%%%%%%%%%%%%%%%%Qq%Q%q%%Qq%Qq%%%%Q
20058C2q%%%%%%%%%%%Qq%%%%Qq%%Qq%%%%%%%Q%qQ%q%%%%%%%%%%%%%%%qQ%Qq%%J6j6Qq%qQ%
20042B4%%%%%%%%%%%%%%%%%%%%%%%%%%%%%%%%%%%Qq%%%%%%%%Qq%%%%%%%%%%%%%%%%%%%%%%
20027B4%%%%Qq%Qq%%%%%%%%%%%%Q%q%%%%%%%%%%%%%%%%%%%%%QqQq%%%%%%%%%%%%Q%q%%%%%
20011B4%%%%%%%%%%Qq%%%%%%%%%%%%%%%%%%%%%%%%%%%%%%%%%%%%%%%%%%%%%%%%%%%%QqQ%q
19995B4%Qq%%%%%%%%Qq%%%%%%%%%%%%%%%%%Qq%%%%%%%%%%%%%%%%%%%%%%%%%%%%%%%%%%%%%
19979B4%%%%%%%%%%%%%%%%%%%%%%%%%%%%%%%%%%%%%%Qq%%%%%%%%%Qq%%%%%%%%%%%%%%%%%%
19963B4%%%%%%%%%%%%%%%%%%%%%%%%%%%Qq%%%%Qq%%%%%%Qq%%%QqQ%q%%%Qq%%Qq%%%%%Qq%%
19948B4%%%%%%%%Q%q%%%%%%%%%%%%%%%%%%%%%%%%%%%%%%%Q%q%%Q%q%%Q%q%%%%%%%%%%%%%%
19932B4%%%%%%%%%%%%%%%%Qq%%%%Qq%Q%qQ%%qQq%%%Qq%%%%%%%%%%%%%%%%%%%%%%%%%%%%%%
19916B4%%%%%%%%%%%%%%%%%%%%%%%%%%%%%%%%%%%%%%%%%%%%%%%%%%%%%%%%%%%%%%%%%%%Qq
19900B4%Q%q%%%%%%%%%%%%%%%%%%%%%%%%%%%%%%%%%%%%Qq%%%%%%Qq%QqQq%%QqQ%q%%%%Qq%
19884B4%%Qq%%%%%%%%%%Qq%%%%%%QqQq%%Qq%%%%%%%%%Qq%%%%%%%%%%%%%%%%%%%%%%%%%%%%
19869B4%%%%QqQq%%%%%%Qq%%%%%%%Qq%%%%%%%%%%%%%%%%%%%%%%%%Q%q%Qq%Q%qQ%q%Qq%%%Q
19853C2q%%%%%%%%%%%%Qq%%%%%%%%%%%%%%%%%%%%%%%%Qq%%%%%%Qq%%%Q%q%Qq%%%%%%Qq%%%
19837B4%QqQ%%qJ6qqJ6k4Q%Q%j6Q%%%%%%%%%Qq%%%%%%%%%%%Qq%%%%%%%Qq%%%%%%%%Qq%%%%
19822B4%%%%%%Qq%%%%%%%%%%%%%%Qq%%Qq%%%%%%%%%%%%%%%%%Qq%%%%qQ%%%%%%%%%%%%%%%%
19806B4%%%%%%QqQq%%%QqQ%qQ%%q%%%%%%%%Qq%%%Q%qQqQq%%%%%Qq%Qq%%%%%%%%%%%Qq%%%%
19791B4%%%%%%%%%%%%%%%%%%%QqQq%%%%%%%%%%%%%%%%%%%%%%%%%%%%%%%%%%Qq%%%%%%%%%%
19775B4%%%%Qq%%%%%%%%%%%%%%%%%%%%%%%%%%%%%%%%%%%%%%%%%%%%%%%%%%%%%%%%%%%%%%%
19759B4%%%%%%%%%%%%%%%%%%%%%%%%%%%%%%%%%%%%%%%%%%%%%%%%%%%%Qq%%%%%%%%%%%%Qq%
19743B4%%%%%%%%%%%%%%%%%%%%%%%%%%%%%%%%%%%%%%%%%%%%%%%%%%%%%%%%%%Q%%%q%%%%%%
19727B4%%%%%%%%%%Qq%%Qq%%%%%%%%%%%%%%%%%%%%%%%Qq%%%%%%%%%Q%q%%%QqQ%%q%%%%%%%
19712B4%%%%%%%%%%%%%%%%%%%%%%%%%%%%%%%%%%%%%%%%%%%%%%%%%%%%%%%%%%%%%%%%%%%%%
19696B4%%%%%%%%%%%%%%%%%%%%%%%%%%%%%%%%%%%Q%qQ%q%%Q%q%%%%%%Qq%%%Qq%%%%%%%%%%
19680B4%%Qq%%%%%Q%qQqQq%%%%Qq%%%%%Qq%Q%q%%%%%Qq%%%%%%%%%%%%%%%%%%%%%%%%%%%%%
19664B4%%%%%%%%%Q%q%Qq%%Q%%q%Qq%%%%%%%Qq%%%%%%%%%%%%%%%%%%%%%%%%%%%%%%%%%%%%
19649B4%%%%%%%%%%%%%%%%%Qq%%%%%%Qq%%%%%%%%%%%%%%%%%%%%%%%%%Qq%%%%%%QqQqQqQqQ
19633C2q%%%%%%%%%%Qq%%%Qq%%%%%%%%%%%%%%%Qq%%%%%%%%%%%%%%%%%%%%%%%%%%%%%%%%%%
19617B4%%%%%%%%%%%%%%%%%%%%%%%%%Qq%Qq%%Qq%%%%%%%%%%%%%%%%QqQq%%%%%%Qq%%Qq%Q%
19601C2qQq%Qq%%%%%QqQq%%%%%%%%%Qq%%%%%%%%%%%%%QqQq%%%%QqQq%%%%%%%%%%%%%%%%%%
19585B4%%%Qq%%%%%Qq%%%%%%Qq%%QqQq%QqQ%qqJ6qJ6k4%Q%QqQk4%J6l2L2%%%Q%%q%QqQq%%
19571B4%%Qq%%%Qq%%Qq%%%%%%%%%%%Qq%%%%%%%%%%%%Q%%q%%%%%%%%%%%%%%%%%%%%%%%%%%%
19555B4%%%%%%%%%Qq%%%%%%%%%%%%%%%%Qq%%%%%%%%%%%%%QqQq%%%%%%%%%%%%%Qq%QqQq%%Q
19540C2qQ%qQqQq%Q%qQ%%%%qQ%%q%%%%%%%%%%%%%%%%%%%%%%%%%%%%%%Q%q%%%%%%%%%%%%%%
19524B4%%%%%Qq%%%Q%%qQqQq%%%%QqQq%%Q%q%%Q%q%%%%Q%%qQq%%%%Qq%%%%%%%%%Qq%Qq%%%
19508B4Qq%Qq%%%%%%%%%%%%%%Qq%%%%%%%%%%%%%%%%%%%%%%%%%%%%%%%%%%%%%%%%%%Qq%%%%
19492B4%%%%%%%%%%Qq%%%%%%Qq%%%%%%%%%%%%Q%%%q%%%%%%%Qq%%%%%%Q%%q%%%%%%%%%%%Qq
19476B4%%Qq%%%%%%%%%%%%%%%%%%%%%%%%%%%%%Qq%%%%%%%%%%%%%%%%%%%%%%%%%%Q%%qQq%%
19461B4%%%%%%%QqQ%q%%%%%%%%%%%%%%%%%%%%%%%%%%%%%%%%%%%%%%%%%%%%%%%%%%%%%%%%%
19445B4Qq%Qq%Qq%%%%%%%%%%Qq%QqQ%qQqQq%%%%%%%%%%%%%%%%%%%%%%%%%%%%%%%%%%%%%Q%
19429C2qQqQq%%%%%%%%%%%%%%Q%qQqQq%%%%%%%%%%%%%%%%%%%%%Qq%%%%%%%%QqQ%q%%%Q%q%
19413B4%%%%%%%%%%%%%Qq%%%%%%%%%%QqQq%%%Q%%%qQq%%%%%%%%%%%%%%%%%%%%QqQq%%%Q%q
19397B4Q%qQq%%%Qq%%%%QqQq%%%%%%%%%%%%%%%%%%%%%%%%%%%%%%%%%%%%%%%%%%%%%%%%%%%
19382B4%%%%%%%%%%%%%%%%%QqQ%q%%%%%%%%%%%%%%%%%%%%%%%%%%%%%%%%Qq%%%%%%QqQj6%Q
19366B4%%Qj6QQq%Qq%%%%%%%%%%%%Q%%q%%Qq%%%%%%%%%%%QqQq%%%%%%%%%%%%%Q%q%%%%QqQ
19351C2q%Qq%%Qq%%%%%%%%Qq%%%%%%%%%%%%%Q%%q%Qq%%%%QqQ%q%%%%%%%Qq%%%%%Qq%%%%%%
19335B4%%Qq%%%%%%%%%%%%%%%%%%%Qq%%%%%%%%%%%%%Qq%%%%Q%q%%%QqQ%qQqQq%%%%Qq%%%%
19319B4%%%Q%%q%%Q%qQqQq%%%%%%%%%%%%%%%%%%%%%%%%Qq%%%%%%%%%%%%%%Q%q%%%%Qq%%%%
19303B4%%%%%%%%%%%%%%%%%%%%%%%%%%%%%%%%Qq%%%%%%%%%%%%%%%%%%%%%%%%%%%%%%%%%%%
19287B4%%%%%%%%%%%%%%%%%%Qq%%%%%%%%%%%QqQq%%%QqQq%Qq%%%%%%%%%%%%%%%%%%%Qq%%%
19272B4%%%%%%%%%%%%%%%%%%%%%Qq%%%%%%%%%%QqQq%%%%%%%%%%%Qq%%%%%%%%%Qq%%%%%%%%
19256B4%%%Qq%%%%%%%Qq%%%%%%%%%%%%%%%%qJ6%%q%%%%%%%%%%QqQq%Qq%%%%%%%%%%%%%%%%
19240B4%%%Q%qQq%%%Q%q%%Qq%%Qq%%Qq%%Qq%QqQq%%%%%%%%%%%%Qq%%%%%Qq%%Qq%%Qq%%%Qq
19224B4%Qq%%%%%%%%%%%%%%%%%%%%%%%%%%%%%%Q%q%%Qq%%Qq%%%%%%%%%%%%%%%%%%%%%%%%Q
19209C2q%%%QqQq%%%%%%%%%%%%%%%%%%%%%%%%%%%%%%%%%Qq%Qq%%%%%%%%%%Qq%Q%qQq%%%%Q
19193C2q%%%%%%%%Q%%%%%q%%%%Qq%%%Qq%%%%%%Q%qQq%%%%%%%%%%%%%%%%%%%%%%%%%%%%%%%
19177B4%%%%%%%%%%%%%%%%%%%%%Qq%%%%%%%%%%%Qq%%Qq%Qq%%%%%%%%%%%%%%%%%%%%%%%%Qq
19161B4%%%QqQ%q%%%%%%%%%%%%%%%%%Qq%%%%%%%%%%%%%%%%%%%%%Q%q%%%%%%%%Qq%%%Qq%Q%
19145C2q%%%%%QqQ%qQq%%%%%%%%%%%%%%%%%%%%%%%%%Qq%%%%%%%%%%%Qq%%%%%Q%%q%%%Qq%%
19130B4%QqQq%%%%%%%%Qq%%%Qq%%%%%%%%%%%%%%%%%%%%%Q%qQq%%%%%%%%%%%%%%%%%%%%%%%
19114B4%%Qq%%%%Qq%%Qq%Q%q%%%%%%Qq%%%q%QQj6J6%qQq%%Qq%%%%%%%%%%%%%%%%%%%%%%%%
19099B4%%%%%%%%%%%%%Qq%%%%%%%%%%%%%Qq%%%%Qq%%%%%%QqQq%%%Qq%%%%%%%%%%%%%%%%%%
19083B4%%QqQq%%%%%%%%%%%%%%%%%%%%%%%%%%%%%%%%%%%QqQq%%%%%%%%%%%%%Qq%%%Qq%%%%
19067B4%%%Qq%%Q%q%%%%%%%%%%%%%%%%%%%%%%%%%%%%%Q%q%%%%%%%%%%%%%%%%%%%%%%%%%%%
19051B4%%%%%%%%Q%q%%Qq%%%%Qq%%Qq%Q%q%%%%%%%%%%Qq%%%%%%Q%q%%%%%%Qq%%%%%%%%%%%
19035B4QqQq%%%Qq%%%%%%%%Q%q%%%%%%%%%%%%%%%%%%%%Q%q%%Qq%%%%%%Qq%%Qq%%%%%%%%%%
19020B4%%%%%%%%%%%%%%%%Q%%q%%%qJ6q%qJ6q%%%%%%%%%%%Q%q%%%%%%%%%%%%%%%%%%%%%%%
19004B4%Qq%%QqQqQqQ%qQ%qQq%%QqQqQq%%%Qq%Qq%%%Qq%%%%%Q%%q%%Qq%%%%%%%%Qq%Q%q%%
18988B4%%%%%%%%%%%%%%%%%%%%%%%%%%Q%q%Q%q%%%%%%%%%%%%%%%%%%%%%%%%%%%%%%%%%%%%
18973B4%%%%%%%%%%%%%%%%%%%%%%%%%%%%Q%q%%%%%Qq%%%%%%%%%%Qq%%%%%%%%%%Qq%%%%%Qq
18957B4%%%%Qq%%%%%%%%%%%%%%%%%%%%%%%%%%%%%%%%%%%%Qq%%%%%%%%%QqQq%%Qq%%%%%%%%
18941B4%%%%%%%%%%%%Q%%q%%%%%%%%%%%%%%%%%%%%%%%%%%%%%%%%%%%%%%%%%%%%%%Qq%QqQq
18925B4%%%%%%%%QqQq%%%%%%%%%%%%%Q%q%%%%Qq%%%%%%%%%Qq%%%QqQq%%%%%Qq%%%%%Qq%%%
18909B4%Qq%%%%%%%Q%q%Qq%%%%%%%%Q%q%%%%%Q%qQq%%%%Qq%%qJ6%%%qj6QQQqQj6Q%%Q%%q%
18894B4%Qq%Q%%%%qQqQq%%%%%%Qq%%%%%%%%Q%%q%%%%%%%%%%%Qq%%%Q%q%%%%%%Q%q%%%%%%%
18879B4%%%%%%Qq%%%%%%%%%%Qq%%%%qQ%Qq%%%%%QqQ%qQq%QqQ%%%q%%%%%%Q%q%%Qq%%QqQq%
18863B4%%%Qq%%%%%%%%%%%%%%%%%%Qq%%%%%%%%%%%%%%%%%%%%%%%%%%%%%%%%%%%%%%%Qq%%%
18847B4%%%%%%%%Qq%%%QqQq%%%%Qq%%%%%%%%%Qq%%%%%%%%%%%%%%%%%%%%%%%%%%%%%%%%%%%
18831B4%%%%%%%%%%%%%%Q%q%%%%%%%%%%%%%%%%%%%%%Qq%%%Qq%%%Qq%%Q%q%%%%%%%%Qq%%%%
18815B4%%Q%%qQq%%Qq%%%%%%%%%%Qq%QqqQ%%%%%%%%%%%%%%%%%%%%%%Q%%%qQ%%%%%qQ%qQ%%
18800C2q%%%Qq%%%%%%%%%%%%%%%%%%%%%%%%%%%%%%%%%%%%%%%%%Qq%%%%%%Qq%%%Qq%%%%%%%
18784B4%%%%%%%%Qq%%%%%%%%%Q%q%Qq%%%%%%%%%%%%%%%%%%%%%%%%Q%q%%%%%%%%Q%q%Qq%Qq
18768B4%%%%%%%%Qq%%%%%%%%%%Qq%%Qq%%Qq%QqQq%%%Q%q%%%Qq%%%%%%%Qq%QqQq%%%%%%%%%
18752B4%%%%%Q%%qQq%%%%%%%Qq%%%%%%%%%%%%%%%%%%%%%%%%%%%%%%%%QqQqQ%q%Q%%%%%q%%
18736B4Q%qQqQ%%%q%Q%%q%%%%%%%%%%%%%%%%%%Qq%%%%%%%%Qq%%%Qq%%%%Qq%%%Qq%Qq%Qq%%
18721B4%%%%%%%%Qq%%%Qq%%%%%%%%%%%%%%%%%%%%%%%%%%%%%%%%%%%%%%%%%%%%%%%%%%%%%%
18705B4%%Qq%%%%%%%%%%%%%%%%%%%%%%%%%%%%%%%%%%%%%%%%%%%%Q%qQqQq%%%Qq%%%%%%%%%
18689B4%%%%%%%%%%%%%%%%%Qq%%%%%%%%%%%%%%%%%%%%%%Qq%Qq%%QqQ%qQq%%%Q%%%qQ%q%%%
18673B4Q%q%%%%%%%%%Qq%%%%%%%%%Qq%%%%%%Qq%%%Qq%Q%%q%%%%QqQq%Qq%%%Qq%%%%Qq%Qq%
18657B4%%%%%Qq%%%%%%%%%%%%%%%%%%%%%%Qq%%%%%%%%%Qq%%%Qq%%%%%%%%QqQq%%%%%%%%%%
18642B4%Qq%%%%%%Qq%Qj6%K4k4Q%Q%qQq%%%Qq%%Q%q%%%%%%%%%%%Qq%Qq%%%%%%%%%%%%%%%%
18627B4%Qq%%%%%%%%%%%%%%%%%%%%%Q%qQ%%q%Q%q%%%Qq%%%%%Q%q%Qq%%Qq%%%%%%%%%%%%Qq
18611B4%Qq%%Qq%%%%%%%%%%%%QqQ%q%%%%Q%q%%%%%%%%%%%%%%%%%%%%%%%%%%%%%%%%%%%%%%
18595B4%%%%%%%%%%%%%%%%%%%%%%%QqQq%%%%%%%%%%%%%%%%%%%%%%%%%%%%%%%%%%%%Qq%%%%
18579B4%%%Qq%QqQ%%qQqQ%q%%%%%%%%%%%%%%%%%%%%%%%%%%%%%%%%%%%%%%%QqQ%%q%%%%%%%
18563B4%%%%%%%%%%%%%%%%%%Q%qQq%%%%%%%%%%%%%%%%%%%Qq%%%%%%Qq%%%%%Qq%%%%%QqQ%q
18548B4%%%%%%Qq%%%%%%%%%%%%QqQq%%%%%%%%%%%%%%%%%%%%%%%%%%%%%Q%q%Qq%%Qq%%%Qq%
18532B4%Qq%%Qq%%%%%%%%%%%%%%%%%%Qq%%%%%%%%%%%%%%%%%Qq%%Qq%QqQ%%q%%QqQq%%Qq%%
18516B4%%%%%%%%QqQq%%Q%%q%Qq%%%%%%Qq%Q%%%%%qQ%q%%%%Q%%%q%%%%%%%Q%q%%%Qq%%%%%
18500B4Qq%%%%Qq%%%%QqQ%%q%%%%%%%%%%%%%%%%%Q%%%qQqQq%QqQ%%q%%QqQ%qQq%%%Qq%%Qq
18484B4Qq%%%%Qq%Q%q%%%%%Q%%q%%%%%%%%%%%%%%%%%%%%%%%%%%%%%%%%%%%%%%%%%%%%%%%%
18469B4%%%%%%%%%%%Qq%%QqQq%%%%%%%%%%Q%q%Qq%%%%%%%%%%%%%%%%%%%%Q%q%%%Q%q%%%%%
18453B4%%%Q%%qQqQ%%%qQ%q%%%QqQq%%%%Qq%%%%%Qq%Qq%%QqQq%%QqQ%qQ%%q%%%%%%%%%%%%
18437B4Qq%%QqQq%%%%%Qq%%%%%%%QqQq%%%Q%qQ%qQ%%Qq%q%%Qq%%Qq%%QqQqQqQq%%%%QqQq%
18421B4Qq%Q%%q%%%%Qq%%%%%%%%%%%%%%%%%%%%%%Qq%%%%%%Qq%%%%%%%%%%%%%Qq%%%%%Qq%%
18405B4QqQq%%%%%%Q%%%q%%%%%%Qq%%%%%%Qq%%%%%%Q%q%Qq%%Q%q%QqQqQq%%Qq%Qq%%%%%%%
18390B4%%%%%%%%%%%%%%%%%%%%%QqQq%%Q%q%%%%Qq%%%%%%%%%%%%%%%%%%Q%q%%%%%%%%%%%%
18374B4%%%%%%%%%QqQq%%%%%%Qq%%%%%%%Qq%%%%%%%%%%%%%%%%%%%QqQq%%%%%%%%%%%%%%Qq
18358B4%%%%%%%%%%%%%%%%%%%Qq%%%%%%%%Q%q%%%%%%%%%Qq%%Qq%%%%%QqQ%qQq%%%%%%%%%%
18342B4%%%%Qq%%%%%%%%%%%%%%QqQq%%%%%%%%%%%%%%%%%Qq%%%%%%%%%%%QqQq%%Q%%q%Qq%Q
18326C2%%qQq%Qq%%%%%%%%%Q%%%qQ%q%Qq%QqQqQ%qQ%%%qQq%%QqQqQ%qQ%%%%%%qQqQ%%%q%Q
18311C2qQqQqQ%%%q%Qq%QqQqQq%%Qq%%%%%%%%%%%%%%%%%Qq%%%%Qq%%Q%%%qQ%%%%%%qQq%Qq
18295B4%%%Qq%Qq%Q%%qQ%%qQq%Qq%%Q%%q%Qq%%%%%Qq%Qq%%%%%%QqQq%%QqQq%%%%%%Qq%%%%
18279B4%%%%%%%%%%%%%Qq%%%%QqQqQ%q%QqQ%qQ%qQ%qQ%%qQq%%%%Qq%%Q%%qQqQqQ%%%q%%%Q
18263C2q%%%%%Q%%qQqQ%%%%q%%QqQqQqQ%q%%%Qq%%%%Q%q%%%Q%qQqQ%%%%%%%%q%%Qq%%%%%%
18248B4%%%%%%%%%Qq%Q%%%%%q%Qq%%%Qq%%%%%%%%%%%%%%%%%%%%%%%%%%%%%%%Qq%%Qq%%%Qq
18232B4%%Qq%%%%Qq%Qq%%%%%Q%%%%%qQ%qQq%%QqQ%%qQ%%%%%%%%%q%Q%%q%%QqQq%%%Qq%%%%
18216B4%%%%%%Q%q%%%Qq%%%%%%%%%%%%%Qq%%%%%%%%%%%%%%%%%%%%%%%%QqQqQq%Qq%%%%%Q%
18200C2%%%q%%%%%%%%%%Q%qQqQ%qQqQ%%qQ%q%%%QqQ%q%%QqQq%%%%%%%%%%%%%%Qq%Q%q%%%%
18184B4%%%%%%%%QqQq%%%%Qq%%%%%%%%%%%%%%%%%%%%Qq%Q%q%Qq%%%%%%Q%qQ%%qQq%Q%%qQq
18169B4QqQq%Q%%%%%%%qQ%q%%%%Q%%qQ%%%%%%q%Qq%%%%%%%Qq%%%%%%Q%%q%%%%%%%%%%%%%%
18153B4%%%%%%%%%%Qq%Q%q%%%Qq%Q%%q%QqQq%Qq%%Q%q%QqQ%%q%%%%%%%Qq%Q%%%%%q%%%%%%
18137B4Qq%%Q%q%%QqQ%%%%q%%%%%%%%%%%%QqQq%%%%%%%%%Q%%%q%%%%Q%q%Q%%%qQq%%%%%%Q
18121C2%q%Q%%%%%%q%%%%%%%%%%%Q%qQq%%Q%q%QqQq%Q%qQ%%q%QqQq%%%%%%%%%%%%%%Q%q%Q
18105C2%q%%%%QqQ%%q%%%%%Qq%%%%QqQ%%%%q%%Q%qQ%q%Q%%%q%%%%QqQq%%%%Q%%q%%%%%%Qq
18090B4%%%QqQqQ%q%Qq%%%%%%Qq%%%%%%%Q%qQ%%%qQ%%qQ%qQ%qQqQ%q%%Q%qQ%%%%q%%%%Qq%
18074B4%%%%%%%%%%%Qq%%%%%%Qq%Q%%q%%%%%%%%%Q%%%%q%%QqQ%%qQq%%%%QqQ%q%%%%%%%%Q
18058C2q%%%Qq%Qq%Q%qQq%%%%%%%%%%%Q%%qQ%qQq%%QqQq%%%%%%%%QqQqQq%Qq%%%%Qq%%%%%
18042B4%Qq%%%Qq%%Qq%Q%%q%%%%%%%QqQ%qQ%%qQq%%%Q%q%%%%%%%%%%%%%%%%%Qq%QqQq%%%%
18026B4%%%%Qq%%%%%QqQqQqQ%%q%Qq%%%%%%%%%%QqQqQqQqQ%q%%%Q%%q%%%%Q%q%%%%%QqQq%
18011B4Qq%%%%Q%qQq%%%%%%Qq%Q%qQq%Q%%%q%%%%%%%%Qq%%QqQqQ%%qQ%q%%%%%Qq%%%%%%%%
17995B4%%Q%q%%Q%%qQ%qQ%qQ%q%%%%%%%Qq%Qq%%%Qq%%%QqQ%%%qQq%%Q%qQq%%Qq%%%Qq%%%Q
17979C2q%%Q%q%%%Qq%%%%%%Q%qQ%q%Q%%%%%%q%Q%qQqQq%%%%%%%QqQq%Qq%QqQ%q%%QqQq%%%
17963B4Q%q%Q%%qQQj6Qj6J6q%J6j6Q%%qJ6qqQq%%QqQqQq%Q%%%%%%%%%q%Qq%Qq%QqQqQ%%%%
17949C2%q%Qq%%Q%qQq%Q%%qQ%%%%%%qQ%%%%q%%QqQq%%%%%%%Qq%%%Q%qQqQq%Q%qQ%qQq%Q%%
17933C2q%%%%%%%%%%%%Qq%%Qq%%Qq%Q%qQq%Qq%%%%Q%q%%QqQq%%%%%%%%%%%%%%%%%%%%Q%qQ
17917C2%%q%Q%q%%Q%%%qQq%%%%Qq%%Q%q%Q%qQ%qQqQqQqQq%%%%%Q%qQqQq%%Qq%%%%%%%%%%Q
17901C2q%Q%q%%Qq%%%Qq%Qq%%%%%%Q%q%Q%q%%%QqQq%QqQ%%qQqQqQ%%%qQ%q%%%%%%%%%Qq%%
17886B4%%%%%%%%%%%%%%%%Q%%%%%%%%%qQ%%%%%qQ%%qQ%q%Qq%Q%%qQ%%q%%QqQ%%%q%Qq%%%Q
17870C2qQqQqQq%%%%%%%%Q%q%%%%%%%Qq%%Qq%%%%%%%Qq%%Qq%QqQqQ%%%%%%qQ%qQq%Qq%%%%
17854B4%Q%q%%Q%q%%%%%%%%%%%%%%%Qq%QqQq%%%%%%Q%qQ%%qQq%%%%Qq%%%Q%%qQ%%qQ%q%Q%
17838C2%%q%%Q%%qQq%%%%Qq%%%%%%%%%%%%%%%%%%%%%Q%%%qQ%%%%%%%q%%Qq%%%%%%%%%Qq%%
17822B4%%Q%%q%%Q%qQqQq%%Qq%%Qq%QqQq%Qq%%%%QqQ%%qQ%%%%%qQ%%qQ%q%Q%%q%%%Q%q%%%
17807B4%%%%%Qq%%%QqQ%q%QqQqQ%qQq%Q%%%%%q%%%%QqQ%%%qQ%%q%Q%%%%%q%%%%Qq%%%%Qq%
17791B4%%Q%%qQ%%%%%%%%%%%%q%Q%%q%Q%%qQ%%qQqQqQq%Q%qQ%%%%q%%%Qq%Qq%%%%%%%Qq%%
17775B4%%%%%%%Q%q%%%%%%Qq%%%Qq%%%%%%Qq%%Q%qQqQqQ%qQq%%%Qq%Q%%%%%%%%qQ%%%%%%%
17759C2%%%qQ%%qQ%%%qQq%%Q%%%q%Qq%%Q%q%Qq%%Qq%%%%%%Qq%%%%%%%%%%QqQ%%%%%%%%qQ%
17744C2%qQqQ%%%%%%%%q%Q%q%Qq%Q%q%%Qq%%Qq%%Qq%%Qq%%%%QqQqQ%%%%%qQ%%qQ%%q%%QqQ
17728C2%qQ%q%Q%qQq%%%Qq%%%%Q%%%%%%%qQ%q%Q%%qQ%%%%%q%%%%%Q%qQ%%%%%%%%%q%QqQqQ
17712C2q%Q%%%%%%%%%q%%QqQ%%q%%%Q%q%%%%%%%%Qq%%Q%%%%q%J6j6QJ6k4Q%qj6J6Q%%%q%Q
17698C2%qQ%q%QqQ%%qQqQ%%%q%%Q%qQ%q%%QqQq%QqQ%qQ%%q%%Qq%%%QqQ%%%qQ%%qQ%%%qQ%%
17682C2%%q%Q%%q%%Q%qQqQqQqQq%%Q%q%%%%%%Qq%%%%%%%%%Q%%%%q%%%Q%qQ%%q%%%Qq%%QqQ
17666C2q%Q%q%QqQqQ%q%%Q%%%%%%%%qQ%%%q%%Qq%%Q%%q%%%Q%%%q%Q%%%%%%%%%%qQ%%q%%Q%
17650C2%%qQq%Qq%%Q%%qQ%%%%%%%%q%Q%%%%%qQ%qQ%%qQqQ%q%Q%qQq%Qq%%QqQ%%qQ%%qQ%%q
17634B4Q%%%%%%qQ%q%Q%%%qQqQ%q%%%Qq%%Q%qQqQqQ%%q%Qq%%Q%q%%%%%%%%%QqQ%q%QqQq%Q
17619C2qQ%q%Q%%qQ%%%%%qQqQqQ%%%%%%%q%Q%q%%%%%%%%%%QqQ%qQqQ%%qQ%%qQqQ%%%%%%q%
17603B4Q%%qQ%q%%%%%%%%%Q%q%Q%qQ%qQ%q%%%Qq%%Qq%Q%qQqQq%%QqQ%qQq%Q%%%qQ%%%%%q%
17587B4%%QqQ%%%%%%%%%%qQqQ%%%qQqQ%q%%QqQ%q%Qq%Qq%%Qq%%Q%q%QqQ%q%%%%%%Q%q%QqQ
17571C2%%qQ%%%%qQqQ%q%%Q%%%%q%%%%%%QqQqQqQqQq%%%%%%Q%qQqQ%%%%%%%%q%%%%%Qq%%%
17555B4%%%%QqQq%%%%%%Qq%%%%%%Q%%qQ%qQ%%%qQ%%%%%%%%%%%%%%%%%%%%%%%%q%Qq%%%%%Q
17540C2%%%%%%%%%q%Q%%q%%%QqQ%qQ%%%%%%%%%%q%%Qq%Qq%%QqQq%%Qq%%%%Qq%%%%Qq%%%Q%
17524C2%%%%%%qQ%%%%%%%%q%QqQq%QqQ%%%%qQqQ%%%%qQ%%%%%%%%%%qQ%%%%%q%Q%%%%qQq%Q
17508C2%%%%%%q%Qq%%%%%%%%Q%%%%qQ%%%%%%%%%%%%%qQ%qQ%%%qQqQ%q%%%Q%q%Q%q%Q%%qQq
17492B4Q%q%j6K4%%Qqq%Q%%%%%q%QqQ%%q%%Qq%%Qq%Q%q%Q%%qQ%q%%Q%qQ%qQ%%qQqQq%Q%qQ
17477C2q%%Q%qQq%Q%%q%%%%Q%qQ%q%%%Qq%%%%%%%QqQq%%Qq%%Qq%%Q%qQ%%%q%Q%%%q%QqQ%q
17461B4%Qq%Qq%%Q%q%%%%%%%%%%%%Qq%Q%%%%q%Q%qQ%qQ%q%%Q%%%%q%%Q%%%%%%q%Q%%%%q%Q
17445C2%%%%%%q%Q%%%qQqQq%%%%%Q%qQqQ%%%%%%%%qQqQ%%%%%qQ%%qQ%q%%%QqQ%%q%%Q%%qQ
17430C2%%%%%%%%%%%%qQ%qQ%q%Q%q%%%%%Q%%%%%%%%%%%%%%%qQ%%%%%%qQ%%%q%%Q%%%%%%q%
17414B4%%Q%%%%q%%Q%qQ%%%%%%%%%%qQq%%Q%%qQ%%%%%%%%%q%Q%%qQq%%QqQ%qQ%%%%%%%%%%
17398C2%%%%%%%%qQq%QqQ%q%QqQ%qQ%qQ%qQ%%%%%%%%%%%%%qQq%Q%qQ%q%Q%%%%%%%%%%%%%%
17382C2%%%qQ%q%QqQ%%%qQ%%%%%%%%%%%%qQ%%%%%%q%Qq%%Q%q%QqQ%%%%%%%%%%%q%Q%%q%Q%
17366C2qQ%%%qQq%%%Q%%%%%%%%%%%%%%%%%%%%%%%%%qQ%qQ%%qQ%%%%%%qQ%%qQ%%%q%%%%Q%q
17351B4Q%%%q%%%%%Q%q%Qq%QqQ%%%%%qQq%Q%q%Q%%qQ%%%%%%%%q%Q%%%%%%%%%%%%%%%%%%%q
17335B4%Q%qQqQ%%%%%%%%%%%%%qQ%%%%%%%%qQ%%%%%%%%%%%%qQ%%%%%%%%qQ%qQ%%%%%%q%%Q
17319C2%%%%%%%%%%%%%%%%%qQ%%%%%%%%%%%%%%%%%%%%%%%%%%%%%%%%%%%%%q%Q%%%qQ%%%qQ
17303C2%%%%%%%%%qQ%%qQqQ%%%qQq%Q%%%q%%%Q%%%%%%%qQqQqQ%%%qQ%%q%Qq%%Q%q%%QqQ%%
17287C2%%%%%%%%%%%%%%%%%%%%%%qQ%%%%%%%%qQqQ%%%%%%%%%%%%%%%%%%%qQ%q%%Qq%Q%q%Q
17272C2q%%%%%%%Q%%qQ%qQ%%%qQ%%%%%qQ%%qQ%qQqQ%qQ%%q%Q%q%QqQqQqQ%%%%q%Q%%%Qq%%
17256C2%qQqQ%%%qQ%q%Q%%qQ%%%%%%%%qQ%%%%%%%%qQ%%%%qQ%%%%%%%%qQq%%%QqQ%qQ%%qQq
17240B4%%%Q%%%%%qQqQ%qQ%qQqQ%qQ%%qQ%qQ%qQ%q%QqQq%%%Q%%%qQqQ%qQ%%%%%qQ%%qQ%%%
17224C2%%%q%Q%%%%%%%%qQqQ%%%qQ%%%%%%%%%%%%%%%%%%%%%%%qQqQq%%%QqQqQ%qQ%%%%%%%
17208C2%%%%qQ%%%%%%qQq%QqQ%qQqQ%%%%%q%Q%%%%qQ%%%%%qQ%qQ%%%%%%%%%%%%%%%%%%%%%
17193C2qQ%%%q%Q%%%%%%%%%%%%%qQq%%%Q%%%%%%%%qQ%qQqQ%%%%%%%%q%%Q%%%qQ%%q%%%Q%%
17177C2%%%%qQq%Q%%%%%%%%%%%%%%%q%Q%%%%qQ%%q%Q%%%qQq%Q%%%%%%%%%%%qQqQ%%%%%%%%
17161C2%%q%%%Q%qQ%%%%%%%%%%%q%%Q%%%%%%qQ%%qQ%%%%%%%qQ%%%%%%%%%%%%qQqQ%%%%qQ%
17145C2%%qQ%%%%%%%%%%q%%%Qq%%%Q%qQ%%q%%Q%%%%%%%%qQ%%%%%%%qQ%%%%%%%%%%%%%qQ%%
17129C2%qQ%%%%%%%%%%%%%%%%%qQ%%%%%%%%%%qQ%%qQ%%%%%%%%%%%%%%%%%qQqQq%Q%%%%qQ%
17114C2%q%QqQ%%%%%%qQ%q%%Q%%%%%%%%%%%%%%%%%%qQ%%%%%%%%%%%%%%%%qQ%%%q%Q%qQ%%%
17098C2%%qQ%%%%%%qQ%%%%q%%%%Q%q%QqQqQqQ%%%%%%%%qQ%%%%%%%%%%%%%q%Q%%%%%%%%%%%
17082C2%%qQ%%%%%%%%%%qQqQ%%%%qQ%%%%%%%%%%%%%%%%q%Q%qQ%%%%%%%%%%qQ%%%%%%%qQ%q
17066B4%Q%%%%%%q%Q%%%%%%%%%%%%%%%%%%%%%%%%%%%%%%%%%q%Q%%qQ%%%%%%%%%qQ%q%Q%%%
17050C2%%%%%%%%%%%%%%%%%%%%qQ%%%%%%qQ%%qQ%%%%qQqQ%%%qQqQ%%%%%%%%%%%%%%%%%%qQ
17035C2%%qQ%%%%%%%%%%%qQ%%%qQ%q%Q%q%QqQ%%%%%%qQ%QqQqqJ6J6m0QQQ%k4%qP2m8QqJ6q
17020D0j6Qq%qJ6J6k4Q%%qQ%qQq%QqQ%%%%%%%qQ%%%%%%%%%%%%%%%%%%%%%%%%%%%%%qQ%%%%
17006C2%%%qQqQqQ%%%%%%%%%%%%%%%%qQ%%%qQ%%%%%%q%Q%%%%%%%%%%%%%%%%%qQ%%%%qQ%%%
16990C2%%%%%qQ%%%%%%%%%%%%%qQ%%%%%%%%%%%%%%%%%%%%%%%qQ%%%qQ%%%%%%%qQqQ%%%q%%
16974B4Q%%%%%%%%%%%%%%qQ%%%%qQ%qQ%%%%q%%QqQ%%%%%%%%%%q%Q%%%%%%%%%%%%%%%%%%%%
16958C2%%%%%%%%%%%%qQ%%%%%%%q%Q%%%%%%%%%%%%%qQ%%%%%%%%%%%%%%%%%%%%%%%%%%%%%%
16942C2%%%%qQ%%%%%%%%%%qQ%%%%%%%%%%%%%%%%%%q%Q%%%%%%%%%%%%%qQ%%%%qQ%%%%qQ%%%
16927C2%%%%%%%%%%%%%%%%%%%%%%%%%%%%%qQ%%%%%%%%%%%%%%%%%%%%%%%%%%%%%%%%%%%%%%
16911C2%%%%%%qQqQ%%%%%%%%%%%%%%q%Q%%%qQ%%%%%%%%%%%%%%%%%%%%%%%%%%%%%%%%%%%%%
16895C2%%%%%%%%%%qQqQ%%%%%%%%%%%%%%%%%%%%%%%%%%%%%%%%%%%%%%%%%%%%%%%%%qQ%qQ%
16879C2qQ%%%%%qQ%%%%%%%%%%qQ%qQ%%%%%%%%%%%%%%%%%%%%%%%%%%%%%%%%%%%%%%%%%%%%%
16863C2%%%%%%%%%%%%%%%%%%%%%%q%Q%%%%%%%%%%%%%%%%%%%%%%%%%%%%%%%%%%%%%%%%%%%%
16848C2%qQ%%q%Qq%QqQ%%%%%%%%%%%%%%%%%%%%%%%%%%%%%%%%%%%%%%%%%%%%%%%%%%%%%%%%
16832C2%%qQ%%%%%%%%%%%%%%%%%%%%%%%%%%%%%%%%%%%%%%%%%%%%%%%%%%%%%%%%%%%%%%%%%
16816C2%qQ%%%%%%%%%%%%%%%%%%%%%%qQ%%%%%%%%%%%%%%%%%%%%%%%%%%%qQ%%%%%%%%%%%%%
16800C2%%%%%%%%%%%%%%%%%%%%%%%%%%%%%%%%%%qQ%%%%%%%%%%%%%%qJ6qqQQq%%%%%%%%%%%
16785C2%%%%%%%%%%%%%%%%%%%%%%%%%%%%%%%%%%%%%%%qQ%%%%%%%%%qQ%%%%%qQ%%q%QqQ%%%
16769C2qQ%%%%%%%%%%%%%qQqQ%%qQ%Q%%j6QqqK4j6%Q%Qq%%%qQ%%%%%%qQ%%%%%%%%%%%%%%%
16754C2%%%%%%qQ%%%%%%%%%%%%%%%%%%%q%Q%%%%%%%%%%%%%%%%qQ%%%%%%%%%%%%%%%%%%%%%
16738C2%%%%%%%%%%%%%%%%%%%%%%%%%%%%%%%%%%%%%%%qQqQ%%%%%%%%%%%%%%%%%%%%%%%%%%
16722C2%%%%%%%%%%%%%%%%%%%%%%%%%%%%%%%%%%%%%%%%%%%%%%%%%%%%%%%%%%%%%%%%%%%%%
16706C2%%%%%%%%%%%%%%%%%%%%%%%%%%%qQqQ%%%%%%%%%%%%%%%%%%%%%%%%%%%%%%%%%%%%%%
16691C2%%%%%%%%%%%%%%%%%%%%%%%%%%%%%%%%%%%%%%%%%%%%%%%%%%%%%%%%%%%%%%%%%%%%%
16675C2%%%%%%%%%%%%%%%%%%%qJ6q%qQ%%%%%%%%%%%%%%%%%%%%%%%%%%%%%%%%%%%%%%%%%%%
16659C2%%%%%%%%%%%%%%%%%%%%%%%%%%%%%%%%%%%%%%%%%%%%%%%%%%%%%%%%%%qQ%%qQ%%%%%
16644C2%%%%%%%%%%%%%%%%%%%%%%%%%%%%%%%%%%%%%%%%%%%qQ%%%%%%%%%%%%%%%%%%%%%%%%
16628C2%%%%%%%%%%%%%%%%%%%%%%%%%%%%%%%%%%%%qQ%%%%%%%%qQ%qQ%%%%%%%%%%%%%%%%%%
16612C2%qQ%%%%%%%%%q%QqQ%%qQ%%%%%%%%%%%%%%%%%%%%%%%%%%%%%%%%%%%%%%%%qQ%%%%%%
16596C2%%%%%%%%%%%%%%%%%%%%%%%%%%%%%%%%%%%%%%%%%%%%%%%%%%%%%%qQ%%%%%%%%%%%%%
16580C2%%%%%%%%%%%%%%%%%%%%%%%%%%%%%%%%%%%%%%%%%%qQ%%%%%%%%qQ%%%%%%%%%%%%%%%
16565C2%%%%%%%%%%%%%%%%%%%%%%%%%%%%%%%%%%%%%qQ%%%%q%Qq%%J6q%qQ%%%%%%qQ%%%%%%
16549C2%%%qQ%%%%%%%%%%%%%%%%%%%%%%%%%%%%%%%%%%%%%%%%%%%%%%%%%%%%%%%%%%%%%%%%
16533C2%%%%%%%%%%%%Qq%qJ6qqQ%qQ%%q%Q%%%%qQ%%%%%%%%%%%%%%%%%%%%%%%%%%%%%%%%%%
16518C2%%%%%%%%%%%%%%%%%%%%%%%%%%%%%%%%%%%%%%%%%%%%%%%%%%%%%%qQ%%%%%%%%%%%%%
16502C2%%%%%%%%%%%%%%%%%%%%%%%%%%%Qq%qQ%qQ%%%%%%%%%%%%%%%%%%%%%%%%%%%%%%%%%%
16486C2%%%%%%%%%%%%%%%%%%%%%%%%%%%%%%%%%%%%%%%%%%%%%%%%%%%%%%%%%%%%%%%%%qQ%%
16470C2%%%qQ%%%%%%%%%%%%%%%qQqQ%%%%%%%%%%%%%%%%%%%%%%%%%%%%%%%%%%%%%%%%%%%%%
16454C2%%%%%%%%%%%%%%%%%%%%%%%%%%%%%%%%%%%%%%%%%%%%%%%%%%%%%%%%%%%%%%%%%%%%%
16439C2%%%%%%qQ%%%%%%%%%%%%%%%%%%%%%%%%%%%%%%%%%%%%%%%%%%%%%%%%%%%%%%%%%%%%%
16423C2%%%%%%%%%%%%%%%%%%%%%%%%%%%%%%%%%%%%%%%%%%%%%qQ%%q%Q%%%%%%%%%%%%%%%%%
16407C2%%%%%%%%%%%%%%%%%%%%%%%%%%%%%%%%%%%%%%%%%%%%%%%%%%%%%%%%%%%%%%%%%%%%%
16391C2%%%%%%%%%%%%%%%%%%%%%%%%%%%%%%%%%%%%%%%%%%%%%%%%%%%%%%%%%%%%Qq%%%%qQq
16376B4Q%%%%%%%%%%%%%%%%%%%%%%%%%%%%%%%%%%%%%%%%%%%%%%%%%%%%%%qQ%%%%%%%%%%%%
16360C2%%%%%%%%%%%%%%%%%%%%%%%%%%%%%%%%%%%%%%%%%%%%%%%%%%%%%%%%%Qq%%%%%%%%%%
16344C2%%%%%%%%%%%%%%%%%%%%%%%%%%%%%%%%%%%%%%%%%%%%%%%%%%%%%%%%%%%%%%%%%%%%%
16328C2%%%%%%%%%%%%%%%%%%%%%%%%%%%%%%%%%%%%%q%%Qq%Q%%Qq%%%%%Qq%%%%%%%%%%%%%%
16312C2%%%%%%%%%%%%%%%%%%%%%%%%%%%%%%%%%%%%%%%%%%%%%%%%%%%%%%%%%%%%%%%%%%%%%
16297C2%%%Qq%%%%%%%qQqQqQQq%%%%%%%%%%%%qQ%%%%%%%%%%%%%%%%%%%%%%%%%%%%%%%%%%%
16281C2%%%%%%%%%%%%%%%%%%%%%%%%%%%%%%%%%%%%%%%%%%%%%%%%%%%%%%%%%%%%%%%%%%%%%
16265C2%%%%%%%%%%%%%%%%%%%Qq%%q%Q%%%%%%%%%Qq%%%%%%%%%%%%%%%%%%%%%%%%%%%%%%%%
16249C2%%%%%%%%%%%%%%%%%%%%%%%%%%%%%%%%%%%%%%%%%%%%%%%%%qQ%%%%%%%%%%%%%%%%%%
16233C2%%%%%%%%%%%%%%%%%%%%%%%%%%%%%%%%%%%%%%%%%%%%%%%%%%%%%%%%%%%%%%%%%%%%%
16218C2%%%%%%%%%%%%%%%%%%%%%%%%%%%%%%%%%%%%%%%%%%%%%%%%%%%%%%%%%%%%%%%%%%%%Q
16202D0j6Q%%Qq%%%%%%%%%%%%%%%%%%%%%%%%%%%%%%%%%%%%%%%%%%%%%%%%%%%%%%%%%%%%%%
16186C2%%%%%%%%%%%%%%%%%%%%%%%%%%%%%%%%%%%%%%%%%%%%%%%%%%%%%%%Qq%%%%%%%%%%%%
16170C2%%%%%%%%%%%%%%%%%%%%%%%%%%%%%%%%%%Qq%%%%%%%%%%%%%%%%%%%%%%%%%%%%%%%%%
16155C2%%%%%%%%%%%%%%%%%%%%%%%%%%%%%%%%%%%%%%%%%%%%%%%%%qQ%%%%%%%%%%%%%%%%%%
16139C2%%%%%%%%%%%%%%%%%%%%%%%%%%%%%%%%%%%%%%%%%%%%%%%%%%%%%%%%%%%%%%%%%%%%%
16123C2%%%%%%%%%%%%%Qq%%%%%%Qq%%%%%%%%%%%%%%%%%%%%%%%%%%%%%%%%%%%%%%%%%%%%%%
16107C2%%%%%%%%%%%%%%%%%%%%%%%%%%%%%%%%%%%%%%%%%%%%%%%%%%%%%%%%%%%%%%%%%%%%%
16091C2%%%%%%Qq%%%%%%%%%Qq%%%%q%%QQ%j6Qk4J6K4qqQq%%%%%%%%%%%%%%%%%%%%%%%%%%%
16077C2%%%%%%%%%%%%%%%%%%%%%%%%%%%%%%%%%%%%%%%%%%%%%%%%%%%%%%%%%%%%%%%%%%%%%
16061C2%Q%j6Q%%%%%%%%%%%%%%%%%%%%%%%%%%%%%%%%%%%%%%%%%%%%%%%%%%%%%%%%%%%Qq%%
16045C2%%%%%%%%%%%%%%%%%%%%%%%%Qq%%%%%%%%%%%%%%%%%%%%%%%%%%%%%%%%%%%%Qq%%%%%
16029C2%%%%%%Q%q%%%%%%Q%qQq%%%%%%%%%%%%%%%%%%%%%%%%%%%%%%%%%%%%%%%%%%%%%%%%%
16014C2%%%%%%%%%%%%%%%%%%%%%%%%%%%%%%%%%%%%%%%%%%%%%%%%%%%%%%%%%%%%%%%%%%%%%
15998C2%%%%%%%%%%%%%%%%%%%%Qq%%%%%%%%%%%%%%%%%%%%%%%%%%%%%%%%%%%%%%%%%%%%%%%
15982C2%%%%%%%%%%%%%%%%%%%%%%%%%%%%%%%%%%%%%%%%%%%%%%%%%%%%%%%%%%%%%%%QqQ%q%
15966C2%%%%%%%%%%%%%%%%%%%%%%%%%%%%%%%%%%%%%%%%%%%%%%%%%%%%%%%%%%%%%%%%%%%%%
15950C2%%%%%%%%%%%Qq%Qq%%%%%%%%%%%%%%%%%%%%%%%%%%%%%%%%%%%%%%%%Qq%%%%%%%%%%%
15935C2%%%%%%%%%%%%%%%%%%%%%%%%%%%%%%%%%%%%%%%%%%%%%%%%%%%%%%%%%%%Qq%%%%%%%%
15919C2%%%%%%%%%%%%%%%%%%%%%%%%%%%%%%%%%%%%%%%%%Qq%%Q%qQq%%%%%%%%%%%%%%%%%%%
15903C2%%%%%%%%%%%Qq%%Qq%%%%%%%%%%%%%%%%%%%%%%%Qq%Qq%%%%%%%%%%%%%%%%%%%%%%%%
15887C2%%%%%%%%%%%%%Q%q%%%%%%%%%%%%%%%%Qq%%%%%%%%%%%%%%%%%%%%%%%%%%%%%%%%%%%
15872C2%%%%%%%%%%%%%%%%%%%%%%%%%%%%%%%%Qq%%%%Qq%%%%%%%%%%%%%%%%%%%%QqQq%%%%%
15856C2%%%%%%%%%%%%%%%%%%%Qq%Q%j6QQ%%q%%%%%%%%%%%%%%%%%%Qq%%%%%%%%%%%%%%%%%%
15840C2%%%Qq%%%%%%%%%%%%%%%%%%qQ%%%%%%%Qq%%%Qq%%%%%qQ%%%%qJ6j6%K4k4QQj6QM0l2
15826D0%k4K4J6j6%J6m0M0k4qJ6%q%%Qq%%%q%J6q%%Qq%%%%%%%%%%%%%Qq%%Q%q%%%%%%%%%%
15812C2%%%%%%%%%%%%%%%%%%%%%%%%%%%%%%%%%%%%%%%%Q%%%q%%Qq%%%%%%Q%q%%%%%%%%%%%
15797C2%%Q%qQq%%%Qq%%%%Qq%%%%%%Qq%%%%%%%Qq%%%%%%%%%%%%%Q%%qQqQ%q%%%%Qq%%%%Q%
15781D0qQq%%%%%%%%Qq%%%%%%%%%%%%%%%%%%%%%%%%%%%%%%%%%%%%%%%%%%Qq%%Q%q%%Qq%%%
15765C2%%%%%%%%%%Qq%%%%%%Qq%%%Qq%%%%%%%%%%%%%%Q%q%%%%%%%%QqQq%%Qq%%%%%%%%%%%
15749C2Qq%%QqQq%%%%%%%%%%%%Q%qQq%%%%%%%Qq%%%%%%%%%%%%%%%%%Q%q%%Qq%%Qq%%%Q%%%
15733D0%q%%%%%%%%%%%Q%%qQqQqQq%%%%%%%Qq%Qq%%%Qq%%%%%%%%%%%%%%%%%%%%%%%%%%%%%
15718C2%%%%%%%%%%%%%%%%%%%%%%%%%%%%%%%%%Qq%%%%%%%%%%%%%%%%%%%%Qq%%%%%%%%%%%%
15702C2%%%%%%%%%%%%%%%%%%%%%%%%%%%%%%%%%%%%Qq%%Qq%%Q%%q%%%%%%%%Qq%%%%%%%%%%%
15686C2%%%Qq%%%%%%%%%%%%%%%%%%%%%%%%Q%q%%%%%%%%%%%%%%%%%%%%%%%Qq%QqQq%%%%%%%
15670C2%%%%%%%%%%%%%%%%%%%%%%%%%%Q%q%%%%%Qq%%%%%%Qq%Qq%Qq%%%%%%%%%%%%%%%%%%%
15655C2%Qq%%%%%%%%%%%%%%%%%%%Qq%%Q%%q%%%%%%%%%Qq%%Qq%%%%%%%%%%%Qq%%%%%%Qq%%%
15639C2Qq%%%%%%%%QqQq%%%%%Q%q%%%%%%%%%%%%%%%%%%%%%%%%%%%%%%%%%%%%%%%%%Qq%%%%
15623C2%Qq%%%%%%%%%%%%%%Qq%%Qq%%%Q%qJ6%q%j6Q%Qq%%%%Q%q%%%%Qq%%Qq%%%%%%%%%%%%
15608C2Qq%%%Qq%Q%q%%%%%%%%%%%%%%%%Q%%qQq%%Qq%Qq%%%%%%%%%Qq%Qq%%%%%Q%qQqQq%%%
15592C2%%Qq%%%%%%%%%%%Q%qQ%%q%%Qq%Q%%q%%%Qq%%%%%%%%%Qq%%%%%%%%Q%q%Qq%%%Qq%Qq
15576C2%%%%%%%%%%%%%Qq%%%%%%%%%%%%%%%Qq%%%%%%%Qq%%%%%%%%Qq%%%%%%%Qq%%Qq%%%%%
15560C2%%%%%%%%%QqQ%%q%Q%q%Qq%%Qq%%%Qq%Qq%QqQq%%%%Q%q%%%%Qq%Q%qQ%%%%%%q%Qq%%
15544C2%Qq%%%%%%%%%%%%%%QqQq%%Q%%q%%Q%%%%q%Qq%QqQ%q%%%Qq%%%%Q%%%%q%%Q%q%Q%%%
15529D0%q%%%Qq%%%%%Qq%%%%QqQq%%Q%%%%%%%q%%%%%Qq%%QqQq%%Qq%%%%%%%%%%Qq%%Qq%%Q
15513D0%%%q%QqQq%%%%Qq%%%%Q%q%%%%%%%Qq%Qq%%%%%%%%%%Qq%%Qq%%%%%%Qq%Qq%%%%%%Qq
15497C2Qq%%%%Qq%%Qq%%%%%Qq%%Qq%%%%%%QqQ%%%qQq%%%%%%%%QqQq%%%%Qq%%%%%%QqQq%%%
15481C2%%%%%%%%%%%%%%%%%%%%%%%%%%%%Q%%qQq%%%%%Qq%%%%%QqQ%%%qQ%%%qQ%%%%qQq%%%
15465C2%%%%Qq%%%%%%Qq%QqQq%%%%%%Q%qQq%Qq%%%%Q%q%%%QqQ%%%q%%%%%%Q%%q%%%%%%%Qq
15450C2%%Qq%%%%%Qq%Qq%%%Qq%%Q%q%%%%%%%Qq%Qq%%QqQqQqQqQqQ%%q%%%%%%%%%Q%q%%%%%
15434C2%Qq%%QqQ%%%q%%QqQ%%qQ%%q%Q%q%%%%%Q%%%q%%%Qq%Q%%qQqQ%%qQ%%qQ%%%qQ%%qQ%
15418D0q%%Qq%Q%%%qQq%%%%%%%%%Q%%qQ%%qQqQq%%%Qq%%%%%QqQq%%%%%Q%%%qQq%QqQq%Q%%
15402D0%%qQ%%%qQqQq%Qq%Q%%%%%%%qQ%%%%%qQ%qQqQ%qQ%qQ%%%q%Q%%%%%%%q%%Q%q%%%Q%q
15387C2%%Qq%%%Qq%%%%%Q%q%%%Q%q%%Q%%q%QqQq%%%%%%%%%%Q%%%%%%qQ%%qQq%Q%q%%Q%q%Q
15371D0%%q%QqQq%Qq%Q%qQ%%%%%%%%%%%%%%%%%%%%%%%%%%%%%%%%%%%qQ%qQ%%%Qj6%%%%%%Q
15355D0%qQqQ%qQqQ%%%%%%%%qQ%%%%%%%%%%%%%%%%%q%%Q%%%%qQ%%%%%%%qQqQqQ%%qQq%%Qq
15339C2Q%qQqQ%%%%qQ%%q%%QqQq%Qq%%Qq%%%%%%%Q%%%%%%%%%%%%%%%qQ%%%%%%%%%qQ%%%%%
15324D0%%%q%Q%q%Qq%QqQq%Q%%%%%%%%%%%%%%%%%q%%Q%%%q%Q%%%%%%qQ%q%Qq%Q%%%%%%%qQ
15308D0%%q%%%Q%%qQqQqQ%qQqQ%%qQq%Qq%%%%%%%Q%%qQ%qQ%%%qQq%%%%%Q%%q%Q%%%%q%%Qq
15292C2%%%%Qq%%%%QqQ%%%%%%%%%%%%%%%%%%qQq%%QqQ%%%%%%%%%%%%%%%%%%%%%%%%%%%%%q
15276C2Q%%%%%%%%%%%%%%%%%%%%%%%%%%%%%%%%%%qQ%%qQ%%%%%%%%%%%%%%%%%q%Q%%qQqQqQ
15260D0%%%%qQ%%%%qQ%qQ%%%qQ%%%%%%%%%%%%%%%%%%%%qQqQ%%%%q%Q%%q%QqQq%%Q%%%%%qQ
15245D0q%Q%%q%QqQ%%%%%q%Q%q%Q%%qQq%%Q%qQ%%%%qQ%%%qQ%qQ%%%%%%%%%%%%%%%%%%%%%%
15229D0%%%%%%%%%%%%%%%%qQ%%%q%Qq%%%%%Q%qQ%q%QqQ%%%%%%%%%%%%qQ%%%%%%q%Q%%%%%%
15213D0%%%%%%%%%q%%%Qq%%%Qq%%%Q%%%%%qQ%%%%%qQ%qQq%QqQq%QqQ%q%QqQ%%%%%%%%%%%q
15197C2Q%%%%%%%%%%%%%%%qQq%%%%%%%%QqQq%%%Q%%%%%qQ%%%%%%%%%%%qQ%%%%%%%%%%%qQ%
15181D0%%%%qQ%%%%%%%%%%%%%%%%%qQ%%%%%%%%%qQ%%%%%%%%qQ%%qQqQ%%qQ%%%%%%qQqQqQ%
15166D0%qQ%%%qQ%%%%%%%%%qQ%%%%qQ%%%%%%qQ%%%%%%%%%qQ%%%%%%%%qQqQ%q%%Q%%qQ%%%q
15150C2Q%%%qQ%%QqqQj6QQQq%%%q%%Q%qQ%qQq%%QqQ%qQ%%qQqQ%%%%%%%%%%%%%%%%%%%%%%q
15134C2%Q%%%qQqQ%%qQ%%qQqQ%%qQ%%%%%%%%%%%%%%qQ%%%%q%Q%qQq%%Qq%Qq%Q%q%Q%%%%%%
15118D0%%%qQqQ%%%%%%%%%%%%%%%%%qQ%%%%%%%%%%%%%%%%%%%%%%%%%%%%%%%%%%%%%qQ%q%%
15103C2Q%qQq%%QqQ%%%qQ%%%%%%%%%%%%%%%%%%%%%%%%%%%%%%%%%%%%%%%q%Q%qQ%%qQ%%%%%
15087D0%%%%%%%%%qQ%%%%%%%%%%%%%%%%%%%%%%%%%%%%%%%%%%%%%%%%%%%%%%%%%%%%%%%%%%
15071D0%%%%%%%%%%%%%%%%%%%%%%%%%%%%%%%%%qQ%%%%%%%%%%%%%qQ%%%%%%%%%%%%%%%%%%%
15055D0%%%%%%%%%%%%%%%%%%%%%%%%qQ%%%%%qQ%%%%%%%%%%%%%%%%%%%%%%%%%%%%%%%%%%%%
15040D0%%%%%%qQ%%%%%%%%%%%%%%%%%%%qQ%%%%%%%%q%%Q%%%%%qQ%%%%%%%qQ%%%%%%%%%%%%
15024D0%%%%%%%%%%%%%%%%%%%%%%%%%%%%%%%%%%%%%%%%%%%%%%%%%%%%%%%%%%%%%%%%%%%%%
15008D0%%%%%%%qQ%%q%%Q%%%%%%%%%%%%%%%%%%qQ%%%%%%%%%%%%%%%%%%%%%%%%%%%%%%%%%%
14992D0%%%%%%%%%%%%%%%%%%%%%%%%%qQqQ%q%Q%%%%%%q%%QqQ%%%%%%%%%%%%%%%%%%%%%%%%
14976D0%%%%%%%%%%%%%%%%%%%%%%%%%%%%%%%%%%%%%%%%%%%%%%%%%%%%%%%%%%%%%%%%%%%%%
14961D0%%%%%%%%%%%%%%%%%%%%%%%%%%%%%%%%%%%%%%%%%%%%%%%%%%%%%%%%%%%%%%%%%%%%%
14945D0qQ%%%%qQqQ%%%%%%%%%%%%%%%%%%%%%%%%%%qQ%%%%%%%%%%%%%%%%%%%%%%%%%%%%%%%
14929D0%%%%%qQ%%%%%%%%%%%%%%%%%%%%%%%%%%%%%%%%%%%%%%%%%%%%%%%%%%qQ%%%%%%%%%%
14913D0%%q%%Qq%Q%%%%%%%%%%%%%%%%%%%%%%%%%%%%%%%%%%%%%%%%%%%%%%%%%%%%%%%%%%%%
14897D0%%%%%%%%%%%%%%%qQ%%%%%%%%%qQ%qQ%%Qj6Qq%%J6q%%qJ6q%%%%%%q%Q%%%%%%%%%%%
14882D0%%%%%%%%%%%%%%%%%%%%%%%%%%%%%%%%%%%%%%%%%%%%%%%%%%%%%%%%%%%%%%%%%%%%%
14866D0%%%%%%%%%%%%%%%%%%%%%%%%%%%%%%%%%%%qQ%%%%qQ%%qQ%%%%%%%Q%q%Qq%%%%%%%%%
14851D0%%%%%%%%%%%%%%%%%%%%%%%%%%%%%%%%%%%%%%%%%%%%%%%%%%%%%%%%%%%%%%%%%%%%%
14835D0%%%%%%%%%%%%%%%%%%%%%%%%%%%%%%%%%%%%%%%%%%%%%%%%%%%%%%%%%%%%%%%%%%%%%
14819D0%%%%%%%%%%%%%%%%%%%%%%%%%%%%%%%%%%%%%%%%%%%%%%%%%%%%%%%%%%%%%%%%%%%%%
14803D0%%%%%%%%%%%%%%%%%%%%%%%%%%%%%%%%QqQq%%%%%%%%%%%%%%%%%%%%%%%%%%%%%%%%%
14788D0%%%%%%%%%%%%%%%%%%%%%%%%%%%%%%%%%%%%%%%%%%%%%%%%%%%%%%%%%%%%%%%%%%%%%
14772D0%%%%%%%%qQ%%%%qQ%%%%%%%%%%%%%%%%%%%%%%%%%%%%%%%%%%%%%%%%%%%%%%%%%%%%%
14756D0%%%%%%%%%%%%%%%%%%%%%%%%%%%%%%%%%%%%%%%%%%%%%%%%%%%%%%%%%%%%%%Qq%%%%%
14740D0%%%%%%%%%%%%%%qQ%%%%%%%%%%%%%%%%%%%%%%%%%%%%%%%%%%%%%%%%%%%%%%%%%%%%%
14724D0%%%%%%%%%%%%%%%%%%%%%%%%%%%%%%%%%%%%%%%%%%%%%%%%%%%%%%%%%%%%%%%%%%%%%
14709D0%%%%%%%%%%%%%%%%%%%%%%%%%%%%%%%%%%%%%%%%%%%%%%%%%%%%%%%%%%%%%%%%%%%%%
14693D0%%%%%%%%%%%%%%%%%%%%%%%%%%%%%%%%%%%%%%%%%%%%%%%%%%%%%%%%%%qQQj6QQ%q%%
14677D0%%%%%Qq%%%Qq%%%%%%%%%%%%%%%%%%%%%%%%%%%%%%%%%%%%%%%%%%%%%%%%%%%%%%%%%
14661D0%%%%%%%%%%%%%%%%%%%%%%%%%%qQ%%%%%%%%%%%%%%%%%%%%%%%%%%%%%%%%%%%%%%%%%
14646D0%%%%%%%%%%%%%%%%%%%%%%%%%%%%%%%%%QqQq%%%%%%%%%%%%%%%%%%%%%%%%%%%Qq%Qq
14630D0%%%QqQq%%%%%%%%%%%%%%%%%%%%%%%%%%%%%%%%%%%%QqqQQq%%%%%%%%%%%%%%%%%%%%
14614D0%%%%%%%%%%%%%%%%%%%%%%%%%%%%%Qq%%%%%%%QqQqQq%%%%%%%%%%%%%%%%%%%%Qq%%%
14598D0%%%%%%%%%%%%qQ%%%%%%%%%%%%%%%%%%%%%%%%%%%%%%%%%%%%%%%%%%%%%%%%%%%%%%%
14582D0%%%%%%%%%%%%%%%%%%%%%%%%%%%%%%%%QqQqQq%%%%%%%%%%%%%%%%%%%%%%Qq%%%%%%Q
14567D8q%%%%%%%%%%%%%%%%%%%%%%%%%%Q%q%%%%%%Qq%%%%%%%%%%%%%%%%%%%%%%%%%%%%%%%
14551D0%%%%%%%%%%%%%%%%%%%%%%%%%%%%%%%%%%%%%%%%%%%%%%%%%%%%%%%%%%%%%%%Q%q%%%
14535D0%%%%%%%%%%%%%%Q%q%%Qq%%%%%%%%%%%Q%q%%%%%%%%%%%Q%qQ%%%%qQ%q%%%%%%%%%Qq
14519D0%%%%%%Q%q%%%Qq%%%%%%%%%%%%%%%%%%%%%%%%%%%%%%%Q%%%%%q%%Qq%%%%%%%%%%Qq%
14503D0%Qq%Qq%%%QqQqQqQq%Q%%q%%%%%%%Qq%%%%%%%%%%%%%%%%%%%%%%%%%%%%%%%%%%%%%%
14488D0%%%%%%Qq%%%%%%%%%%%%%Q%%%q%%%%%%%Qq%%%Qq%%%%%Q%q%%%%%%%Q%q%%%%QqQqQ%%
14472D8qQ%%qQ%%q%%%%%%%%%%Qq%Qq%Q%%qQq%%%Qq%%QqQqQq%QqQq%%%%Qq%%%%Q%qQ%qQ%%q
14456D0%%QqQ%%q%Qq%%Qq%%Qq%%%%%%Qq%Q%q%Qq%%%Qq%%%%%%%%%%Qj6%QQ%%%%%q%Qq%Q%q%
14441D0Qq%%Qq%%%%%%%%%%Qq%%%%%%%%%%%%%%%%%%%%%%%%%%%%%%%%%%%%%%%%%%Qq%%%%%%%
14425D0%%%%%%%%%%%%%%%QqQqQ%%q%Q%QqqQqQ%q%%Qq%%%%%%%%%%%Qq%Q%%%q%%Q%q%Qq%Q%%
14409D8%%%q%%Q%%q%%%%%%%%%Qq%%%%%%%%%%Qq%%%Qq%%%Qq%%%%Q%qQ%%%qQ%%%%%%qQ%%%%q
14393D0Qq%Q%q%Qq%%%%%%Qq%%Qq%%%%%%%%%%Qq%Q%%%%q%%%QqQq%%Q%qQq%QqQq%%Q%%%%%%q
14377D0%%%%%Q%q%Qq%%%%%%%%%%%%%Qq%Qq%%%%%%%%%Qq%Q%%%%%qQ%%%q%%%%%%%%QqQqQ%%q
14362D0Qq%%QqQq%Qq%%QqQq%Q%q%%Qq%%%%%%%%%Qq%%%%%Q%q%%%%%Q%q%QqQq%QqQq%%%%Q%q
14346D0%%%%%Q%%%qQq%%Qq%%%%%%%%%%Qq%%%%%%%Q%%%qQ%%qQ%%%qQ%%q%%%Q%qQ%%%%%%%%%
14330D8%%%%qQ%%q%Q%%qQ%qQ%qQqQ%%%%%%q%%Q%q%%Qq%%%QqQ%%%%%%%%%%%%%%%%%%%%%q%%
14314D0Q%%qQ%qQ%q%%%%%%%%QqQq%%%%%%%%%%%%%%%%%%%%QqQqQ%%%q%%Qq%%%%Q%%%%%%%q%
14298D0QqQ%qQ%%%%%qQ%qQ%%%%q%%%Qq%%%%%%%%%Qq%Qq%%%%QqQqQq%%%%%%%%%Q%qQ%%q%%%
14283D0%%Qq%Q%%%%qQ%%%q%Q%qQq%%Q%q%%%%%%QqQqQ%qQ%%%%%%qQqQ%%qQqQqQqQ%q%Q%%%%
14267D8%%%%%%%%%%%%qQ%%qQ%%%%%%q%Q%%%%%%%qQ%%%%%qQ%%%%%%%%%q%%Q%%%%%%%%%%%%%
14251D8%%%%%%%%%%%qQq%%%Q%%%%%%%%%%%q%Q%%q%Q%%%%qQ%%q%Q%%q%%%Q%%%%%%q%Q%q%Q%
14235D8%%%%q%%%%%Q%q%%%Q%qQ%%%qQ%%%%%%%%%%%%%%%%%%%%%%%%%%%%%%%%%%%%%%%%%%%%
14219D8%%%%%%%%%%%qQq%Q%%%%qQ%qQ%%%%qQqQqQ%%%%q%qJ6qqQQq%Q%%q%Q%%%%%%%%qQ%%%
14204D8%%%%%%%%%%qQ%%%%qQq%Q%%%%%%%%%%%%%%%%%%%qQ%%%q%%Qq%%QqQqQ%%qQq%%QqQ%%
14188D8qQ%qQ%%%%%%qQ%Qq%%%qQq%Q%%%%%%%%%%%%qQ%%%%%%%%%%%%%%%%%%%%%%%%%%%%%%%
14172D8%%%%%%%%%%%%%%%%%%%%%%%%%%%%qQqQ%%%%%%%%%%%%%%%%%%%%%%%%%%%%%%%%%%%%%
14156D8%%%%%%%%%%%qQq%%%QqQqQ%%%%%%%%%%%%%%%%%%%%%%%%%%%%%%%%%%%%%%%%%%%%%%%
14141D8%%%%%%%%%%%%%%%%%%%%qQ%%%%%q%%Qq%%%%QqQ%%%%%%%%%%%qQ%%qQ%qQ%%%%%%%qQ%
14125D8%%%%%%%%%q%Q%%%qQ%%%%%%%%%%%%%%%%%qQ%%%%%%%%%%%%%%%%%%%%%%%q%QqQ%%qQ%
14109D8%%%%%%%%%%%%%%%%%%%%%%%%%%%%%%%%%%q%Q%qQ%%%%%%%%%%%%%qQ%%%%%%%%%%%%%%
14093D8%%Qq%qQ%%qQ%%%%%%%%%%%%%%%%%%%%%%%%%%%%%%%%%%%%%%%%%%%%%%%%%%%%%%%q%Q
14078D8qQ%%%qQ%%%%%%%%%%%%%%%%%%%%%%%%%%%%%qQ%%%%%q%%Q%%%%%%%%%%%%%q%Q%%%qQ%
14062D8%%%%%%%%%%%%%%%%%qQ%%%%%%%%%%%%%%%%%%qQ%%%%%%%%%%%%%%%%%%%%%%%%%%%%%%
14046D8%%%%%%%%%%%%%%%%%%%%%%%%%%%%qQqQ%%%%%%%%%%%%%%%%%%%%qQ%%%%%%%%%%%%%%%
14030D8%%%%%%%%%%%%%%%%%%%%%%%%%%%%%%%%%%%%%%%%%%%%%%%%%%%%%%%%%%%%%%%%%%%%%
14014D8%%%%%%%%%%qQ%%%%%%%%%%%qQ%%%%%%%%%%%%%qQ%%%%%%%%%%%%%%%%%%%%%%%%%%%%%
13999D8%%%%%%%%%%%%%%%%%%%%%%%%%%%%%%%%%%%%%%%%%%%%%%%%%%%%%%%%%%%%%%%%%%%%%
13983D8%%%%%%%%%%%%%%%%%%%%%%%%%%%%Qq%%%%Qj6Q%%qQ%%%%%%%%%%%%%%%%%%%%%%%%%%%
13967D8%%%%%%%%%%%%%%%%%%%%%%%%%%%%%%%%%%%%%%%%%%%%%qQ%%%%%%%%%%%%%%%%%%qQqQ
13951D8%k4L2qqJ6qQk4J6%qQ%Qq%%%%Qq%%%%Qj6Q%%%%%%%%%%%%%%%%%%%%%%%%%%%%%%%%%%
13937D8%%%%%%%%%%%%%%%%%%%%Q%q%%%%%%%%%%%%%Qq%%%%%%%%%%%%%%%%%%%%%%%%%%%%%%%
13921D8%%%%%%%%%%%%%%%%%%%qQ%%%%%%%%%%%%%%%%%%%%%%%%%%%%%%%%%%%%%%%%%%%%%%%%
13905D8%%%%%%%%%%%%%%%%%%%%%%%%%%%%%%%%%%%%%%%%%%%%%%%%%%%%%%%%%%%%%%%%%%%%%
13890D8%%%%%%%%%%%%%%%%%%%%%%%%%%%%%%%%%%%%%%%%%%%%%%%%%%%%%%%%%%%%%%%%%%%%%
13874D8%%%%%%%%%%%%%%%%%%%%%%%%%%%%%%%%Qq%%%%%%%%%%%%%%%Qq%%%%%%%%%%%%%%%%%%
13858D8%QqqQ%%%%%%%%%%%%%%%%%%%%%%%%%%%%%%%%%%%%%%%%%%%%%%%%%%%%%%%%%%%%%%%%
13842D8%%%%%%%%%%%%%%%%%%%%%%%%%%%%%%%%%%%%%%%Qq%%%%%%%%%%%%%%%Qq%%%%%Q%q%%%
13826D8%%%%%Qq%%%%%%%%%%%%%%%%%%%%%%%%%%Qq%%%%%%%%%%%%Qq%%%%%%%%%%%%%%%%Qq%%
13811D8%%%%%%%%%%%%%%%%%%%%%%%%%%%%%%%%%%Qq%%%%%%%%%%%%%%QqQq%%%%%QqQ%qQq%%%
13795D8%%%%%%%%%%%%Qq%%%%%%%%%%%%%%%%%%%%%%%%%Qq%%%%%%%%%%%%%%%%%%%%%%%%%%%%
13779D8%%%%%%%%%%%%%%%%%%%%%%%%%%%%%%%%%%%%%%%%%%%%%%%%%%%%%%%%%%%%%QqQq%%%%
13763D8%%%%%%%%%%%%%%%%%%%%%%%%%%%%%%%%%%%%%%%%%%%%%%%%%%%%%%%%%%%%%%%%Qq%Qq
13747D8%%%%%Qq%%%%QqQq%%%%%%%%%%Q%qJ6k4QqQ%Q%q%%Q%q%%%%%%%%%%%%%%Q%q%Q%%q%Q%
13732E6qQq%%%%%%%%%%%QqQq%%%%%%%%%%%%%%%%%%%%%%%%%%%%%%%%%%%%%%%%%%%%QqQqQ%%
13716E6%%%%q%%%%%%%%%%%%QqQqQ%q%%Qq%%%Qq%%%%%%%%%%%%%%%%%%%%%Qq%%%%%%%%%%%%%
13701D8%%%%%%%%%%%%%%Qq%Qq%%%%%%%QqQqQq%Qq%Q%qQ%qQqQq%%%%%%%Qq%%%Qq%%%%Qq%%%
13685D8Qq%%%%Qq%%%%Qq%%%Qq%Q%q%Qq%%Qq%%%Qq%Qq%%%%%%%Q%q%Qq%Qq%%%%%Qq%%%%%%%%
13669D8%%%%%%%%%%%%%%%%%%%%%Qq%%%%%%%%%%%QqQqQq%%%%QqQ%qQ%q%Q%q%%%%%%%%%%%%%
13653D8Qq%Q%%q%Q%%qQ%%q%%QqQ%%q%%%%%Q%qQ%%q%Q%%%%qQ%q%%%Qq%%%Qq%%%%%%%Q%%qQ%
13637E6qQ%qQ%%%q%Q%qQ%q%Q%%%%%%%%%%%q%Q%q%QqQqQ%qQ%qQqQ%%q%Q%qQ%%%qQqQ%%%%%%
13622E6%%%%%%%%%%%%qQq%Q%%%%%qQ%%%qQ%%%%%%%%%%%qQq%%%Q%qQq%%%%Qq%%%%%%%%%%%%
13606D8QqQ%%%%%q%Q%q%Q%%%%%%qQ%%%%%%q%%%QqQq%%Qq%%%%%%%%Qq%%%%%%%%%%%%Q%%%%%
13590E6q%%%%%%%%%Q%q%Qq%%%%%Qq%%%%Qq%%%%%Q%q%Q%%qQq%Q%%qQ%%q%%%Q%q%Q%%q%Qq%%
13574D8%%%Q%q%%%%%%Q%%%%%q%%Q%qQ%qQqQ%%qQ%%qQqQ%%%qQ%%qQ%qQ%%qQ%qQ%%%%%qQ%%%
13558E6%%%%%%%%%%%%%%%%%%%%%%%%%%%%%%%%%q%QqQ%%%%qQqQ%%%q%Q%%qQ%%%%%%%%%%%%%
13543E6%%%%%%%%%%%%%%qQ%%%%%%%%%%%%%%%%%qQq%Q%%%%%%%%%%%%%%%%%%%%%%%%%%%%%%%
13527E6%%%%%%%%%qQ%%%qQ%qQqQ%%%%%%%%%%%%%%%%%qQ%%%%%%%%%%%%%%%%%%%%%%%%%qQ%%
13511E6qQ%%%%%%%%qQ%%%q%QqQq%%%%QqQ%%%qQ%q%QqQ%%%%%%%%%%%%%%%%%%%%%%%%%%%%%%
13495E6%%%%%%%%%%%%%%%%%%%%%%%%%%%%%%%%%%%%%%%%%%%%qQ%%%%q%Q%%%q%%Q%%%%%%%%Q
13479F4qqQ%qQ%qQ%q%QqQ%%%%%%%%%%%%%%%%%%%%%%%%%%%%%%%%%%%%%%%%q%Q%%%qQ%%%%%%
13464E6%%%%%%q%Q%%%%%%%%%%%%%%%qQqQ%%%%%%%%%%%%%%%%%%%%%%%%%%%%%%%%%%%%%qQ%%
13448E6%%%%%%%%%%%%%%qQ%%%%%%%%%%%%%%%%%%%%%%%%%%%%%%%%%%%%%%%%%%%%%%qQ%%%%%
13432E6%%%%%%%%%%%%%%%%%%%%%%%%%%%%%%%%%%%%%%%%%%%%%%%%%%%%%%%%%%%%%qQ%%%%%%
13416E6%%%%%%%%%%%%%%%%%%%%%%%%%%%%%%%%%%%%%%%%%%%%%%%%%%%%%%%%%%%%%%%%%%%%%
13400E6%%%%%%%%%%%%%%%%%%%%%%%%%%%%%%%%%%%%%%%%%%%%%%%QqQj6QqQ%%%%%%%%%%%%%%
13385E6%%%%%%%%%%%%%%%%%%%%%%%%%%%%%%%%%%%%%%%%%%%%%%%%%%%%%%%%%%%%%%%%%%%%%
13369E6%%%%%%%%%%%%%%%%qQ%%%%qQ%%%%%%%%%%%%%%%%%%%%%%%%%%%%%%%%%%%%%%%%%%%%%
13353E6%%%%%%%%%%%%%%%%%%%%%%%%%%%%%%%%%%%%%%%%%%%%%%%%%%%%%%%%%%%%%%%%%%%%%
13338E6%%%%%%%%%Qq%%%%%%%%%%%%%%%%%%%Qq%%%%%%%%%%%%%%%%%%%%%%%%%%%%%%%%%%%%%
13322E6%%%%%%%%%%%%%%%%%%%%%%%%%%%%%%%%%%%%%%%%%%%%%%%%%%%%%%%%%%%%%%%%%%%%%
13306E6%%Qq%%%%%%%Qq%%Qq%%%%%%%%%%%%%%%%%%%%%%%%%%%%%%%%%%%%%%%%%%%%%%%%%%%%
13290E6%%%%%%%%%%%%%%%%%%%%%%%%%%%%%%%%%%%%%%%%%%%%%%%%%%%%%%Qj6Q%QqQqQ%qQ%%
13275F4qQj6%QQqj6%j6QQK4Q%qj6K4k4Q%%Q%qQ%j6Q%%%%QqQqQq%%Qq%Qq%%%Qq%%%%%%Qq%%
13261E6%%%%%%%%%%%%%%%%%%%%%%%%%Qq%%%%%%%%%%%%%%Qq%%%%%%%%%%Qq%%Q%%q%%%%%%%%
13245E6%Qq%%%Qq%%%%%%%%%%%%%%%%%%%Qq%%%%%%%%%%%%Qq%%%%%%%%%%%%%%%%%%%%%%%%%%
13229E6%%%%%%%%%%%%%%%%%%%%%%%%%%%%%Qq%%%%%%%%%%%%%%%%%%%%%%%%%%%%%Q%q%%%%%%
13213E6%%%%%%%%%%%%%%%%%%%%%%%%%%%%%%%%%%%%%%%%%%Qq%%%%%%%%%Qq%%%%%%%%QqQqQq
13197E6Qq%%%%%%%%%%Qq%%%%%%%%%Q%%%q%%%QqQqQ%q%%%%%%Qq%Qq%%%%%%%%%%%%%%%%%%%%
13182E6%%%%%%%%%%%%%%%%%QqQqQq%Q%%qQ%%q%Qq%%Q%qQ%q%%%%%%Qq%%%%%%Qq%%%%%%Qq%%
13166E6%%Qq%%%%Qq%%%%%%Qq%%%%%%%%%%%Qq%%%%%%Qq%%%%Qq%%Q%%qQq%Qq%%%%%Q%q%%%%Q
13150F4%qQqQ%qQq%%%%%%%%%%%%%QqQqQqQqQq%%%%%%%%QqQqQqQ%%%q%%%%%%QqQq%Q%qQ%%q
13134E6QqQqQ%%%%q%%QqQ%%%%%qQ%qQq%%Q%%%%%%qQ%%%%%qQ%q%%%%%%Q%%%%%qQ%q%%%%%%Q
13119F4qQqQ%q%%%Q%qQ%%%%%q%Q%q%%Qq%%Qq%Qq%%%QqQ%q%Qq%%%QqQ%%%%qQ%%%%%%%%%%%%
13103F4%qQ%%%%%%%%%%%%%%%%%%%%q%%%Q%%%%%q%QqQ%%%qQ%%qQq%%Qq%Q%qQqQq%Q%%%%%qQ
13087F4%%qQqQq%Qq%%%%Q%%%%%%%qQ%%%%%%%qQ%%q%%Q%qQqQ%%%%%%%q%Q%%%q%Qq%%%%Q%%q
13071E6Q%qQ%%%%%%q%%%%QqQqQ%%%%%%%%%%%%%q%%%%Q%%%%%%%%%%%%%%%%%%%%%%%%qQ%%%%
13055F4%qQqQ%%%q%Q%%%qQq%Qq%%%%%Q%%%%%%%%%%%%%%%%%%%%%qQ%%q%Q%%%%%%%%%qQqQ%%
13040F4%%qQqQ%%Qj6%Q%%%%%%qQqQ%%%%%%%%%%%%%%%%%%%%%%%%%%%%%qQ%%%%%%%%%%%%qQ%
13024F4%%%%%q%%Q%%%%q%%Q%%%%%%%%%%%%q%Q%%%%%%%%%qQqQq%K4j6%%Qj6Q%Qq%%%%%%%%%
13009F4%qQ%q%QqQ%%%%%%%%%%%%%%%%%%%%%%%%%%%%%%%qQ%q%%QqQ%qQqQqQ%%%%%%%%%%%%q
12993E6Q%%%%%%%%%%%%%%%%%%%%%%%%%%%%%%%%%%%%%%%%%qQ%%%%%%%%%%%%%%%%%%%%%%%%%
12977F4%%%%%%%%%%%%%%%%%%%%%%%%%%%%%%%%%%%%%%%%%%%%%%%%%%%%%%%%%%%%%%%%%%%%%
12962F4%%%%%%%%%%%%%%%%%%%%%%%%%%%%%%%%%%%qQ%%%%%%%%%%%%%%%%%%%%%%%%%%%%%%%%
12946F4%%%%%%%%%%%%%%%%%%%%%%%%%%%%%%%%%%%%%%%%%%%%%%%%%%%%%%%%%%%%%%%%%%%%%
12930F4%%%%%%%%%%%%%%%%%%%%%%%%%%%%%%%%%%%%%%%%%%%%%%%%%%%%%%%%%%%%%%%%%%%%%
12914F4%%%%%%%%%%%%%%%%%%%%%%%%%%%%%%%%%%%%%%%%%%%%%%%%%%%%%%%%%%%%%%%%%%%%%
12898F4%%%%%%%%%%%%%Qq%%%%%%%%%%%%%%%%Qq%%%%%%%%%%%%%%%%%%%%%%%%%%%Qq%%%Qq%%
12883F4%%%%%%%%%%%%%%%%%%%%%%%%%%%%%%%%%%%%%%%%%%%%%%%%%%%%%%%%%%%%%%%%%%%%%
12867F4%%%%%%%%%%%%%%%%Qq%%%%%%%%%%%%%%%Qq%%%%%%%%%%%%%%%%%%%%%%%%%%%%%%%%%%
12851F4%%%%%%%%%%%%%%%%%%Qq%%%%%%%%%%%%%%%%%%%%%%%%%%%%%%%%%%%%%%%%Qq%%%%%%%
12835F4%%%%%%%%%Q%q%%%%%%%%%%%%%%%%%%%%%%%%%%Qq%%%%%%%%%%%%%%%%%%%%%%%%%%%%%
12819F4%%%%%%%Qq%Qq%%%%%%%%%%%%%%%%%%%%%%%%%%%%%%%%%%%%%Q%q%%Qq%%%Qq%Qq%%QqQ
12804G2q%Qq%%%%%Q%q%%Qq%%%%Qq%%%%%%%Qq%Q%q%%%%%%%%%%%%Qq%%%%%%%%%%%%%%%%%%%%
12788F4%%%%%Q%q%%%%%%%%%%%%%%%%Qq%%%%%%%%QqQqQqQqQ%q%%Q%q%%%%%%%Q%%q%QqQqQqQ
12772G2%q%%%QqQ%q%%%%%%%%%%%%%QqQ%%qQq%Q%%%%qQ%qQq%%%%%%%%%%QqQqQ%q%%Qq%Q%qQ
12756G2qQqQq%Q%qQqQ%q%%%Qq%%%%%%Qq%Qq%QqQq%%%%%%%Q%qQ%qQ%q%%Qq%Qq%%%%Q%%%qQ%
12740G2%%qQq%%%%%%Q%q%%%Qq%Qq%Q%%qQ%%%%qQ%%%%%%%qQq%Q%qQ%q%%%%Q%%%%qQ%q%Qq%%
12725F4%Qq%%%%%%QqQq%Qq%Qq%%Q%qQ%%%%q%Q%%%%qQq%%%%Q%%qQ%%%q%Q%%%qQ%%q%Q%%qQ%
12709G2%qQ%qQ%q%Q%q%%%QqQqQ%%qQq%Q%%qQqQqQqQ%%qQ%qQ%%%qQ%qQqQ%%%qQ%%%%%%%%q%
12693F4Q%%%%q%QqQqQ%%%%%%%%%q%%Q%q%%%%%Qq%%%%%Qq%%%%%Q%%%%q%%Q%%%%qQ%%%%%%%%
12677G2qQ%%%%%%%%%%%%%%%%%%%%qQ%qQ%%qQ%%%%qQ%%%%%%%%%%%%%q%Q%%%%%%%%%%%%%%%%
12661G2%%qQ%%%%q%%%Q%%%%%%%%qQ%%%%qQ%%%%%%%%%%%%%%%%%%%%%%%%qQ%%%%%%%%qQ%%%%
12646G2%%%%%%%%%%%%qQqQqQ%%%%%%%%%%%%%%%%%%%%%%%%%%%%%%%%%%%%%%%%%qQ%%%%%%%%
12630G2%%%%%%%%qQ%%%%%%%%%%%%%%%%%%%%%%qQ%%%%%%%%%%%%%%%%%%%%%%%%%%%%%%%%%%%
12614G2%%%%%qQ%%%%%%%%%%%%%%%%%%%%%%%%%%%%%%%%%%%%%%%q%QqQ%qQ%%%%%%%%%%%%%%%
12598G2%%%%%%%%%%qQ%%%%%%%%%%%%%%%%%%%%%%%%%%%%%%%%%%%%%%%%%%%%%%%%%%%%%%%%%
12582G2%%%%%%%%%%%%%%%%%%%%%%%%%%%%%%%%%%%%%%%%%%%%%%%%%%%%%%qQ%qJ6qQq%%qQ%%
12567G2%%%%%%%%%%%%%%%%%%%%%%%%%%%%%%%%%%%%%%%%%%%%%%%%%%%%%%%%%%%%%%%%%%%%%
12551G2%%%%%%%%%%%%%%%%%%%%%%Qq%%QqQq%%%qQ%%%%%%%Qq%%%%%%%%%%%%%%%%%%%%%%%%%
12535G2%%%%%%%%%%%%%%%%%%%%%%%%%%%%%%%%%%%%%%%%%%%%%%%%%Qq%%%%%%%%%%%%%%%%%%
12520G2%%%%%%%%%%%%%%%%%%%%%%%%Qq%Qq%%%%%%Qq%%%%%%%%%%%%%%%%%%%%%%%%%%%%%%%%
12504G2%%%%%%%%%%%%%%%Qq%%%%%%%%%%%%%%%%%%%%%%%%%%%%%%%%%%%%%%%%%%%%%%%%%%%%
12488G2%%%%%%%%%%%QqQqQq%%%%%Q%qQ%q%%%%%%%%%%%%%%%%%%%%%%%%%%%%%%%%%%%%%%%%%
12472G2%%%%%Qq%%Qq%%%%%%%%%Q%qQqQqQqQq%%%%%%%%%%%%%%%%%Qq%%%%%%Qq%%Qq%%QqQqQ
12456H0%%qQ%qQqQ%q%Qq%%Q%qQqQqQq%%%%%Q%qQq%Qq%%%%%%QqQq%Q%q%%%Qq%Qq%%%%%Qq%%
12441G2%%%%Qq%%%%%%Q%%%%%%%%%%%qQqQ%%%qQ%q%Qq%%Qq%%Q%qQq%%QqQ%qQqQ%%qQ%qQqQq
12425G2Q%qQ%%q%%Q%qQqQ%qQqQ%qQqQ%%%%%%%%%%%%%%%%%%q%Q%qQ%%%%%qQ%%qQ%%%%qQ%%%
12409H0qQ%q%%Q%%qQ%%qQ%%qQ%q%Q%%q%%%%%%QqQ%qQ%%%%%%q%%Q%q%Q%%qQ%q%Q%%%%%%qQ%
12393H0%%qQq%%Q%q%Qq%Q%%qQ%qQ%%%%%%%%q%%%%%%QqQ%qQ%qQq%%Q%%%qQq%Q%%%%%%%%qQ%
12377H0%%%%%%%qQ%qQq%%%Q%%%%%%%%%%%%%%%%qQqQ%qQ%%qQ%%%%%%qQ%%%%%%%%%%%%%%%%%
12362H0%%%%%%%%%%%%%%%%%%%%%%%%%%%%%%%%%%%%%%%%%%%%%%%qQ%%%%qQqQqQqQ%%%%qQqQ
12346H0%%%%%%%qQ%%%%%q%Q%%%qQ%qQ%qQ%%%q%QqQ%qQqQ%%qQj6QqQQQq%qQ%q%Q%%%%%%%%%
12330H0%%%%%%%%%%%qQqQq%Q%%%%%%%%%%%%%%%%%%%%%%%%%%%%%%%%%%%%%%%%%%%%%%%%%%%
12314H0%%%%%%%%%%%%%%%%%qQ%Qj6%Q%%%%%%%%%%%%%%%%%%%%%%%%%%%%%%%%%%%%%%%%%%%%
12299H0%%%%%%%%%%%%%%%%%%%%%%%%%%%%%%%%%%%%%%%%%%%%%%%%%%%%%%%%%%%%%%%%%%%%%
12283H0%%%%%%%%%%%%%%%%%%%%%%%%%%%%%%%%%%%%%%%%%%%%%%%%%%%%%%%%%%%%%%%%%%%%%
12267H0%%%%%%%%%%%%%%%%%%%%%%%%%%%%%%%%%%%%%%%%%%%%%%%%%%%%%%%%%%%%%%%%%%%%%
12252H0%%%%%%%%%%%%%%%%%%%%%%%%Qq%%%%%%%%%%%%%%%%%%%%%%%%%%%%%%%%%%%%%%%%%%%
12236H0%%Qq%%%%%%%%%%%%%%Qq%%%%%%%%%%%%%%%%%%%%%%%%%Qq%%%%%%%%%%%%%%Qq%%%Qq%
12220H0Qq%Q%q%Q%%%%q%%%%%%%%%%%%%%%%%%%%%%%%%%%%%%%%%%%%%%%%%%%%%%%%%%%%%Qq%
12204H0%%%QqQ%q%%%%Qq%%%%%Q%%q%%Qq%Qq%QqQq%%%%Qq%%%%%%QqQ%q%Q%qQq%%%%Q%%q%%%
12188H0Qq%%%%Qq%Q%%q%%%%%%%%%Q%q%Qq%%Q%qQ%%%qQ%qQ%qQ%%%qQ%%q%%%%%QqQ%%%q%%%Q
12173H8qQqQq%%%%Qq%%%Q%q%%%Qq%%Q%%%%qQ%%%%qQ%%%%%qQ%%%%q%Q%%%%%%%%%qQqQq%%Qq
12157H0%%Q%%%q%Q%%%%%%%%%%%%%%%%q%Q%q%%QqQ%qQ%q%%%QqQq%Qq%%Q%%%q%Q%q%Q%qQ%%%
12141H8%qQ%%q%%QqQ%%%%qQ%%%qQ%%%%%%%%%%%%%%qQ%%qQ%%q%%Q%%%%%%%%%%%%%qQ%%%qQ%
12125H8%%%qQ%qQqQ%%%%%%%%q%QqQ%%%%%%qQ%%%%%%%qQ%%%%%qQ%qQ%%%qQ%%%qQ%%%%q%Q%%
12109H8%%%%%%%%%%%%%%%%%%%%%%%%%%%%%%%qQqQ%%qQ%qQ%qQ%%%%%%%%%%%%%%%%%%%%%%%%
12094H8%%%%%%%%%%%%%%%%%%%%%%%%%%%%%%%%%%%%%%%%%%%%%%qQ%%qQ%qQ%%%%%qQ%%Qq%%Q
12078I6j6Q%%%qJ6Qk4%K4qqJ6j6Qq%%K4l2QQqqQ%%%%Qq%%%%%%%%%%qQqQ%qQ%%%%%%%%%%%%
12064H8%%qQ%%%%%%%%%%%%%%%%%%%%%%%%%%%%%%%%%%%%%%%%%%%%%%%%%%%%%%%%%%%%%%%%%
12048H8%%%%%%%%%%%%%%%%%%%%%%%%%%%Qq%%%%%%%%%%%%%%%%%%%%%%%%%%%%%%%%%%%%%%%%
12032H8%%%%%%%%%%%%%%%%%%%%%%%%%%%%%%%%%%%%%%%%%%%%%%%%%%%%%%%%%%%%%%%Qq%%%%
12016H8%%%%%Qq%%%%%%%%%Qq%%%%%%%%%%%%%%%%%%%%%%%%%%%%%%%%%%%%%%%%%%%%%%%%%%%
12001H8%%%%%%%%%%%%%%%%%%%%%%%%%%%%%%%%Qq%%Qq%Qq%%%%%%%%%%%Qq%%%%%%%%%%%%Qq%
11985H8%%%Qq%%%%Qq%Q%%qQ%%%%qQq%%%%%%%%Qq%%%Qq%Qq%Q%%q%Q%q%Qq%QqQ%qQq%%%%%%Q
11969I6qQq%%%%%%%%%%%Q%qQ%%qQqQq%%Q%q%Qq%Q%%%qQqQq%%QqQ%q%Qq%%%%Qq%Qq%Qq%%%%
11953H8%%Qq%Q%%q%Q%%qQ%%%%%%%%qQ%%%%%%%%%%%%%%%%%%qQ%%qQ%qQ%%%qQ%q%Q%%qQ%%%%
11937I6%%qQ%%%%%qQ%%%%%%qQqQqQ%%qQq%Q%%qQ%%%qQ%%%%%%%%%%%%%%%%%%%%%%%%%%%%%%
11922I6%%%%%%%%%%%%%%%%%%qQ%%%%%%%%%%%%%%%%%%%%%%%%%%%%%%%%%%%qQ%qQ%%%%%%%%%
11906I6%%%%%%%%%%%%%%%%%q%Q%%%%%q%Q%%%%%%%%%%%%%%%%%%%qQ%%qQ%%%%%%%%%%%%%%%%
11890I6%%%%%%%%%%%%%%%%%%%%qQ%qQqQ%%%%%%%%%%%%%%%%%%%%%%%%%%%%%%%%%%%%%%%%%%
11874I6%%%%%%%%%%%%%%%%%%%%%%%%%%Qq%%q%QqJ6j6QQQj6q%%QQq%%qQ%%%%%%%%%%%%%%%%
11859I6%%%%%%%%%%%%%%%%%%%%%%%%%%%%%%%%%%%%%%%%%%%%%%%%%%%%%%%%%%%%%%%%%%%%%
11843I6%%%Qq%%%Qq%qQQq%%%%%%%%%%%%%%%Q%q%%%%%%%%%%%%%%%%%%%%%%%%%QqQq%%%%%%%
11828I6QqQq%%%%%Q%%q%%%QqQq%%%Qq%%%%%%%Q%q%%%%%%%%%%%%%%%%%%%%%%%%%%%%Qq%%%%
11812I6%%%Qq%%%Qq%Qq%QqQ%%%q%%%%Qq%%%Q%q%Qq%%%%%%%%%%%%%%Qq%%%%%%%%%%%%%Qq%Q
11796A04%%qQq%%%QqQ%q%Q%%qQ%q%%%%%%%%%%%%%%%%%%Qq%Qq%%%%%%Qq%QqQ%qQ%q%%Qq%%Q
11780A04%q%%Qq%%%%%Q%%q%%%%%Q%%q%QqQ%q%%%QqQqQq%%Q%%%%q%Q%%qQ%%%%%%%%%%%%%%%
11765A04%%%%%qQ%%%%%%%%%%%%%%%qQ%%%%%%%%%%%%qQ%%%%%%%qQ%%%%%%qQq%%%%Q%qQq%%%
11749I6Q%%j6QQ%%%%%%%%%%%%%%%%%%%%%%%%%%%%%qQq%Q%%%%%%%%%%%%%%%%%%%%%%%%%%%%
11734A04%%%%%%%%%%%%%%%%%%%%%%%%%%%%%%qQ%%%%%%%%q%%Q%Qq%%%%%%%%%%%%qQ%%%%%%%
11718A04%%%%%%%%%%%%%%%%%%%%%%%%%%%%%%%%%%%%%%%%%%%%%%%%%%%%%%%%%%%%%%%%%%%%
11703A04%%%%%%%%%%%%%%%%%%%%%%%%%%%%%%%%%%%%%%%%%%%%%%%%%%%%%%%%Qq%%%%%%%%%%
11687A04%%%%%%%%%%%%%%%%%%%%%%%%%%%%%%%%%%%%%%%%%%%%%%%%%%%%%%%%%%%%%%%%%%%%
11672A04%%%%%%%%%%%%%%%%%%%%%%%%%%%Qq%%%%%%%%%%%%%%%%%Q%q%%%%%%%%Q%%%qQq%%%%
11656A04%%Qq%%%%%%%%%%%%%%%%%%%%%%%%%%%%%%%%%%%%Qq%%Qq%%%%%%%%%%Q%q%%%%%%%%%
11640A04%%%QqQ%%q%QqQ%%%qQ%qQ%qQ%%qQ%q%Q%q%%%Q%q%Q%q%%%%%%QqQ%%q%%%%%%Qq%Qq%
11625A04%%Qq%%Qq%QqQq%Q%qQ%%%qQq%%Q%q%Q%%q%%%Q%%%q%Q%qQqQ%%q%%Q%q%Q%%%%%%%%%
11609A12%%%qQqJ6qqJ6q%%%%%%%%q%Q%qQqQ%qQqQ%q%Q%q%%QqQ%%%q%Q%%%%%%%%%%%%%%%%%
11594A12%%%%%%%%%%qQ%%%%qQ%%%%%%%%%%%%%%%%%%%%%%%%qQ%%%%%%%%%%%%%%%%%%%%%%%%
11579A12%%%%%%%%%%%%%%%%%%%%%%%%%%%qQ%%%%%%%%%%%%%%%%%%%%%%%%%%%%%%%%%%%%%%%
11563A12%%%%%%%%%%%%%%%%%%%%%%%%%%%%%%%%%%%%%%%%%%%%%%%%%%%%%%%%%%%%%%%%%%%%
11547A12%%%%%%%%%%%%%%%%%%%%%%%%%%%%%%%%%%%%%%%%%%%%%Q%%q%%%%%%%%%%%%%%%%%%%
11532A12%%%%%%%%%%%%%%%%%%%%%%%%%%%%%%%%%%%%%%%%%%%%%%%%%%Qq%%%%%%%%%%%%%%%%
11516A12%%%Qq%%%%%Qq%%%%Qq%%%%%%%Q%q%Qq%%Q%%%%qQqQq%%%%%%Qq%%%%%%%%%%%Q%q%Qq
11501A12%%%%%%%Qq%%QqQqQq%%Q%q%%%%%%Q%%%%%qQ%%%q%Q%%qQq%%QqQ%%%%q%Q%%%%%%%qQ
11485A20%%%%%qQ%%%%%%%%%%%%qQqQqQq%Qq%QqQq%%%%Q%%%%q%%Qq%%Q%qQ%%%%%%%%qQ%%%%
11470A20%%%%%%%%%%%%%%%%%%%%%%%%%%%%qQ%%%q%Q%%%%qQq%Q%%%%%%%qQ%%%%%%%%%%%qQ%
11454A20%%%%%%%%%%%%%%%%%%%%%%%%%%%%%%%%%%%%%%%%%%%%%%%%%%%%%%%%%%%%%%%%%%%%
11439A20%%%%%%%%%%%%%%%%%%%%%%%%%%%%%%%%%%Qq%%%%%%%%%%%%%%%%%%%%%%%%%%%%%%%%
11423A20%%%%%%%%%%%%%%%%%%%%%%%%%%%%%%%%%%%%%%%%%%%%%%%%%%%%%%%%%%%%%%%%%%%%
11407A20%%%%%%Qq%%Qq%%%%%Qq%%%%qQ%%%%%qQ%%%Qq%%qK4%k4j6L2m0M8j6qqK4%j6J6%j6J6
11394A28%q%Q%qQq%QqQ%qQq%%Qq%Q%q%%QqQq%%%%QqQq%%%%%%Q%qQq%%%%Qq%%%%%%%%%%QqQ
11379A28%%%%%%qQ%%%%%%q%Q%qQ%%qQ%%%%q%%%%%%%%%Qq%Qq%%%QqQ%q%Q%%q%Qq%Q%q%%%%%
11363A20%Qq%%Qq%%Q%q%%%Qq%%%%%Q%q%%Q%%%%%%q%%%%%Q%%qQ%%%%%%%%%%%%%%qQ%%%%qQ%
11348A28qQ%%%%%%%%%%%%%%%%%%%%qQqQ%%%%%%%%%%%%%qQqQ%%%%%%%%%%%%%%%%%%qQ%%%%%
11332A28%%%%%%%%%%%%%%%%%%%%%%%%%%%%%%%%%%%%qQ%%%%%%%%%%%%%%%%%%%%%%%%%%%%%%
11317A28%%%%%%%%%%%%%%%%%%%%%%%%%%%%%%%%%%%%%%%%%%%%%%%%%%%%%%%%%%%%%%%%%%%%
11301A28%%%%%%%%%%%%%%%%%%%%%%%%%%%%%%%%%%%%%%%%%%%%%%%%%%%%%%%%%%%%%%%%%%%%
11285A28%%%%%%%%%%%%QqQq%%%%%%Qq%%%%%%Q%q%Q%qQqQq%Qq%%%%%%%%%%%%%%Qq%%%%%%%%
11270A28Q%%q%%%%%%%%%%Qq%%%%%QqQqQq%%%Qq%%%Qq%%%%%%%%%%%%%%%%%%Q%qQqQ%q%%%%%
11254A28%%%%%%%%%%%%%%%Q%qQq%%%%%%Qq%%Qq%%%%Q%%%%%%qQqQqQ%%%%%%%%%%%%%%%qQ%%
11239A36%%%%%%%%%%qQqQ%%%%%%%%%%%%%%%%%%%%%%%%%%%%%%%%%%%%%%%%%%%%%%%%%%%%%%
11223A36%%%%%%%qQ%%%%%%%%%%%%%%%%%%%%%%%%%%%%%%%%%%%%%%%%%%%%%%%%%%%%%%%%%%%
11208A36%%%%%%%%%%%%%%%%%%%%%%%%%%%%%%%%%%%%%%%%%%%%%%%%%%%%%%%%%%%%%%%%%%%%
11192A36%%%%%%%%%%%%%%%%%%%%%%%%%%%%%%%%%%%%%%%%%%Q%q%%%%%%%%%%%%%%%%%%%Qq%%
11176A36%%%%%%%%%%%%%%%%%%%%%%%%%%%%%%%%%%%%%%%%%%%%%%%%%%%%Q%%qQ%q%%QqQq%%Q
11161A44q%%%Qq%%%QqQq%%%%%Q%qQ%q%%%Q%q%%%QqQ%qQq%%%Q%%q%%Qq%%%Q%%%qQ%%%%qQ%%
11145A44q%%Qq%%%%QqQq%%%QqQ%qQ%qQq%Q%qQqQq%QqQq%Q%%%%%%%%%%%%%%%%%%%%%%%%%%%
11130A44%%%%%%%%%%%%%%%%%%%%%%%%%%%%%%%%%%%%%%%%%%%%%%%%%%%%%%%q%Q%%%%%%%%qQ
11114A44%%%%%%%%%%%%%%%%%%%%%%%%%qQ%%%%%%%%%%%%%%%%%%QqQq%%%%%%%%%%%%%%%%%%%
11099A44%%%%%%%%%%%%%%%%%%%%%%%%%%Qq%%%%Qq%%%Qq%%%%%%%Qq%%%%%%%%%%%%%%%%%%%%
11083A44%%%%Qq%%%%%%QqQq%%%%%%%%%Qq%%%%%%%%%%%%%%%%%Qq%%Qq%QqQqQ%%%%qQqQ%q%%
11068A44Q%%%%%%%%%%%%%%qQ%%qQqQ%%qQ%qQ%%qQ%%q%Q%%%%%%qQ%qQ%%%%%%%%%%%%%%qQ%%
11052A52%%%qQqQ%qQ%%%%%%%%%%qQ%%%%%qQ%%qQ%%qQ%q%Q%%%%%%%%%%%%qQ%%qQ%%%%%qQ%q
11036A44Q%%%%%%%%%%%%%%%%%%%%%%%%%%%%%%%%%%%%%%%%%%%%%%%%%%%%%%%%%%%%%%%%%%%
11021A52%qQ%%%%%%%%%%%%%%%%%%Qq%%%%%%%%%%%%%%%%Q%q%%%%%%%%%%%%%%%%%%%%%%%%%%
11005A52QqQqQq%%%%%%%%%%%%%%%%%%%%%%%%%%%%%%%%%%%%%%%%%%%%%%%%%%%%%%%%%Qq%%Q
10990A60q%QqQ%%%%%%%%%qQ%qQ%%%%qQ%q%%%%%Qq%%%%%QqQqQq%Q%q%Q%qQ%q%%%%QqQ%%%%%
10974A60%%%qQqQ%qQ%%%%%%%%%qQ%%%%%%qQqQq%%Q%%%%%qQ%%%%%%%%%%%%%%%%%%%%%%%%%%
10959A60%%%%%qQ%%%%%%%%%%%%%%%%%%%%%%%%%%%%%%%%%%%%%%%%%%%%%%%%%%%%%%%%%%%%%
10943A60%%%%%%%%%%%%%%%%%%%%%%%%%%%%%%%%%%%%%%%%%%%%%%%%%%%%%%%%%%Qq%%QqqQj6
10928A44QJ6qQ%q%QqQq%%%%Qq%%Q%%qQqQ%%qQq%%%%%%%%%%%%Q%q%%%%%QqQ%%%%%%%%qQ%%q
10912A60Qq%%%%%%%%%QqQ%qQqQq%%%%%%%%Q%qQ%%qQq%%%%Q%q%%%%%%%%%Q%%%qQ%%%%%%%%%
10897A68%%qQ%%%%%%%%%%%%%%%qQ%qQ%%%%%%%%%%%%%%%%%%%%%%%%%%%%%%%%%%%%%%%%%%%%
10881A68%%%%%%%%%%%%%%%%%%%%%%%%%%%%%qQ%%%%%%%%%%%%%%%%%%%%%%%%Qq%%%%%%%%%%%
10866A68%%%%%%%%%%%%%%%%%%%%%%%%%%%Qq%Qq%%%%%%%%%%%%%%%%%%%%%%%%%%%%%%%%%%%%
10850A68%%%%%%%%%%%%%%%%Qq%QqQq%QqQqQ%q%Q%%%%%%%%%qQqQ%%q%Q%%%qQ%%%qQqQ%%%%%
10835A76%%%%%%%%%%%%%%%%%%%%%q%Q%qQ%%%%%%%%%%%%%%%%%%%%%%%%%%%%%%%%%%%%%%%%%
10819A76%%%%%%%%%%%%%%%qQ%%%%%%%%%%%%%qQ%%%%%%%%%%%%%%%%%%%%%%%%%%%%%%%%%%%%
10803A76%%%%%%%%%%%%%%%%%%%%%%%%%%%%%%%%%%%%%%%%%%%%%%%%%%%%%%%%%%%%%%%%%%Qq
10788A76QqQq%%%%Qq%%%%%%%%Q%qQq%QqQqQq%Q%%%q%%%%Q%%%qQ%%q%%Qq%QqQ%qQ%%%qQ%q%
10772A76QqQ%%%q%%Qq%%%%%%Q%q%Q%%%%%qQ%%%%qQ%%%%%%%%%%%%%%%%%%%%%%%%%%%%%%%%%
10757A84%%%%%%%%%%%%%%%%%%%%%%%%%%%%%%%%%%%%%%%%%%%%%%%%%%%%%%%%%%%%%%%%%%%%
10741A84%%%%%%%%%%%%%%%%%%%%%%%%%%%%%%%%%%%%%%%%%%%%%%%%%%%%Qq%%%Qq%Q%q%%%%%
10726A84Q%%qQ%q%Q%%%%qQ%qQq%%Qq%%Q%%%%%%qQ%%%%%%%qQ%q%%Q%%%%qQ%%%%%%%%%%%%%q
10710A84%%%Q%q%%Q%%%%%%%%%%%%%%%%%%%%%%%%%%%%%%%%%%%%%%%%%%%%%%%%%%%%%%%%qQ%
10694A92Qq%%qQ%%%%%%%%%%%%%%%%%%%%%%%%%%%%%%%%%%%%%%%%%%%%%%%%%%%%%%%%%Qq%%%
10679A92%%%%%%%%%%%%%%%%%%%%%%%%%%%Qq%%%%%%%QqQq%%%%%%%%%%Qq%%QqQ%%qQ%%qQq%Q
10663B00%q%Qq%%QqQq%%%%%%%%QqQ%qQ%%%%%%%%%qQ%qQ%%qQ%%%%%%%%%%%%%%%%%%%%%%%%%
10648B00%%%%%%%%%%%%%%%%%%%%%%%%%%%%%%%%%%%%%%%%%%%%%%%%%%%%%%%%Qq%%%%%%%%%%
10632B00%%%%%%%%%%%%%%%%%%%Qq%%Qq%%%%%%%%%%%%%%%%Q%%%%%qQq%Q%%qQq%%Q%%q%%%Q%
10617B08%%%%%%%%%%q%%QqQ%%qQ%qQ%q%Qq%%%Q%%%%%%%%%%%%qQq%Q%%%%%%%%qQqQ%%qQ%%%
10601B08%%%%%%%%%%%%%%%%%%%%%%%%%%%%%%%%%%%%%%%%%%%%%%%%%%%%%%%%%%%%%%%%%%%%
10585B08%%%%%%%%%%%%%%%%%%%%%%%%%%%%%%%%%Qq%QqQq%%%%%%%Qq%%%Qq%%%%Qq%%%%%%%%
10570B08%%%%%QqQq%%Q%%q%%%%%%%%%%%%Q%qQq%%%Qq%%%%%%%%%%%QqQqQ%qQ%%%%%qQ%%qQ%
10554B16%qQ%%%%%%qQqQ%%qQ%qQ%%%%%%%%%%%qQ%%%%%%%%%%%%%%%%%%%%%%%%%%%%%%%%%%%
10539B16%%%%%%%%%%Qq%%Qq%%%%%%%%%%%%%%%%%%%%%%%%%%%%%%%%%Qq%%%%%%Qq%Qq%%Qq%%
10523B16%%%Qq%%QqQ%qQ%qQqQqQ%q%Qq%%%Q%%qQ%qQq%%Qq%Qq%%QqQ%%%%%%qQ%qQ%%q%Qq%Q
10508B24%qQ%%%%%%%%%%%%%%%%%%%%%%%%%%%%%%%%%%%%%%%%%%%%%%%%%%%%%%%%%%%%%%%%%
10492B24%%%%%%%%%%%%%%%%%%%%%%%%%%%%%%%%%%%%%%%%%%%%%QqQ%q%QqQq%%Qq%%Q%q%%Qq
10477B24%%QqQ%q%Q%%%qQqQ%%qQ%%q%QqQq%Qq%QqQ%qQq%Q%qQ%qQ%%%qQ%%%%%%%%%%%%%%%%
10461B32%Qq%qJ6j6J6qq%Q%qJ6q%%%%%%%%%%%%%%%%%%%%%%%%%%%%%%%%%%%%%%%%%%%%%%%%
10446B32%%%Qq%%%%%%%%%%%%%%%%%%%%%%Q%q%Qq%%%%%%Q%q%%%%%Q%%qQ%%%q%Qq%%Q%qQq%%
10431B32Q%%%%%%q%QqQ%qQ%qQ%%%qQ%%%%%%%%%%%%%%%%%%%%%%%%%%%%%%%%%%%%%%%%%%%%%
10415B40%%%%%%%%%%%%%%%%%%%%%%%%%Qq%%%%%%%%%%%Qq%%%%%%%%%%%%%%%%Qq%%%%%%%%Qq
10400B40%Q%%%q%Qq%%Q%q%%%%%%%%%QqQq%Q%qQ%%qQ%%%%%%%%%qQ%%%%%%%%%%%%%%%%%%%%%
10384B48%%%%%%%%%%%%%%%%%%%%%%%%%%%%%%%%%%%%%%%%%%%%%%%%%%%Qq%%Qq%%%%%%%%%%%
10368B48%%%Qq%%%%%%%%Qq%QqQ%%%q%%%%Qq%%%%QqQ%%%%%%%%%q%Q%qQqQq%%Q%%%%q%Qq%%%
10353B48%Q%%%%%%%%%%%%qQ%%%%%%%%%%%%%%%%%%%%%%%%%%%%%%%%%%%qQ%%%%%%%%%%%%%%%
10337B56%%%%%%%%%%%%%%%%%%%%%%%%%%%%%Qq%%%%QqQq%%Qq%%QqQq%%%%QqQ%qQ%%%qQ%q%Q
10322B64%qQq%%Q%%%%%%%%%%%%%%%qQ%%%%%%%%%%qQ%%%%%qQ%%%%%%%%%%%%%%%%%%%%%%%%%
10306B64%%%%%%%%%%%%%Qq%%%%%%%%%%%%%%%%%Qq%%%%%%%%%%%%%%%%%%%%%%%%%%%%%QqQ%q
10291B64%%%%%%%%Qq%QqQ%qQ%%%qQ%%%%%%%qQ%%qQ%%%%q%Q%%%%%%%%%%%%%%%%%%%%%%%%%%
10275B72%%%%%%%%%%%%%%%%%%%%%%%%%%%%%%%%%%%%Qq%Qq%%%%%%%Qq%Q%%%%%%qQ%%%%qQqQ
10260B80%%qQ%%q%%Q%%%q%QqQ%%%%%%%qQ%%%%%%%%%%%%%%%%%%%%%%%%%qQ%%%%%%%%%%%%%%
10244B80%%%%%%%%%%%%%%%%%%%%%%%%%%%%%%Qq%%%%%%%%%%%%%%%%%%%Qq%%%%%%QqQ%qQ%%%
10228B88%%%%%%%%%qQqJ6qQq%q%%Q%%%%%%%%%%%%%%%%%%%%%%%%%%%%%%%%%%%%%%%%%%%%%%
10213B88%%%%%%%%%Qq%%%%%%%%%%%%%%%Qq%%%%%%Q%q%Qq%Q%qQ%q%%%%QQqq%%%Qq%%%QqQqQ
10198B96%%%%%%%%%%%%%qQ%%%%%%%%%%%%%%%%%%%%%%%%%%%%%%%%%%%%%%%%%%%%%%%%%%%%%
10182B96%%%%%%%%%%%%QqQq%%%Qq%%%%%%%Q%%%%qQ%%%%%%%%%%%%%%qQ%qQ%%%%%%q%Q%%%q%
10166B96%QqQ%%%%%%%%%%%%%%%%%%%%%%%%%%%%%%%%%%%%QqQq%%%%%%%%%%Qq%Q%q%Qq%%Qq%
10151C04%%%Q%%%%%%%%qQ%%qQ%%%%%%%%%%%%%%%%%%%%%%%%%%%%%qQ%%%%%%%%%%%%%%%%%%%
10135C12%%%%%%%%%%%%%%%%%%%%%%%%%%%%%%%%%%%%%%%%QqQq%%%Q%qQq%%%%%%QqQ%qQqQ%%
10120C20%%%%%%qQ%%%%%%%%%%%%%%%%%%%%%%%%%%%%%%%%%%%%%%%%%%%%%%%%%%%%%%%%%%Qq
10104C20%%%%Qq%%%%%%%%%%%Qq%%Q%%qQ%%%%%%q%Q%%%%%qQ%%%qQ%%%%%%%%%%%%%%%%%%%%%
10089C28%%%%%%%%%%%%%%%%%%%%%%%%%Q%q%Qq%%%%%Qq%%%%%%%%%%%%%%%%%%%Q%%%qQq%%%Q
10073C36%%qQqQ%%%%%%%%%%%%%%%%%%%%%%%%%%%%%%%%%%%%%%%%%%%%%%%%%%%%Qq%%%%%%%%
10057C36Qq%%%%%%%%%%%%Qq%%Q%%q%%%%%%%Q%q%%QqQ%qQ%%%%%%%%%%%%%%%%%%%%%%%%%%%%
10042C44%%%%%%Qq%%%%%%%%%%%%Qq%%Qq%%Q%%%%%%%%%%q%QqQ%%%%%%%%%%%%%%%%%%%%%%%%
10026C52%%%%%%%%%%%%%%%%%%%%%%%%%%%Qq%%%Qq%%%%Q%q%%%%%%%%%%%%%%%%%Qq%%%Qq%Q%
10011C60%%%%%%%%%%%%%%%%%%%%%%%%%%%%%%%%%%%%%%%%%%%%%%%%%%%%QqQq%%%%%%Qq%QqQ
9995C68%q%QqQ%qQ%q%QqQq%qQQ%q%%%Q%%qQ%%%%%%%%%%%%%%%%%%%%%%%%%%%%%%%%%%%%%%%
9979C68%%%%%%%%%%%%%%%%%%%%%Qq%%%Q%%%q%%Q%%%%%%%%%%%%%%qQ%%%%%%%QqQq%%%%%%%%
9964C76%%%%%%%%%%Qq%%%%%%%%%%%%%Qq%Qq%%%QqQ%qQqQq%%Q%%%%%%%%%%%qQ%%%%%%%%%%%
9948C84%%%%%%%%%%%%%%%%%%%%%%%%%%%%%%%%%%%%%%%%%%%%%%%%%%%%%%Q%q%Q%%%%%qQ%%%
9932C92%%qQqQ%%%%%q%Q%%%%%%%%%%%%%%%%%%%%%%%%%%%%%%%%%%%%%%%%%%%%Q%%%q%Qq%%Q
9916D00%%%%%%%%%%%%%%%%%%%%%%%%%%%%%%%%%%%%%%%%%%%%%%%%%%%%%%Qq%Qq%%%%%%%%%Q
9900D08%%%%%%qQ%%%%%%%%%%%%%%%%%%%%%%%%%%%%%%%%%%%%%%%%Qq%%%QqQ%%%qQ%%%qQ%qQ
9885D16%%%%%%qQ%%%%%%%%%%%%%%%%%%%%%%%%%%%%%%%%%%%%%%%%J6j6%%Q%q%%%%Qq%%Q%q%
9869D16%Q%%%%%%%%%%%%%%%%%%%%%%%%%%%%%%%%%%%%%%%%%%%%%%QqQ%%q%%%%%%%%Q%%%%%%
9854D32qQqQ%%%%qQ%%%%qQ%%%%%%%%%%%%%%%%%%%%%%%%%%%%%%%%%%%%%%%QqQ%q%Qq%%%%Qq
9838D32Q%%%%%%%%%%%%%%%%%%%%%%%%%%%%%%%%%Q%q%%%%%%%%%%%%%%%Q%qQq%%Q%qQ%qQqQ%
9822D48qQ%%%%%%%%%%%%%%%%%%%%%%%%%%%%%QqQ%%%qQ%q%Q%%%qQ%%qQ%%%%%%%qQqQ%%%%%%
9806D56%%%%%%%%%%%%%%%%%%%%%%Q%%qQqQ%%%q%%%%Q%q%%%%%Q%%qQ%%%%%%%%%%%%%%%%%%%
9790D64%%%%%%%%%%%%%%QqQ%q%Qq%Q%%qQ%%%%%q%Q%%%%%%%%%%%%%%%%%%%%%%%%%%%%%%%%%
9775D72%%%%Qq%Q%qQq%Q%%%%%%qQ%%%%%%%%%%%%%%%%%%%%%%%%%%%%%%%%%%%Qq%%%%Q%%qQ%
9759D88%%%qQ%%%%%%q%QqQ%qQ%%%qQ%%%%%%%%%%%%%%%%%%%%%QqQ%%%%%qQqQ%%q%%%Q%%%%%
9743D96%%%%%%%%%%%%%%%%%%%%%%%%%Qq%%Q%%%q%%%%%Q%qQq%Q%Qj6QqQqQ%%qQqQ%%%%%%%%
9727E04%%%%%%%%%%%%%%%%%%%%Q%qQ%%%%%%%%%%%%%%%%%%%%%%%%%%%%%%%%%%%%%%%%%%Qq%
9712E12%%%%%%%%%QqQ%qQ%qQ%%%%%%%%%%%%%%%%%%%%%%%%%%%%%%%%%%%%%Qq%%Q%qQ%%%%%%
9696E28%%%%%%%%%%%%%%%%%%%%%%%%QqQ%%%%qQ%%%%%%%%%%%%%%%%%%%%%%%%%%%%%%%%%%%%
9680E36%Q%q%%%Q%%%%%%%%%%%%%%%%%%%%%%%%%%%%%%%%%%%Qq%%QqQqQ%qQq%Qq%%%%Q%%%%%
9664E52%%%%%%%%%%%%%%%%%%%%%%%%%%%%%%%Q%q%QqQ%%%%%%%%%%%%%%%%%%%%%%%%%Qq%%%%
9648E60%%%%%%%%%%Q%%%%%%%%%%%%%%%%%%%%%%%%%QqQj6J6%q%Q%qQqQ%%%%%%%%%%%%%%%%%
9633E76%%%%%%%%%%%%%%%%%%Q%%%%q%%QqQ%%%%%%%%%%%%%%%%%%%%%%%%%%%%%%%Qq%Qq%Q%%
9617E92%qQ%%%%%Qq%%%%%%%Qq%%%%%%%%%Q%%%%qQq%%Qq%%Q%%%%%%%%%%%%%%%%%%%Qq%%Qq%
9602F00Q%q%%Q%%%%%%%%%%%%%%%%%%%%%%%%%%%%Qq%QqQ%q%Q%%%%%%%%%%%%%%%%%%%%%%%%%
9586F16%%%%Q%%%%%%%%%%%%%%%%%%%%%%%%%%%%%%%%%%%%%%%%Q%%qQ%%%%%%%%%%%%%%%%%%%
9570F32%Qq%%QqQ%%%%%%%%%%%%%%%%%%%%%%%%%%%%%%%Q%qQqQqQ%%%%%%%%%%%%%%%%%%%%%%
9554F48%%%%Qq%%Qq%Qq%Q%%%%%%%%%%%%%%%%%%%%%%%%%%QqQqQqQqQq%%Q%%%%%%%%%%%%%%%
9538F64%%%%%Qq%Q%qQ%%%%%%%qQ%%%%%qQ%Qq%%%%%%%%%Q%%qQq%Q%qQj6J6Qq%%%%QqQqJ6j6
9523F80Qk4J6qqO4m8m8M8K4qj6%M0l2qQQq%Qq%q%Q%qQ%%%%%%%%%Qq%%%Qq%Q%qQ%%%%Qq%%%
9510F96%%%%%%%%%%%Qq%%Q%%%%%%%%%%%%%%%%%%%Qq%%%Qq%QqQqQ%%%qQqQ%qQ%%%%%%%%%%%
9494G12%%%%%%Q%%%%qQ%qQ%%%%%%%%%%%%%%%Qq%%%%Q%%%q%Q%%%%%%%%%%%%%%%%Qq%Q%%%%%
9478G36%%%%%%%%%%%%%%%%%%%%%%%Q%%qQqQ%qQ%%%%%%%%%%%%%%%Qq%%%%%%Q%%%%%%%%%%%%
9463G52%%%%%%%%%%Q%%%%%%%%%%%%%%%%%Qq%%%Q%%%qQ%%%%%%%%%%%%%%%%%%%Qq%Q%%%%%%%
9447G76%%%%%%%%%%%%%%%%%Q%%%%%%%%%%%%%%%%%%%%%%%%%%%Q%qQqQ%%%%%%%%%%%%%%%Q%%
9431H00q%%Q%%%%%%%%%%%%%Qq%%%%%%%%Qq%%Q%%%%%%%%%%%%%%Q%q%%%Q%qQ%%%%%%%%%%%%%
9415H16%%%%%%%Q%%%%%%%%%%%%%%%%%%%%%%%Q%%qQ%%qQ%%%%%%%%%%%%Q%%%qQ%%%%%%%%%%%
9399H40%%%%Q%%%%%%%%%%%%%%%%%%%%%%%%%%Q%%%%%%%%%%%%%%%%%%%%%Q%%qQqQ%%%%%%%%%
9384H64%%%%%%%Qq%Q%qQ%%%qQ%%%%%%%%%%QqQqQ%qQ%%%%%%%%%%%%%QqQ%%%%%%%%%%%%%%%%
9368H88%%%Q%%%%%%%%%%%%%%%%%%%%QqQ%%%%%%%%%%%%%%%%%%Q%%%%%%%%%%%%%%%%%%%%Q%%
9352I20%%%%%%%%%QqQ%qQ%%%%%qQ%qQ%%%%%%%%%%%%%Q%%%%%%%%%%%%%%%%%%%%Q%%%%%%%%%
9336I44%%%Q%%%%%%%%%%%%%%%%%%%%Q%%%%%%%%%%%%%%%%%%%%%Q%qQ%%%%%%%%%%%Q%%%%%%%
9320I76%%%%%%%%%%Q%%qQ%%%%%%%%%%%%%%Q%%%%%%%%%%%%%%%%%%%QqQ%%%%%%%%%%%%QqQ%%
9305A008%%%%%%%%%%Qq%%QqQ%%%%%%%%%%Q%%%qQ%%%%%%%%%%%%%%%%Q%%%%%%%%%%%%%%%Qq%
9289A032%Q%%qQQq%Qq%Q%qQqQ%%%%%%%Qq%%%%Q%%%%%%%%%%%%%%Q%%%%%%%%%%%%%%%Q%%%%%
9274A072%%%%%%%%Q%qQ%%%%%%%%%%%%%Q%%%%%%Qq%%%%%%QqQ%%QqJ6k4K4j6qQQq%%%Q%%%%%
9259A104%%%%Q%qQ%%%%%%%%%%%%%Q%%%%%%%%%%%Q%qQ%%%%%%%%%%%%%%%Q%%%%%%%%%Q%qQ%%
9243A144%%%%%%%%%%%QqQ%%%%%%%%%%%%Qq%%Q%%%%%%%%%%Q%%%%%%%%%%%%%%Q%%%%%%Qq%%%
9228A176Q%%%%%%%%%%%Q%%%%%%%%%%%%Q%%%%%%%%%%%%%%%%QqQ%%%%%%%%%Q%qQ%%%%%%%%%%
9212A216Q%%%%%%%%QqQ%%%%%%%%%%%%%%%Q%%%%%%%%%Q%%%%%%%%%%QqQ%%%%%%%%%%%Q%%%%%
9197A264%%%%%QqQ%%%%%%%%%QqQ%%%%%%%%%%%Q%%%%%%%%%Q%%%%%%%%%%%QqQ%%%%%%%%%%%Q
9181A312%%%%%%%%%%%Q%%%%%%%%QqQ%%%%%%%%%%%QqQ%%%%%%Qq%QqQ%%%%%%%%Q%%%%%%%%Q%
9165A360%%%%%Q%q%Q%%%%%%%%%%%%%Q%%%%%%QqQ%%%%%%%%%Q%qQ%%%%%%%%%Q%%%%%%Q%%%%%
9150A408%%%%%Q%%%%%%%Qq%%%%%Q%%%%%QqQ%%%%%%%%Q%qQ%%%Qq%Q%%%%%%%%%%%Q%%%%%%%Q
9134A464%%%%%%%%Q%%%%%%%%%%Q%%%%%Q%%%%%%%%%%%Q%%%%%%%%Q%%%%%%%%%Q%%%%%%%%Q%%
9119A520%%%%%%QqQ%%%%%%Q%%%%%%%%%%QqQqQ%%%%Q%%%%%%Q%qQ%%%%%%%Q%%%%%Q%%%%%%%%
9103A576%%Q%%%%%%%%%Q%%%%%%%Q%%%%%QqQ%%%%%%%Q%qQ%%%%QqQ%%%%%%QqQ%%%%%%Q%%%%%
9088A640%%Q%%%%%%%Q%%%%%QqQ%%%%%%%%%%Q%%QqQ%%%%%%%%%Q%%%%%Q%%%%%%%%Q%%%%%Q%%
9072A712%%%%%%Q%%%%%%%%%Q%%%%%%Q%%%%%Q%%%%%%Q%%%%%%Q%%%%%%%Q%%%%%%Q%%%%QqQ%%
9057A784%%%%Q%%%%qQqJ6%Q%qQqQq%Q%%QqQ%%%%%%QqQ%%%Q%qQ%%%%Q%%%%%%%Q%%%QqQ%%%%
9041A856%%%Q%%%%%%Q%%%%%Q%%%%%%Q%%%Q%%%%%%%%Q%%%%%Q%%%%%%Q%%Qq%%Q%%qQQ%%%%%Q
9026A944%%%%%%Q%%%Q%qQ%%%%Q%%%%%%Q%%%%%%Q%%%%%Q%%%%Q%%%%%%Q%%%%Q%%%%%Q%%%%%Q
9010B032%%%%%Q%%%%%%%Q%%%%Q%%%%Q%%%%%Q%%%%Q%%%%%%Q%%%%%%Q%%%%Q%%%%Q%%%%%%%Q%
8995B120%QqQ%%%Q%%%%%Q%%%%%Q%%%%Q%%%%%Q%%%%Q%%%Q%%%%%%Q%%%Q%%%%%Q%%%Q%qQ%%%Q
8979B224%%%%Q%%%%Q%%%%Q%%%%Q%%%Q%%%%%Q%%%%%%Q%%%Q%Q%qQ%%%Q%%%QqQ%%Q%%%QqQ%%%
8963B328Q%%%%Q%%%%Q%%%%Q%%%Q%%%%Q%%%%Q%%%Q%%%%%Q%%%QqQ%%%Q%%%Q%%%Q%%%%Q%%%%Q
8948B448%%%%Q%%%Q%%%%Q%%%Q%%%Q%%%Q%%%Q%%%Q%%%Q%%%%Q%%%Q%%%%Q%%%Q%%%Q%%%%Q%%Q
8932B576%%%%Q%%Q%%%Q%%%%Q%%%Q%%%Q%%%Q%%%Q%%%%Q%%Q%%%Q%%%QqQ%%Q%%%Q%%Q%%Q%%%%
8917B704Q%%Q%%%Q%%%Q%%%%Q%%QqQQqQQ%qQ%%Q%Q%%%Q%%%%Q%QqQ%Q%%%Q%%Q%%%%Q%%Q%%Q%
8901B856%%%Q%%Q%%Q%%Q%%%%Q%%Q%%%Q%%Q%%Q%%Q%%%%Q%%Q%%%Q%Q%%%%Q%Q%%%Q%%Q%%Q%%Q
8886C016%%Q%%%Q%%Q%%Q%%%Q%Q%%%Q%%Q%%Q%%Q%%%Q%Q%%%Q%%Q%%Q%%Q%%Q%%Q%%Q%%Q%%Q%%
8870C184%Q%%Q%Q%%Q%%Q%%Q%Q%%Q%%%Q%%Q%%%QQ%%%Q%%Q%%Q%%Q%%Q%%Q%Q%%Q%%Q%Q%%Q%Q%
8854C376%%Q%%Q%Q%%Q%%Q%%Q%Q%Q%%Q%%Q%Q%%Q%%Q%%Q%Q%%Q%%Q%Q%%Q%%Q%Q%%Q%%Q%Q%Q%%
8839C576Q%%Q%Q%%Q%Q%Q%%Q%Q%Q%%Q%Q%%Q%%Q%Q%%Q%Q%Q%%Q%Q%Q%Q%%Q%Q%%Q%Q%%Q%Q%Q%Q
8823C808%Q%%Q%Q%Q%%QQqQ%J6qQQQqQ%Q%Q%%Q%Q%%QQ%%Q%Q%Q%Q%%Q%Q%Q%Q%Q%%QQ%%Q%Q%Q
8808D048%Q%Q%Q%Q%Q%Q%Q%Q%Q%Q%Q%Q%Q%Q%Q%Q%%QQ%Q%Q%Q%Q%QQ%%QQ%%Q%J6%qQQ%J6%%%Q
8793D312%Q%QQ%Q%%QQ%Q%Q%Q%QQ%%QQ%Q%Q%QQ%Q%Q%Q%Q%QQ%Q%Q%Q%QQ%Q%Q%QQ%Q%Q%QQ%Q%
8777D608Q%QQ%Q%QQ%QQ%Q%Q%QQ%Q%Q%QQ%Q%QQ%QQ%Q%Q%QQ%QQ%QQ%QQ%Q%QQ%QQ%Q%QQ%QQ%Q
8762D944Q%QQ%QQQ%Q%QQ%QQ%Q%QQ%QQ%QQ%QQQ%QQ%QQ%Q%QQQ%QQ%QQ%QQQ%QQ%QQQ%QQ%QQ%Q
8746E312Q%QQQQ%QQ%QQQ%QQQ%QQQ%QQ%QQQQ%QQQ%QQQ%QQQ%QQQQ%QQQQ%QQ%QQQQ%QQ%QQJ6%
8731E720Q%J6%Q%J6%QQQQQQ%QQQQQ%QQQQQ%QQQQ%QQQQQQQQ%QQQQ%QQQQQQQQQ%QQQQQQQ%QQ
8716F168QQQQQ%QQQQQQQQQQQ%QQJ6%QQQQQQQQQQQQQQ%QJ6%QQQQQQQQQQQQQQQQQQQQQJ6%QQ
8701F664QQQQQQQQQQQQQQQJ6QQQQQQQQQQQQQQQQQQQQJ6QQQQQQQJ6%QJ6QQQQQQQJ6QQQQQQQ
8686G200J6QQQQQJ6QQQQQJ6%J6QQQQJ6QQQJ6QQQJ6%J6QQQQJ6QQQQJ6QQQJ6QQQQJ6QJ6QQQJ6
8674G736QQJ6%J6QJ6QQQJ6QQQJ6QQQJ6QJ6QQQJ6QJ6QQJ6QJ6QQJ6QQQJ6QQJ6QQJ6QJ6QJ6QQ
8662H272J6QJ6QQJ6QQJ6QJ6QJ6QJ6QJ6QQJ6J6QQQJ6J6QJ6QQJ6J6QJ6QQJ6J6QJ6QQJ6J6QJ6
8652H816QJ6QJ6J6QJ6QJ6QJ6J6QJ6QJ6QJ6QJ6J6QJ6J6QJ6QJ6J6QJ6J6J6QJ6J6QQJ6J6J6QJ6
8642I368J6J6QJ6J6QJ6J6J6QJ6QJ6J6J6J6QJ6J6J6QJ6J6J6QJ6J6J6QJ6J6J6J6J6J6J6QJ6J6
8633I920QK4QJ6J6J6J6QJ6J6J6J6J6J6J6QJ6J6K4QJ6J6J6J6J6J6J6J6J6J6J6J6J6J6J6J6J6
8624A0488J6J6J6J6J6J6J6J6J6J6J6J6J6J6J6J6K4QJ6K4J6J6J6J6J6K4QK4J6J6J6J6J6K4J6
8616A1072J6J6J6K4J6J6J6J6J6J6K4J6J6J6J6K4J6J6K4QK4J6K4J6J6K4J6J6K4J6J6K4J6J6
8609A1680K4J6J6K4J6K4J6J6K4J6K4J6K4J6J6K4J6K4J6K4J6K4J6K4J6K4J6K4J6K4J6K4J6K4
8601A2352J6K4J6K4K4J6K4J6K4K4J6K4K4J6K4K4J6K4K4J6K4K4K4J6K4J6L2J6K4K4J6K4K4K4
8593A3080K4J6K4K4K4J6K4K4K4K4J6L2J6K4K4K4K4K4J6K4L2J6L2J6K4L2J6K4K4K4K4L2K4K4
8585A3872QM0J6M0J6J6M0K4L2J6K4K4K4K4L2J6L2K4K4L2J6L2K4K4K4K4L2K4K4K4L2K4L2K4
8577A4736K4K4L2K4L2K4K4L2L2K4K4K4L2L2K4K4L2L2K4L2K4K4L2L2K4L2K4L2L2K4L2L2K4L2
8570A5688K4L2L2L2K4L2L2L2K4L2L2K4M0K4L2L2K4M0K4L2L2L2L2L2L2L2L2L2L2L2K4M0K4M0
8562A6736K4L2M0L2L2L2L2M0L2K4M0K4M0M0K4M0L2L2L2M0L2M0L2L2L2M0L2L2M0M0L2L2M0L2
8554A7888L2M0M0L2M0L2M0L2M0L2M0L2M0M0M0L2M0M0L2M0M0L2M0M0M0M0L2M0M0M0M0M0M0M0
8546A9168M0M0M0M0M0M0M0M0M0M0M0M8M0M0M0M0M0M8M0M0M0M8M0M0M8M0M0M8M0M8M0M8M0M0
8539B0584M8M8M0M8M0M8M8M0M8M8M0M8M8M0M8M8M8M8M8M8M8M0M8M8M8M8M8M8M8M8M8N6M8M8
8531B2176M8M8M8N6M8M8M8N6M8M8N6M8N6M8M8N6M8N6N6N6N6M8N6M8M8N6N6N6N6M8N6N6N6N6
8523B3952N6N6N6N6N6N6N6N6N6N6O4N6N6N6N6O4N6N6O4N6N6O4O4N6N6O4O4N6O4O4N6O4O4O4
8515B5952N6O4O4O4O4O4O4O4O4O4O4O4P2O4O4O4P2O4O4P2O4O4P2O4P2P2O4P2O4P2P2P2P2O4
8507B8208P2P2P2P2P2P2P2P2Q0P2P2P2P2Q0P2P2Q0P2Q0P2Q0Q0P2Q0Q0P2Q0Q0Q0P2Q8Q0Q0Q0
8500C0784Q0Q0Q0Q0Q8Q0Q0Q8Q0Q0Q8Q8Q0Q8Q0Q8Q8Q8Q0Q8Q8Q8Q8R6Q8Q8Q8Q8R6Q8Q8R6Q8R6
8492C3720Q8R6R6R6Q8R6R6R6R6R6R6J04Q8J04R6J04R6R6J04R6J04J04R6J04J04J04R6J12R6
8485C6568J12J04J04J04J12J04J12J04J12J04J12J12J04J12J12J12J12J12J12J12J20J12J20
8480C9104J12J20J12J20J20J12J20J20J20J20J20J28J20J20J28J20J28J20J28J28J28J28J28
8475D1904J28J28J28J28J36J28J36J28J36J36J36J36J36J36J36J36J36J44J36J44J36J44J44
8469D5016J44J44J44J44J44J52J44J44J52J52J44J52J52J52J60J44J60J60J52J52J60J60J60
8464D8488J60J60J60J68J60J60J68J68J60J68J68J68J76J68J68J76J76J76J76J76J68J84J76
8459E2376J84J76J84J84J84J84J84J84J92J84J92J84J92J92K00J92J92K00K00J92K00K00K08
8454E6760K00K08K00K08K08K08K08K08K16K08K16K16K16K16K24K16K24K16K24K32K24K24K32
8448F1712K32K32K32K32K32K40K32K40K40K48K40K48K40K48K48K48K56K56K48K56K64K56K56
8443F7336K72K56K72K64K72K64K72K72K80K72K80K80K80K80K88K88K88K88K88K96K96K96L04
8438G3784K96L04L04L04L12L12L12L12L20L12L20L20L28L20L28L36L28L36L36L44L36L44L44
8433H1192L44L52L52L52L60L52L68L60L60L76L68L76L68L76L84L84L84L92L92L92L92M00M00
8427H9776M08M00M16M08M16M16M24M24M24M32M32M32M40M40M48M48M48M56M56M64M56M72M64
8422I9800M72M80M80M80M88M96M96M88N04N04N12N12N12N28N20N28N28N36N36N44N52N52N52
8417A11600N60N68N68N68N84N76N84N92O00O00O00O08O16O16O24O32O32O40O40O48O56O56
8412A24968O64O64O72O88O80O88O96P04P04P20P20P28P28P36P44P44P60P60P68P76P84P84
8407A40880Q00Q00Q08Q16Q16Q32Q32Q48Q48Q56Q72Q72Q80Q88Q96R04R12R20R28R36R52R52
8402A60048R60R68R84R92R92J008J024J024J032J040J064J056J072J088J096J104J112J128
8398A78792J136J152J152J176J176J192J208J216J232J232J256J264J272J288J312J312J328
8394A99696J344J352J376J384J392J416J424J440J456J472J480J504J520J536J552J560J584
8390B24488J600J616J640J648J672J688J712J720J744J768J784J800J824J848J856J888J912
8386B54208J928J952J968K000K016K048K064K088K120K136K160K200K216K240K272K296K328
8382B90240K352K384K408K448K472K504K528K568K600K632K656K704K728K768K808K840K872
8378C34512K920K952K992L024L080L112L152L200L232L288L328L376L416L472L520L560L616
8374C89752L672L720L768L824L880L944L992M048M112M176M240M296M360M424M496M560M632
8370D59896M704M776M848M928N000N080N168N240N328N416N496N592N680N776N872N968O064
8366E50832O176O272O376O488O600O720O832O944P080P192P328P456P592P728P872Q016Q160
8363F71664Q320Q464Q632Q792Q960R128R304R488R672R864J0056J0264J0464J0672J0896J1112
8359H25752J1344J1576J1824J2064J2336J2584J2856J3144J3424J3712J4032J4336J4656J4984
8356A008624J5328J5680J6048J6416J6808J7208J7608J8040J8480J8920J9400J9880K0384
8353A238824K0880K1424K1976K2544K3144K3736K4384K5040K5704K6416K7152K7904K8688
8350A557816K9496L0352L1224L2136L3088L4080L5096L6168L7280L8440L9640M0896M2208
8347B017920M3576M5000M6488M8048M9672N1368N3152N5008N6960N9000O1144O3392O5744
8344B716472O8216P0824P3560P6432P9464Q2656Q6016Q9576R3320R7272J01464J05896J10584
8341C851752J15560J20832J26432J32384J38728J45456J52640J60312J68496J77248J86624
8338E476464J96656K07432K19008K31456K44872K59328K74961K91863L10185L30064L51680
8336H393969L75224M00896M28983M59745M93503N30649N71600O16880O67055P22800P84913
8333A4446217Q54343R32160J019696J118520J230456J357793J503232J670087J862464K085349
8331B8080317K345065K649425L008401L434680L944687M559775N308120O227327P368312Q800943
8329G5727052J0622576J2971365J6046679K0141993K5697751L3388125M4263271N9977156
8327B98835968Q3121187J17566629J68143126K36792314L06858006L09604093J41646717j41646824
8325A520921216l09603986l06858006k36792260j68143233j17566576q3121160n9977183m4263271
8323A94595541l3388125k5697764k0141980j6046699j2971359j0622575q800923p368313o227333
8321E3330470n308120m559775l944687l434680l008401k649425k345055k085359j862464j670087
8319B2462417j503224j357793j230464j118512j019704r32160q54335p84921p22792o67056
8317A2271456o16879n71608n30649m93512m59736m28975m00904l75224l51680l30064l10185
8314G402040k91863k74961k59336k44864k31456k19008k07432j96664j86616j77248j68496
8312D944096j60312j52640j45464j38712j32392j26432j20832j15560j10584j05896j01456
8309C533816r7280r3320q9568q6024q2656p9464p6432p3560p0816o8224o5744o3392o1144
8306B526192n9000n6952n5016n3152n1368m9672m8048m6488m5000m3576m2208m0896l9640
8303A895176l8440l7280l6168l5096l4072l3088l2144l1224l0352k9496k8688k7904k7144
8300A474080k6424k5712k5032k4376k3752k3136k2544k1968k1424k0896k0376j9880j9392
8297A179168j8928j8480j8032j7616j7208j6800j6424j6040j5688j5328j4984j4664j4328
8294I64648j4024j3720j3424j3136j2864j2584j2328j2072j1824j1576j1344j1112j0896j0672
8291G93072j0464j0256j0064r864r672r488r304r136q952q792q632q472q312q160q016p872
8287F47616p728p592p456p328p192p080o944o832o720o600o488o376o280o168o064n968n872
8283E32928n776n680n592n496n416n328n240n160n080n008m920m856m776m696m640m560m496
8279D46208m424m360m296m240m168m112m056l992l936l880l832l768l720l664l616l568l520
8276C79056l464l424l376l328l280l240l200l152l112l072l032k992k952k912k880k840k800
8272C26000k768k736k696k664k632k600k560k536k504k472k440k408k392k352k328k296k264
8268B83352k248k216k192k168k136k120k088k064k040k024j992j976j952j928j904j888j864
8264B48552j848j824j800j784j760j752j728j704j688j672j648j632j624j600j584j560j552
8260B19792j536j520j496j488j472j456j440j424j416j400j384j368j352j344j328j312j304
8256A95752j288j280j264j248j248j224j216j200j200j176j168j160j152j128j128j120j104
8252A75448j096j080j072j072j048j048j032j032j016j000j000r92r76r76r60r52r44r44r28
8248A56280r20r12r04q96q88q80q72q64q64q48q48q32q32q16q16q08q00q00p84p84p68p68
8243A37776p68p52p52p44p36p28p28p20p12p04p04o96o96o80o80o80o64o64o56o56o48o40
8238A22368o40o32o24o32o16o08o08o08o00n92n92n92n76n76n76n68n60n60n60n44n68n28
8233A09408n36n36n36n28n20n28n12n12n04n12m96m96m96m96m80m88m80m72m80m64m72m64
8228I8400m56m56m56m48m48m48m40m40m32m32m24m32m24m24m16m08m16m08m08m00m00m08l92
8223H8584l92l92l84l84l84l84l76l76l76l68l68l68l60l60l60l52l60l52l52l44l44l44l36
8217H0168l44l36l28l36l28l28l28l20l28l20l12l20l12l12l12l04l12l04k96l04l04k96k88
8212G2896k96k96k88k88k88k80k88k80k80k72k80k72k72k72k72k72k64k72k56k64k64k56k56
8207F6568k56k56k56k48k48k56k48k40k48k40k48k40k32k40k40k32k32k32k32k32k32k24k24
8201F1032k24k24k24k24k16k16k16k24k16k08k16k08k16k08k08k08k00k08k00k08k00k00k00
8196E6160k00k00j92k00j92j92j92j92j92j92j84j84j92j84j84j84j84j76j84j76j84j76j76
8191E1848j76j76j76j68j76j76j68j68j68j76j60j68j68j60j68j60j68j60j60j60j60j60j52
8186D8016j60j52j60j52j52j52j52j52j52j52j52j44j52j44j44j52j44j44j44j44j44j36j44
8180D4592j44j36j36j44j36j36j36j44j28j36j36j28j36j28j36j28j28j36j28j28j28j28j28
8175D1520j20j28j28j20j28j20j20j20j28j20j28j12j20j20j20j20j12j20j20j12j12j20j12
8170C8760j12j12j20j12j12j04j12j12j12j12j04j12j04j12j04j04j12j04j04j04j04j04j04
8165C6264j04j04r6j04j04j04r6j04r6r6j04r6r6r6j04q8r6j04r6r6q8r6q8j04q8r6q8r6q8
8158C3448r6q8q8q8r6q8q8q8q8q8q8q8q8q8q0q8q8q8q0q8q0q8q0q8q0q0q0q8q0q0q0q0q0q0
8150C0544q0q0q0p2q0q0q0q0p2q0p2q0q0p2p2q0p2p2q0p2p2p2p2q0p2p2p2p2o4p2p2p2p2p2
8142B8000p2o4p2p2o4p2o4p2o4p2o4p2o4o4o4o4p2o4o4o4o4o4p2n6o4o4o4o4o4o4o4o4o4n6
8135B5768o4n6o4o4o4n6n6o4o4n6n6o4n6n6o4n6n6o4n6n6n6n6o4n6n6n6n6n6n6n6n6n6m8o4
8127B3784m8n6n6m8n6n6n6m8n6m8n6n6m8n6m8n6n6m8m8n6m8n6m8m8m8m8n6m8m8n6m8m8m8m8
8119B2032m8n6m8m8m8m8m8m8m0m8n6m8l2m8m8m8m0m8n6m0m8m8m8m0m8m0m8m0n6l2m8m8m0m0
8111B0464m8m0m8m0m0m8m0m8m0m0m8l2m8m0m0m8m0m0m0m0m0m0m0m0m0m8m0l2m0m8m0m0l2m0
8103A9056m0m0m0m0m0m0l2m0m0m0l2m0m0m0l2m0m0l2m0m0l2m0l2m0l2m0m0l2m0l2m0l2l2m0
8096A7784l2l2m0l2m0l2l2m0l2l2l2m0l2l2m0k4m0l2l2l2m0l2l2l2l2l2m0l2l2l2l2l2l2l2
8088A6640l2l2l2l2l2l2l2k4m0k4l2l2l2l2l2k4l2l2l2k4l2l2l2l2k4l2l2k4l2l2k4l2l2k4
8080A5608l2l2l2k4k4l2l2k4l2k4l2l2k4l2k4k4l2k4l2k4k4l2k4l2k4k4l2k4l2k4k4l2k4k4
8072A4664l2k4k4l2k4k4k4l2k4k4k4l2k4k4k4k4k4l2k4k4k4k4k4k4k4k4l2k4k4k4k4k4k4k4
8065A3800k4k4k4k4k4k4k4k4k4k4k4j6k4k4k4k4k4k4k4k4j6l2j6k4k4k4k4k4j6k4j6l2j6k4
8057A3016k4j6k4k4k4j6k4k4k4j6k4k4k4j6j6l2j6k4j6k4k4j6k4j6k4j6k4k4k4j6k4j6k4j6
8049A2296k4j6k4j6k4j6k4j6k4j6k4j6k4j6j6k4j6k4j6k4j6j6k4j6k4j6k4j6j6k4j6j6k4j6
8041A1632j6k4j6j6j6k4j6j6k4j6j6k4j6j6j6k4j6j6j6k4j6j6j6j6j6k4j6j6k4j6j6j6j6j6
8033A1024j6k4j6j6j6j6j6j6j6j6k4j6j6j6j6j6j6j6j6k4qj6j6k4qk4j6qk4j6j6j6j6qj6j6
8025A0432k4qj6j6j6j6j6j6j6j6j6j6j6qj6j6j6j6j6j6j6j6j6j6qj6j6j6j6j6j6qj6j6j6j6
8017I880j6qj6j6j6j6qj6j6j6j6qj6j6j6qj6j6j6qj6j6j6j6j6qj6qj6j6qj6j6qj6j6j6j6q
8008I336j6j6qj6qj6j6j6qj6j6qj6qj6j6qj6qj6j6qj6qj6j6qj6qj6j6qj6qqj6j6qj6qj6qj6
7998H784qj6qj6j6qj6qj6qj6qj6qj6qj6qqj6qj6qj6qj6qqj6j6qqj6qj6qqj6qj6qqj6qj6qj6
7987H232qqj6qqj6qj6qqj6qqj6qqj6qj6qqj6qqj6qqqqj6qj6qqqqj6qqj6qqj6qqj6qqqj6qq
7976G688qj6qqj6%qj6qj6%j6qqj6qqqqqj6qqqj6qqqqqqj6qqqj6qqqqqj6qqqqqqqj6qqqqqq
7963G160qqqj6qqqqqj6%j6qqqqqqj6q%j6qqqqqqqqqqqj6qqqqqqqqqqqqqqqqqqqqqqqqqqqq
7949F632qqqqqqqqqqqqqqqqqqq%j6q%j6%qqqqqqqqqqq%j6%j6qqq%j6%qqqqqqqq%j6%qqqqq
7934F160qqq%j6%qqqq%qqqqq%j6q%qqqq%qqqqqqq%qqqqq%qqqqqq%qqqq%qqqq%qqqqqq%qqq
7919E712q%qqq%qqqq%qq%qqqq%qqq%qqqq%qqq%qqq%qqq%qqqq%qqq%qq%qqqq%qq%qq%qq%qq
7904E304q%qqq%qq%qq%qqq%qqq%qq%qq%qq%qq%qq%qq%q%qqq%qq%qq%qq%qq%qq%q%qqq%q%q
7888D936q%qq%qq%qq%q%qq%qq%q%qq%qq%%%j6%j6%%qq%q%qq%q%q%q%q%qq%q%qq%q%qq%q%q
7873D616q%qq%q%%qqq%q%q%qq%%qq%q%qq%q%q%q%qq%q%q%q%qq%q%q%%q%qq%q%q%qq%%q%qq
7857D312%q%%j6%%q%%q%q%qq%q%q%%qq%q%qq%q%%qq%%q%q%q%q%q%q%q%%qq%q%q%%q%q%qq%
7842D048%q%q%q%q%%qq%%q%q%q%%qq%%q%q%q%q%q%%q%q%q%q%q%%q%q%%q%q%q%q%%q%q%%q%
7827C808q%q%q%q%%q%q%q%%q%%q%q%q%%q%q%q%%q%%q%q%q%%q%%q%q%q%q%%q%%qq%%q%%q%q
7811C576%%q%%q%q%%q%q%q%%%qq%%%q%%q%q%%q%q%q%%q%%q%%q%%q%%q%q%%q%%q%q%%q%%%q
7795C376%q%qqQq%q%%%q%q%%q%%q%%q%%q%%q%%q%%q%q%%q%%%q%q%%%q%%q%q%%q%%%q%%q%%
7780C192q%%q%%q%%q%q%%%q%%q%%q%%q%%q%%q%%%q%%q%%q%%q%%q%%%q%%q%%q%%q%%%%qqQq
7764C016%%%q%q%%%q%%q%q%%%q%%q%%%q%%%q%%q%%%q%q%%q%%%q%%%q%%q%%%q%%q%%%%q%q%
7749B856%%%q%%q%%%q%q%%q%%%%q%%%q%%%q%%%q%%%q%qQq%%q%%%q%%%q%qQq%q%%%q%%%%q%
7733B712%%q%%q%%q%%%%q%%%%q%%q%%%q%%%q%%%q%%q%%%%q%%%q%%%%q%%%q%%%q%%q%%%q%%
7718B576%%%q%%q%%%q%%%%q%%%q%%%%%q%%%q%%%q%qQ%q%%q%%%q%%%q%%%qQq%%%q%%%q%%%q
7702B448%%%%%q%%%q%%%qQq%%q%%%%%q%%%q%%%%q%%%%q%%%q%%%q%%%q%%%%%q%%%qQq%%%q%
7686B336%%%%q%%%q%%%q%%%qQq%%%q%%%%%q%%%q%%%%qQq%%%q%%%qQq%%q%%%%q%%%%qQq%%q
7671B224%%%%qQq%%%q%%%%%%q%%%%q%%%q%%%%%%q%%%%%q%%%%q%%%%q%%%%q%%%%%q%%%%%%%
7655B136q%%q%%%%%%q%%%q%%%%q%Qqq%J6j6Q%qq%%Q%j6J6%j6QQj6%%q%%qQ%%%%q%q%%%%qQ
7641B048q%%%%%q%Qq%%q%%%%q%%%%%%q%%%%%q%%%%%q%%%%%%q%%%%%%%q%%%%%q%%%%%q%%%%
7626A960q%Qq%qQq%%%%%q%%%%%%q%%%qQq%%%%%%q%%%q%Qq%%%%q%%%%%%%%q%%%q%%%%%%q%%
7610A872%%%%%%q%%%%%%q%%%%%%q%%%%%%q%%%%q%%%%%%%%%q%%%qQq%%%%%qQq%%%%%%%q%%%
7594A800%q%%%%%%q%%%%%%%%q%%%%qQq%%%%%%q%%%%%%%%q%%%%%q%%%%%%%%q%%%%%qQq%%%%
7579A728q%%%%%%%%q%%%%%%q%%%%%%%%q%%%%%%%q%%%%%%%%q%%%%%%%q%%%%%%%q%%%Qq%%%q
7563A656%%%%%%%q%%%%%%%qQqQq%%%q%%%%%%%q%%%%%qQq%%%%%%%%%qQ%q%%%%%%q%%%%%%q%
7548A592%%%%%%q%%%%%%%q%%%%%%%%%q%%%%%%q%Qq%%%%%q%%%%%%%%%%q%%%%%%%%%%q%%%%%
7532A536%q%%%%%%%qQq%%%%%qQ%%q%%%%%%%%%%q%%%%%%%qQq%%%%%%%%q%%%%%%%%qQq%%%%%
7517A480%%%%qQq%%%%%q%%%%%%%%q%%%%%%%%%%%q%%%%%%%%%q%Qq%%q%%Qq%%%%%%%%%qQq%%
7501A424%%%%q%Qq%%%%%%%%q%%%%%%%%q%%%Qq%%%%%%%%q%%%%%qQq%%%%%%%%%%q%%%%%%%%%
7486A376%%%%%q%%%%%%%%q%%%%%%%%%%%q%%%%%%%%%%%qQq%%%%qQ%q%%%%%%%%%%%qQqqQ%%%
7470A328%%%qQqQq%%%%%%%q%%%%%%%%%%%q%%%%%%%%%%qQq%%%%%%%%%%%%%qQq%%%%%q%%%%%
7454A280%%%%%%%%q%%%%%%%%%q%Qq%Qq%%%%%%%q%QqQq%%%%%%%%qQq%%%%%%%qQ%%%qQq%%%%
7439A240%%%%%q%%%%%%%%%%%%%q%%%%%%q%Q%%qQ%%q%%%%%%%%qQq%%%%%%%%%%%%%%q%%%%%%
7423A200%%%%%%q%%%%%%%%%%q%%%%%%%%%%%%%q%%%%%%%%%%%%%qJ6qqQ%%%q%%%%%qQq%%%%%
7408A160%%qQ%%qQqQq%%%%%%%%qQqQq%%Qq%%%%%%%%%%%q%%%%%%%%%%%qQqQq%%%%%%%%%%%%
7392A128qQq%%%%%%%%%%%%%%%j6%J6qQj6Q%%%%%q%%Q%q%%%Qq%%%%qQq%%%%%%%%%%%%%%q%Q
7377A096q%%%%%%%%%%%%%%%q%%%%%%%%%%%%q%Qq%%%%%%%%%%%%%qQ%%q%%%%%%%%%%%q%%%%%
7362A056%%%q%Q%%%%%%q%Qq%%%%%%%%%%%%%%qQq%%%%%%%%%%%q%%%%%%%%%%%%%qQ%%q%%Qq%
7346A024%%%%%%%%%%qQ%%qQq%%%%%%%%%%%%q%Q%q%%%%%%%%%%%%%%%%%qQqQq%%%%%%%%%q%%
7331I92%%%%%%%%%%%%%%%q%%%%%%%%%Qq%%%%%%%%%%%q%%%%%%%%%%%%%%%%%%%q%%%%%%%%%%
7315I68%%%%qQqQq%%%%%%%%%%%%%%%%%q%%Qq%%%%%%%%%%%%%%q%%%%%%%%%%%%%%%%%q%%%%%
7299I36%%%%%%%%%%%%%%%%%j6J6%qQq%%%%%%%%%%q%%%%%%%%%%%%%%%%%%%%%%%qQ%q%%%%%%
7284I12%%%%%%%%%%%%qQ%%q%%%%%%%%%%%%%%%%%%%qQ%qQ%q%%%%%%%%%%%%q%Q%q%Qq%%%%%%
7268H88%%%%%%%%qQ%%%q%Qq%%%%%%%%%%%%%%%q%%Qq%%%%%%%%%%%%%qQ%%q%%%Qq%%%%%%%%%
7252H64%%%%%%%%%%q%%%%%%%%%%%%%%%%%%%%%%%qQ%q%%%%%%%%%%%%%%%%%%%%%%qQqQ%%q%%
7236H40%%%%%%%%%%%q%Q%q%Qq%%%%%%%%%%%%%qQq%%Q%%%q%Qq%%%%%%%%%%%%%%%%%%%%%%%q
7221H16Qq%%%%%%%%%%%%%%%%%%%%%%%%%%q%%%%%%%%%%%%%%%%%%%%qQq%%%%%%%%%%%%%%%%%
7205H00%%%%%q%%%%%%%%%%%%%%%%%%%%%%%%%%qQq%%%%%%%%%%%%%%%%%%%%%%%%%%%q%%%%%%
7189G76%%%%%%%%%%%%%%%qQqQ%q%%%%%%%%%%%%%%%%%%%%%%%qQ%j6Q%%Q%%qQq%Qq%%%%%%%%
7174G60%%%qQ%%q%QqQ%%q%%%%%%%%%%%%%%%%%%%%%%%%%%q%Q%q%%%%%%%%%%%%%%%%%qQ%q%%
7158G36%%%%%%%%%%%%%%qQqQ%qQ%%%%%%qQqQ%q%%%%%%%%%%%%%%%%%%%%%%%%%%%%%%q%%%%%
7142G20%%%%%%%%%%%%%%%%%%%%%%%%q%%Qq%%Qq%%%%%%%%%%%%%%%%%%%q%QqQqQ%q%%%%%%%%
7126G04%%%%%%%%%%%%%%%qQ%%q%%%%Qq%%Qq%%Qq%%%%%%%%%%%%%%%qQ%%q%%%%%%%%%%%%%%%
7110F88%%%%q%Q%%%%%%qQq%%%%%%%%%%%%%%%%%%%%%%%%%%%%%%%%%%%%q%%%%%%%%%%%%%%%%
7095F72%%%%%%%%%%%%%%%%%%qQq%%%%%Qq%Qq%%%%%%%%%%%%%%%%%%%%%%%%q%%%%%%%%%%%%%
7079F56%%%%%%%%%%%%%%%%%%%%%q%%%Q%q%Qq%%%%%%%%%%%%%%%%%%%%%%%%%%%%%q%%Qq%%%%
7063F40%%%QqQq%%%%%%%%%%%%%%%%%%%qQq%Q%%%q%%%%%%%%%%%%%%%%%%%%%qQ%%%qQ%%%%%%
7047F32%%%%q%%%Qq%%%%%%%%%%%%%%%%%%%%%%%%%%%%%qQ%%q%%%Q%%q%%%%%%%%%%%%%%%%%%
7031F16%%%%%%%%%%%%%%%%qQ%%qQq%%%%%%%%%%%%%%%%%%%%%%%%%%%%q%%%%%%Qq%%%%%%%%%
7016F00%%%%%%%%%%%%%%%%%%%%%qQ%%qQq%%%%%%%%%%%%%%%%%%%%%%%%%%%%qQ%%%%%%%%%%%
7000E92%%%%qQ%%qQ%q%%%%%%%%%%%%%%%%%%%%%%%%%%qQ%%%%%%%%%%%q%%%%%%%%%%%%%%%%%
6984E76%%%%%%%%%%%%%%q%%%%Qq%%%Qq%%%QqQq%%Qq%%%%%%%%%%%%%%%%%qQ%%%%%%%%%q%Qq
6968E60%Qq%Qq%%%%Qq%%%%%%%%%%%%%%%%%%%%%%%%%%%%%%%%q%Q%qQ%%%qQq%%%%%%%%%%%%%
6952E52%%%%%%%%%%%%%%%%%%%%%%%%%qQ%%%q%Q%%%j6J6%%q%QqQ%qQq%%%%%%%%%%%%%%%%%%
6937E44%%%%%%%%%%%q%%Q%q%Qq%%%%Qq%%%%%%%%%%%%%%%%%%%%%%%%%%%%%%%%%%%%%%qQ%%q
6921E28%Q%qQqQ%q%%%Qq%%%%%%%%%%%%%%%%%%%%%%%%%%%%%%%%q%%%Q%%q%%%%%%%%%%%%%Q%
6906E28q%%%%%%%%%%%%%%%%%%%%%%%%%%%%%%%%%%%%%qQ%qQq%Qq%%%%%%Qq%%%Qq%%%%%%%%%
6890E12%Qq%%%%%%%%%%%%qQ%%Qq%%%%%%%%%qQ%q%Qq%%%%%Q%q%%%%%%%%%%%%%%%%%%%%%%%%
6874E04%%%%%%%%%%%%%qQ%qQqQq%%%%%%%%%%%%Qq%%%%%%%%%%%%%%%%%%%%%%%%%%%%%qQ%%%
6858D96qQqQ%qQq%%%%QqQq%%Q%%qQ%q%Qq%%%%%%%%%%%%%%%%%%%%%%%%%%%%%%%%%%qQ%%%%%
6842D88%qQ%qQq%%%%%%%%%%%%%%%%%%%%%%%%%%%%%%%%%%%%%%%%%%%%%%%qQ%%%%%%%%%%q%%
6827D72%%%Q%%q%%%%%%%Qq%%%%%%%%%%%%%%%%%%%%%%%%%%%%%%%%%%%%%%%%%%%%%%%%qQ%%%
6811D72%%%%q%Qq%Q%q%%%Qq%%Qq%Qq%%%%Qq%%%%%%%%%%%%%%%%%%%%%%%%%%%%%%%%%qQq%Q%
6795D64q%%%%QqQq%%Q%qQq%%%%Qq%%%%%%%%%%%%%%%%%%%%%%%%%%%%%%%%%%%%%%%%%%%%%%%
6779D56%%%qQq%%%%%%%%%%%%%%%%%%%%%%%%%%%%%%%%%%%%%%%%%%%%%%qQ%%%qQ%%%%%qQqQ%
6763D48%qQ%%qQ%%qQq%%%%Q%%q%%Qq%%Qq%%%%%%%%%%%%%%%%%%%%%%%%%%%%%%%%%%%%%%%%%
6748D40qQ%%qQq%%%%%Qq%%%%QqQq%%%%%%%%%%%%%%%%%%%%%%%%%%%%%%%%%%%%%%%%%%%%%%%
6732D32%%%%%%%%%%%%%%qQ%%qQqQq%%%%%Qq%Q%%q%%Qq%%%%%%%%%%%%%%%%%%%%%%%%%%%%%%
6716D24%%%%%%%%%%%%qQ%q%Q%%qQ%j6Q%%%%%Qq%%Qq%Q%%qQqQqQq%%Q%qQ%q%%%%%%%%%%%%%
6700D16%%%%%%%%%%%%%%%%%%%%%%%%%%%%%%%%%%%%%%%%%%%%%%%q%%%Qq%%%QqQq%Qq%%%%Q%
6685D16%qQ%%%%qQq%%%%%%%%%%%Qq%%%%%%%%%%%%%%%%%%%%%%%%%%%%%%%%%%%%%%%%%%%%%%
6669D08qQqQ%q%%%%%Q%q%%%%%%%Q%q%Qq%Q%q%%%%%%%%%%%%%%%%%%%%%%%%%%%%%%%%%%%%%%
6653D00%%%qQ%%%qQqQ%%%%%qQqQ%%%%q%%%%%%%%%%Qq%%Qq%%%%%%%%%%%%%%%%%%%%%%%%%%%
6637C92%%%%%%%%%%%%%%%%%%%%%%%%%%%%%%%%%%%%%%%%%%%qQ%%%qQ%qQqQ%%%%q%Q%%q%%%Q
6621C92qQq%%%%%%%%%%%%%%%%%%%%%%%%%%%%%%%%%%%%%%%%%%%%%%%%%%%%%%%%%%%%%%%%qQ
6606C84%%%%%%%%qQq%%%%%%%%%%%%%%%%%%%%%%%%%%%%%QqQq%%%%%%%%%Qq%%%Qq%%%%%%%%%
6590C76%%%%%%%%%%%%%%%%%%%%%%%%%%%%%%%%%%%%%qQ%%%%%%%%%%%%%%qQq%Qq%%%%%%Qq%%
6574C68Qq%%Qq%%%%Qq%%%%%%%%%%%%%%%%%%Qq%Qq%%%%%%%%%%%%%%%%%%%%%%%%%%%%%%%%%%
6558C68%%%%%%%%%%%%qQ%qQqQ%qQqQqQ%q%Q%q%%%%%Qq%%%%Qq%%%%%%%%%%%%%%%%%%%%%%%%
6543C60%%%%%%%%%%%%%%%%%%%%%%%%%%%%%%%%%%%%%%%%%%qQ%%%%%%%%%%%%%q%%Qq%%%%Qq%
6527C52Qq%%QqQ%qQqQ%q%%%%%%%%%%%%%%Qq%%Qq%%%%%%%%%%%%%%%%%%%%%%%%%%%%%%%%%%%
6511C52%%%%%%%%%%%%%%%%%%%%%%%%%%%%%%%%%%%%%%%%%%%%%%%%qQqQ%q%Q%%%%qQ%%%%%%q
6495C44QqQ%q%Qq%%%%%%%%%%%%%%%%%%%%%%%%%%%%%%%%%%%%%%%%%%%%%%%%%%%%%q%QqQ%%%
6479C44%qQ%qQ%%%q%Q%%%%q%QQq%%%q%%%Q%q%Q%qQ%%%%%%%%%%%%%q%%Q%%%q%Qq%Q%%q%QqQ
6464C44%%%%qQq%Qq%%%%%Q%%q%%%%%%%%%%%%%%%%Qq%%%%%%%%%%%%%%%qqQ%J6j6Q%q%%Qq%Q
6448C36%%%qQ%%%qQ%qQqQ%%%%%%%%%%%%%%%qQ%%%%qQqQ%%qQqQq%Qq%Q%q%%%%%%QqQq%%%%Q
6432C36qQq%%%Qq%%%%%%%Qq%%Qq%%%%%%%%%%%%%%%%%%%%%%%%%%%%%%qQ%%%%%%%%%%%%%%%%
6417C28%%%%%%%%%%%%%%qQ%%%%%%%%%%%%%%%%q%QqQqQ%qQq%%Q%q%Qq%%%%QqQq%%%%%%%Q%q
6401C20%%%%Qq%Qq%%%%%%%%%%%%%%%%%%%%%%%%%%%%%%%Qq%Qq%%%%%%%%%%%%%%%%%%%%%%%%
6385C20%%%%%%%%%%%%%%%%%%%%%%%%%%%%%%%%%%%%%%%%%%%qQ%%%%%%qQ%%qQ%qQqQ%%%%%%%
6369C20q%Q%%%%qQ%%%qQ%%%qQ%%q%%%%%%%%%%%%%%%%%%%%%%%Q%q%%%%%%%Qq%%%%%%%%%%%%
6353C12%%%%%%%%%%%%%%%%%%%%%%%%%%%qQ%%%%%%%%%%%%%%%%%%%%%%%%%%%%%%%%%%%%%%qQ
6338C12%%q%%%Qq%%%%%%%Q%q%%%QqQqQ%%q%Qq%%Qq%Q%q%%Qq%Q%qQ%qQ%%%qQ%qQq%%%Qq%%%
6322C04%%%%%%%%%%%%%%%%%%%%%%%%%%%%%%%%%%%%%%%%%%%%%%%%%%%%%%%%%%%%%%%%%%%%%
6306C04%%%%%qQ%qQ%%%%%qQqQ%qQ%%qQ%q%%%QqQ%%qQq%%QqQq%%QqQq%%%%%%%%%%Q%%%%%%%
6290C04%%q%QqQ%qQq%%%Q%%%q%%%Qq%%%%Qq%%%%%%%%%%%%%%%%%%%%%%%%%%%%%%%%%%%%%%%
6274B96%%%%%%%%%%%%%%%%%%%Qq%%%%%%qQ%%%%%%%%%%%%%%%%%%%%%%%%%%%%%%%%%%%%%%%%
6259B96%%%%%%%%%%%%qQ%%%%%%%%%%%qQ%q%%%%%%%QqQq%%Qq%Q%%q%Qq%%%%Qq%%%QqQq%QqQ
6243B96q%%%%%qQ%QqQ%qqJ6qQq%%%%%%%Qq%%%%%%%%%%%%%%%%%%%%%%%%%%%%%%%%%%%%%%%%
6227B88%%%%%%Qq%%%%%%%%%%%%%%%%%%%%%%%%%%%%%%%%%%%%%%%%%%%%%%%%%%%%%%%%%%%%q
6212B80Q%%qQqQq%Q%%%%q%Qq%%%%%QqQ%%%%qQqQ%qQ%%%q%%%QqQq%%%%%%%%Qq%%%Q%qQ%q%Q
6196B88q%%Qq%%Qq%Q%%qQqQq%%%Q%qQqQq%%%%%%%%%%%%%%%Qq%%%%%%%%Qq%%%%%%%%%%%%%%
6180B80%%%%%%%%%%%%%%%%%%%%%%%%%%%%%%%%%%%%%%%%%%%%%%%%%%%%%%%%%%%%%%%%%%%%%
6164B80%%%%%%%%%%%%%%%%%%%%%%%%%qQ%%%%%%qQ%%%%%%%%%%%%%%%%%q%Q%%%%%%qQqQq%%%
6148B72%QqQ%%%%q%%Qq%%%%%%%%Qq%Qq%%%%Q%q%%%%%%%%%Qq%%%%%%%%%%%%%%%%%%%%%%%%%
6133B72%%%%%%%%Qq%%%%%%Qq%%Qq%%Qq%%%%%%%%%%%%%Qq%%%%%%%%%%%%%%%%%%%%%%%%%%%%
6117B72%%%%%%%%%%%%%%%%%%%%%%%%%%%%%%%%%%%%%%%%%%%%%%%%%qQqQ%%qQ%%%%%%%%qQ%%
6101B72%q%Q%%q%Q%q%Q%q%QqQ%%%%%%%%qQ%%%%%%%qQq%Qq%Qq%%%%%%%%%%%%%%%%%%Q%qQq%
6085B64Qq%%%%%Qq%%%%%%%Q%qQqQq%%%%%%%%QqQqQq%%%%%%%%%%%%%%%%%%%%%%%%%%%%%%%%
6069B64%%%%%%%%%%%%%%%%%%%%%%%%%%%%%%%%%%%%%%%%%%%%%%%%%%%%%%%%%%%%%%%%%%%%%
6054B64%%%%%%%%%%%%%%%%%%%%%%%%%%%%%%%%%%%%%%qQqQ%%%qQ%%%%%%qQqQ%%%q%Q%%%%%%
6038B64%%%%%%%%%%%%%%%%qQ%%%%%q%%%Qq%Q%%%%%%%%%%qQ%qQ%%%q%%%Q%%%%%%%%%%%%%qQ
6022B64qQ%%%qQq%Q%%%%%%%%%%%%%qQ%%%qQq%%%%%%%%%%%%%Qq%%%Qq%%%Qq%%%Qq%%QqQ%%j6
6006B48J6j6Q%%%Qq%%%%%%%%%%%%%%%%%%%%%%%%%%%%%%%%%%%%%%%%%%%%%%%%%%%%%%%%%%%
5991B56%%%%%%%%%%%%%%%%%%%%%%%%%%%%%%%%%%q%J6q%%%%qQ%%%%%%%%%%%%%%%%%%%%%%%%
5975B56%%%%qQ%qQqQ%qQ%%qQ%%%%%%%%%%%qQ%%%%%%%%%%qQ%%%%%%%%%%%%%%%%%%%%%%%%%%
5960B56%%qQ%q%Q%q%Q%%%%%%qQqQ%%%q%%Q%%%%q%QqQ%%%%%%%%qQq%%%%Q%q%Q%qQ%%%%%%%q
5944B48Q%%%q%%%%%%%%%%%%%Q%%%%qQ%%%%%q%%%%%Qq%%%%%%%%Qq%%%%Qq%%%%%%%%%%Qq%Qq
5928B48%%%%%%%%%%%%%%%%%%%%%%%%%%%%%%%%%%%%%%%%%%%%%%%%%%%%%%%%%%%%%%%%%%%%%
5912B48%%%%%%%%%%%%%%%%%%%%%%%%%%%%%%%%%%%%%%%%%%%%%%%%%%%%%%%%%%%%%%%%%%%%%
5896B48%%%%%%%%%%%%%%%%%%%%%%%%%%%qQ%%%qQqQ%%%%%%%%%%%%%%%%%%%%%%%%%%%%%qQ%%
5881B48%%%%qQ%%%qQ%qQ%%%%%%qQ%%%%%%qQ%%%%%%%%%%%%q%Qq%Q%%%%%%qQ%%%%%%qQ%q%Qq
5865B40%%Q%%%%%%%%%qQq%Q%qQ%%qQ%%%q%Qq%QqQ%q%%%%%%%%%%%%%%%%%%%%%%Qq%%%%%%%%
5849B40%Qq%%%%%%%%%%QqQqQq%%%%%Q%q%%QqQqQq%%%%%%%%%%QqQ%q%%%%%%%%%%%%%%Qq%%Q
5833B48qQq%%%%%%%%%%%%Qq%%%%%%%%%%%%%%%%%%%%%%%%%%%%%%%%%%%%%%%%%%%%%%%%%%%%
5817B40%%%%%%%%%%%%%%%%%%%%%%%%%%%%%%%%%%%%%%%%%%%%%%%%%%%%%%%%%%%%%%%%%%%%%
5802B40%%%%%%%%%%%%%%%%%%%%%%%%%%%%%%qQ%%%%%%%%%%%%%%%%%%%%%%%qQ%%%%%%%%%%%%
5786B40%%%%%%%%%%%%%%%%%q%QqQqQ%%q%Q%%%q%%Q%%q%QqJ6q%q%%%Q%qQ%q%qK4J6k4l2M0k4
5771B24K4j6%%QqJ6j6Q%%q%QqQqQ%%qQq%%%QqQqQq%%Q%qQ%%q%Q%%qQq%Q%%%%%%%%q%Q%%%q
5757B32%%%%Qq%%Q%%q%%QqQ%%%%%%%%%qQ%qQqQqQ%%q%%Q%%%qQ%qQ%%%qQ%qQqQq%QqQ%%%qQ
5741B40q%Qq%Qq%%%%%%%%%%%%QqQ%%qQqQq%%%%%%%%%%%%Qq%%%%%%%%%Qq%%%%%%%%%%%%%%%
5725B32%%%%%%%%%%%%%%%%%%%%%%%%%%%%%%%%%%%%%%%%%%%%%%%%%%%%%%%%%%%%%%%%%%%%%
5709B32%%%%%%%%%%%%%%%Qq%%%%%%%%%%%%%%%%%%%%%%%%%%%%%%%%%%%%%%%%%%%%%%%%%%%%
5693B32%%%%%%%%%%%%%%%Qq%%%%%%%%%%%%%%%%%%%%%%%%%%%%%%%%%%%%%%%%%%%%%%%%%%%%
5678B32%%%%%%%%%%%%%%%%%%%%%%%%%%%%%%%%%%%%%%%%%%%%%%%%%%%qQ%%%%%%%%%%%%%%%%
5662B32%%%%%%%%%%%qQ%%%%%%%%%%%%%%%%qJ6q%qQ%%%qQq%Q%%%%qQqQ%%%qQqQqQqQ%%%%%%
5646B32%%%%%%%%%%%%%%%%%%%%%%%%%%%%%%%%%%%%%%qQ%%q%Q%%%%%%%%%qQ%%%%%%%%%%qQ%
5630B32qQqQ%%%%%%%%%qQ%%q%Q%q%Q%qQ%qQ%qQqQ%%%qQqQq%Q%%%q%Q%%%%%%%%%%qQ%q%%Q%
5615B32qQ%%qQ%%%%%qQqQ%%%%%%%%%%%qQ%%%%qQ%qQ%%qQqQ%%%%%%%%%%qQqQqQ%qQqQ%%%qQ
5599B32%%%%%%%%%%%qQ%%%%%%%%%%%%%q%Q%%q%%%%%%%%%%Q%q%%%%QqQ%%%qQ%%%q%%%%%%%%
5583B24%Q%qQq%%%%%%%%%%Qq%%%%%%%%%Qq%%%%%%%%%%%%Q%qQ%q%%%%Qq%Q%q%%%%%%%Qq%%Q
5567B32q%Qq%%%%%%%%Qq%Qq%%%%%%Q%q%%%%%%%%%%%%%%%%%%%%%%%%%%%%%%%%%%%%%%Qq%%%
5551B24%%%%%%%%%%%%%%%%%%%%%%%Qq%%%%%%QqQq%%%%Qq%%%%%%%%%%%%%%%Qqq%J6qQ%qQq%
5536B24%%%%%%%%%%%%%%%%%%%%%%%%%%%%%%%%%%%%Qq%%%%%%%%%%%%%%%%%%%%%%%%%%%Qq%%
5520B24%%%%%%%%%%%%%%%%%%%%%%%%%%QqQqQq%%%qQQqQq%%%Qq%%%%QqQq%%%%%%%%%%%%%%%
5504B24%%%%%%%%%%%%%%%%%%%%%%%%%%%%%%%%%%%%%%%%%%%%%%%%%%%%%%%%%%%%%%%%%%%%%
5489B24%%%%%%%%%%%%%%%%%%%%%%%%%%%%%%%%%%%%%%%%%%qQ%%%%%%%%%%%%%%%%%%%%%%%%%
5473B24%%%%%%%%%%%%%%%%%%%%%%%%%%%%%%%%%%%%%%%%%%%%%%%%%%%%%%%%%%%%%%%%%%%%%
5457B24%%%%%%%%%%%%%%%%%%%%%%%%%%%%%%%%qQ%%%%%%%%%%%%%%%%%%%%%%%%%%%%%%%%%%%
5441B24%%%%%%%%%%%%%%%%%%%%%%%%%%%%%%%%%%%%%%%%%%%%%%%%%%%%%%%%%%%%%%%%%%%%%
5425B24%%%%%%%%%%%%%%%%%%%%%%%%q%QQq%%%%%%%%%%%%%%%%%%%%%%%%%%%%%%%%%%%%%%%%
5410B24%%%%%%%%%%%%%%%%%%%%%%%%%%%%%%%%%%%%%%%%%%%%%%%%%%%%%%%%%%%%%Qq%%%%%%
5394B24%%qQ%%%%%%%%%%%%%%%%%%%%%%%%%%%%%%%qQ%%%%%%%%%%%%%%%%%%%%%%%%%%%%%%%%
5378B24%%%%%%qQ%%%%%%%%%%%%%%%%%%%%%%%%%%%%%%%%%%%%%%%%%%%%qQ%%%%%%%%%%%%%%%
5362B24%%%%%%%%%%%%%%%%%%%%%%%%qQ%%%%%%%%%%%%%%%%%%%%%%%%%%%%%%%%%%%%%%%%%%%
5346B24%%%%%%%%%%qQ%%%qQ%qQqQ%%%%%qQ%%%%%%%%q%Q%%%%%%%%%%%%%%%%%%%%%%%%%%%%%
5331B24%%%%%%%%%%%%%%%%%%%%%%%%%%%%%%%%%%%%qQ%%%%%%%%%%%%%%%%%%%%%%%%%%qQ%%%
5315B24%%%%%%%%%%%%%%q%QqQ%qQ%%%%%%%%%%%%%%%%%%%%%q%%QqQ%qJ6qq%Q%Qq%q%Q%qQq%
5299B16%Q%%qQ%%%%%%%%%%%qQ%%%%%%%%%%%%%%%%%%%%%%%%%%%%%%%%%%%%%%%%%%%%%%%%%%
5283B24%qQ%%%%qQ%%%q%Qq%QqQ%%%%qQ%Qq%%qQ%%qQ%%qQ%%%%%%q%Q%%%%%%%%%%%%%%%%%%%
5268B24%%%%%%qQqQ%%%%%%%%%%%%%%%%%%%%%%%%%%%%%%%%%%%%%%%%%%%%%%%%%%%%%%%%%%%
5252B24%%%%%%%%%%%%%%%%%%%%%%%%%%%%%%qQ%%%%%%%%%%%%%%%%%%%%%%%%%%%%%%%%%%qQ%
5236B24%%%%%%%%%%%%%%%%%%%%%%%%%%%%%%%%%%%%%%%%%%%%%%%%%%%%%%%%%%%%qQ%%%%%%%
5220B24%%%%%%%%%%%%%%%%%%%%%%%%%%%%%%%%%%%%%%%%%%%%%%%%%%%%%%%%%%%%%%%%%%%%%
5204B24%%%%%%%%%%%%%%%%%%%%%%%%%%%%%%%%%%%%%%%%%%%%%%%%%%%%%%%%%%%%%%%%%%%%%
5189B24%%%%%Qq%%%Qq%%%%%%%%%%qQ%%%%%%%%%%%%%%%%%%%%%%%%%%%%%%%%%%%%%%%%%%%%%
5173B24%%%%%%%%%%%%%%%%%%%%%%%%%%%%%%%%%%%%%%%%%%%%%%%%%%Qq%%%%%%%%%%%%%%%%%
5157B24%%%%%%%%%%%%%%%%%%%%%%%%%%%%%%%%%%%%%%%%%%%%%%%%%%%%%%%%%%%%%%%%%%%%%
5141B24%%%%%%%%%%%%%%%%%%%%%%%%%%%%%%%%%%%%%%%%%%%%%%%%%%%%%%%%%%%%%%%%%%%%%
5126B24%%%%%%%%%%%%%%%%%%%%%%%%%%%%%%%%%%%%%%%%%%%%%%%%%%%%%%%%%%%%%%%%%%%%%
5110B24%%%%%%%%%%%%%%%%%%%%%%%%%%%%%%%%%%Qq%%%%%%%%%%%Q%qQqQq%%%%%%%%%%%%%%%
5094B24%%%%%%%%%%Qq%%%%%Q%q%QqQ%%%q%%%%%%%%%Qq%%%%%%%%%%%%%%%%%%%%%%%%%%%%%%
5078B24%%%%%%%%%%%%%%%%%%%%%%Qq%Q%qQ%qQqQq%Q%qQ%qQ%q%Qq%%%%Qq%Qq%%%%%Qq%Qq%%
5062B24Qq%%%%%QqQ%%%%q%%%%Qq%%%Qq%%%%%%%%%%%%%%%%%%%%%%%%%%%%%%%%%%%%Qq%%%%%
5047B24%%%%%%%%%%%%%%Q%%%qQqQ%qQq%Qq%%QqQq%%%%%%%%%%%%%%%%%%%%%%%%%%%%%%%Qq%
5031B24QqQ%qQqQ%%%qQq%%%Q%q%%QqQq%%%%%%%%%%%%%Qq%%%%%%%%%%Qq%%Qq%%QqQq%%%%Qq
5015B24%QqQ%%%%q%Qq%%Q%q%%%QqQ%%%%%%%%%%%%q%%QqQ%q%Q%%%%%q%%%Qq%%Q%qQ%%qQ%%q
4999B24Q%qQ%%qQ%%q%Q%%q%Q%%%%%%%%%%%%%%%qQ%%%%%%%%%%%%qQ%%%%%%qQ%%%%%%%%%%%%
4983B32%%%%%%%%%%%%%%%%%%%%%%%%%%%%%%%%%%%%%%%%%%%%%%%%%%%%%%%%%%%%%%q%%%%%Q
4968B32%%%%%%qQ%%%%%%%%%%%%%%%%%%%%%%%%%%%%%%%%%%%%%%%%%%%%%%%%%%%%qQ%%qQ%%%
4952B32q%QqQqQ%%%%%%%%%%%%%%%%%%%%%%%%%%%%%%%%%%%%%%%%%%%%%%%%%%%%%%%%%%%%%%
4936B32%%%%%%%%%%%%%%%%%%%%%%%%%%%%%%%%%%%%%%%%%%%%%%%%%%%%%%%%%%%%%%%%%%%%%
4920B32%%%%%%%%%%%%%%%%%%%%%%%%%%%%%%%%%%%%%%%%%%%%%%%%%%%%%%%%%%%%%%%%%%%%%
4904B32%%%%%%%%%%%%%%%%%%%%%%%%%%%%%%%%%%%%%%%%%%%%%%%%%%%%%Qq%%%%%%%%Qq%%%%
4889B32%%%%%%%%%%%Q%q%%%%%%%%%%%%%%%%%%%%%%Qq%%%%%QqQq%%%%%%%%%%%%%Qq%%%%%%%
4873B32%%%%%Qq%Qq%%%Q%q%QqQq%QqQq%%%%%Q%q%%%%%Q%q%Qq%%%%%%%%%%%Qq%Q%%q%Q%%%%
4857B40q%%%%%%%%%%%%QqQq%%%Q%qQ%%%qQ%qQ%q%%Q%%%%q%%QqQ%%q%%%Qq%Q%q%%QqQ%qQqQ
4841B40q%%%Q%q%QqQ%%qQ%qQ%qQqQqJ6k4Q%%%qK4k4J6j6J6%%%qQ%%%%qQqQqQqQ%%%%%%%%%
4827B40%%%%%%%%%%%%%%%%%%%%%%q%Q%%%%%%%%%%%%%%%%%%%%%%%%%%%%%%%%%%%%%%%%%%%%
4811B40%%Qq%qQqQQq%qQ%%%%%%%%%%%%%%%%%%%%%%%%%%%%%%%%%%%%%%%%%%%%%%%%%%%%%%%
4795B40%%%%%%%%%%%%%%%%%%%%%%%%%%%%%%%%%%%%%%%%%%%%%%%%%%%%%%%%%%%%%%%%%%%%%
4780B40%%%%%%Qq%%%%%%%%Qq%%%%%%%Qq%%%%%%%%%%%%%%%%%%%%%%%%%%%%%%%%%%%%%%%%%%
4764B40%%%%QqQq%%%Qq%Q%q%%%%%%%%%%%%%%%%%%%%%%Q%%%q%QqQqQqQq%%%%%Q%q%%%%%%Qq
4748B40QqQ%q%%%%%QqQ%%%q%%%Q%qQq%%Q%%q%%%QqQq%Qq%QqQ%%q%%%Qq%%Q%%qQ%qQq%Qq%Q
4732B48qQ%%q%Q%q%Q%q%%Q%%q%Qq%Q%%q%Q%qQ%%%%%qQ%q%QqQqQ%qQq%Q%%%%qQ%%qQ%%%%%q
4716B40J6qqQ%%%q%Q%%%%%%%%%%%%%%%%%%%%%%%%%%%%%%%%%%%%%%%%%%%%%%%%%%%%%%%%%%
4701B48%%%%%%%%%%%%%%%%%%%%%%%%%%%%%%%%%%%%%%qQ%%%%%%%%%%%%%%%%%%%%%%%%%%%%%
4685B48%%%%%%%%%%%%%%%%%%%%%%%%%%%%%%%%%%%%%%%%%%%%%%%%%%%%%%%%%%%%%%%%%%%%%
4669B48%%%%%%%%%%%%%%%%%%%Qq%%%%%%%%%%%%%%%%%%%Q%q%%Q%%%qQqQq%%Qq%%%%Qq%%%%%
4654B48%Qq%%%%%Qq%%Qq%%Q%%%%%%%%%%%%%q%Qq%Q%%q%Q%%%%%%%%%%%%%%%%%%%%%%qQ%%%%
4638B56%%%%%%%%%%%%%%%%q%QqQ%%%%%%%%%qQ%%%%%%qQ%%%%%%%%%%%%%%%%%%%%%%%%%%%%%
4622B56%%%%%%%%%%%%%%%%%%%%%%%%%%%%%%%%%%%%%%%%%%%%%%%%%%%%%%%%%%%%%%%%%%%%%
4606B56%%%%%%Qq%%%%Qq%%%%%Qq%%q%J6q%%%Qq%%%%%%%%%%%%%%%%%%%%%%%%%%%%%%%%%%%%
4591B56%%%%%%%%%%%%%Q%q%%%Qq%Q%q%%Q%q%Qq%%%%%%%%%%Qq%%%%%%%Qq%qJ6q%%J6qqqJ6l2
4576B32L2%Qj6qJ6qQ%q%%%Q%qQq%Qq%%%%%Qq%Q%qQ%%q%%Qq%Qq%%Qq%%QqQq%%%%QqQqQ%qQ%
4560B64%%%qQ%qQ%%%qQ%%%%%%%%%%%%%%%qQ%%%%%%qQ%%%%%%%%%%qQ%%%%%%%%%%%%%%%%%%%
4545B64%%%%%%%%%%%%%%%%%%%%%%%%%%%%%%%%%%%%%%%%%%%%%%%%%%%%%%%%%%%%%%%%%%%%%
4529B64%Qq%%%%%%%%%%%%%%%%%%%%%%%%%%%%%%%%%%%%%%%%%%%%%%%%%%%%%Qq%%%%%%%%%%%
4513B64%%%%%QqQq%%%%%Q%qQ%qQ%%%qQq%%%%%%%%%%%%%%%Q%q%Q%qQq%Q%%%%qQ%%%%%%%%qQ
4497B72q%Q%%%%%%%%%%qQqQq%%Q%%%%%%%%%%%%%%%%%%%%%%%%%%%%%%%%%%%%%%%%%%%%%%%q
4481B64Q%%%%%%%%%%%%%%%%%%%%%%%%%%%%%%%%%%%%%%%%%%%%%%%%%%%%%%%%%%%%%%%%%%%%
4466B72%%%%%%%%%%%%%%%%%%%%%%%%Qq%%%QqQq%Qq%%%%%%%%%%%%%%Qq%%%Qq%%%%%%%%%%Qq
4450B72%%%%Q%%%%q%%Q%%qQ%qQ%%%%qQ%q%%Q%q%Q%qQ%%qQq%Q%%%q%Qq%Q%qQ%%%%%%%%%%%%
4434B80%%%qQq%Qq%%Q%%%%qQ%%%%qQ%%%%%%%%%%%%%%%%%%%%%%%%%%%%%%%%%%%%%%%%%%%%%
4418B80%%%%%%%%%%%%%%%%%%%%%%%%%%%%%%%%%%%%%Q%q%%%%%%%%%%%%%%%%%%%%%%%%%%%%%
4402B80%%%%%%Qq%%Q%qQq%%%%%%%%%%%%%Qq%%%Qq%Qq%%%Q%%%%%%qQ%qQ%%%qQq%%Qq%QqQ%q
4387B80Q%%%%%q%Q%%%q%%%%Q%%%%%%%%qQ%%%%%qQ%%%%%%%%%%%%%qQ%qQ%%%%%%%%%%%%%%qQ
4371B88%%qQ%%%%%%%%%%%%%%%%%q%%%Q%%qQ%%%%%%%%%%%%%%%%%%%%%%%%%%%%%%%%%%%%%%%
4355B88%%%%%%%%%%%%%%%%%%%%%%%%%%%%%%%%%%%%%%%%Qq%Qq%%%%%%%%Q%q%%%%%Qq%Q%q%Q
4339B96%%%qQqQ%%%q%%Q%qQqQ%%%qQ%%%%%%%%%%%q%QqQ%%%qQ%%%%%%%%%%%%%%%%%%%%%%%%
4324B96%%%%%%%%%%%%%%%%%%%%%%%%%%%%%%%%%%%%%%%%%%%%%%%%%%%%%%%%%%%%%%%%%%%%%
4308B96%%%%%%%%%%%%%%%%%%%%%%%%%%%%%%%%%%%%%%%%%%%%%%Q%q%%%%%%%%%%Q%qQq%%%Qq
4292B96QqQ%q%Q%%%qQ%%%qQ%q%QqQ%%qQ%%%%%%%%%%%%%qQ%%%%%%%%%%%%%qQ%%%%%q%Q%%%%
4276C04%%%%%%%%%%%%%%%%%%%%%%%%%%%%%%%%%%%%%%%%%%%%%%%%%%%%%%%%%%%%%%%%%%%%%
4260C04%%%%%%%%QqQqQq%%Qq%%%%%%%%Q%%%%q%%%%%%Q%q%%%Q%q%Qq%qJ6q%%Q%%q%%Qq%Q%%
4245C12%%%%qQqQqQ%%%%%%%qQ%%%%%%%%%%%%%%%%%%%%%%%%%%%%%%%%%%%%%%%%%%%%%%%%%%
4229C12%%%%%%%%%%%%%%%%%%%%%%%%%%%%%%%%%%%%%%%%%%%%%%%%%%%%%%%%%%%%%%%%%%%%%
4213C12Qq%%%%%%%%%%%%%%%%%%%%%Q%%%%%%%%%%%%%%%qQ%%%%%%%%%%%%%%%%%%%%%%%qQ%%%
4197C20%%%%%%%%%%%%%%%%%%%%%%%%%%%%%%%%%%%%qQ%%%%%%%%%%%%%%%%%%%%%%%%%%%%%%%
4182C20%%%%%%Qq%Qq%%%%%%%%QqQqQqQq%%%QqQ%%qQ%q%%%%%%%%%Qq%Q%%%%%%q%%%%%%Qq%%
4166C20%Qq%Q%%%%%%%%%%%%%%%%%%qQ%%%q%Q%%%%%%%%%%%%%%%%%%%%%%%%%%%%%%%%%%%%%%
4150C28%%%%%%%%%%%%%%%%%%%%%%%%%%%%%%%%%%%%%%%%%%%%%%%%%%%%%%%QqQq%%%Qq%%Q%q
4134C28QqQ%qQ%%qQ%%qJ6j6QqQ%%q%Q%qQ%%%%%%%%%%qQ%qQ%qQ%%%%%%%%%%%%%%%%%%%%%%%
4119C36%%%%%%%%%%%%%%%%%%%%%%%%%%%%%%%%%%%%%%%%%%%%%%%%%%%Qq%Q%qQ%qQq%%Qq%Qq
4103C36%%%%%Qq%Qq%%%%%%Qq%Q%%q%%Q%qQ%%%qQ%%%%%%%%%%%%%%%%%%%%%%%%%%%%%%%%%%%
4087C44%%%%%%%%%%%%%%%%%%%%%%%%%%%%%%%%%%%%%%%%%%%%%%%%%%%%%%Q%%qQq%%%%%%%%%
4072C44%%Q%q%%Qq%Q%qQq%QqQ%%%%q%%Qq%Q%q%%Q%qQ%%%%%%qQ%%%%%%%%%%%%%%%%%%%%%%%
4056C52%%%%%%%%%%%%%%%%%%%%%%%%%%%%%%%%%%%%%%%%%%%%%%%%%%%%QqQq%%%%%%Q%%%q%%
4040C52%%%%%%%%%Q%q%%%Q%%%%qQ%%%%%%%%%%%%%%%%%%%%%%%%%%%%%%%%%%%%%%%%%%%%%%%
4024C60%%%%%%%%%%%%%%%%%%%%%%%%%%%%%Qq%%%Qq%%%QqQq%%%QqQ%%%q%%%Q%%q%Q%%qQqQq
4008C60Q%qQ%%%%%%%%%%%%%%%%%%%%%%%%%%%%%%%%%%%%%%%%%%%%%%%%%%%%%%%%%%%%%%%%%
3993C68%%%%%%%%%QqQq%%%%%%%%%%%%%%%%%%%%%%%%%Qq%%%%%%Q%q%%Q%qQ%qQ%qQ%qQqQ%%%
3977C76%%%%%%%%%%%%%%%%%%%%%%%%%%%%%%%%%%%%%%%%%%%%%%%%%%%%%%%%%%%%%%%%%%%Q%
3961C84q%QqQqQ%%%%%%%%%%%%%qQ%%%%%%%%%%%%%%%%%%%%%%%%%%%%%%%%%%%%%%qQ%%%%%%%
3945C84%qQ%%%%%%%%%%%%%%%%%%%%%%%%%%%%%%%%%%%%%%%%%%Q%q%%Q%q%%%%QqQqQqQ%qQqQ
3929C92%%%%%%%%q%Q%qQ%q%Q%%%%%%%%%%%%%%%%%%%%%%%%%%%%%%%%%%%%%%%%%%%%%%%%%%%
3914C92%%%%%%%%%%%%%%%%%%%%Q%%qQq%Qq%Q%%qQqQ%%q%Qq%QqQ%%%%%q%Q%qQ%qQ%%%qJ6q%
3898D00%q%J6j6q%J6%q%Q%%%%Qq%Q%q%%%%%Qq%%%%%%%%%%%Qq%%%QqQ%q%%Qq%%%Q%qQ%%%%q
3883D00%QqQq%Q%%%%%%%qQ%%%%%qQ%%%%%%%%%%%%%%%%%%%%%%%%%%%%%%%%Qq%%%%%%%%%%%%
3867D08%%%%%%%%%%%%%QqQqQ%q%%%Q%qQqQ%%%q%%QqQ%%%%%%%qQ%%%%%%%%%%%%%%%%%%%%%%
3851D16%%%%%%%%%%%%%%%%%%%%%%%%%%%%%%%%%%%%%%%%%%%%%%%%%%%%Qq%%QqQ%qQ%%q%%%Q
3836D24%%%%%%%%%%%%%%%%%%%%%%%%%%%%%%%%%%%%%%%%%%%%%%%%%%%%Q%q%Q%%q%%Q%qQq%Q
3820D32q%Q%%qQqQ%%%%%%%%%qQ%q%Q%%%%qQ%%%%%%%%%%%%%%%qQ%%%%%%%%%%%%%%%%%%%%%%
3804D32%%%%%%%%%%%%%%%%%%%Qq%%Q%q%%%%%Q%%qQ%qQ%%qQ%%%%%%%%%%%%%%%%%%%%%%%%%%
3788D40%%%%%%%%%%%%%%%%Q%q%%%%%QqQq%%%Qq%%%Q%qQ%%%%%%qQqQ%%%%%%%%%%%%%%%%%%%
3772D48%%%%%%%%%%%%%%%%%%%%%%%%%%%%%QqQqQ%%%%%%%%qQq%QqQ%%%%%%%%%%%%%%%qQ%%%
3757D56%%%%%%%qQ%%%%%%%%%%%%%%%%%%%%%%%%%%%%%%%%%%%%%%%%%%%%%%%%%%Q%%%%%%qQq
3741D56%Q%%qQ%%%%%%%%%%%%%%%%%%%%%%%%%%%%%%%%%%%%%%%%%%%%%%%%%%Qq%%Q%q%Q%q%Q
3725D72qQ%%%%%%%%%%%%%%%qQ%%%%%%%%%%%%%%%%%%%%%%%%%%%%Qq%%%%%%%%%%%Qq%%%Qq%Q
3709D80%%%%%%qQ%%%%%%%%%%%%%%%%%%%%%%%%%%%%%%%%%%%%%%%%%%%Qq%%%%Qq%%%%%%%%%%
3693D80%%%%%%%%Q%%%%qQ%%%%%%%%%%%%%%%%%%%%%%%%%%%%%%%%%%%%%%%%%%%%%%%%%%%Qq%
3678D88%Qq%Q%%%%%%%qQ%%%%qQ%%%%%%%%%%%%%%%%%%%%%%%%%%%%%%%%Qq%%%%Qq%%QqQqQqQ
3662E04%%q%%QqQqQ%%%%q%%%Q%%%%%%%%%%%%%%%%%%%%%%%%Qq%%%%%%%%Q%%%q%QqQ%%%qQ%%
3646E12%%%%q%%Qq%Q%%%qQ%%%%%%%%Qq%%%%QqQ%%Qj6%Qj6J6qQ%%q%%%%QqQq%%Qq%QqQq%Q%
3631E20%q%%Q%%%%qQqQ%%%%%%%%%%%%%%%%%%%%%%%%%%%%%%%%Qq%%%%QqQqQ%qQ%qQ%%%%%qQ
3615E28qQ%%%%%%%%%%%%%%%%%%%%%%%%%%%%%%%%%%%Q%q%%%QqQ%%%qQq%Q%%%%%%%%%%%%%%%
3599E36%%%%%%%%%%%%%%%%%%%%%Qq%%%%%%%Q%qQqQ%%%%q%Q%qQ%%%%%%%%%%%%%%%%%%%%%%%
3584E44%%%%%%%%%%%Qq%%%%Q%q%%Qq%%%%%%Q%qQ%%%%%%%%%%%%%%%%%%%%%%%%%%%Qq%%%Qq%
3568E52Q%%%%%%qQ%%%%%%%%%%%%%%%%%%%%%%%%%%%%%%%%%%%%%%Q%q%%%%%%%%%Q%%%%%%qQ%
3552E68%%qQqQ%%%%%%qQ%qQ%%%%%%%%%Q%qQq%%%Q%%%%qQ%%%q%%Q%qQqQ%%%%%qQ%%%%%%%%%
3536E76%%%%%%%%%%%%%%%%%%%%QqQ%q%%%%%%Q%qQ%%qQ%%qQ%%%%%%%%%%%%%Qq%Qq%%%Qq%%%
3520E84%%%%%%Qq%%%%%Q%%%q%QqQ%%%%%%%%%%%%%%%%%%%%%%%%%%%%%%%%%%%QqQqQqQ%qQ%q
3505E92Q%%%q%Q%%%%%%%%%%%%%%%%%%%%%%%%%%%%%%%%Q%qQ%q%%Q%%%%qQ%q%Q%%%%%%%%%%%
3489F08%%%%%%%%Q%qQq%%%%%Q%%%%%%%%%%%%%%%%%%%%%%%%%%%%%%%%%Qq%%%Q%%%%qQ%%%%%
3473F24%%%%%%%%%%%%%%%%%%%%%%%%%%%Qq%%%%%%%Q%q%Qq%Q%%%q%Q%%%%%%%%%%%%%%Qq%%%
3457F32%%%Q%q%%Qq%Q%q%%Qq%Q%%%%%%%%%%%%%%%%%%%%%%%%%%%%%%%%%%%Q%qQ%%%%%%%%%%
3441F48%%%%%%%%%%%%%%%%%%%%QqQ%%%%%%q%Q%%%%%qQ%%%%%QqqQ%%%%%q%qJ6%qJ6qQ%q%%%
3426F56%QqQ%%%%%%%%%%%%%%%%%%%%%%%%%%%%%%Q%q%%%Q%qQ%%%%%%%%%%%%%%%%%%%%%%%%%
3410F72%%%%%Qq%Q%%%q%Q%%%qQqQqQq%Q%%%qJ6q%%%%%%%%%%%%%%%%%%%%Q%%%%%%%%%%%%%%
3395F88%%%%%%%%%%%%%%%%%%%%Q%%qQ%%%%%%%%%%%%%%%%%%%%%%%%%%%%%%%%%QqQ%%%%%%%%
3379G04%%%%%%%%%%%%%%%%%%QqQq%QqQ%%%%%%%%%%%%%%Qq%%Qq%%%%%%QqQ%q%Qq%Qq%%%%Q%
3363G20%%%qQ%%%%%%%qQ%%%%%%%%%%%%Qq%%%%Q%q%Q%qQ%%%%%%%%%%%%Q%q%Q%%%%%%%%%%q%
3347G28Q%%%%%%%%%%%%%%%%%%%%%%%%%Qq%%Qq%Q%qQ%%%%%%%%%%%%%%%%%%%%%Q%q%%Q%%%%%
3332G52%%%%qQ%%%%%%%%%%%%%%%%%%QqQ%%%%%%%%%%%%%%%%%%%%%%%Qq%%%%%%Q%%%%%%%%%%
3316G68%%%%%%%Qq%%%%Qq%Q%qQqQ%%%%%%%%%%%%%%%%%%%%%%%%%%%%%%%Q%%%%%%%%%%%%%%%
3300G84%%%%%%%%%%%Q%qQ%%%%%%%%%%%%%%%%%%%%%%%%%%%Q%%%%%%%%%%%%qQ%%%%%%%%%Qq%
3284H00%Q%%qQ%%%%%%%%%%%%%%%%%%%%%QqQ%%%qQ%%%%%%%%%%%%%%%%%%%%Qq%%%Q%qQ%%%%%
3268H24%%%%%%%%%%%%%%%%%Qq%%%%Q%%%%%%%%%%%%%%%%%%%%%%%%QqQ%%%%%%%%%%%%%%%%%%
3253H40%%%%%%%%Q%%%%%%%%%%%%%%%%%%%%QqQqQ%%%%%%%%%%%%%%%%%%%%%%%%%%%%%%%%%Q%
3237H64%%%%%%%%%%%%%%%%%Qq%Q%%%%%%%%%%%%%%%%%%%Qq%Q%%%%%%%%%%%%%%%%%%%%%%%%%
3221H80Qq%%Q%%%%qQ%%%%%%%%%%%%%%%%Q%%%%%%%%%%%%%%%%%%%%Q%qQ%%%%%%%%%%%%%qQ%%
3205I04%%%%%%%Q%%qQ%%%%%%%%%%Q%qQ%%%%%%%%%%%%%%%%QqqQ%%Qq%%%%Qq%Q%qQ%%%%%%%%
3189I28%%Qq%Q%%%%%%%%%%%%%%%%%%QqQqQ%%%%%%%%%%%%%%%%%%%%Qq%%Q%%%%%%%%%%%%%%%
3174I52%%%%QqQqQ%%%qQ%%%%%J6j6Q%j6Q%Q%qQ%%%%%%%%%%%%%Qq%%Q%%%%%%%%%%%%%%%%Qq
3158I76QqQ%%qQ%%%%%%%%%%%%%%%%%%%%%%Q%%%%%%%%%%%%%%%Qq%Q%%%%%%%%%%%%%%%%%%%%
3143A000QqQ%%%%%%%%%%%%%%%QqQ%qQ%%%%%%%Qq%%%%%%QqQ%%%%%%%%%%%%%%%Qq%%Q%%%%%%
3127A032%%%%%%%%%Q%%%%%%%%%%%%%%%%%%%Qq%%%%Q%%%%%%%%%%%%%Q%%%%%%%%%%%%%%%%%Q
3112A064qQ%qQ%%%%%%%%%Q%q%Q%qQq%Q%%%%%%%%%%Q%%%%%%%%%%%%%%%%%Qq%QqQ%%%%%%%%%
3096A088%%%%%%Q%%%%%%%%%%%%%Qq%Q%%qQ%%%%%%%%%%%QqQ%%%%%%%%%%%%%%%QqQ%%%%%%%%
3080A120%%%%%%%%%%Q%qQ%%%qQ%%%%%%%%Q%%%%%%%%%%%%%%%Q%%%%%%%%%%%%%%%QqQ%%%%%%
3065A152%%%%%%%%%%%%%Q%%%%%%%%Qq%%%Q%%%%%%%%%%%Q%%%%%%%%%%%%%%%%QqQqQ%%%qQ%%
3049A184%%%%QqQqQ%%%%%%%%%%QqQqQ%%%%%%%Qq%%%%Q%%%%%%%%%%%Q%qQ%%%%%%%%%%%%%%Q
3034A224%%%%%%%%%Q%%%%%%%%%%%%%%%%%%%%%Q%%%%%%%%Q%qQ%%%%%%%%%%%Qq%Q%%%%%%%%%
3018A256Qq%%Q%%%%%%%%%%Qq%%Q%%%%%%%%%%%%%Q%%%%%%%%%%%Q%%%%%%%%%QqQqQ%%%%%%%%
3003A296%%%Q%%%%%%%%%%%QqQ%%%%%%%%%%%Q%q%Q%%%%%%%%%%%%%Q%%%%%%%%Q%q%%Q%%%%%%
2987A336%%%%Q%%%%%%%%%%QqQ%%%%%%%%%%Q%%qQ%%%%%%%%QqQ%%%%%%%%%%Q%%%%%%%%%%%%%
2971A376%Q%%%%%%Qq%%Q%%%%%%%%%%%%%Q%%%%%%%%%Q%%%%%%Qq%J6j6%QQJ6l2J6q%Q%qQ%%%
2957A424qQ%%%%%Q%%q%Q%%%%%Qq%%Q%%%%%%%%%Q%%%%%%%%%Qq%Q%%%%%%%%QqQ%%%%%%%%%%Q
2942A472%%%%%%%%%%%Q%%%%%%%%%%QqQqQ%%Q%%%qQ%%%%%%%QqQ%q%QqQ%%%%%%QqQ%%%%Q%%q
2926A512Q%%%%%%Q%%%%%%%%Q%%%%%%%%%%%Q%%%%%%%%%%%Q%%qQ%%%%%%Q%%%%%%%%Q%%%%%%%
2910A568%Q%%%%%%%%%%QqQ%%%%Q%%%%%%%%%%%%%Q%%%%%Q%%%%%%%%%%QqQ%%%%%%%%%%Q%%%%
2895A624%%%%QqQ%%%%%%%Q%%%%%%%Q%%%%%%%%%%Q%%%%%%QqQ%%%%%%QqQ%%%%%%%%%Q%%%%%Q
2879A688qQ%%%%%%%Q%%%%%%%%QqQ%%%%%%%%Q%%%%%%Q%%%%%%%%%%Q%%%%Qq%Q%%%%%%%%%Q%%
2864A744%%%%%%%Q%%%%%Q%%%%%%%Q%%%%%%%Q%%%%%%%%%Q%%%%%Q%%%%%%%%%%Q%%%%%%Q%%%%
2848A808%%%Q%qQ%%%QqQ%%%%%%Q%%qQ%%QqQq%Q%%QqQ%%%%%%Q%%%%%%Q%%%%%%%%Q%%%%%%Qq
2833A872Q%%%%Q%%%%%%Q%%%%%%%Q%%%%%%%%Q%%%%%%%Q%%%%%%Q%%%%%%%Q%%qQ%%%%Q%%QqQq
2817A944Q%%%%%%Q%%%%%Q%%%%%%Q%%%%%%%Q%%%%%%%Q%%%%%Q%%%%%%%Q%%%%Q%%%%%QqQ%%%Q
2801B032qQ%%%%%Q%qQ%%Q%%%%%%%Q%%%%%%Q%%%%%Q%%%%%%%Q%%%%Q%%%%%%Q%%%%%Q%%%%%%Q
2786B112%%%%%%%%Q%%Qq%Q%%%%Q%%%%%%Q%%%%Q%%%%%%Q%%%Q%%qQ%%%%Q%%%%Q%%%%Q%%%%%%
2770B192Q%%%%Q%%%%%%%Q%%%%Q%%%%%%Q%%%%%Q%%%Q%%%%%%Q%%%%%Q%%%%%%Q%%%%Q%%%%Q%%
2755B288%%%%Q%%%Q%%%%%%Q%%%%Q%%%%%Q%%%%Q%%%%Q%%%%Q%%%%%%Q%%%%Q%%%%Q%%%QqQ%%%
2739B384%QqQ%Q%%%%%%Q%%%%Q%%%%%Q%%%%Q%%%%%Q%%%%Q%%%%Q%%%Q%%%Qq%Q%Q%%qQQ%qQ%%
2724B488%Q%%%Q%%%%Q%%%%Q%%%%Q%%%Q%%%%%Q%%%%Q%%%%Q%%%%Q%%%Q%%%%%Q%%Q%%%%Q%%%%
2708B600Q%%%%Q%%%%%Q%%Q%%%%%QQ%%%Qq%Q%qJ6qQ%%QQq%QqQ%%%%QqQQ%%%QqQ%%%Q%%%Q%%
2693B720Q%%%Q%%%%Q%%%Q%%%%Q%%%Q%%%Q%%%%Q%%%%Q%%%Q%%%Q%%%Q%%QqQ%%%Q%%%%Q%%%Q%
2677B848%Q%%%Q%%%Q%%Q%%%%Q%%Q%%%Q%%%%Q%%Q%%%%Q%%%Q%%%QQqQ%%%QqQ%Q%%%Q%%Q%%%Q
2662B992%%%Q%%Q%%%Q%%%%Q%Q%%%Q%%%Q%%%Q%%Q%%%Q%%Q%%%%Q%Q%%%%Q%%Q%%%Q%%Q%%%Q%%
2646C136Q%%%Q%%%Q%%%Q%%Q%%%Q%%Q%%Q%%%Q%%%Q%Q%%%Q%Q%%%Q%Q%%%%Q%%Q%%Q%%%Q%%%Q%
2630C296Q%Q%%%Q%%%Q%%Q%%Q%%Q%%Q%%%Q%%%Q%%Q%Q%%Q%%Q%%%Q%%Q%%Q%Q%%%Q%%Q%%%Q%Q%
2615C472%Q%%%Q%Q%%Q%%Q%%Q%Q%%%Q%%Q%QqJ6%%%Q%%Q%%Q%%%Q%Q%%Q%%Q%Q%%Q%%Q%Q%%%Q%
2600C656%Q%Q%%%Q%%Q%Q%%Q%Q%%Q%%Q%Q%%Q%%Q%Q%%Q%%Q%%Q%Q%%%Q%Q%Q%%Q%%Q%Q%%Q%Q%%
2584C856Q%Q%Q%QqQQ%%Q%%Q%%Q%Q%Q%%%J6qQ%%Q%Q%Q%%QQ%%Q%%Q%Q%%%Q%Q%Q%%Q%Q%Q%Q%%
2569D072Q%Q%Q%%Q%Q%%Q%Q%%QQ%Q%%Q%Q%Q%Q%%Q%Q%Q%Q%Q%%Q%Q%Q%%QQ%%%QQ%%Q%Q%Q%Q%%
2553D312Q%Q%Q%Q%Q%Q%Q%%%J6%%%J6%%Q%Q%Q%Q%Q%Q%Q%Q%%Q%Q%Q%Q%Q%Q%Q%Q%%QQ%Q%%QQ%
2538D568Q%Q%Q%Q%Q%Q%Q%Q%Q%Q%QQ%Q%%QQ%Q%Q%Q%Q%QQ%%QQ%Q%Q%Q%Q%Q%Q%QQ%QQ%%QQ%Q%
2522D856Q%Q%Q%QQ%Q%Q%QQ%Q%Q%QQ%%QQ%Q%Q%QQ%Q%QQ%Q%Q%Q%QQ%QQ%Q%QQ%Q%Q%QQ%Q%QQ%
2507E168QQ%Q%QQ%QQ%Q%QQ%Q%QQ%Q%QQ%QQ%QQ%Q%QQ%Q%QQQ%Q%QQQ%Q%QQ%QQ%QQQ%Q%Q%J6q
2492E504QQ%J6J6qQqJ6%QQQ%Q%QQ%QJ6%Q%QQ%QQ%QQQ%Q%QQQ%QQ%QQ%QQQQ%QQ%QQ%QQQ%QQQ
2477E872QQ%%J6%QQ%QQ%QQQQ%QQQQ%QQQ%QQQ%QQQ%QQQ%QQQ%QQQQQ%J6%Q%QQQ%QQQQQ%QQQQ
2462F280QQ%QQQ%QQQQ%QQQQQ%QQQQQ%QQQQQQ%QQQQQQ%QQQQQQQ%QQQQQ%QQQQQQ%QQQQQQQQQ
2446F744%J6%QQQQQQQQQQQQQ%QQQQQQQQQQQQQ%QQQQQQQQQQQQQQQQQQQQQQQQQQQQQQQQJ6%Q
2431G248QQQQQQQQQQQQQQQQQQQQQJ6QQQQQQQQQQQQQJ6QQ%J6QQQQQQQQQJ6QQQQQQQQJ6%J6Q
2417G776QQQQJ6%J6QQQJ6%J6QQQQQJ6QQQQQQJ6QQQQJ6%J6QQQJ6QQQJ6QQQQJ6QQQJ6QQQJ6Q
2404H296QQQJ6QQQJ6QQQQJ6QQQJ6QQJ6QQJ6QQQJ6QQJ6QQJ6QQJ6QQJ6QQQJ6QJ6QQQJ6QJ6QQ
2392H840J6QJ6QQJ6QQJ6QJ6QQJ6QQJ6QQJ6QJ6J6QQQJ6QJ6QJ6QJ6QJ6QQJ6QJ6QJ6QJ6QJ6QJ6
2381I392QJ6QJ6QJ6QJ6QJ6QJ6QJ6QJ6QJ6QJ6QJ6J6QJ6QJ6QJ6QJ6J6QQJ6J6J6QJ6J6QJ6QJ6
2371I936J6QJ6J6QJ6QJ6J6J6QJ6QJ6J6QJ6J6QJ6J6QJ6J6J6QJ6J6J6QJ6J6QJ6J6J6QJ6J6QJ6
2362A0488J6J6J6J6QJ6J6QJ6J6J6J6QJ6J6J6J6QJ6J6J6J6J6J6QJ6J6J6J6J6J6J6QJ6J6J6J6
2353A1032J6J6J6J6J6J6J6J6J6QJ6J6J6J6J6J6J6J6J6J6J6QJ6J6K4J6J6J6J6J6J6J6J6J6J6
2345A1584J6J6J6J6J6J6J6J6J6J6J6K4J6J6J6J6K4J6QK4QK4J6J6J6J6K4J6J6J6K4J6J6J6J6
2337A2176J6K4J6J6J6J6K4J6J6K4J6J6J6J6K4J6J6K4J6J6K4J6J6J6K4J6K4J6J6J6K4J6K4J6
2329A2800J6K4J6K4J6J6K4J6J6K4J6K4J6J6K4K4J6J6K4J6K4J6K4J6K4J6K4J6K4K4J6K4J6K4
2322A3472J6K4J6K4K4J6K4J6K4K4J6K4J6K4K4J6K4K4K4J6K4J6K4K4K4K4J6K4J6K4K4K4J6K4
2314A4192L2J6K4J6K4K4K4K4K4K4J6K4K4K4K4K4J6K4K4K4K4K4K4K4K4K4K4K4K4K4K4K4K4K4
2306A4984K4K4K4K4K4K4K4K4K4K4K4K4L2K4J6L2K4K4K4K4L2K4K4K4K4K4L2K4K4L2K4K4K4L2
2298A5840K4K4K4L2K4K4K4L2K4L2K4K4L2K4K4L2K4L2K4K4L2K4L2K4L2K4L2K4L2K4L2K4L2K4
2291A6760L2L2K4L2K4L2L2K4L2K4L2L2L2K4L2K4L2L2L2K4L2L2L2K4L2L2L2L2L2K4M0K4L2L2
2283A7776L2L2K4M0L2K4L2L2M0K4L2M0K4L2M0K4L2M0L2L2L2L2L2L2L2M0L2L2L2L2M0L2L2L2
2275A8880L2M0L2L2M0L2L2M0L2M0L2L2M0L2M0L2M0L2M0L2L2M0M0L2M0L2M0L2M0M0L2M0M0L2
2267B0096M0M0M0L2M0M0L2M0M0M0M0L2M0M0M0M0M0M0M0M0L2M0M8L2M0M0M8M0M0L2M8M0M0M0
2259B1432M0M0M0M8M0M8M0M0M0M0M0M8N6M0L2M8M0M8M0M0M8M0M8M8M0M8M0M8M0M8M8M0M8M0
2252B2904M8M8M0M8M8M8M8M0M8N6M0M8M8M8M8M8M8M8M8M8M8M8M8M8M8N6M8M8M8M8N6M8M8N6
2244B4544M8M8N6M8M8N6M8N6M8N6M8N6M8N6M8N6N6N6M8N6N6N6M8N6N6N6M8N6N6N6N6N6N6N6
2236B6352N6N6N6N6N6N6O4N6O4N6N6N6O4N6N6M8P2O4N6N6O4N6O4N6O4O4O4O4N6N6O4O4O4O4
2228B8376O4N6O4O4P2N6P2N6O4P2O4O4O4O4O4P2O4O4P2O4P2O4P2O4P2O4P2P2O4P2P2O4P2P2
2221C0640P2O4Q0O4P2P2P2P2P2P2Q0P2P2P2P2Q0P2P2Q0P2Q0P2Q0P2Q0P2Q0Q0Q0P2Q0Q0Q0Q0
2213C3184Q0Q0Q0Q0Q0Q0Q0Q0Q8Q0Q0Q8Q0Q0Q8Q8Q0Q8Q8Q0Q8Q8Q0Q8Q8Q8Q8Q8Q8Q8Q8Q8R6Q8
2205C6064Q8Q8R6Q8R6Q8R6Q8R6Q8R6R6R6Q8R6J04Q8R6R6J04R6R6R6R6J04R6J04R6J04R6J04
2198C9024J04J04R6J04J04J04J04J04J04J12J04J04J04J12J04J12J04J04J12J12J12J04J12
2193D1464J12J12J12J12J12J12J20J12J12J20J12J20J20J12J20J20J12J28J12J28J12J28J20
2187D4144J20J28J20J28J20J28J28J20J28J28J28J28J28J28J28J28J36J28J36J28J36J28J36
2182D7088J36J36J36J36J36J44J36J36J44J36J36J44J44J44J44J44J44J44J44J44J52J44J52
2177E0344J44J52J52J44J60J44J60J52J52J52J60J60J52J60J60J60J60J60J60J60J68J60J68
2172E3944J60J68J68J68J68J68J68J76J76J68J68J76J76J76J76J76J76J84J76J84J76J84J84
2166E7944J84J84J84J92J84J84J92J92J92J92J92J92K00J92K00J92K00K00K00K00K08K00K08
2161F2408K08K00K08K16K08K08K08K16K16K16K16K16K16K24K16K24K24K24K24K24K32K24K32
2156F7408K32K32K32K40K32K40K32K40K40K48K40K48K40K48K48K48K56K48K56K56K56K56K56
2150G3032K64K64K64K64K64K72K64K72K72K72K72K80K80K72K88K80K80K88K88K88K96K88K96
2145G9400K88L04K96K96L04L12L04L04L04L12L20L12L12L20L20L20L28L20L28L28L36L28L36
2140H6632L36L36L44L36L52L44L52L44L52L60L60L52L68L60L68L68L68L68L76L76L84L76L92
2135I4904L84L84L92L92M00L92M00M08M00M08M16M08M16M16M24M24M32M24M32M32M40M40M40
2129A04408M48M48M48M56M56M64M64M64M72M72M72M80M80M88M88M88M96M96N04N04N04N12
2124A14912N20N20N20N20N36N28N36N36N44N52N44N60N52N68N60N76N68N84N76N92N84O00
2119A27088O00O00O08O08O16O24O24O24O40O32O48O48O48O56O64O64O72O80O72O96O88O96
2114A41296P04P04P12P20P20P36P36P36P44P52P60P60P68P76P76P92P92Q00Q00Q08Q24Q16
2109A58032Q32Q40Q48Q48Q56Q64Q72Q80Q80Q96Q96R12R12R20R28R36R44R52R60R68R76R84
2104A77936R92J000J016J016J024J032J048J048J064J072J080J088J096J112J120J128J136
2100A96008J144J160J168J184J184J200J208J224J232J240J256J264J280J288J304J312J320
2096B16976J336J352J360J376J392J400J408J424J448J456J464J480J496J512J528J536J560
2093B41504J568J592J600J616J632J648J664J680J704J712J736J752J768J784J808J824J848
2089B70440J856J880J904J920J936J960J984K000K024K048K064K088K112K136K152K184K208
2085C04896K224K256K280K304K328K352K384K408K440K464K488K520K552K576K608K640K672
2081C46392K696K736K760K792K832K864K896K936K968L000L040L080L120L152L192L232L280
2077C96968L312L352L400L440L488L528L576L616L672L712L768L808L864L920L968M024M072
2073D59488M128M184M240M304M352M424M480M544M600M672M736M808M872M936N016N080N168
2069E38032N232N312N392N464N552N632N720N808N896N984O072O168O264O360O456O568O664
2065F38576O776O880O992P104P224P336P464P576P712P832P968Q104Q240Q384Q528Q672Q824
2061G70192Q976R136R304R464R632R800R984J0168J0352J0544J0736J0944J1144J1352J1576
2058I23304J1792J2016J2256J2496J2736J3000J3248J3512J3792J4064J4360J4648J4960J5272
2055A111456J5592J5920J6256J6616J6968J7336J7728J8104J8520J8936J9360J9800K0256
2052A342848K0720K1208K1712K2216K2752K3304K3864K4448K5056K5672K6320K6984K7672
2049A654776K8384K9120K9888L0672L1488L2336L3208L4128L5064L6040L7056L8104L9200
2046B089464M0336M1512M2736M4016M5344M6712M8152M9648N1200N2824N4520N6280N8136
2043B720880O0040O2064O4160O6352O8648P1056P3568P6216P8976Q1880Q4920Q8112R1488
2040C688360R5008R8728J02640J06760J11112J15696J20536J25648J31056J36784J42840J49256
2037E124424J56080J63304J71000J79176J87888J97160K07072K17640K28944K41048K54025
2035G327761K67936K82880K98967L16281L34975L55153L77000M00656M26328M54255M84656
2032A1326848N17840N54096N93833O37447O85424P38321P96799Q61616R33608J013849J103520
2030A9763201J204040J317120J444743J589345J753807J941678K157202K405678K693585L029039
2027C9299438L422161L885839M436473N095225N889708O856304Q043669R517392J1367867
2025I7814076J3720809J6754693K0726952K6016758L3192903M3126348N7173394P7470520
2023C85996453J07364789J51856873K17184818L05856782L96358303L99904985J82960644
2022B147483647j82960431l99905198l96358303l05856676k17184870j51856927j07364789
2020C85996453p7470520n7173394m3126321l3192930k6016744k0726966j6754679j3720823
2018I7814076j1367867r517412q043649o856310n889702n095219m436479l885839l422168
2016C9299431l029032k693585k405688k157199j941663j753815j589345j444743j317120j204040
2014A9763201j103513j013856r33615q61609p96799p38329o85423o37440n93833n54103n17833
2012A1326848m84656m54255m26328m00656l76993l55160l34968l16288k98967k82889k67927
2009G327761k54025k41040k28952k17640k07064j97168j87888j79176j71000j63304j56080
2007E124424j49256j42840j36784j31056j25656j20528j15696j11112j06760j02640r8728
2004C783368r5008r1488q8112q4920q1880p8976p6208p3576p1056o8648o6352o4160o2056
2001B780928o0056n8128n6280n4520n2824n1208m9648m8144m6720m5336m4016m2736m1520
1998B129792m0328l9192l8120l7056l6040l5056l4120l3216l2336l1488l0672k9888k9120
1995A683160k8384k7672k6984k6320k5680k5048k4448k3864k3304k2752k2216k1712k1208
1992A363568k0720k0264j9800j9360j8928j8520j8112j7720j7336j6968j6616j6256j5920
1989A127048j5592j5272j4960j4648j4360j4064j3792j3512j3256j2992j2736j2496j2248
1986I47120j2024j1792j1576j1352j1144j0944j0736j0544j0352j0168r984r800r632r464
1983G97608r296r144q976q824q672q528q376q248q096p968p840p704p584p464p336p224p104
1979F59224o992o880o776o664o560o464o368o256o168o080n984n888n808n720n632n552n472
1975E53960n384n312n232n160n088n016m936m872m808m736m672m608m536m480m424m360m296
1971D72040m240m184m128m080m016l968l920l864l808l768l712l672l616l576l536l480l440
1967D07032l400l352l320l272l232l192l152l120l080l040l000k968k936k896k864k832k792
1964C54584k768k728k696k680k632k608k584k544k520k488k464k440k408k384k352k336k296
1960C11656k280k256k232k200k184k152k136k112k088k064k048k024k000j984j960j944j912
1956B76080j904j880j864j840j824j808j784j768j752j736j712j704j680j664j656j632j616
1952B46256j600j584j576j552j536j528j512j496j480j472j448j448j424j416j400j384j376
1948B21024j360j352j336j320j312j304j288j280j264j256j240j232j224j208j200j192j176
1944A99480j168j160j144j144j120j120j112j096j088j080j072j064j048j048j032j032j016
1940A80936j008j000r92r84r76r68r60r52r44r36r28r28r12r04q96q96q80q80q72q64q56q56
1935A60544q40q32q32q32q08q16q08q00p84p92p84p68p68p60p68p44p44p44p36p20p28p20
1930A43416p12p04p04o96o88o88o80o80o72o64o64o56o56o48o40o32o40o32o16o24o16o16
1925A28888o08o00o00n92n92n84n84n76n76n68n68n60n60n52n52n44n44n44n28n36n28n28
1920A16464n20n20n12n12n12m96n04m96m96m88m88m88m80m80m72m72m72m64m64m64m56m56
1915A05752m48m48m48m40m40m40m32m32m24m32m24m16m24m16m08m08m16m00m08m00m00l92
1910I6456l92l92l92l84l84l84l76l76l76l68l76l60l68l68l60l52l60l60l52l52l44l44l52
1905H7984l36l44l36l36l36l36l28l28l28l28l20l28l12l20l20l12l12l12l04l12l04l04k96
1899H0592l04k96k96k96k96k96k88k88k88k88k80k80k88k72k80k80k72k80k64k72k72k64k64
1894G4088k64k64k64k64k56k56k56k56k56k56k48k48k48k48k40k48k48k40k40k40k32k40k40
1889F8336k32k32k32k32k32k32k24k24k24k24k24k24k16k24k16k16k16k16k16k16k08k08k16
1884F3232k08k08k08k00k08k00k00k00k08k00k00j92k00k00j92k00j84j92j92j92j84j92j92
1878E8680j84j84j84j84j92j76j84j76j84j76j76j76j76j84j76j68j76j68j76j68j68j68j68
1873E4608j68j68j68j68j60j68j60j60j68j52j68j52j60j60j60j52j60j52j52j60j52j52j52
1868E0936j52j44j52j44j52j52j44j44j52j44j44j44j36j44j44j44j36j44j36j44j36j36j36
1863D7632j36j36j36j36j36j28j44j28j28j36j28j28j28j36j28j28j28j20j28j28j28j20j28
1857D4632j20j28j20j20j28j20j20j20j20j20j20j12j20j20j12j20j12j20j12j20j12j12j12
1852D1912j12j12j12j12j12j12j04j12j12j04j12j04j12j04j12j04j04j04j04j04j12r6j04
1847C9432j04j04j04r6j04j04r6r6j04r6j04r6j04r6q8j04r6r6r6r6r6r6r6q8r6r6q8r6q8
1840C6608r6q8r6q8q8r6q8q8q8q8r6q0r6q0q8q8q8q8q8q0q8q8q0q8q0q8q0q8q0q0q8q0q0q0
1832C3664q0q0q0q8q0q0q0p2q0q0q0p2q0q0p2q0p2q0q0p2q0p2p2p2q0p2p2p2q0p2p2p2p2p2
1825C1064p2p2p2p2p2p2p2o4p2o4p2p2p2o4p2o4o4q0o4o4o4p2o4p2o4o4o4o4o4p2o4o4o4o4
1817B8752o4o4o4o4o4o4n6o4o4o4o4n6o4o4n6o4o4n6o4n6o4n6n6o4n6n6o4n6o4n6n6n6o4n6
1809B6688n6n6n6n6n6n6n6n6n6n6n6n6n6n6n6m8n6n6n6m8n6n6n6m8n6n6m8n6m8n6n6m8m8n6
1801B4840m8n6m8m8n6m8m8n6m8m8m8m8m8n6m8m8m8m8m8m8n6m0m8m8m8m8m8m8m8m8m8m8m8m8
1793B3176m0m8m8m8m0m8m8m0m8m0m8m8m0m8m8m0m0m8m8m0m8m0m0m8k4n6m8l2n6m0m0m8m0m0
1786B1680m0m8m0m0m0m0m0m8m0m0m0m0m0m0m0m0m0m0m0m0m0m0m0m0l2m0m0m0m0m0l2m8l2m0
1778B0320m0l2m0m0l2m0m0l2m0m0l2m0m0l2m0l2m0l2m0l2m0l2m0l2m0l2m0l2l2m0l2l2m0l2
1770A9088m0k4m0m0l2l2l2l2m0l2l2l2l2m0l2l2l2l2l2l2l2m0l2l2k4m0l2l2l2m0k4l2l2l2
1762A7960m0j6m8k4l2k4m0k4k4m0l2l2k4m0k4l2l2k4m0k4l2l2k4l2l2l2k4l2k4l2k4l2l2l2
1755A6928k4l2k4l2k4l2l2k4l2k4k4l2l2k4l2k4l2k4k4l2k4l2k4l2k4l2k4k4l2k4k4l2k4k4
1747A5992l2k4k4l2k4k4l2k4k4k4k4l2k4k4k4l2k4k4k4k4k4l2k4k4k4k4k4k4k4k4k4k4k4l2
1739A5120k4k4k4k4k4k4k4k4k4j6l2k4j6l2k4k4j6k4k4k4k4k4k4k4k4k4j6k4k4k4k4k4j6k4
1731A4328k4k4k4k4j6k4k4j6l2j6k4k4j6k4k4k4j6k4j6k4k4k4j6k4k4k4j6k4j6k4k4j6k4k4
1723A3584j6j6k4k4j6k4j6k4j6k4k4j6j6k4j6k4j6k4k4j6k4j6k4j6j6k4j6k4j6k4j6j6k4j6
1716A2912k4j6k4j6j6k4j6j6k4j6j6k4j6j6k4j6j6k4j6j6j6k4j6j6k4j6j6j6k4j6j6k4j6j6
1708A2280j6k4j6j6j6j6j6k4j6j6j6k4j6j6j6k4qj6k4j6j6j6j6j6k4qj6k4j6j6j6j6j6j6j6
1700A1680k4qk4j6j6j6j6j6j6j6j6j6j6j6j6j6j6j6j6j6j6j6j6j6j6j6j6j6j6qj6j6j6j6j6
1692A1120j6j6j6j6j6j6qj6j6j6j6j6j6j6qj6j6j6j6j6qj6j6j6j6j6j6qj6j6j6j6qj6j6j6
1684A0584j6j6qj6j6j6qj6j6j6qj6j6j6qj6qj6j6j6j6qj6j6qj6j6qj6j6qj6j6qj6j6j6qj6
1675A0048qj6j6qj6j6qj6j6qj6qj6j6qj6qj6j6qqj6k4qj6qqj6qj6qj6qj6j6qj6qj6qj6qj6
1665I504j6qj6qj6qj6qj6qqj6qj6j6qqj6qj6qqj6j6qj6qqj6qj6qj6qqj6qj6qqj6qj6qj6qq
1654H960j6qj6qqj6qqj6qj6qqqj6qqj6qqj6qqj6qqj6qqj6qj6%j6qqj6qj6qqqj6qqj6qqqqj6
1642H416qqj6qqj6qqqqqj6qqqj6qqqj6qqqqj6qqqj6qqqqj6qqqqj6qqqqj6qqqqj6qqqqqqqq
1629G872qj6qqqqqj6%qj6%j6qqqqj6qqqqqj6%j6qqqqqqqqqqqqqqj6qqqqqqqqqqqqqj6q%qj6
1616G352%qj6qqqq%j6%j6qqqqq%qj6q%j6qqqqqqqqqqq%qj6q%j6qq%qqqqqqqqqqqqqqqqqqq
1602F872q%qqqqqqqqqq%qqqqqqqqq%qj6%qqqq%qqj6%qqqq%qqqqqqq%qqqqqqq%qqqq%qqqqq
1587F408%j6%qqqqq%qqqq%qqqq%qqqqq%qqqq%qqq%j6%qqq%qqqq%qqqq%qq%qqqq%qqq%qqq%
1572E992qqq%qqq%qqq%qq%qqqq%qqq%qq%qqqq%q%qqq%qq%qqq%qq%qq%qqq%qq%qqqq%%qq%j6
1556E592%q%qq%%k4%Qqk4Q%qqqq%qq%q%qq%qq%qq%qq%qq%qq%qq%q%qq%qq%qq%q%qq%q%qq%
1541E256qq%qq%%qq%qqq%%qq%qq%qq%q%qq%q%q%qq%qq%q%qq%%qq%qq%q%q%qq%qq%q%q%%qq
1525D928%q%q%qq%%j6%q%q%q%q%q%q%qqq%%q%q%qq%q%%qq%q%qq%q%q%q%%qq%q%q%q%q%qq%
1510D640q%qq%%q%q%q%q%q%q%q%q%q%qq%%q%q%q%q%q%q%q%q%%qq%q%%q%q%q%q%q%q%q%%q%
1495D376j6%%%qq%q%%q%q%%q%q%q%q%q%q%q%%q%q%%qq%%q%q%q%q%q%%q%q%q%%qq%%q%%q%q
1479D128%q%%q%q%q%%q%q%%q%q%q%q%%q%q%q%q%%%q%q%%q%q%q%%q%%q%q%q%q%qQqq%%q%q%
1464C904%q%q%%q%q%%q%%q%q%%q%q%%q%%q%q%%q%%qqQqq%%%q%q%%q%%q%q%q%%q%%q%%q%%q
1448C696%%q%q%%q%%q%q%%q%%q%%q%%q%q%q%%q%%q%%q%%q%%q%%q%%%q%%%qq%%q%%q%%q%%q
1432C504%q%%q%%q%%q%%%q%q%q%%q%%%q%%q%%%q%q%%%q%%q%%q%qQq%q%%%q%%q%%q%%q%%%q
1417C328%q%%%q%%q%%q%%%q%%q%qQq%qQj6%%%%q%%q%%%q%%%q%q%%q%%%%q%%q%%q%%q%%%q%
1402C168%q%%q%%q%%%q%%q%%%q%%q%%%q%%%%q%%q%%q%%%q%qQq%%%q%%q%%%q%%q%%%q%%%q%
1386C016%q%%%q%%%q%%q%%%q%%%q%%%q%%q%%%q%%%%q%q%%%%q%%%q%%%q%%%%q%q%%%q%%%q%
1370B872%%q%%%q%%%q%%%%q%%q%%%q%%%q%%%%q%%%qQq%%q%%q%%%q%%%q%%%%%q%%%q%%%q%%
1355B744%q%%%q%%%%q%%%%q%%q%%%%q%%qQq%%q%%%%%q%%%q%%%q%%%%q%%%q%%%%q%%q%%%%%
1339B624q%%%q%%%%%q%%%q%%q%%%%%q%%%q%%%%q%%%q%%%%%q%%%q%%%%q%%%%%q%%%%q%%%q%
1324B504%%%%%qQq%%q%q%%%qQqQj6J6q%q%%%q%%%%%q%%%q%%%%q%%%%q%%%qQ%q%%%%q%%%q%
1309B400%%%q%%%%q%%%%%q%%%qQq%%%%q%%%%q%%%%q%%%q%%%%%%q%%%%q%Qq%%%q%Q%j6%%%%
1293B304%%q%%%%qQq%%%%q%%%%%q%%%q%%%%q%%%%%%q%%%%q%%%%%q%%%%%q%%%%q%%%%%%%q%
1278B208%%%q%%%%%q%%%%q%%%%%q%%%%%%%q%%%%q%%%%%q%%%qQ%%q%%%q%%QqqQq%%%q%%%%%
1262B120%%%q%%%%%q%%%qQ%q%%%%%q%%%%%%q%%%%%q%%%%%%%q%%q%%%%%%%q%%%%%%q%%%%%q
1247B032Qq%%%%q%%%%%%%qQq%%%%%q%%%%%q%%%%%%%q%%%%%q%%%%%q%%%qQ%q%%%%%%%%q%%%
1231A960%q%%%%%%%%q%%%%%%%q%%%%%qQq%%%%q%%%%%qQq%%%%%q%%%%%%%q%%%%%%q%%%%%%q
1216A880%%%%%%%%q%%%%%q%%%%%%%q%%%%%%%q%%%%%%%%%q%%%%%q%%%%%%q%%%%qQqQ%q%%%%
1200A816%%q%%%%qQq%Qq%%%%q%%%%%%q%%%%%%%%qQq%%%%%%q%%%%%%q%%%%%%%%%q%%%%%%%q
1184A744%%%%%%%qQq%%%%%%%q%%%%qQ%q%%%%%qQq%%%%%%%%%q%%%%%%%q%%%%%%%q%%%%%%%%
1169A688%%%q%%%%%%%q%%%%%%%q%%%%%%%%%%%q%%%%%%%q%%%%%%%%qQq%%%%%q%%%%%%%%%%%
1153A632q%%%%%%%%q%%%%%%q%%%%%%q%%%%%%%%%%%%%%%q%%%%%%%q%%%%%%%%q%%%%%%%%%%%
1138A576q%%%%%qQq%%%%%%%%%%%q%%%%qQ%q%%%%%%%%%q%QqQq%%%%q%%%%%%%%%q%%%%%%%%%
1122A520%q%%%%%%%%%%%q%%%%%%%%%qQq%%%%%%%qQq%%%%%%%q%%%%%%%%%%%%%q%%%%%%%%%%
1107A472%q%%%%%%%%qQ%%q%%%%%%%%%qQq%%%%%%%q%%%%%%%%%%%%%q%%%%%%%qQq%%%%%%%%%
1091A424q%%%%%%%%%qQq%Qq%%%%%%qJ6k4J6%K4m8K4qqQQqq%Qq%%qQ%%%q%%%Qq%%%%%q%%Qq
1077A376%%%%%%%q%Qq%%%%%%%%%%qQ%q%%%%%%%q%%%%%%%%%%%%%qQq%%%%%%%%%q%Qq%%%%%%
1061A336%%%qQ%%%j6J6q%%%%qQq%%%%%%%%%%%%q%%%%%%%%%%%%%q%%%%%%%%%%%%%q%%%%%%%
1046A296%%%%%%qQq%%%%%%%%qQ%q%%%%%%%%q%%%%%%%%%%%%%%%q%%%%%%%%%%%%%qQqQq%%%%
1031A256%%%qQq%%%%%%%%%%qQq%QqQq%%%%%qQ%qQqQq%%%%%%%%qQq%%%%%%%%%%%%qQ%%q%%%
1015A216%%%%%%%%%%%q%%%%%%%%%%%%%qQq%Qq%%%%%%%q%%%%%%%%%%%%%%qQ%q%%Qq%qQ%%%%
999A184q%Qq%%Qq%%%%%qQ%q%%%%%%%%%%%%%%%q%%%%%%%%%%%%%%%%q%%%%%%%%%%%%q%Qq%%%
984A144%%%%%%%qQ%qQq%%%%%%%%%%%%%q%%%%%%%%%%%%%%%%%%%%%%qQq%%%%%qQ%%%%%qQq%%
968A112%qQq%Q%q%%Q%q%%%%%%%%%%%%%%qQq%%%%%%%%%%%%qQ%%q%%%%%%%%%%%%%%q%%%%%%%
952A080%%%%%%qQq%%%%%%%%%%%%%%%q%%%%%%%%%%%%%%%%%%%%%%qQ%%q%%%%%%%%%%%%%%%q%
936A048%%%%%%%%%%%q%%%%%%%%%%%%%qQ%qQq%%%%%%%%%%%%%%%%%%qQqQq%%%%%%%%%%%%%%%
920A024%q%%%Qq%%%%%%%%%%qQ%%q%%%%%%%%%%%%%%%%%%qQ%q%%%%%%%%%%%%%%%%%%qQ%q%%%
905I92%%%%%%%%q%QqQ%%q%%%%%%%%%%%%%%%q%%%%%%%%%%%%%%%%%%qQ%%%%q%%%%%%%%%%%%%
889I68%%%%qQq%%%%%%%%%%%%%qQ%%%%q%%%%%%%%%%%%%qQ%%%%qQq%%%%%%%%%%%%%%%qQq%Qq
873I36%%%%%%%%%%%%%%%%%%%%%%qQq%%%%%%%%%%%%%%q%%%%%%%%%%%%%%%%%%%%%q%QqQq%%%
857I12%%%%%%%%%%%%%%q%%%%%Qq%QqQj6K4j6qQ%%%%%%%%q%%Q%qQq%%%%Qq%%%%%%qQ%%%%%%
841H96qQ%q%%%%qQ%%%%%%q%%%QqQq%%%%%%%%%%Qq%%%%%%%%%%q%%%%%QqQ%j6Q%%%%q%Qk4J6
826H64j6K4Ql2M8n6J6K4k4J6qQj6J6j6Q%Qq%qJ6qqQqQqQq%%Q%%%q%%%%%%%%%%qQ%%%%%%q%
813H48%%%%%%%%%%%%%%%%%%qQqQqQqQq%%%%%%%%%%%%%%%%%%%%%%q%Qq%%%%%%%%%%%%%%%%%
797H32%%%%%qQ%%q%%%%%Qq%%%%%%%%%%%%%%%q%Qq%%%%%%%%%%%%%%%%%%%%%%%%%q%QqQqQq%
781H08%%%%%%%%%%%%%%qQ%qQq%Q%q%%%%%%%%%%%%%%%%%%%%%%qQ%q%Qq%%%%%Qq%Qq%%%%%%%
765G92%%%%%%qQ%q%QqQq%%%%%%%%%%%qQ%%%%%%%%%q%%%%%%%%%%%%%%%%%%%%%%%%q%Qq%%%%
749G68%%%%%%%%%%%%%%%%%%%%%%%%q%Qq%%%%%%%%%%%%%%%%qQ%%%%%q%Qq%%%%%%%%%%%%%%%
733G52%%%%qQ%%%%%q%Q%q%%%%%%%%%%%%%%%%%%%%%%%%%%%%%%%%%q%Qq%%%%%%%%%%%%%%%qQ
717G36%%%%%%%q%%%%%%%%%%%%%%%%%%%%%%%%q%%Q%%%%%q%%%%%%%%%%%%%%qQ%%%%%%%qQqQq
701G12%QqQq%%%%%%%%%%%%%%%%%%%%%%%%%%%%%%%%%%q%%%%%%%%%%%%%%%%%%%%%%qQ%%%q%%
685F96%%%%%%%%%%%%%%%%%%%%%%qQ%qQqQ%qQ%qQ%q%%%%%Qq%%%%%%%%%%%%%%%%qQ%%%%%%%%
669F88%%%qQ%q%%%%%%%%%%%%%%%%%%%%%%%%qQ%%qQqQq%%%%%%Qq%%%%%%%%%%%%%%%%%%%%%q
653F64%Q%q%%%%Qq%Qq%%%Qq%%%%%%%%%%qQ%%%qQ%q%%%%%%%%%%%%%%%%%%%%%%%%%%%%%qQqQ
637F56q%Qq%%%%%%Q%%q%%%%%%%%%%%%%%%%%%qQ%%%q%Q%%qQ%qQ%%q%%%%%%%%%%%%%%%%%%%%
621F40%%%%%%%%%%%%q%%Q%%q%%q%J6qqQqQ%%%%%%%%%%%%%%%%%%%%qQ%%%%%%%%%%%%%q%%%%
605F24%%%%%%%%%%%%%%%%%%qQ%%%%%%q%Qq%Qq%%%%%%%%%%%%%%%%%%%%%qQ%%%%QqqQ%qQ%%q
589F08Q%qQq%%%Qq%%Qq%%%%%%%%%%%%%qQ%%%qQ%%%%%%%%%%qQqQq%Qq%%%%%%%%%%%%%%%%%%
573F00%%%%%%%%%%%%%%%q%QqQq%%%%%%%%%%%%%%%%%%%%%%%%%%%%%%%%%%%%%qQqQqQ%q%%Qq
557E84%QqQq%%%%%%%%%%%%%%%%%%%%%%%%%qQ%%%%%qQqQq%%%%%%%%%%%%%%%%%%%%%%%%%%%%
541E76%%%%%%%%%%q%%%%%%Qq%Qq%%%%%%%%%%%%%%%%%%%%%%%%%%%%%%%%%qQq%%Qq%%%%Qq%%
525E60%%%Qq%%%%%%%%%%%%%%%%%%%%%%%%%%%%%%%%%%%%qQ%q%Qq%Q%%q%%%%%%%%%%%%%%%%%
509E52%%%%%%%%%%qQ%qQqQ%q%QqQq%%%%%%%%%%%%%%%%%Qq%%%%%%qQ%%%%%qQqQ%%%%%%%q%Q
493E44q%QqQq%%%%%%Qq%%%QqQq%%%%%%%%%%%%%%%%%%%%%%%%%%%%%%%%q%Q%q%%%%%%%%%%%%
477E28%%%%Qq%%%%%%Qq%%%%%%%%%%%%%%%qQ%q%Q%q%%Qq%%Q%%qQ%q%%%%%%%%%%%%%%%%%%%%
461E20%%%%%%%%q%%%%%%%%%%%%%%%%%%%%%%%%%%%%%%%%Qq%%%%%%%%%%%%%%%%%%%%%%%%%%%
445E12%%%%%%qQq%%Qq%%%Q%qQqQq%%%%Qq%%%%%%%%%%%%%qQ%%%%%%%%%%%%%%%%%%%%%%%%q%
429D96QqQ%q%%%%%%%%%%%%%%%%%%%%%%%%%%%%%%%%%%%%%%qQ%qQqQq%%%%QqQ%q%%%%%%%%%%
413D88%%%%%%%%%%%%%%%%%%%%%%%%%%%%%qQ%q%%Q%qQ%%qQqQqQ%qQq%%%%%%%%%%%%%%%%%%%
397D80%%%%%%%%%%%%%%%%%%%%%%qQ%%%%%%%%%%%%qQ%%q%%%%%Qq%%%%%Qq%%%%%%%%qQQq%%%
381D72%%%%%%%%%%%%%%%%%%%qQ%qQ%%q%%%%%%%%%%%%Qq%%%%%%%%%%%%%%%%%%%%%%%%%%%%%
365D64%%%%%%%%%%%%%%qQ%qQ%%%qQ%%%qQ%qQ%qQq%%QqQqQq%%%%%%%%%%%%Qq%%%%%%%%%%%%
349D56%%%%%%q%%%%%%Qq%%%%%Qq%%%Qq%%%%%%%%%%%%%%%%%%%%%%%%%%%%%%%%%%%%%%%%%%%
332D48%%qQ%qQ%%%%%%%%qQ%%q%%QqQ%q%%%%%%%%%%%QqQ%q%%%%%%%%%%%%%%%%%%%%%%%%%%%
316D40%%%qQ%q%Q%q%%Q%%qQ%%q%%Q%%qQqQq%%%%%%%%%%%%Qq%Qq%%%%%%%%%%%%%%%%%%%%%%
300D32%%%%%%%%q%Q%%%%%%q%%Q%qQ%%%qQ%qQq%%QqQq%%%%%%%%%%%%%%%%%%%%%%%%%%%%%%%
284D24%%%%%%%%%%%%%%%%%%%%%%%%%q%%%%%%%%%%%%%%%%%%%%%%%%%%%%%%%%%%%%%%%%%%%%
268D16%%%%%%qQ%%%%%%%q%Q%%qQqQ%%%qQq%Qq%%%%%%%%%Qq%%%%QqQqQqQq%%%%%%%%%%%%%%
252D08%%%%%%%%%%%%%%%%q%%Q%qQ%%%%%%%%%%%%%%%%%q%Q%qQ%q%Qq%%Q%q%%%%%%%%%Qq%%%
236D00%Qq%%%%%%%%%%%%%%%%%%%%%%%%%%qQ%%%qQ%%q%%%%%QqQq%QqQq%%Qq%%%%%%%%QqQq%
220C92%%Qq%%%%%%%%%%%%%%%%%%%%%%%%%%%%%%%%%%%%%%%%%%%%qQ%%qQq%QqQ%%%q%%%%QqQ
204C92%qQqQq%Qq%%%%%Q%qQ%q%%%%%%%%%%%%%%%%%%%%%%%%%%%%%%%%%%%%%%%%%%%%%%%%%%
188C84%%qQ%%qQ%q%Qq%%Q%q%%Q%%%qQqQq%Qq%%%%Qq%%%%%%%%%%%%%%%%%%%%%%%%%%%%%%%%
172C76%%%%%%%%%%%%%%%%%qQ%%%%%%%%qQqQ%%q%Qq%%%%%%%%%%Qq%%%%%Qq%%%%%%%%%%%%%%
156C68%%%%%%%%%%%%%%%%%%Q%qQq%%%%%qQ%%%%Qj6%K4qqQk4Q%QQj6Q%Qq%%%Qj6%%%Q%qQqQ
141C68%qQq%QqQq%Qq%%%%%%%%%%%%%%%%%%%%%%%%%%qQ%%%%%%%%%%%%%%%%%%%%%%%%%%%%%%
125C60%%%%%%%%%%%%%%%%%qQqQ%qQqQq%%%Qq%%%%Qq%%Qq%%%Qq%%%%%%%%%%%%%%%%%%%%%%%
109C52%%%%%%%%%%%%%%%%%%%%%%%%%%%q%%Q%qQ%%qQ%q%%%%%%%Qq%%%%%%Qq%%%%%%%Q%q%%%
93C44%%Qq%%%%%%%%%%%%Qq%%%%%%%%%%%%%%%%%%%%%%%%%%%%%%%%%%%%%%%%%%%%qQ%%%%%qQ
77C44%%%%%%%%%%%%%%%%qQ%%qQ%q%Q%q%%%Qq%%%%Q%q%%%%%%%%%%%%%%Qq%%%%%%%%%%%%%%%
61C36%%%%%%%%%%%%%%%%%%%qQ%%%%%%%%%%%%%%%%%%qQ%%%%%%%%%%q%%Qq%Q%qQ%q%QqQq%%%
45C28%%%Q%%q%%%%%%%%%%%%%%%%%%%%%%%%%%Qq%%%%%%%%%qQ%%%%%%%%%%%%%%%%%%q%Qq%%%
28C20%Q%qQ%%q%Q%%q%Q%%qQ%%%%%%%%%%%%%%qQ%%%q%%%%%Qq%%%%%%%%%%%%Qq%%%%%%%%%%%
12C20%%%%%%%%%%%%%%%%%%%%%%%%%qQ%%%qQ%qQ%%%qQ%%%%%%%%%%qQ%%%%%%%%q%Qq%Qq%%%Q
-4C20q%%Qq%%%%%%%%QqQq%%Qq%%%%%%%%%%%%%%%%%%%%%%%%%%%%%%%%%%%%%%%%%%%%%%%%%%
-20C12%%%%%%%%%%%%%%%%qQ%%%%%%%%%%%%qQ%%%qQ%q%Q%%%%%%%%%qQ%qQ%%qQ%%%%%q%Qq%%
-36C04%%%%%%%%%%%%%%%%%%%%%%%Qq%%Qq%%%%%%%%%%%%%%%%%%%%%%%%%%%%%%%%%%%%%%%%%
-52C04%qQqQ%%%%%qQ%%%%q%Q%%qQ%q%Q%q%QqQ%qQ%qQqQ%qQq%Qq%%%Qq%%%%%%%%%%Qq%%%%%
-69B96%%%%%%%%%%%%QqQq%%%%Qq%%%%%%%%%%%%%%%%%%%%%%%%%%%%%%%%%%%%%%%%%%%%%%%%
-85B96%%%%%%%%%q%J6j6QqQ%q%Q%%q%Q%q%%%%%%Qq%%%%%%%%%%%%%Qq%%%%%%%%%%%%%%%%%%
-100B88%%%%%%%%%%%%%%%%%%%%%%%%%%%%%%%%%%%%%%%%%%%%%%%q%%%Qq%Q%q%Q%%%qQ%%%%%
-116B88%qQqQqQqQqQ%q%%%%%QqQqQ%%%%%q%Q%q%%%%%%%%%%%%%QqQq%%%%%%%%%Qq%QqQ%q%%
-132B80%%%%%%%%%%%%%%%%%%%%%%%%%%%%%%%%%%%%%%%qQ%%%%%%%%%%%%%%%%%%%%qQ%%%%%%
-147B80%%%%%%%%%%%%%%%%%%%%qQ%q%%QqQ%%%%%%%%q%Q%%q%%%%%Qq%%%%%Q%qQq%%%%%%%%%
-163B72%%%%%%%%%%%%%%%%%%%%%%%%%%%%%%%%%%%%%%%%%%%%%%%%%%%%%%%%%%%%%%%%%%%%%
-179B72%%%%%%%%%%%%%%%%%%%%%%%%%%%q%%%Q%q%QqQ%%%%%%qQ%%qQqQq%%%Q%%%%%%%%%q%%
-195B64%%%%%%%%%%%%%%%%%%%%%Qq%%%%%%%%%%%%%%%%%%%%%%%%%%%%%%%%%%%%%%%%%%%%%%
-211B64%%%%%%%%%%%%%%%%%%%%%%%%%%%%%%%%%%%%%%%%%%%%%%%%%%%%%%%%%%qQ%qQqQq%Qq
-226B56%Qq%QqQq%%%Q%%%q%Q%%%%%%%q%Qq%%Q%q%%%%%Qq%%%%%%%%%%%%%%%%%%%%%%%%%%%%
-242B56%%%%%%%%%%%%%%%%%%%%%%%%%%%%%%%%%%%%%%%%%%%%%%%%%%%%%%%%%%%qQ%%%%%%%%
-258B56%%%%%qQqQ%qQqQ%q%QqQq%%Q%%qQq%Q%%%%%%%%%%%%q%%%%%%%%%%%%Qq%Q%%%qQq%Qq
-274B48%%%%%%%%%%%%%%%%%%%%%%%%%%%%%%Qq%%%%%%%%%%%%%%%%%%%%%%%%%%%%qQ%%%%%%%
-290B48%%%%%%%%%%%%%%%%%%%%%%%%%%%%%%%%%%q%Q%%%%%%%%%%qQq%Qq%%Qq%Qq%%Q%%qQqQ
-305B48qQq%%Qq%%%Qq%%%%%%%Qq%%%%Q%q%%%%QqQ%q%%%%%%%%%%%Qq%%%%%%%%%%%%%%%qJ6%
-321B48j6Q%Q%j6QQq%%%%%%%%%%%%%%%%%%%%%%%%%%%%%%%%%%%%%%%%%%%%%%%%%%%%%%%%%%
-336B40%%%%%%q%Qq%QqQqQ%qQ%%qQ%%qQ%%%qQqQqQ%qQqQqQ%%%qQ%q%%%%%%%QqQqQq%%%%%%
-352B32%%%%%%%%%%%%%%%%%Qq%%%%%Qq%%%%%%%%%%%%%%%%%%%%%%%%%%%%%%Qq%%%%%%%%%%%
-368B32%%%%%%%%%%%%%%%%%%%%%%%%%%%%%%%%%%%%%%%%%%%%%%%%%%%%qQ%qQ%qQ%q%Q%%qQq
-384B24%%Q%%%%%%%%%%%%%%%%%qQ%q%%%%%%%%QqQq%QqQ%%%qQq%%%%%%%%%%Qq%%%%QqQqQ%%
-399B32%%%q%%%%Qq%%%%%%%%%%%%%%%%%%%%%%%%%%%Qq%%%Qq%%%%%Qq%%%%%%%%%%%%%%%%%%
-415B24%%%%%%%%%%%%%%%%%%%%%%%%%%%%%%%%%%%%%%%%%%%%%%%%%%%%%%%%%%%%%%%%%%%%%
-431B24%%qQ%%%%%qQ%%%qQ%q%Q%q%%%Qq%%Q%qQ%qQ%%qQ%%%%%%qQ%%%%%qQq%%Qq%%%%%QqQq
-447B16%Qq%%%%%%%%%%%%%%%%%%%%%%%%%%%%%%%%%%%%%%%%%%%%%%%%%%%%%%%%%%%%%%%%%%
-463B16%%%%%%%%%%%%%%%%%%%%%%%%%%%%%%%%%%%%%%%%%%%%%%%%%%%%%%%%%%%%q%Q%%%qQ%
-478B16%%q%Q%qQ%%%%%qQ%%%%%%qQ%%%%%%%%%q%%Q%q%QqQqQqQ%%%%%%qQq%QqQqQ%qQ%q%%%
-494B08%%%%%%%%%%QqQqQ%qQqQ%q%%%%%%Qq%%%%%%%%%%%%%%%%%%%%%%%%%%%%%%%%%%%%%%%
-510B08%%%%%%%%%%%%%%%%%%%%%%%%%%%%%%%%%%%%%%%%%%%%%%%%qQ%%%%%q%Q%%%%%%%%%%%
-526B08%%%%%qQ%%%%%%%%%%%%q%%Q%qQ%%%%%%%%%%qQ%%%qQqQ%%q%Q%%q%QqQqQq%QqQqQqQ%
-542B08%q%%%Q%%%%%qQqQqQ%%%%q%Q%q%%Qq%Q%%q%Q%q%%%%%%%%%%%%%%%%%%%Qq%%QqQq%%%
-557B00%%%%%%%Qq%%%%%%%%%%%%%%%%%%%%%%%%%%%%%%%%%%%%%%%%%%%%%%%%%%%%%%%%%%%%
-573B00%%%%%%%%%%%%%%%%%%%%%%%%%%qQ%%%QqQ%q%%%%%%%qQ%%%%%%%%%%%qQ%%%%%%%%%%%
-589B00%%q%%%%%%%%%Q%%%%qQq%Qq%QqQ%qQ%%%%%%%%%%qQqQ%q%%Q%qQ%qQ%q%%%Q%qQ%qQ%q
-605A92%Q%%%%qQq%%%%%%%%%%%%%Qq%%%%%%%%%%%%%%%%%%Qq%%%%%%%%%%%Qq%%%%%%%%%%%%
-621A92%%%%%%%%%%%%%%%%%%%%%%%%%%%%%%%%%%%%%%%%%%%%%%%%%%%%%%%%%%%%%%%%%%%%%
-636A92%%%%%%%%%%%%%%%%%%%%%%%%%%%%%qQ%%%%q%Q%%%%%%%%%%%%%%%%%%%%%%qQ%%%%%%%
-652A92%%%%%%%%%%qQ%%%%%%%%%%%%%qQq%Q%%%%%%%%%%%%%%%%%%%q%QqQ%%qQ%%qQqQqQ%q%
-668A84QqQq%%Q%q%%Qq%%QqQq%%QqJ6j6Qq%Qq%%%%%Q%q%%%%%%%%%%%%%%%%%%%%%%%%%%%%%
-683A84%%%%%%%%%%%%%%%%%%%%%%%%%%%%%%%%%%%%%%%%%%%%%%%%%%%%%%%%%%%%%%%%%%%%%
-699A84%%%%%%%%%%%%%%%%%%%%%%%%%%%%%%%%%%%%%%%%%%%%%%%%%%%%%%%%%%%%qQqQqQq%%
-715A76Qq%%%QqQ%%%%%%%%%%%%%%%%%%qQ%qQ%%%qQ%qQ%q%Q%q%Q%q%Q%%qQqQq%QqQqQqQ%%%
-731A84%%q%QqQqQq%%%Qq%%%%%%%%%%%QqQq%%Qq%Qq%%%%%%%%%%%%%%%%%%%%%%%%%%%%%%%%
-746A76%%%%%%%%%%%%%%%%%%%%%%%%%%%%%%%%%%%%%%%%%%%%%%%%%%%%%%%%%%%%%%%%%%%qQ
-762A76%%%%%%%%%%%%%%%%%%%%%%%%%%%%%%%%%%%%%%%%%%%%%%%%%%%%%%%%%%%%%%%%%%%%%
-778A76%%%%%%%%%qQ%%%%%%%%%%%qQ%%%%%%%%%%%%%%%q%%%%Q%%qQj6J6%k4K4Qj6J6q%Qj6Q
-792A76q%Qq%Qq%Q%%qQqQq%QqQq%%Qq%QqQq%%%%%%Q%%%qQq%%Qq%Qq%%%%%%%%%%%%%%%Qq%%
-808A68%%%%%%%%%%%%%%%%%%%%%%%%%%%%%Qq%Qq%QqQq%%%%%%%%%%%qQ%%%%%%%%%%%%%%%%%
-824A68%%%%%%%%%%%%%%%%%%%%%%%%%%%%%%%%%%%%%%%%%%%%%%%%%%%%%%%%%%%%%%%%%%%%%
-840A68%%%%%%%%%%%%%%%%%%%%qQ%%%%%%%%%%%%%%%%%%qQ%%%%%%%%%%%%%%%%%%%%%%%%%q%
-855A60%Q%%qQ%%%%%%%%qQ%%%%%%%%%%%%%%qQ%%%qQ%%%qQ%%qQqQqQqQ%%%%qQ%%%%%%%%%%%
-871A68qQq%Q%%%%q%%%%%%Qq%Qq%QqQ%%qQ%%qQ%q%%%%%Qq%%%%%Q%%%q%%%%%%%%%%%%%%%%%
-887A60%%%%%%%%%%%%%%%%%%%Qq%Q%qQq%%Qq%%%%%%%%%%%%%%%%%%%%%%%%%%%%%%%%%%%%%%
-903A60%%%%%%%%%%%%%%%%%%%%%%%qQ%%%%%%%%%%%%%%%%%%%%%%%%%%%%%%%%%%%qQ%%%%%%%
-919A60%%%%%%%%%%%%%%%%%%%%%%%%%%%%%%%%%%%%%%%%%%%%%%%%%%%%%%%%%q%Q%%qQqQ%%%
-934A60%%%%%%%%%qQ%%qQ%%%%%%%q%%%Q%q%%%QqQq%QqQqQ%%%%%%%%%qQ%%%%%q%Q%%%qQ%%%
-950A60qQqQq%%%QqQ%%%%%%qQ%q%%Q%qQq%%%Q%qQ%%q%%Qq%%QqQq%%%%%%%Qq%%%%%QqQ%%%q
-966A52%%%%%Q%q%%%QqQq%%%%%%%%%%%%%%%%%%%%%%%%%%%%%%%%%%%%%%%%%%%%%%%%%%%%%%
-982A52%%Qq%%%%%%%%%%%%%%Qq%%%%%%%%%%%%%%%%Qq%%%%%%%%%%%%%%%%%%%%%%%%%%%%%%%
-998A52%%%%%%%%%%%%%%%%%%%%%%%%%%%%%%%%%%%%%%%%%%%%%%%%%%%%%%%%%%%%%%%%%%%%%
-1013A52%%%%%%%%%%%%%%%%qQ%%%%%%%qQ%%%qQqQ%qQ%q%%Qq%%%%QqQq%Q%%q%Q%%%%%%%%%%
-1029A52%%%%%%%%%%%%%%%%%%%%%%%%%%%q%Q%%q%%Qq%%%%%%Q%%%%%qQ%%qQq%Qq%%%%%%%%Q
-1044A52%%%%%qQqQqQq%QqQqQQl2QJ6%%Qj6Q%qQ%%qQ%qQqQqQq%%%%%%%%%%%Qq%%%%%Qq%%%
-1059A44%Qq%%%%%%%%%%%%%Qq%%%%%%%%%%%%%%%%%%%%Qq%%%%%%%%%%%%%%%%%%%%%%%%%%%%
-1075A44%%%%%%%%%%%%%%%%%%%Qq%%%%%%%%%%%%%%%%%%Qq%%%%%%%%%%%%%%%%%%%%%%%%%%%
-1090A44%%%%%%%%%%%%%%%%%%%%%%%%%%%%%%%%%%%%%%%%%%%%%%%%%%%%%%%%%%%%%%%qQ%%%
-1106A44%%%%%%%%%%%%%%%%%%%%%%%%%%%%%%%%%%%%%%%%%%q%%Q%%%%%%%%%%%%%%%%%%%%%%
-1122A44%%%%%%%%%%%%%%%%%qQqQ%%%qQ%%%%%%%%qQ%%%%%qQ%%%%%%%%%qQ%%%%%qQ%%%%%%%
-1137A44%%%%q%QqQq%%%%%%%%%%Qq%QqQqQqQq%Q%%%qQ%q%Q%%q%%%%QqQ%%%%%%%q%Qq%%%%%
-1153A36%%%%%%%%%%%%%%QqQq%%%%Qq%%%%%%%%%%Qq%%%%%Qq%%Qq%%%%%%%%%%%%Qq%%%%%Q%
-1168A44q%%%%%%Qq%%%%%%%%%%%%%%%%%%%%%%%%%%%%%%%%%%%%%%%%%%%%%%%%%%%%%%%%%%%
-1184A36%%%%%%%%%%%%%%%%%%%%%%%%%%%%%%%%%%%%%%%%%qQ%%%%%%%%%%%%%%%%%%%%%%%%%
-1199A36%%%%%%%%qQ%%%%%%%%%%%%%%%%%%%%%%%%%%%%%%%%%%%%%%%%%%%%%%%%%%%%%%%%%%
-1215A36%qQ%%%%%%%%%%%%%%%%%qQ%%%%qQ%%%%%%%%%%%%%%%%%%%%%%%qQ%%%qQ%qQ%qQ%%%q
-1231A28Qq%Q%q%%%%%QqQq%%Q%%%%%qQ%%qQ%%%%%%%%%%%%%%%%%%%qQ%%%%%%%%%%%%q%Q%qQ
-1246A36qQq%%Qq%%%%QqQ%q
-1250A28
##$OBSERVED MULTIPLETS=	(I, X, Y, Hs, Vs, An, H, C, N, (J))
$$ I: Multiplet Index
$$ X: Strt Coordinate
$$ Y: End Coordinate
$$ Hs: Horizontal Chemical Shift
$$ An: Normalised Integral Area
$$ H: Hydrogens
$$ C: Category
$$ N: Name
$$ (J): Coupling Constants
(1, 66.548903137387227957, 66.670096655715028078, 66.609499896551128018, 1.7454546550474132616, 2, s, 2&comma;4)
(2, 16.116109441081402309, 16.237302949906609939, 16.176706195494006124, 2.2545453449525867384, 2, s, 1&comma;5)
##$OBSERVED MULTIPLETS AREAS=	
(1, 2.4236038142871585421)
(2, 3.1304879113929313661)
##$OBSERVED MULTIPLETS PEAKS=	(I, X, Y)
$$ I: Multiplet Peak Index
$$ X: Peak x Position
$$ Y: Peak Intensity
(1, 66.609499896551128018, 0.2331371307373046875)
(2, 16.176706195494006124, 0.30113545060157775879)
##$PREDICTED PEAKS=	(X Y T A)
(16.174181597652548703,  , 3, <1>)
(66.602675096649690545,  , 3.2200000000000001954, <2>)
(66.602675096649690545,  , 3.2200000000000001954, <4>)
(16.174181597652548703,  , 3, <5>)
##$PREDICTEDCOUPLINGCONSTANTS=	J(A,B)	$$ (Hz)
125.63(1, 1)
3.7(1, 2)
0.36(1, 4)
3.7(2, 1)
138.62(2, 2)
0.36(2, 5)
0.36(4, 1)
138.62(4, 4)
3.7(4, 5)
0.36(5, 2)
3.7(5, 4)
125.63(5, 5)
##END=		$$ NMR SPECTRUM
##TITLE=	Predicted 13C NMR Spectrum
##JCAMP-DX=	6.0	$$ MestReNova 17.0.0-41178
##DATA TYPE=	NMR PEAK TABLE
##DATA CLASS=	PEAK TABLE
##BLOCK_ID=	4
##ORIGIN=	Mestrelab Research S.L.
##OWNER=	ctheodore
##CROSS REFERENCE=	NMR SPECTRUM: BLOCK_ID=3                                     
##.OBSERVE FREQUENCY=	125
##.OBSERVE NUCLEUS=	^13C
##NPOINTS=	2
##FIRSTX=	16.176706195494006124
##LASTX=	66.609499896551128018
##XFACTOR=	1
##YFACTOR=	1
##FIRSTY=	0.30113545060157775879
##XUNITS=	PPM
##YUNITS=	ARBITRARY UNITS
##PEAK TABLE=	(XYW..XYW)
16.176706195494006124,0.30113545060157775879,0.012119350882520491669
66.609499896551128018,0.2331371307373046875,0.012119351832780483891
##$MNOVA/PEAK_DATA_TABLE=	(T,F,A,ST,SP,APT,APC)
$$ Complementary to PEAK TABLE
$$ T: Type
$$ F: Flags
$$ A: Annotation
$$ ST: Shape Type
$$ SP: Shape Parameter
$$ APT: Attached Peaks Type
$$ APC: Attached Peaks Count
Compound,None,,0,0,0,0
Compound,None,,0,0,0,0
##END=		$$ NMR PEAK TABLE
##END=		$$ LINK
