##TITLE=	methyl propyl ether 13c
##JCAMP-DX=	6.0	$$ MestReNova 17.0.0-41178
##DATA TYPE=	LINK
##BLOCKS=	4    
##ORIGIN=	Mestrelab Research S.L.
##OWNER=	ctheodore
##$MNOVA/METADATA=	(DOCUMENT,BASE64)
eyJuYW1lIjoiL1VzZXJzL2N0aGVvZG9yZS9Eb2N1bWVudHMvY2xhc3Nlcy9OTVIgZXhwZXJpbWVudC9
naXRodWIgZmlsZXMvbWV0aHlsIHByb3B5bCBldGhlci9tZXRoeWwgcHJvcHlsIGV0aGVyIDEzYy5tbm
92YSIsInBhZ2VzIjpbeyJpdGVtcyI6WyIxIiwgICAgICAgICAgICAgICAgICAgICAgICAgICAgICAgI
CAgICAgIjMiICAgICAgICAgICAgICAgICAgICAgICAgICAgICAgICAgICAgIF19XX0=
##TITLE=	
##JCAMP-CS=	3.7	$$ MestReNova 17.0.0-41178
##BLOCK_ID=	1
##ORIGIN=	Mestrelab Research S.L.
##OWNER=	ctheodore
##$MNOVA/METADATA=	(ITEM,BASE64)
eyJhbmdsZSI6MC4wLCJwb2ludHMiOlt7IngiOjUzMjEuMCwieSI6NTgzNS4wfSx7IngiOjU3NzAuMDE
0MDQ4MDQ3NTI3NSwieSI6NTgzNS4wfSx7IngiOjU3NzAuMDE0MDQ4MDQ3NTI3NSwieSI6NTk4OC42Mz
g1NDI0NTM5NjV9LHsieCI6NTMyMS4wLCJ5Ijo1OTg4LjYzODU0MjQ1Mzk2NX0seyJ4Ijo1MzIxLjAsI
nkiOjU4MzUuMH1dLCJ6IjoxLjB9
##NAMES=	
##ATOMLIST=	
$$ AN	AS	NH
	1	C	3
	2	O	 
	3	C	2
	4	C	2
	5	C	3
##BONDLIST=	
$$ AN1	AN2	BT
	1	2	S
	2	3	S
	3	4	S
	4	5	S
##MAXRASTER=	32768
##XY_RASTER=	
$$ AN	X	Y	Z
	1	-32767	-4728	0
	2	-16385	4730	0
	3	0	-4730	0
	4	16385	4728	0
	5	32767	-4730	0
##END=		$$ JCAMP-CS
##TITLE=	Predicted 13C NMR Spectrum
##JCAMP-DX=	6.0	$$ MestReNova 17.0.0-41178
##DATA TYPE=	NMR PEAK ASSIGNMENTS
##DATA CLASS=	ASSIGNMENTS
##BLOCK_ID=	2
##ORIGIN=	Mestrelab Research S.L.
##OWNER=	ctheodore
##CROSS REFERENCE=	STRUCTURE: BLOCK_ID=1                                     
NMR SPECTRUM: BLOCK_ID=3                                     
##.OBSERVE FREQUENCY=	125
##.OBSERVE NUCLEUS=	^13C
##NPOINTS=	4
##XUNITS=	PPM
##YUNITS=	ARBITRARY UNITS
##PEAKASSIGNMENTS=	(XYWA)
(59.099518525162778815, 0.15056774020195007324, 0.0060596766645879540647, <1>)
(75.00580923276561407, 0.11656858772039413452, 0.0060596767381895233484, <3>)
(23.875306947826743453, 0.11656861007213592529, 0.0060596776234973503961, <4>)
(11.508834331151435393, 0.15056775510311126709, 0.0060596767628915415571, <5>)
##END=		$$ NMR PEAK ASSIGNMENTS
##TITLE=	Predicted 13C NMR Spectrum
##JCAMP-DX=	6.0	$$ MestReNova 17.0.0-41178
##DATA TYPE=	NMR SPECTRUM
##DATA CLASS=	XYDATA
##BLOCK_ID=	3
##ORIGIN=	Mestrelab Predictor
##OWNER=	ctheodore
##NUMDIM=	1
##$MNOVA/METADATA=	(ITEM,BASE64)
eyJhbmdsZSI6MC4wLCJheGVzIjp7IngiOnsibWF4IjoyMzAuMDI1MzAyNzgzMzA2MTYsIm1pbiI6LTk
uOTk5MjY4ODY0ODg3NjM4fSwieSI6eyJtYXgiOjAuMTY1NjI0NTMwOTg1OTUxNDIsIm1pbiI6LTAuMD
E1MDU2Nzc1MTMxOTI1ODgxfX0sInBvaW50cyI6W3sieCI6NTMyMS4wLCJ5Ijo1ODM1LjB9LHsieCI6O
DcyMi4wLCJ5Ijo1ODM1LjB9LHsieCI6ODcyMi4wLCJ5Ijo4MjA4LjB9LHsieCI6NTMyMS4wLCJ5Ijo4
MjA4LjB9LHsieCI6NTMyMS4wLCJ5Ijo1ODM1LjB9XSwieiI6MC4wfQ==
##.OBSERVE FREQUENCY=	125
##.OBSERVE NUCLEUS=	^13C
##.SOLVENT NAME=	DMSO-d6
##.PULSE SEQUENCE=	
##.ACQUISITIONMODE=	SIMULTANEOUS (DQD)
##$ORIGINAL FORMAT=	Predictor
##$MNOVA/SCALES_VERSION=	9
##$PARAMETER FILE=	(parameters, ASCII, , 0)
$$ <?xml version="1.0" encoding="utf-8"?>
$$ <PredictorParameters>
$$     <Title>Predicted 13C NMR Spectrum</Title>
$$     <Origin>Mnova: NMR Prediction</Origin>
$$     <Name>Mestrelab Predictor</Name>
$$     <Version>1.7</Version>
$$     <Nucleus>13C</Nucleus>
$$     <Solvent>DMSO-d6</Solvent>
$$     <From>-10</From>
$$     <To>230</To>
$$     <Frequency>125</Frequency>
$$     <LineWidth>1.5</LineWidth>
$$     <Size>131072</Size>
$$     <DEPT>0</DEPT>
$$     <ProtonatedCarbons>0</ProtonatedCarbons>
$$     <ExcludeLabile>false</ExcludeLabile>
$$     <FastPrediction>0</FastPrediction>
$$     <ProtonDecoupled>1</ProtonDecoupled>
$$     <Reference/>
$$     <Options>
$$         <Settings>
$$             <Predictor Name="Mestrelab Predictor">
$$                 <Settings>
$$                     <Model>/Applications/MestReNova.app/Contents/Resources/data/13C.mbst</Model>
$$                 </Settings>
$$             </Predictor>
$$         </Settings>
$$     </Options>
$$     <MoleculeID>{c4a106cb-7dc6-48d5-9d64-f714c8fbb422}</MoleculeID>
$$ </PredictorParameters>
$$ 
##XUNITS=	HZ
##YUNITS=	ARBITRARY UNITS
##FIRSTX=	28750
##LASTX=	-1249.7711181640625
##DELTAX=	-0.2288818359375
##XFACTOR=	1
##YFACTOR=	7.0113574701000400212E-11
##FIRSTY=	1.8139081348067520594E-08
##MINY=	7.5091427520490583447E-10
##MAXY=	0.15056775510311126709
##NPOINTS=	131072
##XYDATA=	(X++(Y..Y))
28750B59%Qq%%%%%%%%%%%%%%%%%%%%%%%%%%%Q%q%%%%%%%%Q%q%%%%%%%%Qq%Qq%%%%%%%%%%%
28734B59%%%%%%%%%%%%%%%%%%%%%%%%%%%%%%%%%%%qQ%qQ%%%%%%%%%%%%%%%%%%%q%Q%%%%%%
28719B59%%qQ%qQqQ%%qQ%%qQQj6qJ6%%q%%%%%Q%q%Qq%%%%%Qq%Qq%Qq%Q%q%%%%%%%%%%QqQ%
28704B59%%%%%q%%%%Qq%%%%Q%qQ%%%qQqQqQq%%%%%%%%%%%%%%Qq%%%%%%%%%%%%%%%%%%%%%%
28688B51%%%%%%%%Q%%q%Qj6QQq%%Qq%%%%%%%%%%%%%%%%%%%%Qq%%%%%%%%%%%%%%%%%%%%%%%
28673B51%%%%%%%%%%%qQ%%%%%%%%%%%%%%%%%qQ%%%%qQqQ%qQ%%%%%%%%%%%%%%qQ%q%Q%%qQq
28657B43Q%%q%Q%%%%%qQq%%Q%%qQ%%q%%%%Q%%qQqQ%qQ%q%%Q%q%%%Q%q%%%%%%%Qq%%%%%%%%
28642B43%%%%%Qq%%%QqQ%qQqQq%Qq%%%%Q%qQ%%q%%%Qq%%%%%%%%qQ%%%%%%%%%%%%%qJ6q%%Q
28626B51QqqQq%Q%q%Qq%%%%%%%%%%%%%%%%%%%%Qq%%%%%%%%%%%%%%%%%%%%%%%%%%%%%%%%%%
28611B43%%%%%%q%%%%%%Qq%%%Q%%%%q%QqQqQq%Qq%QqQqQ%qQ%qQ%qQq%%%%QqQj6QQq%%%QqQ
28596B43%q%QqQqQ%qQ%%%%q%%Q%q%%%%QqQq%%QqQ%%%%qQ%%%q%%Q%%%qQq%Q%%%q%Q%q%%Q%q
28580B35Qq%%%Qq%Q%q%%%%%%%%%%%%%Qq%%%%%%%%%%%%%%%%%%%%%%%%%%%qQ%%%%%%%%%%%Q%
28564B43q%%%%%%%%%%%%%%%%%%%%%%%%%%%%%%%%%%%%%%%%%%%%%%%%%%%%%%%%%%%%%%%%%qQ
28549B35%%%%%%%%%%%%%%%%%%%%%%%%%%%%%%%%%%%%%%%%%%qQ%%%%%q%Q%%%%%%%%%qQ%%qQ%
28533B35%%q%Qq%%Q%%q%Q%qQqQ%qQ%%qQqQ%%qQ%%qQ%%%qQ%%%%q%%%%%Qq%%%%%%Q%%%q%Qq%
28518B27Qq%%%%%%%%%%%%%%%%%%%%%%%%%%%Qq%%Q%q%Qq%%Q%q%%Qq%%%%%Qq%%%%%%%%%%Qq%
28502B27%%%%%Qq%%%%%%%%%%%%%%%%%%Q%%q%%%Q%q%%Qq%%%%%%%%%%%%%%%%%%%%%%%%%%%%%
28487B27%%%%%%%%%%%%Qq%%q%Q%Qq%%qK4k4%%QqQ%%%%%%%%%%Qq%qQ%qQ%%%%%%%%%%%qQ%%%
28471B27%q%%%%Q%qQq%%Qq%%%%%QqQ%%q%QqQ%%%%%%%%%qQ%%q%Q%%qQ%%%%%%%%%%%%q%%%%%
28456B19%%Q%%%q%Qq%Qq%%%%%%%%%%QqQ%%q%%%%%%%%%%Qq%%%%%%%Qq%Q%qQ%qQ%qQqQqQqQq
28440B19%%%%%%%%%%%%%%%%%%%QqQq%%%%%%%%%%%%%%%%%%%Qq%%%%%%%%%%%%%%%%%%%%%%%%
28425B19%%%%%%%%qQ%%%%%%%%%%%%%%%%%%%%%%%%%%%%%%%%%%%%qQ%%%%%%%%q%Q%%%%%%%%%
28409B19%%%%%%%%q%QqQ%qQ%%%%%%qQ%q%%%%%Q%%%%qQ%%%%%%%%%%%%%%%%qQ%%%%%%%%%%%%
28394B19%%%%qQqQ%qQqQ%%%q%Q%%%qQ%qQqQ%%qQqQq%%Q%%qQ%%q%%Qq%%QqQ%%qQ%%%qQ%%qQ
28378B19qQqQ%%q%Qq%%%%%%%%%%%%Q%q%%%%%%Q%q%%%%%%%%%%%%%%%%%Qq%Q%q%%%%qQ%%%qJ6
28363B19q%%%qQ%%%%%%%%%%%%%%%%%%%%%%%qQ%qQ%%qQ%%q%Q%%%%%%%%%%%%%Qq%%%%%%%%%%
28347B11%%%%%%%%%%%%%%%%%%%%%%%%%%%%%%%%%%%%%%%%%%%%%%%%%%%%%%%%%%%%qQ%%Qq%%
28331B11%%qQ%%%%%%qQ%%%%qQ%%qQqQ%qQ%%%%%%%%%%%qQ%%%q%Qq%Qq%Qq%Q%q%%%%%Qq%%%%
28316B03%%%Qq%%%%%%%%%%%%%%Qq%Qq%%Q%%%%%%%%%q%%%Qq%%%%QqQ%q%QqQq%Q%qQqQ%q%%Q
28300B11%q%%Q%%%qQQj6Q%qQqQ%%%q%Qq%%%%%%%%Qq%%%%%%%%%%%Qq%Qq%%%%%%%%%%QqQ%qQ
28285B11q%%%%%%%QqQq%%%%%%%%%%%%%%%%%%Qq%%%%%%%qQ%%%%%%%%%%%QqQqQq%%%%%%%%%%
28269B03%%%%%%%%%%%%%%%%%%%%%%%%%%%%%qQqQ%%%%%%%%%%%%%%%%%%%%%%%%%%%%%%%%%%%
28254B03%%%%%%%%%%q%Q%%%%%%%%%%qQ%%%q%%QqQ%%%qQ%qQ%%qQ%qQ%%%q%QqQq%Q%%%%%%%%
28238B03%qQq%%Qq%%%%%Qq%Qq%Qq%%%%%%%%%%Q%%%qQ%%qQ%%%%%qQ%%q%%%%%%Q%qQq%%%Qq%
28223A95Qq%%%%%%Q%q%%Q%q%QqQ%q%Q%qQq%%%%%%%%%%%%%%%Q%qQ%%%%q%%Q%%qQqQ%q%%%%%
28207A95%%%%%%%%%%%%%%%%%%%%%%%Qq%%%%Q%q%%%%%%%%%%%%%%%%%%%%%%%%%%%qQ%%%%%%%
28192A95Q%q%%%%%%%%%%Qq%%%%qQ%%%Qq%%%%%%%%%%qQ%%%%%%%%%%%%Qj6Q%%%%%%%%%%%%%%
28176A95q%Q%%%%qQqQ%q%%%%%QqQ%%%%%%q%%%Q%%%%qQ%%qQ%qQ%%%%q%Q%%%%%%%%qQqQ%%%q
28161A87%%Q%%qQ%%qQ%qQqQQqj6QQ%%qQ%qQqQQq%%qQ%qQ%%%%q%%%Q%%q%%%%%%Qq%%QqQ%qQ
28145A95q%%%Qq%%Qq%%Qq%Q%q%%Q%q%%%%%%QqQq%Qq%%%%%Qq%%Qq%Q%%qQqQqQq%%%%%%%%%Q
28130A95q%%QqQqqQQ%%%qQqQQj6QJ6k4%%q%%K4k4Q%%%%QqQ%qQq%%%%%%%%%%%%%%%%%%%%%%
28115A87%%%Qq%%%%%%%%%%%Qq%%%%%%%%%%%%%%%%%%%%%%%%%%Qq%%%%%%%%%%%%%%%%%%%%%%
28100A87%%%%qQ%%%%%%%%%%%%%%%%%Qq%%%%%%%%%%%%%%%%%%%%%%%%Qq%%%%%%%%%%%%%%%%%
28084A87%%%%%%%%%%%%%%%qQ%%%%%%%%%%%%%%qQ%%%%%%%qQ%%%%%q%%Qq%%%%%Q%q%Q%q%Q%%
28069A87%qQq%Q%qQqQ%%qQ%qQ%%%%%qQq%%%%QqQq%Q%%%%%%%%%%%%%%%%%%%%%%%%%%%%%qQ%
28053A87%%%%%%qQ%%%%%%%%%%%%%qQqQ%%q%%%%Q%%%%qQ%%%%q%Q%q%%%%%%%%QqQqQq%%QqQq
28037A79%QqQ%qQ%%qQqQ%%q%%%%%%%%%%%Qq%%%%%%%%%%%%%%%%%%%%%%%%%%%%%%QqQ%qQ%qQ
28022A87qQq%%%%%Qq%%%%%%%%%%%Qq%Qq%%%%Q%q%Qq%%qQ%%qQQk4Q%%J6QqqQ%j6J6q%%%%%Q
28007A87%%%q%%%%%%%%%%%%Qj6Q%%%Qq%%%Q%qQ%%q%QqQq%%%%%%%%%%%qQ%%%%%qQ%%%%%%qQ
27992A79%%%%%%QqQ%%q%%%%%%%%%%%%%%%%%%%%%%%%%%%%%%%%qQ%%%%qQ%%qQ%q%Q%%%%%%%%
27976A79qQq%Q%%qQ%%%%%qQ%%%%%%%%%q%%%Q%%%qQ%%%%%q%Q%%q%Q%%%q%QqQ%%%%%%qQ%%%%
27961A79q%Q%%q%Q%%%q%Q%%%%%%%q%Q%%qQ%q%Qq%qQ%%%Q%%qQqQqQq%%Qq%Q%q%%%%%%%%%%Q
27945A79%q%Q%%q%Q%%%%qQq%%%%Qq%%%%%%%%%%%%%%%%%QqQ%q%%Qq%%%%%%%%%%%%%Q%q%%%Q
27930A79%qQqQq%QqQq%%%%%%%%%%%%%%Qj6Q%%qQ%QqQqQqQqQ%%%qQq%%Q%%qQ%qQ%q%QqQq%%
27914A71%%%%%%%%%%%%%Qq%%%%Qq%%%%%%%%Qq%Q%%%q%Qq%%%%%%%%%%%%%%qQ%%%%%%%%%%%Q
27899A79q%%%%%%%%%%%%%%QqQ%%j6Q%Qq%%%%%%Qq%%QqQqQq%%%QqQq%%%%%%%%%qQqQ%%%%%%
27883A71%%%%%%%%%%%%%%%%%%%%%%%qQ%%%%%%%%%qQ%%%%%%%%%%%%%%qQ%%%qQ%qQ%%%%%%%%
27868A71%%%%%%%%%%%%%%%%%%%%%%%%%%qQ%%%%%qQ%%%%%%%%qQqQq%%%%QqQ%q%%Q%qQqQqQ%
27852A71%%%%%%%%qQ%%%%%%qQq%%%Qq%Qq%Qq%%%Q%qQq%%%QqQq%Qq%%%Q%%qQ%qQq%%%Q%qQq
27837A63Q%%%%qQ%%%qQ%%%q%%%%Q%%qQq%%%%%QqQq%Q%q%%%%%%%%%%%QqQ%%%%%%q%%%Qq%Qq
27821A63%QqQ%q%%Q%%%%%%qQq%Q%%q%%%%QqQ%%qQqQqQ%q%%%%%%Q%q%%%%%%%%%%%%%%%%%%%
27806A63%%%%%%%%%%%%%%%%%%%%%%%%%%%%%%q%%Q%%%%%%%%%%%%%%%%%%%%%%%%%%Qq%%%%%%
27790A63%%%%%%%%%%%%qQ%%%%%%%%%%%%%%%%%%%%%%%%%%%%Qq%%%%%%%%qQ%%%q%Q%%Qq%%%%
27775A63%%%%%%%%%%%%%%%%%%%%Qq%%qQ%%%%%%%%%%%%%%%%%%%%%%qQ%%%%%%%%%%%%%%%%%%
27759A63%%%%%%%%%%%%qQ%%%%%%%%%%%%%q%%Q%%%%%%%%%qQ%%%%qQ%%%q%%Q%q%Q%%%%%%%%%
27743A63%%%%%%%qQ%qQ%Qq%%%%%%%%%%%%%%%%%%%%%%qQ%%%%%%%%%%%%%%%%q%%%Qq%%%Qq%Q
27728A63%%%qQ%qQqQ%%%%%%%qQqQ%%%%%%%%q%%%%%%Q%%qQqQ%%qQq%%Qq%Q%%%qQ%%%%%%%%q
27712A55Qq%%%QqQ%q%%Q%qQqQq%%%%Q%q%%%%%Qq%Q%qQ%%%qQ%qQ%%qQ%q%%%Qq%%%%%%%%%Qq
27697A55%Qq%%%QqQq%%%%Qq%%%%%%J6j6%%Q%%QQqqQp2Q0%l2%J6j6K4qqJ6qj6Q%%QqQq%Q%j6
27683A47QQ%q%%%%Q%q%Qq%%%%%%%%%%%%%%%%%%%%%%%%%%%%%%%%%%%%%%qQ%%%%%%%%%%%%%%
27668A55%%%%%%%%%%%%%%%%%%%%%%%%%%%%%%%qQ%%%%%Q%q%%%%Q%q%%Q%q%Q%q%Qq%%Qq%%%%
27652A55%%%Qq%%%%%%%%%%%%%%%%%%%%%%%%%%Qq%%%%%%%%%%%%%%%%%%%%%%%%%%%%%%%%%%%
27637A55%%%%%%%%%%%%%%%%%%%%%%%%qQ%%%%qJ6q%%%%%%%%%%Qq%%%%%%%%%%%QqQq%%%%%%%
27621A55%%%%%%%%%%%%%%%%%%%%%%%%%%%%%%%%%%%%%%%%%%%%%%%%%%%%%%%%%%%%%%%%%%%%
27606A55qQ%%qQqQ%%qQ%%qQqQ%%qQqQq%QqQ%%%%%%%qQqQ%%q%QqQ%%qqJ6%%%q%Q%%%%%%%%q
27590A47%Q%qQ%%q%%Qq%%Q%qQq%Q%q%%%%%%%Qq%%%Qq%Qq%%%QqQ%%%%%%%%%%%q%%Q%%%%%%%
27575A55q%Q%qQ%%qQq%%%Qj6J6%%q%%QqQ%%%%%%%%qQ%q%%%%%%QqQq%%%%%%Q%%%q%%Q%%%%%
27560A55%%%%%%%%q%QqQqQqQq%%%%%%%Q%q%%%%%%%%%%%%%%%%%%%%%%%Qq%%Qq%Qq%%%%Qq%%
27544A47QQq%%%Qj6%Qq%%Q%%%%qQ%q%%qQ%%%%%%QqQq%%%QqQqQ%%q%%%Q%q%%%%%%%%%%%%Qq
27529A47%%%%%%%%%%%%%%%%%%%%%%%%%%%%%%%%%%%%%%%%%%%%%%%%%%%%%%%%%%%%%%%%%%%%
27513A47%Q%q%Q%q%%%%%%%%%%%%%%%%%%%%%%%%%%%%%%%%%%%%%%%%%%%%%%%%%%%%%%%%%%%%
27498A47%%%%%qQ%%%%%%%%%%%%%%%%%%%%%%qQ%%%%%%%%%%%%%%%q%QqQ%%%%%%%%%%%%%%%qQ
27482A47%Qq%%%%%%%%%%%%%%%%%%%qQ%%Qq%%%%%%%%%%%%%%%%%%%%%%%qQqQ%%%%%%%%%qQ%%
27467A47%q%QqQ%q%%%%%Q%%%%q%Q%%qQ%%qQ%%%%%%%%%%%%%%%%%%%qQqQq%QqQ%qQ%q%%%Q%%
27451A47qQ%qQ%q%QqQ%%%%qQ%%qQq%%%%%%QqQ%%%%%%%qQ%%%%%%q%Q%qQ%%%qQq%%Q%%%%qQq
27436A39%%Q%q%Qq%%%%Qq%%%%%%%%Q%%%%%q%%Q%q%Q%q%%Qq%%Qq%QqQq%%%%%%%%%Qq%%%%%Q
27420A47qQ%%%qQqQqQ%%%q%Qq%%%%QqQqQqQqQ%%%qQqQ%%q%Q%%qQ%%%%%%%%%%q%%%%%%%%%%
27404A39%%%%%%%%%%%QqQq%%Q%%%%%%qQ%q%%%%%%Qq%Qq%%%%%%%Qq%%%%%%%%%%%%%%Q%%q%%
27389A39%%QqQ%q%%Qq%%%Qq%%%%%%%%%%%%%%%%%%%%%%%%%%%%%%%%%%%%%%%%%%%%%%%%%%%%
27373A39%%%%%%%%%%%%%%%%%Qq%%%%Qq%Q%%qQq%%%%%Qq%Qq%%%%%%%%%%%Q%qq%Q%q%QJ6q%%
27358A47q%Q%q%%%Q%q%%%Qq%%%%%%%%qQ%%%%%%%%%%%%%%%qQ%%%%%%%%%%%%%%%%%%%%%%%%%
27342A39%%%%%%%%%%%%%%%%%qQ%%qQQqqQ%%qQ%%%%q%%Q%%%%%%%%qQ%%qQ%q%Q%%%%q%%Q%%%
27327A39%%%%%%%%%%%%%%%%%%%qQ%%%%%%%%%%%%%%%%%%%%%%%%%%%qQ%%%%%qQqQ%%qQqQ%%%
27311A39%%qQ%%%qQQj6QqJ6q%Qq%qQ%%%%%%%%%%%%%%%%%%%%q%Q%%%%qQ%qQ%%%%%%%%%%qQ%
27296A39%%%%%%%%%%%%%qQq%%Q%%%%%%%%%%%%%%%%%%%%%%%%%%%qQq%QqQ%qQq%Qq%Q%%qQ%q
27281A31Q%%qQq%%Q%%%q%Q%qQqQ%qQ%qQ%%%%qQqQqQ%qQ%qQ%%%qQq%%%%%%Q%%%%q%%%%Q%%%
27265A39qQ%%%%qQ%%%%%%%%q%%%%QqQqQ%%%%q%QqQq%%%%%%%Qq%%%%%%Q%%%qQ%q%Q%q%%Qq%
27249A31%%Qq%%%%%%QqQ%%%qQ%q%Q%%qQq%Q%%q%%Qq%%%%%%%%%%Q%%qQ%q%Q%%%%qQ%%qQ%%%
27234A39%%%qQ%%%%%%q%%Q%%q%%%%%%%%%%Qq%%%%%%%%%%%%%%%Qq%%%%%%%%%%%Qq%qQ%qJ6q
27219A31Qq%%Q%qQq%%%%%%%%%%%%%%%%%%%%%%%%%%%%%%%%%%%%%%%%%%%%Q%%%%qQqQq%%%%%
27203A31%%%%%%%%%%%%%%%%%%%%Q%q%QqQq%%%Qq%%%%%%%%%%%%Qq%%%%%%%qJ6q%%qQqQ%qJ6
27188A39q%Qj6Qq%QQq%%%%%Q%q%qJ6q%%%%%%%%%%%%%%%%%%%%%%qQ%%%%%%%%%%%%%%%%%%%%
27173A31qQqQ%%%%%%%%%%%%%%%%%%%%%%%%%%%%%%%qQ%%%%%%%%%%%%%%qQ%%%%%%%%%%%Qq%%
27157A31%%%%%%%%%%%%%%%%%%%%%%%%%%%%%%%%%%%%qQ%%%%qQ%%%%%%%%%%%%%%%%%%%%%%%%
27142A31%%%%%%q%Q%%%%%%%%%%%%%%%%%%%%%%%%qQqQ%%%qQq%Q%q%QqQqQ%%%%%%%qQ%%%%%%
27126A31%%qQ%%%%%q%%Q%%%%%%%q%Q%q%Q%%%%%%%%%%%%%%qQ%%%%%%%%%%%%%%%%%%%%%%%%%
27111A31%%%qQqQ%%%%%qQ%%%qQ%q%Q%%qQ%%%%qQ%qQqQ%%%qQqQ%q%Qq%%Qq%%%%%%%%%%%%%%
27095A23%%Qq%%%%%Q%q%%Q%%q%QqQq%Q%qQ%%q%Q%%%%qQ%%%%%qQ%%%%%%%%%%%qQq%QqQ%%qQ
27079A31qQ%qQq%%QqQq%%Qq%Qq%Qj6J6%%qQq%%Qq%%%%%%Qq%qJ6q%Qq%Q%%%%qQ%%qQ%%q%%Q
27065A31q%%%%%Q%%%qQq%%%%Q%q%Q%qQ%%%%q%QqQqQ%q%%%%Qq%%%%%%%%%%%%%%%%%Qq%Q%%q
27049A23%%%Q%%%qQ%%qQ%qQ%%qQ%%q%%QqQqQqQqQq%%%%Q%%qQq%%%%%%%%%%%%%%%Q%%%%%qQ
27033A31qQ%%q%%%%%%%%%Qq%%%%%%%%Q%q%%%%%Qq%%%%%%%%%%Qq%%Q%qQ%q%%%QqQq%%%%%%%
27018A23%%%%%%%%qQ%%%QqQqQ%q%%%QqQq%%%%%%%%%%%%%%%Qq%%%%%%%%%%%%%%%%%%%%Qq%Q
27002A31%q%%Qq%%%Qq%%%%Q%qQq%%%%%%%%Qq%%%%%%%%%Qq%%%%%%%Q%q%%%%%%%%%%%%%%%%%
26987A23%%%%%%j6J6%%%%%%%%%Qq%%%%%%%%%%%%%%%%%%%%%%%%%%%%%%%%%%%%%%%%%%%%%%%
26972A23qQ%%%%%%%%%%%%%%%%%%%%%%%%%%%%%%%%%%%%%%%%%%%%%qQ%%%%%%%%%%%qQ%qQqQ%
26956A23%qQ%%%%%%%%%%%%%%Q%%q%%%%%%%%%%%%%%%%%%%%%%%%%%%%%%%%%%%%%%%%%%%%%%%
26940A23%%%%%%%%%%%%%%%%%%%%%%%%%%%%%%%%%%%%%%%%%%%%%%%%%%%%%%%%qQ%%%%%%%%%%
26925A23%%%%%%%%%%%%%%%%%%%%%Qq%%%%%%%%%%%q%Qq%Q%%%%%%qQ%qQ%%%qQ%%q%%QqQ%%qQ
26909A23q%Q%%qQq%%%%%%%%%QqQ%qQ%q%Q%%%%%%qQ%%%q%Qq%Qq%QqQ%qQ%%%%%%qQ%%qQqQqQ
26894A23%%qQ%qQ%%%qQ%qQqQq%%%%%Q%q%QqQqQ%%%%%%qQ%q%Q%%%%%%%%%%%%%%qQ%%q%Q%%%
26878A23%%%%%%%%%qQ%%q%%%%%%%Qq%Q%%%qQ%%%%%%%%%qQ%qQqQ%q%%%%%Qq%%%%%%%%%%%%%
26863A15%%%%%%%%%%%%%%%%%%%%%%%%%%%%%%%%%Qq%QqQqQq%%%%%Qq%%%%%%%%%%%%Qq%%Q%%
26847A23%%%%%%%%%%qQqQq%%%%%%Q%%q%%%%Q%q%%qQ%%%%%QqQq%%%Qq%%Qq%%%%%Qq%%%%%%Q
26832A23q%%%%%%%%%Qq%%%%%%%%%%%%%%Q%qQqQq%%Qq%%%%%%%%QqQqQq%%%%QqQ%%%%qQqQ%q
26816A15%%%%%%%%%Q%q%%%Qq%%Qq%%%QqQ%q%%%%%%%%%%%%%%%%%%%%%%Qq%%%%%%%%%%%%%%%
26800A15%%%%%%%%%%%%%%%%%%%%%%%%Qq%%%%%%%%%%%%%Qq%%%%%%%%%%%%%%%%%%%%%Qq%%%%
26785A15%%%%Qq%%%%Qq%%%%%qQ%%%%%%%%Q%q%%%%%%%%%%%%%%%%%%Qq%%%%%%Q%%q%Qq%Qq%%
26769A15%%%%%%%%%%%%Qq%%%%%%%Qq%%%%%%%%%%%%%%%%%%%%%%%%%%%%%%%%%%%%Qq%Qq%%%%
26754A15Qj6Q%qQ%Qq%Qj6M0l2QqQj6Q%%qQq%Qq%Q%%%q%%QqQ%%%%%%%%%%%%%%%%%%%%%%%%%
26739A15%%%%%qQ%%%%%%%%%%%%%%%%%%%%%%%%%%%%%%qQ%%%%%%qQ%%%%%%%%%%%%%%%%%%%%%
26724A15q%QQq%q%QqQ%qQ%%%%q%QqJ6q%%%Qq%%%%%%%%%%%%%%%%%%%%%%%%%%%%%%%%%%%%%%
26708A15%%%%%%%%%%%%%qQqQqQ%qQ%%%%%Qq%%%%%%%%qQ%%q%Qq%Q%%%%%%%%%%%%%%%%qQ%q%
26693A07Qq%%%Q%%%%%qQ%q%Q%q%%Q%%%%%%%%%%%%%%qQ%%%%%%%%%%qQ%%%%%%%%%%%%%%qQ%q
26677A07Q%%%%%%%%%qQ%%%%%%%%%%%%%%%%%qQqQq%Q%qQ%%%%%%%%%%qQq%Qq%%Q%q%%%%Q%%q
26662A07%%Q%%qQ%qQ%%qQ%%qQ%q%QqQq%Q%%q%Q%qQ%%%%%%q%%%QqQ%q%%Qq%%Q%%%%%%%%%%%
26646A15%%qQ%qQq%Qq%Q%qQ%%%%%%%%q%%%%Qq%Qq%Qq%%%%Qq%Qq%QqQ%qQ%%q%%Qq%Qq%%%%%
26631A07%%%%%Q%%%%q%%%%%%%%%QqQ%q%QqQ%qQ%%%qQ%%qQ%q%Q%%%%%%q%Qq%%%Qq%%Q%qQ%%
26615A15qQq%%%%%%%%%%%%%%%Q%q%Q%%qQqQ%q%%%Qj6J6qJ6k4J6Qj6QqQ%q%%%%%%%%Q%q%%%
26601A07QqQq%%%%%%%%%Qq%%%%Qq%%%%QqQ%q%Q%%qQ%%%%%qQ%%%qQqQ%%q%%%%%%%%%%Qq%Q%
26585A15%q%%%%%%%%%%%%%%%%%%%%%%%%%%%%%%%%%%%%%%%%%%%Q%qQqQqQq%%%%%%%Qq%Q%q%
26570A07%%%%Q%qQ%%%qQq%Qq%%%%%%%%Qq%%%%%%%%Qq%%%%Qq%%Qq%%Q%%qQq%%%%%%%%%%%%%
26554A07%%%%%%%%%%%%%%%%%%%%%%%%QqQq%%%%%%%qQ%%%Qq%%Qq%Qq%%QqQq%%%%Q%q%%Q%%q
26539A07QqQq%%%%%%%%%%%%%%%%%%%%%%%%%%%%%%%%%%%%%%%%%%%%%%%%%%%%%%%%%%%%%%%%
26523A07%%%%%%%%%%%%%%%%%q%Q%%%Qqq%Q%Qq%%%%%%%%%%%%%%%%%%%%%%qQ%%%%%%%Qq%%%%
26507A07%%%%%%%%%%%%%%%%%%%%%%%%%%%%%%%%%%%%%%%%%%Qq%%%%%%%%%%%%%%%%%%%%%%%%
26492A07%%%%%%%%%%%%%%%Q%j6QqQqQ%%%%%qQQq%%%%%qQ%%%%%%%%%%%%%%%%%%%%%%%%%%%%
26477A07%%%%%%%%%%%%%%%%%%%%%%%%%%%%%%%%%%Qq%%%%%%%%%%%%%%%%%%%%%%q%%Q%qQq%Q
26461A07%%q%%%Q%%%qQ%%q%Q%%%%%%%%%%%%%%%%%%%%%qQ%%%%%%%%%%%%%%%%%%%%%%%%%%%Q
26445A15q%%%%%%%%%%%qQ%%%%%%%%%%%%%qQqQ%q%Q%%%%q%%Q%%%%%%%%%%%%%%%%%%%%%%%qQ
26430A07%%%%%%%%%%qQ%%%%%%%%%%qQqQQqq%Q%%%Qj6Qq%Qq%QQj6Q%%q%Q%%%%q%%QqQ%%qQ%
26415A07%q%%Q%q%Q%%%%%%%%%%%%%%%%%%%%%%%%%%%%%%%%%%%qQ%q%Q%q%%%%Q%%%%%%%%%q%
26399I9QqQqQ%qQ%q%Q%%qQ%qQq%QqQ%%%qQ%qQ%qQ%%qQ%q%Qq%%%%%%%Q%qQ%%%%%%q%%Qq%Qq
26383I9QqQ%q%%Q%%%%%%%%%%%%%q%%Qq%%%%%%%Qq%%%%%QqQ%q%Q%q%QQq%q%QqQ%qQqQq%%%%
26368I9%Qq%%Q%%%%%%%q%Q%%%%%q%QqQqQqQ%%qQ%%%q%%%%QqQq%%%%%%%%%%%Q%%%qQ%%%%%q
26352I9%%%%%%Q%%%%%%%q%QqQ%%%%%%%%%qQ%qQ%%%%%q%%QqQ%%q%%QqQ%q%%Qq%%%%%Q%%qQ%
26336A07%%%%%%%qQ%%qQ%qQ%q%%%Q%q%%%%%%%%%%Qq%%%%%%%%%%%%Qq%%Q%%%%%q%%%%%%%%%
26320I9%%%%%%%%%%QqQ%qQ%q%%%%%%%%%%%%%%%%%QqQ%%%%%%%q%Q%%%q%Q%%%qQ%%qQ%q%Q%%
26305A07qQ%q%Q%qQ%%%%%%%%%%%%%%%%%%qQ%qQq%Q%q%Q%q%%%%%%%Q%qQq%%%Qq%%%%%QqQ%%
26289A07q%Q%%%%q%%%%%Qq%%QqQqQ%q%%Qk4QqJ6Qq%%Qq%%%QqQq%%%Q%qQ%%%q%%Qq%QqQq%%
26274I9QqQ%%%%qQq%%Q%q%Q%qQ%q%%%%%%%%%%%%Qq%%%%Qq%%%%%%%%%%%%%%%%%%%%%Qq%%%%
26258I9%%%%%%%%%%%%Qq%%qQ%%Q%q%%%Qq%%%%QqJ6k4qK4qQj6Q%qQq%%Q%%%Qq%%%%%%%%%%%
26243I9%%%%%%%%%%%%%%%%%%%%%%%%%%%%%%%%%%%%%%%%%%%%%%%%%%%%%%%%%%%%%%%%%%%%%
26227I9%%%%%%%%%%%%%%%Qq%%%%%%%%%%%%%%%%%%%%%%%%%%Qq%%%Qq%%%%%%%%%qQ%%%%%%%%
26212I9%%%%%%%%%%%%%%%%%%%%%%%%%%%%%%%%%%%%qQqQ%%q%Q%%%q%Q%%%qQ%%%%%%%%Qq%%%
26196I9%QqQq%QqqQ%%%%%%%%%%%%%%%%%%%%%%%%qQ%%%%%%QqQq%%%%%%%%%%%%%%%%%%qQ%%%
26180I9%%%%%%%%%%%%%%%%%%%%%%%QqQqQq%%%%%%%%%%%%%%%%%%%%%%%%%%%%%q%Q%qQ%%%qQ
26164I9%%%%%%%%%qQ%%%%%%%%%%%%%%%%%qQ%qQ%%%%%%%qQ%%%%%%%%%%qQ%%%%%%%qQ%%%%%%
26149I9qQ%%%%qQ%%%%%%%%%%%%%%Qq%%%%%%Qq%%%QqqQQj6J6%j6QQj6J6Qk4L2l2k4J6K4j6K4
26135A15k4qK4qqQ%%q%Q%qQ%%q%Q%%%%%%%%%%%%%Qq%%%%Qq%%%%%%%%%%%%%%%%qQ%qQ%%%%q
26120I1QqQqQqQqQ%%%%%%%%%%%%%%%%%%%%qQ%%%%%%%%%%%%%%qQ%%qQ%%%%qQqQq%J6q%%%%%
26105I9%%%%%%%%qQqQqQ%%q%Q%%%%%%%qQ%%%%%%%%%%%%%%qQqQ%%%%%%%%%%%qQ%qQ%qQ%%%%
26089I9%%%qQ%%%%%q%Q%q%%%Q%%%%%qQ%qQ%qQqQq%QqQq%Q%%q%Q%%qQqQ%qQ%%%%%%%qQ%qQ%
26073I9%%%%%%%%%%%%q%%Q%%%%%%%%qQ%q%QqQqQ%%q%%Q%%%qQ%%%%%%%%%%%%%%%%%%%qQqQ%
26057I9%qQqQqQ%%q%QqQ%%%%%%%%%%%%%%%%%%%%%%%%%Q%j6Q%%j6J6%%%%%%%%%%qQ%%%%qQ%
26042I9q%Q%%q%%%QqQq%QqQq%%%%Qq%%Q%qQ%%%%%%%qQ%qQ%%%%%%%%%%%qQ%%%qQ%q%QqQ%%%
26027I9%%%%%%%%%%%qQ%%%%%%%%%%%%%qQ%%q%%QqQqQ%qQ%q%Q%%%qQ%%%qQ%%%%%%%%q%%Q%q
26011I1Q%%q%%%%%Q%q%%%%Qq%%%%%%Qq%%%%%%%Qq%%Q%%%%%%%q%%%%%%%%%Qq%Q%%qQq%%%%%
25995I1%QqQ%qQqQqQ%q%QqQqQqQ%%%%%%%%%%qQ%%%%q%Q%%%%%%%%%%%q%%%%%Qq%%Qq%%%Q%q
25979I1%Qq%%%%%%%Q%qQ%%q%Q%qQ%%%q%%%Q%%%%qQqQ%%%q%QqQ%qQqQqQ%%qQ%%%qQq%%%%%%
25963I1Qq%%Qq%%Qq%%QqQ%q%%%%%QqQq%%Q%%%qQqQq%%Qq%%qQqQQ%%q%%%QqQ%q%%%%%%Q%%%
25948I9%%%q%%%%%%%%%%Qq%%%%%%%%Qq%%%%%%%%%%%%%%%%%%%%%%%%%%%%%Qq%%Qq%Q%qQq%Q
25932I9q%%Qq%%%%%%%%Qq%%QqQ%qQq%%%%%%%%%%%%%Qq%%%%%%%%%%%%%Q%q%%%%%%%%%Qq%%%
25916I1Qq%%%%%%%%%%%Qq%Qq%%%%%QqQq%%%%%%QqQ%qQqQqQ%qQq%Qq%QqQ%qQ%%q%%Q%%%q%%
25900I1%%%%Qq%%Qj6Q%Q%q%%%%%%%%%%%%%%%%%%%%QqQq%%%%%%%%%%%%%%Qq%%%%%Q%%qQq%%
25885I1%%%Qq%%Q%qQq%%%Q%q%%%%%%%%%Qq%%%%%%%%%%%%%%%%%%%%%%%Q%qQqQq%Qq%%%%%%%
25869I1%%%%%%%%Qq%%%%%%%%%%%%%%%%%%%%%%%%%%%%%%%%%%%%%%%%%%%Qq%%%%%%%%%%%%%%
25853I1%%%%%%%%%%%%%%%%%%%%%%%%%%%%%%%%%%%%%%%%%%qQ%Qq%%%%%%%%%%%%%%%%%%QqqQ
25837I1%%%qJ6qq%Q%%%%%%%%%%%%%%%%%%%%%%%%%%%%%%%%%%%%%%%%%%%%%%%%%%%%%%%%%%%
25822I1%%%Qq%%%%%%%%%%%%%%%%%%Qq%%qQQj6QQQk4qQJ6k4J6q%%J6%qqQ%%%q%%Q%qQ%%%%%
25807I1%%Qq%%%%%%%%%%%%%%%%%%%%%%%%%%%%%%%%%%%%%%%%%%%%%%%%%%%%%%%qQ%%%%%%%%
25791I1%%%qQ%%%%%%%%%%%%%%%%Qq%%%%%q%Qq%Q%%%%qQ%%qJ6j6%%J6j6J6qqQ%%%%%%%%%%%
25777I1qQqQ%qQ%%%%%%%%%%%%%%%%%%%%%%%%%%%%%%%%%%%%%q%%QqQ%%%%%%%%qQ%%%%%%%%%
25761I1%%%%%%%%%%%%%%%%%%%%%%%%Qq%%%%Qq%%%%%qQqQ%%%%qQ%%%%%%%%%%%qQ%%%%%%%%%
25745I1%%%qQ%%%%%%%%%%%%%%%%%%%%%%%%%%%%%%%%%%%%%%%%%%%%%%%%%%%%%%%qQ%%%%%%%
25729I1%%%%%%%%%%%%%%qQ%%qQ%%%qQ%%%qQ%%%%q%%%Qq%Q%%%%%Qq%%%%%%%%%%%%%%%q%%Qq
25714H3Q%%%%%%%%%%%%q%QqQ%%%%qQqQ%%qQq%%Q%qQ%%%%q%QqQq%%%%Q%q%QqQ%%%%%%qQ%%q
25698H3%Q%q%%%%QqQ%%%%q%%QqQ%%%%qQ%q%%%%%Q%%%%%%%%%%%%%%qQ%q%QqQqQ%q%%%%%Qq%
25682H3%%%%Q%%%%%%qQ%qQ%%%qQ%%%%%%%%%%%qQq%Q%qQqQq%Q%%q%Q%%qQ%%%%%qQj6QJ6j6J6
25667I9qqQ%%qQq%%%Q%%q%Qq%Qq%%%%Q%%qQq%Q%%%%%%%%%%%%%%qQ%%%q%Q%%%qQ%%%%%%%%%
25651I1q%%QqQ%q%%%Qq%%%%%Qq%Qq%QqQ%%%q%Q%%%%%%%%%%%qQqQ%q%%%%%%%%Q%%%%qQ%%%%
25635I1q%Q%%%%%%%%%%%%%%Qq%%%%%%%%%%%%%%%%%%%%%%%%%%%%%%%%q%%Qq%Q%qQ%%%qQq%Q
25620I1%%%q%QqQqQq%%QqQqQqQqQ%qQ%%%%%qQqQ%q%%Q%%%q%%Q%%%%%%%%%%%%qQ%qQqQq%%%
25604H3Qq%%QqQ%q%Qq%Q%%qQq%%%%Qq%%%%Qq%%Qq%Q%%q%Qq%%%%%%Qq%%Q%%qQ%%%%%%%%qQq
25588H3%QqQ%%q%Q%%%%%%%%%%q%%Qq%%%Q%qQq%%%%%Q%%%%%qQ%%%%%%%%%%%%qQ%q%%%%QqQ%
25572I1q%%Q%%%qQq%Q%%q%Qq%%Q%q%%%%%Qq%Qq%%Qq%%%%%%%%%%%%%%%%%%Qq%%%Q%qQ%%%qQ
25556I1q%Qq%%Qq%%Qq%%%%%%Qq%%%%Qq%%%%%%%%%%%%%%%J6j6%%%%%Q%q%%%%%QqQq%%QqQqQ
25541I1q%Qq%Qq%%%QqQqQ%%%%q%%%%%QqQ%%q%%%%%%%%%%Qq%%%%%%%%QqQ%%qQq%%%%%%%%%%
25525H3%%%%%%%%Q%q%QqQ%%%qQqQ%qQqQq%%%QqQq%%%%Qq%%%Q%q%%QqQq%%Qq%QqQq%%%%%%%
25509H3%QqQqQ%q%%%%Qq%Qq%%%%%%%%%%%%%%%%%%%%%Qq%%%%%%%%%%%%%QqQq%%%%QqQqQqQ%
25494I1%q%%Qq%%%Q%%%q%Qq%Qq%%%%%Qq%Qqj6QQ%k4J6%%K4k4qJ6QQj6%qQ%K4k4Qj6Q%%Qq%
25480H3%%%%Qq%%%%%%%%%%%%%%%%%%%%qQ%%%%%%%%%%%%%%%%%Qq%%%%%%%%%%qQ%%qQ%%%%%%
25464H3%%%%%%%QqQj6J6j6Q%%%Qq%%%%%%%%%%%%%%%%%%%%%%%%%%%%%%%%%%%%%%%%%%%Qq%%
25449H3%Q%qQ%%qQ%%q%%%Qq%%%%%%%%%%%%%%%%%%%%%Qq%%Qq%%%%%%Q%q%%%%Qq%Qq%%%%%qJ6
25434I1q%%qQQqQq%%%Q%q%%Qq%Q%q%%%%%%%%%%%%%%%%%%%%Qq%%%%%%%%%%%%%%%%%Qq%%%%%
25418H3%%%%%%%%%%%%%%%%%%%%%%%%%%%%Qq%%%%%Qq%%%%%%Qq%%%%%%%%%%%%%%%Q%q%%%Qq%
25402H3%%%%%%%qQ%%%%Qq%%%%%%%%%%%%%%%%%%%%%%%%%%%%%%%%%%%%%%%%%%%%%%%%%%%%%%
25386H3%%%%%%%%%%%%%%%%%%Qq%%%Qq%Q%q%%%%%%%%%%%%%%%%%%Qq%%Qq%%%%%%%%%%%%%%%%
25370H3%%%%%%%%%%qQ%%%%%%Qq%%%%%%%%%%%%%%%%%%q%Q%%%%%%%%%%%%%%%%%%%%%%%%%%%%
25355H3%%%%%%%%%%Qq%%%%%%%%%%%%%%%%%qQ%%%%%%qQ%q%%Q%%%%%%%%%%%%%%%%%%%%%%%%%
25339H3%%%%%qQ%%%%%%%%%%%%%%%%%%%%%%%%%%%%%%%%%%%%%%%%%%%%%%qQ%%%%%%%%%%%%%%
25323H3%%%%%%%%%%%%%%%%%%%%%%%%%%%qQ%%%%%%q%Qq%Q%Qj6%%Qj6K4qq%QqQ%%%%qQ%%%%q
25308G5Q%%q%%QqQ%%%%%%%%%%%%%%%Qq%%%%%%%%%%%%%%%%%%%%%%%%%%%%%%%%qQ%%%%%qQqQ
25292H3qQ%qQ%%%%%%%%%%%%%%%%%QqqQqQ%%%%%%%%%%%qQ%%%%%qQqQ%%%%%%%%%%%%%%%%%%%
25276H3%%%%%q%%%%%%%%%Q%%qQqQq%%%%%Qq%%QqQqQ%qQ%qQqQq%Qq%%Qq%Q%%%%%%%qQ%%%%%
25260H3q%Q%qQ%%qQ%%qQ%%%Qq%%%%q%Q%%%%qQqQqQ%qQ%%qQ%%qQ%%%%%%%%%%%%%%%%%%%qQ%
25245H3q%Qq%%QqQqQ%%%%%%%%q%Q%%%qQ%%%%%%%%%%%%%%%%%%%%%%qQqQ%%%qQ%%%%%%%%%%%
25229H3qQq%Q%%%%%%qQ%%%%%%qQ%%%%%%%%%%q%QqQ%%%%%%%%%%%%%%%%%%%%%%%%%%%%%qQ%%
25213H3%%q%%QqQq%Qq%QqQ%qQ%q%%%Q%%%%%%%%%%%%q%%%QqQ%q%QqQ%%%%Qqj6J6Qj6qJ6%Qj6
25198G5Q%j6J6%q%Q%%%%%q%QqQ%%qQ%%%%%%%%%%%%%qQqQ%%%%qQ%%%%%qQqQ%qQ%q%QqQq%%%
25183G5Q%%%qQq%%%%%%%QqQq%%Q%%q%Q%%%qQq%%Q%qQ%%%%%%%qQqQ%qQqQqQ%%%%%qQ%%%%%%
25167H3%qQ%%%%Qq%%qQ%%%%%%%%%%qQ%%%%%%%%%%%%%%%%%%%%%%%%%%%%%%qQ%%%%%%%%%%%%
25151H3%%%%%%%%%%%%%%qQ%%qQ%%%q%QqQ%q%QqQq%%%Q%%%%%%Qq%%QqqQqQ%%%%%%%%%%%qQ%
25135H3%%%qQ%%%%%q%Q%qQqQ%%%%%%qQq%%%Qq%%%%%%%%%%%%%QqQqQq%Qq%Qq%%Q%%qQqQqQ%
25120H3qQq%%%%%%%QqQ%q%%%%%%%Qq%Qq%%%%%%%%%qQ%%%qQ%%%%Qq%%%%%%%%Qq%Qq%%Qq%%Q
25104H3q%%%%%%%%%%%%%QqQq%%Q%%q%%%%%%%%%%%%%%%%%%%QqQq%Q%qQqQ%q%%%%%%%%%%%%%
25088G5%%%%%%%%Qq%%%%%%%%%%%%%%%qQ%%%%Qq%%%%%Qq%%Qj6Q%%%Q%%%%%%qQqQ%%qQ%q%%Q
25073H3qQ%%%q%%%%%%%%%%%%%%%%%%%%%%%%%%%Qq%%%Qq%%%QqQ%q%Q%%q%%Q%%%q%%%%Qq%%%
25057G5%%%Q%%qQ%q%QqQ%%q%QqQq%%%%Q%q%Q%q%%%Qq%Qq%%%%%%Qq%%%%%%%%Qq%%%%%%%%%%
25041G5%%%%Qq%Q%q%%%%Qq%%%%%%%%%%Q%%q%%%%%%%%%%%Qq%%%%%Qq%%%%%%%%%%%%QqQ%qQq
25025G5Q%%%qQq%%%Q%%q%%%%%%QqQ%%%qQ%%q%Q%%q%QqQ%q%QqQq%Q%qQ%qQ%qQ%q%%%Q%%q%Q
25009H3qQ%qQq%%Q%q%Q%q%%Qq%%%%Q%%%%q%Qq%%%%%QqQq%%Qq%%QqQq%%%%%%%%%Q%q%%Q%%q
24994G5%%qQ%%%Q%q%%%%%%%%%Qq%%%%%%%%%%%QqQq%%%%%%%%%%%%%%%%%%%%%%%QqQq%%Qq%%
24978G5QqQq%Qq%%%%%%%%%%%%%%%%%%%%%%%%%Qq%Qq%Qq%Q%q%%Qq%%%QqQ%Qq%%q%%%%%%%%%
24962G5%QqQq%%Qq%%%%%%%%%%%%%%%%%Qq%Q%q%%%%%%%%%%%%%%%%%%%%%%%%%%%%%%%%%%%%%
24946G5%Qq%%%Qq%%Qq%%%QqQ%q%Q%qQ%%qQqQq%%%%%%%%%%%%%%%%%%%%%%%%%%%%%%%%%qQ%%
24930G5%%%%%%%%%%%%%%Qq%Qq%%%%%%%%%%%%%%%%%%%%%%%%%%%%%%%%%%%%%%%%%%%%%%%%%%
24915G5%%%%%%%%%%%%%%%%%%%%%%%%%%%%%%%%%%qQ%%%qQ%%%%%qQ%%%%%%%Q%q%%%%%%%%%%%
24899G5%%%%%%qQ%%%%%%%%%%%%%%%%%%Q%qQqQqQq%%%%%%%%%%%%%%%%%%%%%%%%%%%%%%%%%%
24883G5%%%%%%%%%%%%%%Qq%QqQ%%%qQ%qQQk4%Q%qQq%Q%q%%QqQ%qQ%%qQ%%%%%%%%%%%%%%%%
24867G5qQ%%%%%qQ%%%%%%%%%%%%%%%%%%%%%%%%%%%%%Qq%%%%%%%%%%%%%%qQqQqQ%%qQ%%%%%
24852G5%%%%%%%%%%%%%%qQ%%Qj6%%J6q%%%%qJ6q%Qj6Q%%%%QqQq%%%%%%%%%qQ%%%%%%%%%%%
24837G5%%%Qq%%%%%Qq%%%%%%%QqQq%%%%%%%%Qq%%%%%%%%%%%%%%%%%%%%%Qq%%%%%%%%%%%%%
24821G5%%%%%%%%%%%%%%%%Qq%%%Qq%%Qq%%%Qq%%%%%%%%%%%%%%%%%%%%Qq%%Qq%%%%%%%%%%%
24805G5%%%%%%%%%%%%%%%%%%%%%%%%%%%%%%%%%%%%%qQqQ%%%%%%%%%%%%%%%%%%%%%%%%%%qQ
24789G5%q%Q%qQ%%%%%%%%%%%%%%%%QqQq%%%%%%%%%%%%%%%%%%%%%%%%%%%%%%%%%%%%%qQ%%q
24774F7Q%%%%%%%%%%qQ%%%%%%%%%%%%%%%%%%%%%%%%%%%%%%%%%%%%%%%%%qQqQ%%q%%QQj6Q%
24758G5%%%%%%%%%qQ%%%%%%%%%%%%%%%%%%%%%%%%%%%%%%%%%%%%%%%%%%%%%%%%%%%%%%%%%%
24742G5%%%%%%%%%%%%%%%%%%%%%%%%%%%%%%%%%%%%%%%%%%%%%%QqQqQ%qqJ6j6%Q%%%%%%%qQ
24727G5%Qq%qQ%%%%%%%%qQ%%%%%%qQqQ%%%%%%%%%%%%%%%%%%%%%%%%%%qQ%%%%%%%%%%%%%%%
24711G5%%%%%%%%%%%%%%qQqQ%%%%%q%Q%%%%%qQq%Q%%%qQ%%q%Q%%%%%%%%%%qQ%%%%%%%%%%%
24695G5%%%%%%%%%%%%%%%%%%%%%%%%%%%%%%%%%%%%%qQ%%%%%%%%%%%%%%%qQ%%%%%%%%%%%%%
24680G5%%q%%%%%%%%%%Qq%%%Q%qQ%qQqQ%%%%q%QqQqQ%%qQ%%%%qQ%%%%%q%%QqQqQqQqQqQ%%
24664G5%qQ%%%%qQqQ%%%%%%%%%%%%%%%%%%%%%%%%%%%%%%%%%%%%%%%%%%%qQ%%%qQ%%qQ%%%%
24648G5%%%%%%%%%%%%%%%%qQ%%q%%%QqQ%q%Q%%%%%%%%qQ%qQq%QqQq%Q%qQ%%%%%%%%qQ%qQ%
24632G5%%%q%%%Q%%%%%%%%%%%%%%%%%%%%%%%%%%%%%%%%%%%%%qQ%%%%%%%%%%%%%%%%%%%%%%
24616G5%qQ%%%qQqQ%%%qQ%%%%%%%qQ%%q%Q%qQqQq%%%Q%%%%%%%q%QqQqQ%%%%%%%%%%%qQ%%%
24601G5%%%%%%%%q%Q%%%%%%qQ%%%%qQ%qQ%%%qQ%%%%%%%%qQ%%%%%%%%%%%%%%%%%%%%%%%%qQ
24585G5q%QqQ%%qQ%%qQ%%%%%%%%%%%%%%%%%%%%%%%%%%%%%%%%%%%%%%%qQ%%%%%%%%%qQq%Q%
24569G5%qQ%%qQ%%%%%%%%qQ%%%%%%%%%%qQ%%%%%%%%%%%%%qQ%%%%%%%%qQqQ%%%%%qQ%%q%Qq
24553F7Q%%%%qQ%%%Qj6QQj6%Q%%%%%qQQj6%qQJ6qqQ%q%%Q%qQ%%%%%%%%%qQ%%%%%%q%Q%%%q
24538F7QqQ%q%%%%%%%%%%%%%Qq%Qq%Qq%%%%%%%%Q%qQqQqQ%qQ%%%%%%%%%q%QqQ%%%q%Qq%%Q
24523G5qQ%qQqQ%qQ%qQ%q%Qq%QqQqQqQ%q%%%%QqQq%%Qq%%QqQ%%qQqQ%%%%%%%%%qQqQ%%%%q
24507F7Q%%qQqQ%%%%%q%Q%%%%%qQ%q%%%%%%%QqQq%%Qq%Q%%%qQq%%Q%%%qQq%Q%%q%Qq%Qq%%
24491F7%Q%q%%%%%QqQ%q%QqQ%%qQ%%%%%%%%%q%QqQq%QqQqQqQ%q%%Qq%%%%%%Qq%%%Q%%q%Qq
24475F7%%Q%qQ%q%%%%%%%%%QqQ%q%QqQ%%%%%%%%qQqQ%qQ%%%%%qQqQ%%qQ%%qQqQ%%%qQqQq%
24459F7%Q%q%%%%%%%%%QqQq%%%%%%%%%%%%%QqQ%%q%Q%%q%%%%%%%%%%%%%%%%Qq%Qq%%%Q%%%
24444G5qQq%QqQq%%%%%%%Qq%%%QqQqQ%qQq%%%%%%%%Q%%%q%%%Qq%%%%%%%%%%%%QqQq%%%%%%
24428F7%Qq%%Q%%qQq%%QqQq%%Q%%%q%%Q%qQqQqQq%%%%Qq%Q%q%%%%%Qq%%%Qq%%%%Qq%%%%%%
24412F7%%%Q%%%%q%%%%%%%qQQqQj6J6qqQ%Qq%Q%q%Qq%Q%qQ%%%qQ%q%%%%%%%%%%%Qq%%Qq%%
24397F7Q%%qQq%%%%%%%%%%%%%%%%%%%%%%%%%%%%%QqQq%Qq%%Q%%%%%qQqQ%%qQqqJ6%%q%%%%
24381F7%%QqQ%%%%qQ%qJ6j6%qJ6qK4m0Q%M0o4L2O4m0p2L2J6J6q%%qqQQq%QQj6%%J6q%%%qQ
24369G5qQq%%Q%%%qQ%%qQ%%q%QqQqQ%qQqQ%q%%%%Qq%%%%%%%%%QqQ%qQ%q%%%%%%%%%%%%%%%
24353F7%%%%%Qq%%%%%Qq%%Q%%%%%qQ%%%%%%q%Q%q%Q%%%qQqQ%%qQqQ%q%%Qq%%%%%%Qq%%%%%
24337F7%%%%%QqQqQ%%qQ%q%%Qq%%%%%%%%%%%%%%%%%%Q%%q%Q%%%%q%Q%qQ%q%Q%%%%%%q%Q%%
24322G5%%q%%%%%QqQq%%%%%%%%%%%Q%q%%QqQq%%%%Qq%%Qq%Q%%%q%%Q%q%%Qq%%%%%%Qq%%%%
24306F7%%%Q%q%%%%%%%%%%%Q%%%%%qQq%Qq%%Qq%Qq%%%%%%%%%%%%%%%%%%%%%%QqQ%%q%%%Qq
24290F7%QqQ%%%%q%Q%%qQ%%qQq%%%%%%%%%%%%%%%%%%%%%%%%%%%%%%Qq%Qq%Q%qQ%q%%Q%q%%
24274F7Q%qQq%%Q%%%q%%%Qq%%%%%%%%%%%%%Qq%%QqQq%Q%Qj6%Qq%%QqQ%Qj6K4j6%%qj6K4q%
24260F7%Qq%%%Q%qQ%q%%%qQ%%%%%%%%%%%%%%%%%%%%%%Qq%%QqQq%%%%Qq%%%%%%%%%QqQq%%%
24244F7QqQ%q%%%%%%%%%%%%Qq%Qq%%%%%%%%%%%%%%%%%%%Qq%Qq%Qq%%%%Qq%Qq%%%%%%%%%%%
24228F7%%%%%%%%%%%%%%%%%%%%%%%%%%%%%%%%%%%%%QqQq%Qq%Qq%Qq%%%%%%%%%%%%%%%%%%%
24212F7%%%%%%%%%%%%%Q%%qQ%q%Qq%%%%%%%%%%%Qq%%%%Q%%q%%%%%%Q%%q%%%Q%q%%%Q%%q%Q
24197G5q%%%Qq%Qq%%%QqQq%%%%%%Qq%%%%%%%%%%%%%%Qq%%%%%%%%%%%%%%%%QqQq%%%%%%%%%
24181F7%%%QqQ%q%%%%%%%%%%%%%%%%%%%Qq%QqQ%%q%%%QqQqQ%qQq%Qq%%%%%%%%%%%%Qq%%%%
24165F7%%%%%%%%%%%%%%%%%%%%%%%%%%%%%%%%%%%%%%%%%%%%%%%%%%%%%%%%%%%%%%%%%%%%%
24149F7%%%%%%%%%%%%%%%%%%Qq%%qQ%%%%%%%%%%Q%q%QqQ%qQq%%%%%%%%%%%%%%%qQ%%%%%%%
24133F7%%%%%%%%%%%%%%%%%%%%%%%%%%%%%%%%%%%%%%%%%%%%%%%%%%%%%%%%%%%%%%%%%%%%q
24118E9Q%%%%%%%%Qq%%%%%Qq%%%%%%%%%%%%%%%%%%%%%%%%%%%%%%%%%%%Qq%%%%%%%%%%%%%%
24102F7%%%%%%%%%%%%%qQ%%%%%%%%%%%%%%%%%%%%%%%%%%%%%%%%%%%%%%%%%%%%%%%%Qq%%%%
24086F7Qq%%%%Qq%%%%%Qq%%%%%%%%%Qq%%Qq%Q%qQqqQ%qQ%qQ%%%%%%%Qq%%%%%%%%%%%qQqQ%
24070F7%%%%%%%%%%%qQ%%%%%%%%%%%%%%%%%%%%%%%%%%%%%%%%%%%%%%%%%%Q%qQqqQ%QqQ%%q
24054F7%%Qq%%%QqQq%%%%%%%%%%%%%qQ%%%%%%%%%%%%%%%%%%%%%%%%%%%%%%%%%%%%%%%%%%%
24039F7%%%%%%%%%%%%%%%%%%%%%%%%%%%%%qQ%%%%%%%%%%%%%%%%QQk4K4k4%%%%Q%%%%%%%%%
24024F7qQ%%%%%%%%%%%%%%%%%%%%%%%%%%%%%%%%%%%%qQ%%%%%%%%%%%%%%%%%%%%%%%%%%qQ%
24008F7%%%%%%%%%%%qQqQ%%q%%Q%%%%%%%%%%%%%%%%%%%Qq%%%%Qq%%Qq%%%%%%%qQqQ%%%%%%
23992F7%%%%%%%%%%%%%%%%%%%%%%%%%%%%%%%%%%%%%%%q%Q%%%%%%%%%%%%%%%%%%%%%%%%%%%
23976F7%%%%%%%%%%%%%%%%%%%%%%%%%%%%%qQ%%Qq%%Qq%%%%%%Qq%%%%%%qQ%qQ%%%%%%%%%qQ
23960F7%%%%%%%%%%%%%%%%%%%%%%%%%%%%%%%qQ%%%%%q%%Q%%qJ6q%qQ%%%%%%%Qq%%%%%Qq%Q
23945G5q%%%q%Q%%Q%qq%%QqQ%q%%%QQQqm0M0j6QqQ%q%J6qqQ%%%%%%%%%%%%%%%%%Qj6Q%%%%
23930F7%%%%%qQ%%%%%%%%%%%%%%%%%%%qQ%%%Qq%%%qQ%q%Q%%%%qQqQ%%%%%qQ%%%%%%%%%%%%
23914F7%%%%%%%Q%q%%%%qQ%QqqQ%%%%%qQ%%%%%%j6K4qj6QQ%%qQ%%qQ%%%%qJ6j6Q%%qQ%%%%
23900F7%%%q%Q%%%%%%q%%Q%%%%%%%%%%%%%%%%%%%%%%%%%%%%qQqQ%%%%%%qQ%%%%qQ%%%%%%%
23884F7%%%%%%%%%%%%%%%%%qQq%QqQ%qQq%Q%%%%%%%%%%%%%%Qq%%%%%q%Q%qQ%%%%%%%%%%%%
23868F7%%%%%%%%%%%%%%%%%%%%%%%%%%%%%%%%%%%%%%%%%%%%%%%%%%%%%%%%%%%%%%%%%%%%%
23852F7%%qQ%Qq%%%%%%%%%%%%%%qQ%%%%%%qQ%%%%%QqQq%qQqQ%%%%%%%%qQ%%%%%%%%qQ%%%q
23837E9Q%%%%%%%%%%%%%qQ%%%%%qQq%Qq%Q%%qQ%%%%%%%%%%%%%%%%%%%qQqQ%%qQ%%qQ%qQ%q
23821E9QqQ%%%%%%%%%%%%%%%%%%%%%%%%%%%%%%%%%%%%%qQ%%%qQ%%%%qQ%%%%%%%%%%%%qQqQ
23805F7qQqQqQ%%%%qQ%%%%%%q%Q%%%%%%%%%%%%%%qQ%%%%%q%Q%QqqQQqQq%qQ%%%%%%%%%qQ%
23789F7%%%%%%%%%%%%%qQ%%qQ%%%qQ%qQ%%%qQq%Qq%%Q%qQqQqQ%%%%%%%qQ%%%%qQ%%%%%%%%
23773F7%%%%%%%q%%Qq%%Q%%%%%%%%%%%%%%%%%%%%%%%%%%%%%%%%qQ%%qQq%Qq%QqQ%q%%Q%qQ
23758F7qQ%%qQqQ%qQ%qQ%%%%%%%%%%%%%%%qQ%qQq%Q%%q%Q%%%%%%%%%%%%%qQ%%%%%%%%%%%%
23742F7%%qQ%%%%qQ%%q%%%%%%%Qq%Q%%qQ%%qQ%%%%%%%%%%%%%%%%%%%%%qQ%%%qQ%%%%%%%%%
23726F7%%%%%%%%%%%%%q%%%%%%%%%%%Qq%%Qq%Qq%%%%%QqQqQ%%%%qQ%%%%%%%%%%%%%%%%%%%
23710F7%%%%%%%%%%%%%%%%qQ%qQqQ%%j6Q%%%Q%%q%Q%%%%%%%%%%%qQ%%%%%%%%q%Q%qQ%%%%%
23695F7%%%%%%q%Q%q%%%Q%%%%%%%%%%%%%%%%%%%%q%Q%q%%%Q%qQ%%%%%qQ%%%%%%%%%%%%%%q
23679E9Q%%%%q%%Q%%%%q%QqQ%%%%qQ%qQ%q%%QqQ%q%Qq%%%%%%%Q%qQqQ%%q%%%%%%%%%%%Qq%
23663E9%Qq%%QqQ%%q%%Q%%q%%%Q%%%%%%%%%%%qQ%qQqQ%qQq%Q%%%%%%q%Q%%%%%%%%%%%%%%%
23647F7%qQqQqQ%%%qQ%%%%%%%%qQqQ%%%%%%%%%%%qQ%%%qQ%%%%%%%%q%Q%%%%%qQ%q%Q%%qQ%
23632F7%%%%%%%%%%%%%%%%%%%%%%qQ%%%%%%q%%%Q%%q%Q%q%Q%%%%%%%%%%%%q%QqQq%Qq%Qq%
23616E9%Qq%Q%%%%%%%%%%%%qQ%%q%%J6k4K4q%qqJ6qQ%q%Q%%%%q%Q%%%%%%qQ%%qQ%%%%%q%Q
23601F7%q%QqQ%q%%%Qq%Q%qQ%%%q%Q%%qQ%%%qQ%%%%%%%%qQ%%%%%%%%%%%q%Q%q%QQq%%%%%%
23585F7%%%%%%qQ%%%qQ%%q%Q%%%%%%%%qQqQ%%%%qQqQ%%%%%qQ%q%Q%qQ%q%Q%%%%%q%%%%%%%
23569E9%Q%q%%Q%%q%%%%%%%%%%Qq%%%%%QqQq%%Q%%%%%Qq%Qq%%%qQ%%%%q%Q%%%%%%Qq%%%%%
23553F7%%%%%q%Q%qQq%%Q%q%%Qq%Q%%%q%%%%Q%%%%%%%%%%%qQ%%qQ%%qQ%%%%%qQ%qQ%q%%Qq
23538E9%QqQ%%%%%%qQ%%%%%%qQqQq%%QqQ%%q%%QqQ%%qQqQqQ%q%%Q%qQqQq%%%%QqQ%%qQq%Q
23522F7%qQ%q%%%Qq%Q%%qQ%qQ%%q%QqQqQq%%%Qq%%%%QqQ%%%qQqQqQq%%Q%qQ%%q%Qq%%%%%%
23506E9Q%%%%%%%%%%%%%%qQ%%q%%QqQ%%q%Q%qQ%%%q%%Qq%%Q%%qQ%q%Q%%%%qQ%qQqQqQqQqQ
23490F7q%%QqQ%q%Qq%%Qq%%%%Q%%qQ%%%q%Qq%Qq%%%QqQq%%%%%%%%%%%%%%%%Q%%qQqQq%%%%
23475E9%%%%%%QqQ%qQqQq%Q%%%j6QQ%%qQq%QqQ%q%%%%%%%%Qq%%Q%%%%q%%QqQ%%%%%%q%%Qq
23459E9%Qq%%Q%%%%%%q%%%Q%%q%%%Qq%%QqQq%%%%%%%%%%%%%%%%Qq%%Q%%%qQq%Q%%%%qQ%qQ
23443F7%qQqQq%%%QqQ%qQ%%%%%qq%Q%%qQqJ6q%%Qq%%%%%%Qq%Qq%%%%%%Qq%%%Q%%%%%%q%%Q
23428F7q%%Q%%%%q%Qq%%Qq%%Q%qQ%%%%%qQ%%%%%%%%%qQ%q%%Qq%Qq%%QqQq%%%Q%%%qQ%q%Q%
23412F7%%q%%Q%q%Q%qQ%%qQ%q%Q%qQqQq%Q%%q%%QqQ%%qQ%%q%%%%Q%qQq%Q%%%q%%QqQq%Qq%
23396E9%%%QqQq%%QqQ%%%%%%%%%%%%%%%qQq%QqQq%%%%%%%%%%%%Qq%%Qq%%%Q%q%QqQqQq%%%
23380E9%%Q%%%qQq%%Q%%%qQq%Qq%%Q%%qQ%q%%%%Q%%q%%Qq%%Q%q%QqQq%Q%%%qQ%%%%qQq%%Q
23364F7%qQq%%Qq%%%%%%%%Qq%Q%%qQq%%%%%%Qq%%%%%%%%%%%%%%Q%qQq%%%%%Qq%%%%%%%%%Q
23349F7%%%%%%%%%%%%%qQ%q%%%%%%%%%Qq%%%%%Qq%%%%%%%%%%QqQq%%Qq%Qq%%%%%%%%Qq%%%
23333E9%%%%%%%%%%%%%%%%Qq%%%%%%%%%%%%%qJ6qqQ%QJ6q%l2J6Q%%%%%%%q%QqQ%qQqQq%%%
23318E9%%%%%%Q%q%Qq%%%Qq%%%%%%%%Qq%%%Qq%QqQqQ%q%Q%%%%%%%qQ%%qQqQq%%%%QqQq%%%
23302E9Q%qQqQqQ%%%%%%%%qQq%Qq%%Qq%Qq%%%Qq%qQ%%%%%%%Q%%%%qQq%%%Qq%Qq%%%%%%%Q%
23286F7q%%%%Qq%%Q%%%%%%%q%%%%%%QqQq%%%%%%%Q%q%%%Q%%%%%%q%Q%q%%%%%%%Qq%%%%%%Q
23271F7%q%%%%%%%%%%%%%%Q%qQ%%%%%q%%%Qq%%%%%QqQq%Qq%%%QqQ%q%Qq%Q%%q%%%%%%%%%%
23255E9%%%Qq%%%%%%%%%Qq%%%%%%%%%%%%%%%%%%%%%%%%%%%%%%%%%Qq%%%%%%%%%%%%%%Qq%%
23239E9%%Q%q%%%%Qq%%%QqQq%%%Qq%%Qq%Q%%q%Qq%Q%q%Qq%%%%%%%%%%%%%%%%%%%Q%q%%%%%
23223E9%%%%%%%%%%Qq%%%%%%Qq%%%%%%%%%%%%%%%%%%%%%%%%%%%%%%%%Q%%qQqQq%Q%q%%%%%
23207E9Qq%Q%q%%%%%Q%%%qQqQqQqQqQq%%%%%%%%%%%%%Qq%%%%%%Qq%%Qq%%%%%%%%%%%%%%%%
23192E9%%%%%%%%%%%%%%%%%%QqQ%%%%%q%Qq%%%%%%%%%%%%%%%%QqQq%%%%Q%qQ%%%qQqQ%%q%
23176E9Qq%%%%%%%%Q%q%Q%q%%QqQq%%%%%%%%Qq%%Qq%%%%%%%%%Q%%qQ%%qQq%%Q%q%%Qq%%%%
23160E9%%%%%%%Qq%%%%%%%%%%%%%%%%%%%%%%%%%%Qq%%Q%%%%%%qQqQq%%%%%%%%%%Qq%%%%Qq
23144E9%Qq%%%%%%QqQj6Q%qQQqqQ%%Q%q%%%%%%%Q%q%%%%%%%%%%%%%%%%%%%%%%%%%%%%%%%%
23129E9%%%%%%%%%%%%%%%%qQ%%%%%%%qQQq%%%%%%%%%%%%%%%%Q%%%q%%%%%%%%%%%%%%%%%%%
23113E9%%%%%%qQ%%%%%%%%%%%%%%%%%%%%%%%%%%Qq%%%Q%q%%%%%%%%%%%%%%%%%%%%%%%%%%%
23097E9%%Q%%%q%%%%%%%%%%%%%%%%%%%%%%%%QqQq%%QqQq%%%%%%%%%%%%Qq%%Qq%%%%%%QqQq
23081E9%%Q%%%q%%%%%%%%%%%%%%%%%%%%%Qq%%%%%%%%%%%%%%%%%%%%%%%%%%%%qQ%%%%%%%%%
23065E9%%%%%%Qq%%%%%%%%%%%%%QqQq%%%%%%%%%%%%%%Qq%Q%q%%%%Qq%%%%%%%%%%%%%%%%%%
23050E9%%%%%%%qQ%%%%%%%%%%%%%%%%%%%%%%%%%%%%%%%%%%%%%%%%%Qq%%%%%%%%%%%%%%%%%
23034E9%%%%Qq%%%%%%Q%qQ%q%Qq%%%%%%%%%%%%%%%%%%%%Qq%%%Qq%%%%%%%%%%%%%%%Qq%%%%
23018E9%QqQq%Q%%qQq%%Qq%%%%%%%%%Qq%%%%%%%%%%%%%%%%%%%%%%%%%%%%%Qq%%%%%%Qq%%Q
23002F7%%qQqJ6qq%%QqqQqQ%%%%%%%%%%%%q%QqQ%qQ%%%%%%%%%%%%%%%%%%%%%Qq%%%%%%%%%
22987E9%%qQ%%%%%%%%%%%%%%Qq%%%%%%%%%%%%%%%%%%%%%%%%%%%qQ%%%%qQ%%%%QqqJ6%q%%%
22971E9%%%Qq%%qQ%q%QQq%%%%%%%%%%%%Qq%%%%%Qq%%%%%%%%%%%%%%%%%%Qq%%%Qq%%%%%%%%
22955E9%%%%%%%%%%Qq%%%%%%Qq%Q%q%%%%%%%%%%%%%%%%%%Qq%%%%%%%qQqJ6%q%Qq%%%%%%%%
22940E9%%%%%%%%%%%%%%%%%%%qQ%%%%%%%%%%%%%qQqQ%%qQqQ%%%%%%%%qQ%%%%%%%%%%%%%qQ
22924E9%%%%%%%%%%%%%%%%%%%%%%%%%%%%%Qq%%%%Qq%%%%%Qq%%Qq%%%%%%%%%%%%%%%%%%%%%
22908E9%%%%Qq%J6j6%%Q%%qQq%%%%%%%%%%%%%%%%%%%%%%%%%%%%%%%%%%%%%%%%%%%%%%%%%%
22893E9%%%%%%%%%%%%%%%%%%%%%%%%%%%%%%%%%%%%Qq%qQ%%%%%%%%%%%Qq%%%%%%%%%%%%%qQ
22877E9%%%%%%%%%%%%%%qQ%qQ%%%%%%%%%%%q%QqQ%%%%%%%%%%%%%%%%%%%%%%%%%%%%%%%%%%
22861E9%%%%%%%%Qq%%%%%%%Qq%%%q%Q%J6k4%J6q%qQ%%%%%%%%%%%%%%%%%%%%%%%%Qq%%%%%%
22846E9%Qq%%%%Qq%%%Qq%%%%%%%%%%%Qq%%%%%%%%%%%%%%%%%%%%%Qq%%%%%%%%%%%Qq%%%%%%
22830E9%%%QqQq%%%%%Qq%Qq%%%%qQ%%%%%Qq%%%%%Q%%%q%%%%%%%%%%%%qQ%%%qQ%%%%%%%%%%
22815E9%%%%%%%%%%%%%%%%%%%%%%%%%%%%%%%%%%%%%%%%%%%%%%%%%%%%%%%%%%%%%%%%%%qQ%
22799E9%%%%Qq%%Qq%%%%%%%%qQ%%%%%%%%%%%%%%%%%%%%Q%qQ%%%%q%%%%%%%%%%%%%%%%%%%%
22783E9%%%%%%%%%%%%%%%%%%%%%%%%%%%%%%%%%%%%%%%%%%qQ%%%%%%%%%%%%%%%%%%%%%%%%%
22767E9qQqJ6j6Q%%qQ%%qQ%%qQqQ%%%%%%%%%%%%%%%%%%%%%%%%%%%%%%%%%%%%%%%%%%%%%%%
22752E9%%%%%%%%%%%%%%%%%%%%%qQ%%%%%%%%Qq%%%%%%%%%%%%%%%%%%%%%%%%%%%%%%%%%%%%
22736E9%%%%%%%qQ%%%qQ%%%%qQ%%%%%%Q%q%%Qq%%%%%%%%%%%%%%%%%%%%%%%%%%%%%%%%%%%%
22720E9%%%%%%%%%%%%qQ%%%%%%%%%%%%%%%%%%%%%%%%%%%%%%%%%%%%%%%%%%%%%%%%%%%%%%%
22705E9%qQ%%%%%%qQq%Q%qQ%%%%%%%%%%%%%%%%%%qQ%%qQq%%%Q%%%%q%QqQ%%%%%%%%qQ%%%%
22689E9%%%%%%%%%%%%%%%%%%Qq%%Q%%%%q%%%%%%%%%%%%%%Qq%%%%%%%%Qq%%%%%%%%%Qq%Qqq
22673E1QQ%%j6J6q%%%%%q%J6q%%%%%%%%%%%%%%%%%%%Qq%%%%%qQ%%%%%%%%%%%%%%%%%%%%%%
22658E9%%%%%%%%%%%%%%%%%%%%%%%%%%%qQ%qQQq%%%%%%qQ%%%%%%%%%%%%%%%%%%%%qQq%%Q%
22642E9%%%%%%%%%%%qQ%%%%%%%%%%%%%%%%%%%%%%q%%%Q%%%%%%%%%%%%%%%%%%%%%%%%%%%qQ
22626E9%qQ%%%%%%%%%%%%%%%%%Qq%qQ%%qQ%qQqQ%%%%%qQ%%%%%qQ%%%%%%%%%%Qq%Qq%%%%%%
22610E9%%%%%%%%%%%%%%%%%%%qQ%qQ%%%%%%%%%%%%%%%%%%%%%%%%%%%%%%%%%%%%%%%%%%%%%
22595E9%%Qq%%%%%%%%%%Qq%%%%%%%%Qq%%%%%%%%%%%%%%%%%%%%%qQ%%%%%%%%%%%%%%%%%%%%
22579E9%%%%%%%%%%%%%%%%%%%%%%%%%%%%%%%%%%%%%%%%Qq%%%%%%%%%%%%%%%%%%%%%%%%%%%
22563E9%%Qq%QqQqQq%%%%%%%%%%%Qq%%%%%%%%%%%%qQ%%%%%%%qQ%%%%%%%%%%%%%%%%%%%%%%
22547E9%%%%%qQ%%%%%%%%%%%%%%%%%%%%%%%%%%%%qQqQ%%%qQ%%%%%%%%%Qq%%%Qj6QqJ6qq%%
22532E1J6q%%%%%%%%qQ%%qQ%%%%%%%%%%%%%%%qQqQ%%%%%%%%%%%%%%%%qQ%%%%%%%%%%%%qQ%
22516E9%qQ%%%%%%qQ%%%qQ%%%%%%%%%qQ%%%%%%%%%%%%%%%%q%%Qq%Q%q%Q%%%qQqQQqq%Q%%%
22501E9%q%qQQqJ6q%%qQ%%qQ%%qQ%Qq%%%%%%%%Qq%%%%%%%%%%%%%%%%%%%%%%%%%%%%%%%%%%
22485E9%%%%%%%%%%%%%%%qQ%%%%%%%%qQ%%qQ%%%%qQ%%%%%%%%%q%Q%%%%%%%%%qQq%%%Qq%Qq
22469E1Q%%%%%%%%%%q%Q%%%%%%%%%%%%%%%%%%%%%%%%%%%%%%%%%%%%%%%%%%qQ%%qQ%qQ%%%%
22453E9%%%%%%%%%%%%%%%%%%%%%%%%%%%%qQ%%%%%%%%%%%%%%qQ%%%%%%%%%%qQ%qQ%qQ%qQ%q
22438E1%%Q%q%%Q%%%%%%%%qQ%%%%%%%%%%%q%%Q%qQq%Qq%Q%%%%%qQ%%%%%%%%%%%%%%%%%%%%
22422E9%%%%%%%%%%%%%%%%qQ%%qQ%%%%%%Qq%%%%qQqQqQq%Q%%%%%%%%%%%%qQ%%qQ%%%%%%%%
22406E9qQqQ%%%%%%%%%%%%%q%Q%%%qQ%%%%%%%%%%%%%%%%%%qQ%%%%%%qQqQ%qQ%qQqQ%%%%qQ
22390E9%Q%j6%Q%qJ6qQl2QqQ8o4Qj6j6M8k4m8M8j6J6qK4j6%qJ6q%%%qQ%qQ%Qq%%Qq%qQQqq
22378E1%%Q%%%%%%%%%%Q%q%%%%%%%%%qQ%qQ%%%%%%%%%%%Qq%qQ%%%%%q%Q%%%%%%%%%%%%qQ%
22362E9%%%%%%%%%%%%qQ%%%qQ%%qQ%qQ%%%%%qQ%%%%q%Q%%%%%%%%%%%%%%%qQqQ%q%QqQ%%%%
22347E9%qQ%%qQqQq%QqQqQ%%%qQ%%%%%%%%%%%%%%%%%%%%%%qQ%%%%%%%%%%%qQq%Q%%%%%%%%
22331E9%%%%%%%%qQ%qQ%%%%qQqQqQ%qQq%Q%qQ%%%%%%%%%%%%%%%qQ%%%%%%%%%%qQ%%%%%%q%
22315E1%Q%qQ%qQ%%%%%%%%%%%%%%%%%%%%%%qQ%%%%%%%%%%%%%%%qQq%%%QqQq%Q%%%%%%%%%%
22299E9Qq%qQqQqJ6%q%%%%%%%%%%%%%%%%%%%%%%%%%%%%%%%%%qQ%qQ%%%q%Qq%%%%%%%QqQqQ
22284E9%%%qQ%%%%%%%%%%%%%%%%%%%%%%%%%%%%%%%%%%%%%%%%%%%%%%%qQqQ%%%Qq%%qQqQ%q
22268E1Qq%Q%%q%%%Q%%%%%%Qq%%%qQqQ%%%%%%%%%%%%%%%%q%Q%qQ%qQ%%%%qQ%%%%%%qQ%%%%
22252E9%%%%%%%%%qQq%%%%%%Qq%%Qq%%%Qq%%%QqQ%%q%%QqQ%%%%%%q%Q%%qQ%%%%%%%%%%%%%
22236E9%%%%%%qQ%%%qQ%qQ%q%%QqQqQ%qQ%qQqQ%%qQ%%%%%%%q%Q%%%%%%qQqQ%%q%Q%%%%%%%
22220E9%%%%%%qQ%%%%%%%%%%qQ%%%%%%%%%q%Q%%%%%%qQ%qQ%%%%%%%%%%%qQ%%%q%Q%%qQ%%%
22205E9%%%%qJ6j6QqQ%%%%q%%%Q%%%q%%Q%%qQqQqQ%%%%q%Q%%qQ%%%%qQ%%%%%%%%%%%%%%%%
22189E9%%%%%qQqQqQqQq%Q%%%%%%%%%q%QqQq%%%Q%%%qQ%%%qQ%%%%%%%%qQ%qQqQq%%QqQ%q%
22174E1QqQq%Q%%%%%%qQ%qQ%%qQ%%%%%%%%%%%%%%%qQqQ%%%%%%%%%%%%%%%%%%%qQ%qQqQ%%%
22158E9q%QqQq%Q%%%%%%%%%%%qQq%%Q%qQ%qQq%Q%%%%%%q%Qq%Qq%Q%%%%%%%qQ%qQ%%%%%%%%
22142E9%%%%%%%%%%qQ%%%%%%%%q%Q%%%%%%%%%%%%%%%%%%%%qQ%%%%%%%%%qQ%%%%%%%%%%%%%
22126E9%%%%%%q%Q%%%%%qQqQqQ%%qQ%%%%%%%%%%%%%q%QqQ%%qQq%Q%%%q%%%%%QqQq%QqQ%%%
22110E9%%%%%%%%qQq%Q%%%%qQ%%%%%%%%%%%%%%%%q%%%%%%%Qq%Qq%%QqQq%Qq%QqQqQq%%Qq%
22095E1%%QqQqQqQ%%%q%Q%%%q%Q%q%%%%Qq%%%%%%Qj6Q%%%Qq%%%%%%Qq%%%%%%%Q%%qQ%qQ%q
22079E1Qq%Q%%%%%qQ%%%%q%%QqQ%qQ%qQ%%%%%%q%Qq%%Q%%qQq%%QqQq%%%%%Q%qQ%Qj6J6q%J6
22064G5J6k4Qj6J6k4QQ%q%%q%%%%QqQ%%%%%%%%qQq%Qq%Q%%%%%qQ%qQqQqQ%%qQ%qQ%qQ%%%q
22049E1%Q%qQ%%%%qQ%q%Q%q%Q%%%qQq%Qq%QqQ%qQq%Q%q%%Qq%%%%Q%%%%%%%%%%%qQ%q%Q%q%
22033E1Q%%q%%%Q%qQQ%q%%%%%%qQq%Q%%qQ%%%%qQq%%%%%%QqQq%%%%%%Q%qQ%q%%Qq%%%QqQ%
22017E9%q%QqQqQ%q%Q%%qQ%%qQ%%%%%%%%%%%%%%%%%%%%%%%%%%qQ%%%qQ%qQ%%%qQqQqQ%%qQ
22002E9q%%Qq%%QqQqQqQq%Q%%%%%qQq%Q%qQqQ%%%%%%%%%%%%%%%%%%%%%%%%%%%%%%%%qQ%%%
21986E9%%%%%%%%%%%%%%%%%%%%%%%%%%%%%%%%%%%%%%qQ%%%%q%Qq%QqQqQ%%%%qQq%%%Q%%%q
21970E1Q%qQ%%qQ%qQ%%%%q%Q%%%qQq%Q%%%%%%%%%%%%%%%%%%%%%qQ%%%%q%%%%%%%%Q%%qQ%%
21954E9%qQ%%q%Q%%%%%qQ%q%QqQ%qQ%%%%%%%%%%%%%%%%%%%%%%%%%%%%q%%%Q%%%%qQ%qQ%%q
21938E1%%%Q%%q%Q%%%q%%Qq%%%%%%%%Qq%QqQ%%%%%%%%%%%%%%qQ%qQ%%%%qQqQqQqQ%%%q%%%
21923E1%%%%%%Q%qQQqq%%Qq%Qj6QQqQ%%%%%q%%%%Qq%Qq%%%%QqQ%q%QqQq%%%%Qq%Q%q%Q%%%
21907E9%%q%Qq%Q%%qQ%qQ%%%qQ%%qQ%%%%%%%%%%%qQ%%%q%%Q%%%qQqQqQ%%qQ%%qQ%%%%%q%%
21891E1Q%qQq%Qq%%%QqQ%%%qQ%%qQqQqQ%%qQ%%%%%q%%Q%qQq%%%Qq%Q%%q%%QqQqQ%%q%%QqQ
21876E9qQ%%%%%%%%%%%qQq%%Q%q%Qq%Q%%%%%%%%%%%%%qQ%qQ%%%%%%%%q%QqQ%%%%%%%qQ%%%
21860E9%qQ%qQ%%%%%q%%Qq%%%Qq%%%%Q%%%qQq%Qq%%Qq%%%%%%%%QqQ%qQqQq%Qq%%%%Qq%QqQ
21844E9%q%%Qq%%%Q%%%q%Q%%%%%q%%%%%Q%%%%qQ%%%q%%%Q%qQ%q%Qq%%%%Qq%%%%%%%%Qj6J6
21829E9q%Qq%QqQq%Q%qQ%qQq%%Qq%Q%%%%%q%%%%Qq%Qq%QqQ%qQ%qQ%q%%%%%Q%%%qQqQqQq%%
21813E1QqQqQqQ%%%%%qQ%qQ%%%qQqQ%qQ%%%%%%%q%%Qq%Q%qQ%%qQ%%%qJ6q%%%%%q%%%Q%%q%
21797E1Q%q%QqQq%%%%QqQq%%%qJ6qQqQqQ%q%Qq%Q%%%%%%%%%%q%%%QqQqQqQqQqQ%%%%%%%qQ
21782E9qQqQ%%%%qQqQq%%Q%%%%%%%%%%%%%qQ%%%%%%qQqQ%%qQ%%%%QqqQ%%%%%%%%%%qQ%%%%
21766E9%%qQ%%qQ%%%%%qQ%q%%%%Q%q%Qq%%QqQq%%%%Q%q%%%%Qq%Q%%q%Q%q%%%%%%%%%%%%%%
21750E1%%%%%%Qq%Qq%Q%%%%%q%Q%%%%qQ%%%qQ%%qQqQq%%%QqQ%%%%qQ%q%Q%%qQqQqJ6qqQqQ
21735E9j6QQ%%qJ6j6%qJ6j6J6q%%QQj6Qq%%%Q%%%q%Qq%%%Q%qQ%%qQ%%qQ%%%%%%%%%%%%%qQ
21720E9q%Qq%%%%%%%%%%%%%%%%%%Qq%%%Q%qQq%Qq%%%Q%qQq%%%%QqQ%q%%%%%%%%%QqQqQ%%q
21705E1Q%qQ%qQ%%%%%%%%q%QqQq%Q%%%qQ%%%q%%Qq%Q%q%%Q%%qQ%q%%%%Qq%%%%%Q%qQq%%%%
21689E1QqQ%%%%%%qQ%%qQ%%qQ%%%qQqQ%qQ%%qQ%%%%q%%%%QqQ%q%%%%%%%QqQ%%%qQqQq%Qq%
21673E1%%Q%qQ%qQ%%%%qQqQqQ%q%QqQq%Qq%Q%qQ%%%%%%qQqQq%%%%%%%%%Q%%%%%%%%q%Q%q%
21657E1%Q%%qQqQ%%%%%%q%%%%Q%q%Qq%Q%q%QqQq%Qq%Q%%%%%q%QqQq%%Q%%%%%q%%Q%%%qQq%
21641E1%Q%q%%%%%%%%%%%%%%Qq%%Qq%%Q%qQqQ%qQq%Qq%%%%QqQqQq%%%%%%%%%%%%%%%Qq%Qq
21626E1Qq%Q%%qQ%qQ%%%%%%%qQ%%%%%qQ%q%%%Qq%%%%Q%%%qQ%q%%%%%%Q%q%%%Qq%Qq%%%%%%
21610E1%%%%%%%%%%%%%%Qq%QqQq%Q%q%%%Q%%qQq%%%%%%%%%Qq%Q%%%q%Q%%qQ%%%%%%qJ6q%q
21594E1%QqQq%%Q%q%Qq%Q%%q%%QqQ%qQqQ%%q%Q%%q%QqQqQq%%%Q%%%%qQ%%%q%Q%%qQq%Q%q%
21578E1%%%%%Q%q%Q%q%%Q%qQ%%%%%%%%%%%%qQ%%%%q%Qq%%%%%%%QqQ%%q%Q%%q%%Qq%%%Qq%%
21563E1%Q%qK4j6q%Q%q%%%%Qq%Q%qQ%%q%%Q%%%%q%%%%%%%%%%%Q%qQq%%%%%Q%%%%%%%%%%%%
21547E9%qQ%qQq%%%%%%%%%%%%%%%%%%%%%%Qq%%%%%%%%%%%%%%Qq%%%Qq%QqQ%%qQ%%qQ%%%%%
21532E9%%%qQ%q%%%%%%%%%%Qq%%%%%%%%QqQ%q%Qq%%Qq%Qq%%%%Qq%%%%Qq%Qq%%%%%%%%%%%%
21516E1%%%%%%%%%%%%%%%%%%Q%q%QqQq%Q%%%%%%%%%%%%%%%%%%%q%%%%%%Q%qQq%%%%Q%q%%Q
21500E9qQ%qQqQqQ%%qQq%Q%qQ%%%%%%%%q%%Q%qQ%q%%%%%%%%%%%%%Qq%%%%%%%%Qq%%Q%qQ%%
21484E9%qQ%%q%Q%%%%%qQq%QqQ%%%%%%%%q%Qq%%Q%%%%%%%%%q%%%%%%%%%%%%%%QqQq%Qq%%Q
21468E9%qQ%%qQ%%%%%q%Qq%%%%QqQ%qQq%%%QqQq%%%Q%q%Q%%%%%%%%%%qQ%qQq%Qq%%Qq%Q%q
21453E1QqQ%j6Q%QqQQqQj6QQqQj6j6K4%q%%%%%Qq%%%%QqQ%%%qQ%%qQq%Q%%qQqQq%%%%QqQq
21438E1%Qq%QqQ%qQ%qQq%%QqQqQ%qQqQq%Q%q%%%Q%qQqQq%%%QqQ%%%%%%%%qQqQq%%%%%%%%%
21422E1%%%%%%%%%%Q%q%%Qq%%%%%%%Qq%%%%%%%%%%QqQq%%%%%%%QqQ%%%%%%qQ%%q%Qq%QqQq
21406E1Qq%%%Q%%%%q%%%%%%%%%%%%Qq%Q%qQq%QqQq%%%%%%Qq%Qq%%%Qq%Q%q%%%%%%%%%%%Q%
21391E9qQq%%%%Qq%%%Qq%Qq%%%%%%Qq%%%%%%Qq%Q%qQqQ%%q%Q%%%%%qQqQ%%%%q%Q%q%%%Qq%
21375E1%%Q%qQ%%%%%%qQqQ%%%%%%q%Q%q%%%QqQq%%%%%Qq%%%Qq%%%%%%%%%%QqQq%%%Q%qQq%
21359E1Qq%%%Q%qQ%qQqQqQ%q%QqQ%qQq%Q%%%%%q%%%Qq%%%%%%%%%%QqQqQ%%%%%q%%QqQ%qQ%
21343E9%qQ%%%%%qQ%q%%%%%%Q%%%qQ%q%%%%%%%QqQq%%%%%%QqqQ%qQ%%%Qq%%Q%q%Qq%%Q%%%
21327E9%%%q%%%%%%%QqQqQqQq%%%%%%%%%Q%q%Qq%%%%%%%%%%%%%QqQq%%%%%%Qq%%%%%%%%%%
21312E1%%%%%%%%%%%%%%%%%%%%%%%%QqQqQq%%%%%Qq%%%%Qq%%%%%%Qq%%%Qq%Q%%q%%%QqQq%
21296E1Q%%q%%%%%%%%%%%%%%%%QqQ%qQ%%%qQq%Qq%QqQ%qQ%%%%%q%Q%%q%%QqQ%%%%%q%%Q%q
21280E1%Q%qQq%Qq%%%%%%Qq%%Q%%%%qQ%q%%%Qq%%%Q%%qQq%Q%q%%%%%Q%%%%q%Qq%%%%%%%%%
21264E1Qq%%%%%%%%%%%Qq%%%%%%%%%Qq%%%%%%%%%%%%QqQq%%%%%%%%Q%qQ%%%%%%%%qQ%%%qQ
21248E9q%%%%%%%%%%Qq%%%%%%%Qq%%Q%q%%%%%%Q%q%%%%%%%%%%%%%%%%%%%%%%%%%%%%%%%Qq
21233E1%%%Qq%Qq%Q%%%q%Qq%%%%Qq%%%%%Q%q%Qq%%Q%%%%%%%%%%q%Qq%Q%qQqQq%%%Qq%%%%Q
21217E9qQ%qQq%%%%qQ%%Qq%%%%%%%%%QqQ%%qQ%%%%%qQqQqQ%q%Qq%%%%%%%%%%%%%%Qq%QqQq
21201E1%%%%%Qq%Q%%qQqQqQq%QqQ%%%qQ%q%%Qq%Qq%%%%%Qq%%%%%%Qq%%QqQ%q%%%QqQ%%%q%
21185E1%%%%Q%%q%%%%%%%%%%%%%Qq%%%%QqQq%%Qq%%%%%%%%%%Q%q%%Qq%Q%%%%%%%%%qQqQq%
21169E1%%%%%Q%qQqQqQ%%%%%%q%Q%%%%%%q%%Q%%%%%qQ%qQ%%%%qQq%%%QqQq%Q%q%%Qq%%%%%
21154E1%%%%%%%%%%%%%QqQq%%%Qq%%Qq%%%%%%%%%%%%%%%%%Q%%q%%Q%q%Q%%%q%%%Qq%%%%%%
21138E1%%%%%%Q%q%QqQ%qQ%%%%%%%%q%%%Qq%%%%%Q%%q%Qj6Q%%%QqQ%q%J6q%QqQqqQq%%Qq%
21123E1%Q%qQ%%%qQq%%%%%Qq%%%Q%qQq%%%%QqQ%qQ%qQq%Q%%qQqQq%%%%%%%%%%%Q%%q%Q%%q
21107E1Q%q%Q%%%%qQq%%%%%%%Q%%qQ%%q%Qq%%%%%Qq%%%%Qj6Q%Qq%%%Qq%Qq%Q%%%q%Q%qQ%%
21091E9%q%Q%%%%%qQ%q%%%%%%%%%%%%%%%%%%%%%%%%%%%Qq%%%%%%%%%%%%%%%%%Qq%Qq%Qq%Q
21075E9q%%%Qq%%%%%%Qq%%%%%%%%%%%%Q%q%%%%Qq%%QqQq%Qq%Q%qQ%qQ%%%qQqQq%%Q%q%%%%
21060E1%%%%%%%%%%%%%%%%%%%%%%%%%%%%%QqQq%%%%%Qq%%%%%%Qq%%Qq%%%%QqQq%%Q%qQ%qQ
21044E9%%%q%%%%%%%Qq%%%%%Qq%Q%%qQ%q%%%%%%%%Q%qQq%%Q%qQ%%qQq%%%Q%q%%%QqQ%q%Qq
21028E1Q%q%%Q%%%%%%qQ%qQq%%%Qq%%%%%%%%Qq%%%QqQq%%%%Q%%qQq%%%Qq%%%%%%%%%%%%%%
21012E1%%%%%%%%%%%%Qq%Qq%%%QqQ%%%q%QqQqQq%%%%%%%%%%%%%Q%%qQq%%Qq%%%%%%%%%%%%
20996E1%%%%%%%%Qq%%Qq%%%%Q%q%%%Q%%%%qQ%q%QqQqQ%q%%%%%%%%%%%%%%qQ%%%%%%%Qq%%Q
20981E9qJ6j6Q%%q%QqQ%qQ%qQqQ%%q%QqQq%%%%%%%Qj6Q%%%%%%%%%%%%%%%%%%%%%%%%%QqQq
20965E1%%%%Qq%%%%%%%%%%%%%%%%%%%%%%%%%%%%%%%Q%q%%QqQ%q%%Q%qQqQqQq%%%%%Qq%%Qq
20950E1Qq%QqQ%%q%%%%%%Qq%%QqQq%QqQq%%%%QqQq%%%%%%%%%Q%qQ%q%%%%%%%Qq%%%QqQq%%
20934E1%%%%%Q%%%%%q%Qq%Q%qQ%%%%%%q%%%%%%%%%%Qq%%%%%%%%%%%%%%%%Qq%%%%%%%%Q%qQ
20918E9%q%%Qq%%%%%%%%%%Q%%%%%qQ%q%Q%%q%%QqQq%Qq%%%%%%%%%%%%%%%%%%%%Qq%%%%Q%q
20902E1%%%%%QqQ%%%%qQ%%qQqQq%%%%%%%%%%%%%%Qq%%%%Qq%%Q%%%q%Q%q%%%%%%%%qQQq%%%
20887E1%%%%%%%%Qq%%%%%%%%Q%%%%%qQ%q%QqQq%%Q%qQ%%%qQqQqQq%%%%%%%%%%%%%%%%%%%%
20871E1%%%%%Qq%%%%%%%%%%%Qq%%%Qq%%%%qQ%%%QqQq%%Qq%%%QqQ%%qQ%q%%%%%%QqQ%%%q%%
20855E1Qq%%%%%Q%q%%Qq%%Qq%%%%%%%%%%%%%%%%%%%%%%%%%%%%Q%q%%%%%%%%%%%%%%Q%q%Qq
20839E1%%%%%%%%%%%%%%%%QqQq%%QqQ%%%%qQ%%qQ%qQ%%%%%qQq%Q%qQq%QqQq%%Qq%%%%Qq%Q
20823E9%q%%Qq%Qq%%%%%%%%%%%%%%%%%%%%%%%%%%%%%%%%%%%%%%%%%Qq%Qq%Qq%%%%%%%%%%%
20808E1Qq%%%%%%%%%%%%%Q%%q%Q%q%%%%%%%%QqQq%%%Qq%Qq%%Qj6Q%QqqQ%%qQQ%%%q%Qq%Q%
20792E9%%q%%%%%%%%%%Qq%%Qq%%Qq%%Q%qQq%%%%%%%%%%%%%%%%%%%%%%%%%%%%%%%%%%QqQ%q
20776E1%%%%%%Qq%%%%%%%%%%Qq%%%%%%%%%%%%%%Qq%%%%%Qq%%%%%%%%%Q%%qQq%%QqQ%q%Q%%
20760E9%%qQq%%%%%%%%%Qq%%%%%%%%%%%%%QqQ%%q%%Q%qQqQ%%q%%%%Qq%%%%%%%Q%%%%qQ%%%
20745E9qQq%Qq%%%%%Qq%Q%q%Qq%%%%%%Q%%q%%%Qq%Q%qQ%%%%%%%%%q%%%%%Qq%%%%%%%%%%%%
20729E1%%%%Qq%Q%%q%Q%qQq%QqQq%Qq%%%Q%q%Qq%%%%%%%QqQ%%qQqQqQ%%qQq%%%%QqQ%%%%q
20713E1Q%q%%%%%%%%%%Qq%%%%%%%%Qq%Qq%Qq%%Qq%%%%%%%%%%Qq%%%%%%%%Q%q%%%Qq%Qq%%%
20697E1%%%%%%%%%Q%qQq%Q%qQ%%q%%%%%%%Qq%%%%%%%%%QqQ%qQ%qQq%%QqQq%%%%%%%%%qQ%%
20681E1%%%%%q%QQq%%%%%%%%%%%%%%%%%%%%%%%%Qq%%Qq%Q%q%QqQq%%%%%%%%Qq%Q%q%%%%%%
20666E1%%%%%%%Qq%%QqQq%%%%%%%%%%QqQq%%qQ%Qq%%%QqQj6Q%%%%%%%%%Q%q%%%%%%%Qq%Qq
20650E1Qq%%%%%%%%%%%%%%Qq%Qq%%%%%%%%%Qq%%%%%%%%%qQ%%%%%%%%%%%%%Qq%Q%qQq%%Q%q
20634E1%Qq%%Qq%%%%%Q%%q%%Qq%%%%%%%QqQj6%%Q%qQJ6k4qK4j6%QQ%j6QJ6k4QQq%%%%Q%qQ
20620E9q%Q%q%%%QqQ%q%%Qq%%%%%%%%%%%%%%%%%%%%%%%%%%%%%%%QqQqQ%q%%%%%%QqQ%%qQq
20605E1QqQq%Q%%%qQq%%%%Q%%q%%Q%%q%Qq%Qq%%%%Q%%%%%%%%%%%%%%%%%qQ%%%q%%%%%%Qq%
20589E1%%%Q%%%q%%Qq%%%%%%%Qq%%%%%%%%%Qq%%%%%%%%%QqQq%%%%%%%%%%%%%%%%Qq%%%%%%
20573E1%Q%qQq%%%%%%%%%Qq%%Qq%%Qq%Q%%%qQ%q%%Q%q%%%%Q%qqQQq%%%%Q%%qQ%q%%%%%%%%
20557E1%QqQ%%%q%%%Q%q%%%%%%%%%qQ%%%%%%%%%%%Qq%%%%%%QqQqQqQqQ%%qQqQq%%%%%%%%%
20541E1%Qq%QqQqQqQq%Qq%%%%%%%%%%%%%%%Q%q%%%%Qq%%%%%%Qq%%%%%%%%%%%%%%Q%%%%q%%
20526E1QqQ%qQqQq%%Q%q%%%%%%Qq%QqQq%%%%%%%%Q%%q%%QqQq%Qq%Qq%Qqj6QJ6j6qJ6%Q%j6
20511D3QJ6j6Qq%qQqJ6q%qQ%%%Q%%%%%%%%q%%%%%%%%%Qq%%%%Qq%%%Qq%%%%%%%%%Q%%%qQ%q
20496E1%%%%%%%%%%%%%%%Qq%%Qq%%%%%Qq%%QqQq%%%%%%QqQq%Qq%%QqQq%QqQ%q%%%%%%Qq%%
20480E1%%%%%%%%%%%%%Qq%%%%Q%%qQqQ%q%%%Qq%%%Qq%%%%%%%%%%%%%%%%%%%qQ%%%%Qq%%%%
20464E1Qq%%Q%q%Q%q%%Qq%%%%%%%%Q%q%%%%%%Qq%Q%qQ%q%%%QqQq%%%Qq%QqQqQq%%%qQ%%Q%
20448E9q%%%%%%%%%QqQq%Qq%%%%%Qq%Q%qQ%qQq%%Qq%%%%%Q%%%%q%%%%%%%%%%%%%%%%%%%%%
20433E1%Qq%%%%%%%%%%Qq%%%%%%%%Qq%%%QqQ%%q%%QqQq%%%Qq%Qq%Qq%%%%%%%%%Qq%%%%%%%
20417E1%%%%%Qq%%%%%%%%QqQ%%q%%%%%%Qq%%%%%%%%%%%%Qq%%%%%%%%%%%%%%%%%%%%Qq%%%%
20401E1%%%%%%%Qq%QqQ%%%%q%Q%%q%%Q%q%%%%%%qQ%%%%%%%%%%%%%%%%%%%QqQq%Q%%q%%Qq%
20385E1%%%%%%%Q%q%%%%%%%Qq%%QqQqQq%%%%%%%%%%%%%%%%%%%%%%%%%%%%%%%%%%QqQq%%%%
20369E1%%%%%%%%%%%%%%%%%%%%%Qq%QqQq%%%%%%%%QqQq%%%%%%Qq%%%%%%%%%%%%%%%%%%%%%
20354E1%%%%%%%%%%%%%Qq%%%%%%%%%%%%%%%%%%%%Qq%%%QqQqQ%%%q%%QqQqQ%qQqQq%%%%%%%
20338E1%QqQqQ%qQ%q%%%%%%QqQqQq%%%%%%%%%%%%Qq%Q%%%q%%%%Qq%%%%%%%%%%%%%%%%%%%%
20322E1Qq%%%%%%%%%%%%Qq%%Q%q%QqQq%Qq%%%%%%%%%%%%%%%%%%%%%%%%Qq%%%%%%%%%%%Qq%
20306E1%%%%%Q%q%%%%%%%%%%%%%%%%%%%%%%%Qq%%%%%%%%%%%%%%%%Qq%%%Qq%%%%%Qq%%%%%%
20291E1%%%%%%Q%q%%%%Qq%%%%QqQqQq%%%%%%Qq%%%%%%Q%qQ%q%QqQq%%%Q%qQ%q%%%%%%%%%%
20275E1%%%%%%%%%%%%%%%%%%%%%%%%%%QqQq%%%%Q%%qQq%%%%%%Qq%%%%%%%%%%%Qq%%%%%%%%
20259E1%%%%%%%%%%%%%%%%%%%%Qq%%%%%%%%%%%%%%%%%%%%%%%%%qQ%%%%%%%%Q%qQq%%%%%%Q
20243E9q%%%%%%%%%%%%%qQ%%%%%%%%%%%%%%%%%Qq%%%%%%%%%%%%%%%%%%%%%Q%%%qQq%%%%%%
20227E1%%Qq%%%%%%Qq%%Qq%%%%%%%%%%%%Qq%%%Qq%%%Q%qQq%%%%%%%Qq%%%Qq%%%%%%%%%%%Q
20212E9q%%%%Q%q%%%%QqQqQq%%%%%%%%%%%%%%%%%%Qq%%%%%%%Q%q%%%%%%Qq%QqQq%%%%%%%Q
20196E9%%q%%%%%Qq%Q%%%%q%%%%%%%Qqq%K4l2L2m0N6n6L2%L2k4q%%q%Q%q%Qq%Qq%%%%%%%%
20182E1%QqQ%q%%Qq%%%Qq%%%%%%Qq%%%%%%Qq%%Qq%%Qq%%%%%%Qq%%%%%%%%%%%%%%%%%%%%%%
20166E1%%%%%%%%%%%%%%%%Qq%%Qq%%%%%%%Qq%%%Q%qQqQq%Qq%Q%q%Q%qQ%qQq%%%%%%%%%%%%
20150E1%%%%%%%%%%%%Qq%QqQ%qQ%%q%%Qq%QqQq%%%%%%%%%%%Q%q%Qq%%Q%q%%Qq%%%%%%%%%%
20135E1%%%%%%%%%%%%%%%Qq%Qq%%%%%%QqQq%%%%%%%%%%%Q%q%%%%%%%%%Qq%QqQq%%%%%%%%%
20119E1QqQ%q%%%%%%%%%%Qq%%%%%%%%%%%%%%%%%%%%%%%%%%%%%%%%%%%%%%%%%%%%%%%%%Qq%
20103E1%%Qq%%%Qq%%%%%%%Qq%%%%%%%%qQ%%%%%%Qq%QqQq%%Qq%%%%Qq%%%%%%QqQqQ%%%%%%q
20087E1%Qq%%%%%%%%%%%%%%%%%%%%%%%%%%%%%%%%%%%%%%%%%%%%%%%%%%Qq%%%%Qq%QqQq%%q
20071D3Q%%%%%%%%%%%Qq%%%%Qq%%%%%%Qq%%%%%QqQq%Qq%Qq%Q%q%%%%Qq%Qq%%%%%%%%%%%%%
20056E1%%%%%%Qq%%%%%%Qq%%%%Qq%%Qq%%%%%%%%%%%Qq%%%%%Qq%%%%%%Qj6J6%q%J6k4J6q%%
20041E1%%%%%%%%%%%%Qq%%%%%%%%%Q%qQqQ%q%%%%%%%%%Qq%%%Qq%%Q%%qQq%%%Qq%%%%%%%%%
20025E1%%%%Qq%%%%%%%%%%%%%%%%%%%%%%%%%%%%%%%QqQ%q%%%%%Qq%%%%%Qq%%%Qq%%%%%%%%
20009E1%%%%%%%%%%%Qq%Qq%%Q%%q%%%%%%%%%%%%%%%%%%%%%%%Qq%Qq%%%%Qq%%%%%%Qq%%%%%
19994E1%%%%%%%%%%%%%%%%%%%%%%%%%%%%%%%%%%%Qq%%%%%QqQ%%%q%Q%%%q%%Qq%%%%%%Qq%%
19978E1%%%Q%qQq%Qq%%%Qq%%%Qq%%%%%%%%%Q%qQq%%Qq%%Qq%%%%%Qq%%%%%%Q%%qQqQq%%%%%
19962E1%%%%%%%%%QqQq%%Qq%%%%%Qq%%%%%%%%QqQ%Qqq%%%%Qq%Qq%%%%%%%%%%%%%%%%%%%%%
19946E1%%Q%q%Qq%%%%%%%%%%%%%Qq%%%%%%%%%%Qq%%%%%%%%%%%%%%%%%QqQ%%qQ%%%%q%Qq%%
19930E1%%%%%Qq%%%%%qQ%%%%qQqQQ%q%%%%Q%%%qQ%qQq%%Qq%%%%%%Qq%%%%qJ6%q%QqQ%%%q%
19915E1Q%%%q%%%Q%qQqQq%%%%%%Qq%Q%q%%%%%%%%%%%%%%%%%%%%%%%Qq%%%%%%%%%%%%%%%%%
19899E1%%Q%%q%%Qq%%QqQq%%Q%q%%%%%%%%%%%%%%%%%%%%%Qq%%%%%%%QqQ%q%%%%%%%%%%%%%
19883E1%Q%%%q%%QqQ%q%%%%%%%%%%%%%%%%%%Qq%%%%%%%%%%%QqQq%%%%QqQ%%%%q%%%%%Qq%Q
19868E9q%QqQq%%%%%%%Q%q%qQ%%%%%%%%q%J6q%%%qJ6%qJ6q%q%%qQQq%%%%%%%Qq%%%%%%%%%
19852E1%%%%%%%%%%%%%%%%%%%%%Qq%%%%%%%%%%%%%%%%%%%%%%%%%%%%Qq%%%%%%%%%Q%qQj6J6
19837E9q%%%%%%%%%%Qq%%Qq%%%%%%%%%%%%%Qq%%%%%Qq%Q%q%Q%%%%q%%Qq%Q%%%q%%%Q%%q%%
19821E1%%QqQ%qQqQq%%Q%%%q%%%%%%%QqQq%%%%%%%%%%%%%%Qq%%%Qq%%%Qq%%%%Qq%QqQq%%Q
19805E9%%qQ%%qQq%%%Q%qQqQq%Qq%%%%%%%%%%%%%%%%%%%%%%%%%Q%q%Qq%%%%%%%%%%%%%%%%
19790E1%%%%%%%%%%%%%%%%%%%%%%%%%%%%%%%%%%%%%%%QqQq%%%%Qq%%Q%qQqQq%%%%%%%%%%Q
19774E9q%%%%%%%%%%%%Qq%%%%%%%%%Q%q%Q%%%qQq%%%%%QqQq%%%%%QqQ%qQ%q%%%%%%%%%%%%
19758E1%%qQ%%%%%%%%%%Q%q%%%%Qq%%%%%%Q%q%QqQq%%%%%%Qq%%Qq%%%%%Qq%%%%%%%%%%%%%
19742E1%Qq%%QqQ%%%%%%%q%%%%Q%qQ%%q%%%%%QqQqQq%Qq%%%%%%%%%%%%%%%%%%%%%%%%%%%%
19726E1%%%%%%%%%%%%%%%%%%%%%%%%qQQ%qQ%qqQ%Qq%Qq%%%%%%%%%QqQ%q%%%%%%%Qq%%%%%%
19711E1%%%Qq%Qq%%Qq%%%%%%Qq%Qq%%%%%%%%%%%%%%%%%%%%QqQ%qQ%%q%%%%Qq%%%%%%%%%%%
19695E1%%%%Q%qQ%qQ%q%qJ6qqQ%%%%%%qJ6q%qK4j6%%QqQq%Qq%%%%%Qq%%%Qq%Qq%%%%%QqQq
19680E1Q%qQqQq%%%%%%Qq%%%%%%%%%%Qq%%%%%%%%%%%%%%%%%%Qq%Qq%%%%%%%%Qq%%%%%%%%%
19664E1%%%%Qq%%%Q%%%%%%%qQ%qQ%q%%%Q%%q%%Q%q%%%%%Q%%%qQ%%%q%%%%%%%%%%Qq%%%%%%
19648E1%%%%%%%%%%%%%%%Qq%%Qq%%%%%%%%%%Qq%%%%%%%%%%%%%%%%%%%QqQ%%%%%%%%q%Qq%Q
19632E9q%%%%QqQq%%%%%%%%%%Qq%%Qq%Qq%%Qq%Q%%qQq%%%%Qq%%%%%%%%%%%%%%%%%%%%%%%Q
19617E9qQq%%%%%%%%%%%%%%%%%%%%%%QqQ%%q%Q%qQ%%qQq%%%%Qq%QqQq%Qq%%%%Qj6J6%j6Q%
19602E1Qq%Q%q%%%%%%%%%%%%%%%%Qq%%%%%%%%%%%%%%%%%%%%%%%%%%%%%%%%%%%%%%%Qq%%%Q
19586E9q%%%%%%%QqQq%%Qq%%%Qq%Q%q%QqQq%%QqQq%%%%Q%%qQqqK4q%qQ%q%Qj6K4j6%Qq%Qq
19571E1Qq%%%Q%qQqQqQ%%%%qQq%%%%QqQ%qQqQqQq%%Q%%%%q%%%Q%q%%%%%%%%%Qq%%%%%%%%%
19555E1%%%%%%%%%%%%%%%%%%%%%%%%%%%%%%%%%%%%%%%%%%%QqQq%QqqQ%%%%Qq%Qq%%%%%%%%
19539E1%%%%%%%%%%Q%q%%%%Qq%%Qq%%%%%%%%%Qq%%%Qq%%%%%%%%%%%%%%%%%%%%%%%%%%%%%%
19524E1%%%%%%Qq%%%%%%%%%%%%%%%Qq%%%Qq%Q%%q%%%Qq%%%Qq%%%%%%Qq%%Qq%%%%%%%%%%%Q
19508E9q%%Qq%%%%Qq%%%%%%%%%%%Qq%%%%%%%%Q%%q%Q%q%Q%q%%Q%qQ%q%Qq%%%%%%%%%%%QqQ
19492E9qQq%%%QqQq%%%%%Qq%%Q%%%%q%%J6j6J6qq%%%%%%%%%%Qq%%%%%%%%%%%%%%%%Qq%%%%
19477E1%Qq%%%%Q%qQ%q%%%%Q%%%%qQq%%%%%%%%%%%Q%q%%Q%qQqQ%q%%%Qq%Q%q%Q%%%q%Qq%%
19461E1%QqQ%%%%%%q%Q%q%%J6j6%%Q%%q%Qq%%%qQ%%%%%%%%Qq%%%%%%%%%Qq%%%%%%%%%%%%%
19446E1%%Qq%%%%%Qq%%Qq%%%%%Q%%%%%q%Q%q%%%Qq%%%%%%%%%%%%%%%%%Q%%qQqQ%q%%%Qq%%
19430E1%%%%%%%%%%%%q%Q%%%%%%%%%%%%%%%%%%%%%%%%%%%%Q%q%%%%%%%%%Q%%q%QqQq%%%%%
19414E1%%%%%%%%Q%%qQq%%%%%%%%%Qq%%%%%Qq%%%%%%%%%%%%%Qq%%%Qq%%Qq%%%%%%%%%%%%%
19398E1%%qQ%%%%Qq%QqQ%%qQ%%qQqQ%qQ%%q%J6j6Qj6J6%%qQ%qQ%q%%%%Q%%q%%Q%q%%%%Qq%
19383E1QqQq%%%Qq%%%%%%%%%%%%%%%%%%%%%%%%%Q%%%%%q%%QqQq%Q%%%qQ%q%Qq%%%Q%qQ%%q
19368E1%Q%q%%%QqQ%%q%%Qq%%%%%%QqQq%%%%%%%%%%%%%QqQq%%%%%%%%%QqQq%Qq%%Qq%%%%%
19352E1%%%%%%%%%%%%%%%%%%%%%Qq%%%%%%%%%%%%%%%QqQ%qQq%%QqQj6J6q%Qq%%%%%%%%%%Q
19337E9q%%%Q%%qQ%qQq%Q%q%Qq%Q%q%Qq%%%%%%%Q%qQq%%%%%%%%%%Q%qQq%%%%Qq%%%%%%%%%
19321E1%%%%%%%%%%%%%%%%%%Qq%%%%%%%%%%%%Qq%%%%%%%%%%%%%%%%%%%%%%%%%%%%%%%%%%%
19305E1%%%%%%%%%Qq%%%%%%Qq%%%%%%%%QqQq%%%%%%%QqQq%%%%%%%%%%%%%Qq%%%%%%%%%%%%
19289E1%Qq%%QqQ%%q%QqQ%q%Qq%%%%%%%%%Q%q%%%Q%q%%Qq%QqQqQq%%%Qq%%Qq%%%%%%%%Qq%
19273E1%Q%qQ%%%%q%%Q%q%%%Qq%%%%%%%%%%Qq%Q%qQ%%qQ%q%Qq%%%Qq%Q%q%%%%%%%%Qq%Qq%
19258E1%Qq%Qq%%%%%%%%%%Qq%Qq%%%Q%j6%L2m0%K4q%Q%qQ%q%Qq%Qq%%Qq%%%QqQq%%%QqQqQ
19243E9q%%Q%%q%%%%%%%%QqQq%%%%%%Q%q%Q%q%%%%Q%%qQ%%%%%%%%%%%%%%%%%%%%%%%%%%%%
19227E9q%%Q%qQ%%q%Q%q%Q%q%%QqQ%qQ%%%q%%Qq%%Qq%%%%%%%%%%Q%q%%%%%%%%%%%%%%%%%%
19211E1%%%Qq%Qq%%%%Qq%%%%%%%%Qq%Qq%%Q%%%%qQ%%%%%%%%q%%QqQqQqQq%%%%%%%%%%%Q%q
19195E1Q%%qQq%%%QqQqQ%qQ%qQq%%%%%%%%QqQ%%%%%%qQ%%q%Qq%%%%%Q%%%q%%%%%QqQqQqQ%
19180E9%%%q%Q%%%%%%qQqQ%%%%qQ%%%%q%Q%q%QqQq%%%%%%%%%%%%QqQq%%%%%%Qq%%QqQq%%%
19164E1Qq%%%%%%%%%%%%%%%%%%%%%%%Qq%%%Qq%%%%%%Qq%%Q%%qQq%Q%q%%Q%q%%%%%%%%%%%%
19148E1%Q%q%%%QqQq%%Qq%Qq%%%%%%%QqQqQq%%%%%Q%%%%%%%%%%%%%%%q%Qq%%%%%%%Qq%Q%%
19132E9qQ%qQ%%%q%Qq%%%%%%%%%%QqQ%qQ%q%%%%%%%%%%%%%QqQ%qQq%%%Qq%%%%%%%%Qq%%%Q
19116E9%q%%%%%%QqQ%%qQ%%q%Qq%%%%%%%%%%Q%%qQq%%%%%%Q%q%qQQ%qQ%qQqQqQ%qQ%q%%Qq
19101E1%%Qq%Q%qQq%Qq%%%%%%%%%%%%%%%%%%%%%%%%%%%%%%%%%%%%%Qq%%%%%%%%%%%%%%%%%
19085E1%%%%%QqQq%%%%Qq%%%%%%%%%%%%%%%%%Q%%q%QqQ%qQqQ%q%%Q%q%%%%%%Qq%%%Qq%Q%%
19069E9qQ%%%%%qQ%%%qQq%Q%%qQ%%%%%%%%%qQ%qQ%qQ%%%%%%qQ%%%%qQq%Qq%%%%Qq%Q%%q%Q
19053E9%q%%%%Qq%Q%%%%%qQ%%%%%q%%Q%%q%%%%%%%%%%%%%%%%%%%Qq%%%Qq%%%%%%Q%%%%%qQ
19037E9%%q%%%%%%%%%%Qq%Qq%%%%%%%%%%%%%%%%%%%%%%%%%%%QqQq%%%%%%%%%%%%%%%%%%%%
19022E1%%%%%%%%%%Qq%Qq%QqQ%%q%Q%qQ%q%%%Qq%Q%%%%%%%%%qQ%%%q%Q%qQqQq%%%%%%%%%%
19006E1%%%%%%%%Q%%qQq%%Qq%Q%%%%%%%%%%q%Qq%%%Q%qQq%QqQqQq%%%%%Qq%%QqQq%%%%%%%
18990E1%%Q%qQ%%%q%Q%%%%q%%%%Qq%Q%q%%%Qq%%%%%%%%%%%%Qq%Qq%Qq%%%%QqQqQ%%qQ%%%%
18974E9%qQ%%%%%qQ%%q%%%%Q%%%qQqQqQq%%QqQq%QqQ%qQqQq%%Qq%%%%%%%%%%%Q%%q%%Qq%%
18958E1%%Q%qQ%%qQ%%qQ%%q%%Qq%QqQ%q%Q%%q%Qq%%%%%%%%%%QqQ%%q%%%%%Qq%%%%%QqQ%%%
18943E9qQq%%%%Qq%QqQ%%%%%qQ%%%%%q%%%%Qq%%%%%%%%%%%%%%QqQqQ%%qQ%%%qQ%%qQ%%q%%
18927E1%%Qq%%%%%%%Qq%%%Qq%QqqQ%J6q%%q%%%%%%Qq%%Q%q%%%%%%%%%%%%%%%%%%%%%%%%%%
18911E1%%Qq%%%%%%%%%%%%Qq%%Qq%%QqQ%%qQq%%%QqQqQ%%%%q%%%Qq%%%%%%%%%%%%%%%QqQ%
18895E9%qQ%q%%Q%%qQqQ%%%q%QqQ%%%qQ%%qQq%%%%Q%q%Qq%%%Q%%qQq%%Qq%%%%%Qq%Qq%%%%
18880E1%Q%%q%%%%%%%%%%Q%q%%%%%Q%q%Qq%%%%%%Qq%%Qq%QqQ%%%%%%%%%%%%qQ%%%%%%%%%q
18864E1%Q%%q%Qq%%%%%Q%q%%QqQ%%qQq%%%Q%%%%%%%%qQ%%qQq%%%QqQq%Qq%Q%qQq%Q%%q%%%
18848E1%%%QqQqQ%qQ%q%QqQ%qQq%%Qq%Qq%%QqQ%qQ%%%%%%q%Qq%Q%%q%%%%%%%%%Q%q%%Qq%Q
18832E9q%%Q%q%%%%%%%QqQq%%%QqQq%Qq%%%Q%q%Q%%q%Q%%qQq%%%%%%%%%%%%%%%%%Qq%%%%%
18817E1%%%%%QqQq%%%%QqQq%%%%%qQ%%%%%%%%%%%%Qq%%Q%%q%%%%Qq%%Qq%%%%QqQ%%%q%%%%
18801E1%%%%%Qq%%%%Qq%%%%%%%%%%%%%%%%%Q%%q%%%%Q%%%%%%%%%%%%%%%qQq%Qq%%%%%%%%Q
18785E9qQ%%%%%Qq%qQQj6QqQ%%%qQqQq%%%Qq%Q%%%qQ%%%%%%%%qQ%%qQqQ%%%%%%qQ%%%%qQ%
18769E9%%%q%%Qq%%Q%%%%%q%Q%%%q%QqQqQqQq%%%%QqQq%%%Qq%%%%Qq%%%%%QqQq%Qq%J6j6%
18754E1%%Qq%Q%Qq%%%%%qQQk4%L2qq%q%%Q%qQqQqQq%%Q%%%q%Q%qQq%%%%%%%%%%%%%%%%%Qq
18739E1%Q%q%%%%%%Q%q%Qq%%%%%%Q%%q%Qq%%%%%%Q%q%QqQqQqQ%%%q%%%Qq%Q%%%%qQ%%%%%%
18723E9%q%Q%q%Q%%qQq%Q%%%%%%%%%q%Qq%%Q%q%%Qq%Qq%QqQq%Q%%%qQ%%%%%%qQ%%q%Qq%%Q
18707E9%%%%qQqQq%%%%%QqQ%q%%QqQq%%%%%%%%%Qq%%%Q%qQ%q%%%%%%Q%%q%%%%QqQq%Q%%q%
18691E1QqQ%q%%Qq%Q%q%%Qq%Qq%Q%%%%qQ%qQ%q%%QqQ%q%%QqQ%%%q%Q%%%q%%%%%Qq%%%%%%%
18676E1%%Q%%%%%qQq%%%Q%%%q%Q%%%q%Q%%qQ%q%Q%%%%%qQq%Q%q%QqQqQ%%%qQq%Qq%QqQqQ%
18660E9%qQ%%%%qQq%%%%%%Q%q%Qq%%%%QqQqQqQ%q%Qq%%Q%q%%%%Qq%%%%%%Q%q%QqQ%%%qQ%%
18644E9qQq%QqQ%%%qQ%%q%Q%%qQq%Qj6L2j6k4K4%%Qm0M8l2J6j6K4q%%Qk4Q%%QqqJ6qQqQ%q
18631E1%%%%%%%%Q%q%%%%Q%%q%%%%%%%%%%%%%%%Qq%%%%%%QqQ%qQ%%%q%Q%%q%Qq%Q%q%%QqQ
18615E9qQ%%%qQqQq%%%%QqQ%%qQ%qQ%%q%Qq%%%%Q%%%%%%%q%Q%q%Q%qQqQqQq%Q%%q%Qq%%Qq
18600E1%%Qq%%Qq%%Q%%%q%Q%%qQ%%qQqQqQqQ%qQ%%q%%%Q%q%%%%%%%%%%%%%QqQq%Q%%%%%%%
18584E9%%%%%%%qQ%%%%q%%%%Q%%q%%Q%%%%%%%qQq%Qq%Q%qQq%%%%%Q%%%%%%q%%%%%%%%%%%%
18568E1%%Q%q%%%Qq%Q%qQq%QqQ%q%%%QqQ%%%%%%%%%%qQ%qQ%qQ%%%%%%%%%%%%%qQq%QqQ%qQ
18552E9q%QqQ%%qQ%%q%QqQ%%qqQ%%Q%q%Q%qQqQ%q%QqQqQ%%qQ%qQq%%Q%q%%Q%%%qQ%%%qQ%q
18536E1Q%q%%Q%qQ%%%%%q%Q%%qQ%%qQ%%qQ%q%Q%%%qQ%qQ%%q%%%%%%QqQ%%%%%q%Qq%%%Qq%Q
18521E9qQq%%%%%Qq%Q%qQ%%q%%Q%q%%%%Qq%%%%QqQqQ%%%%q%Qq%%Qq%Q%qQ%%%%%%%%%%%qQ%
18505E9q%%%%QqQ%qQ%%%%%%%%%q%%QqQ%%qQqQ%q%Q%%qQq%%%%%Qq%%Q%qQ%%%%qQ%%qQ%%%%%
18489E9%%q%%%QqQq%%Q%qQ%%%%%%%%%%%%%%%qQq%%%Q%%%qQq%Q%%%%%%qQqQ%%%qQ%q%Q%%%q
18473E1%Q%%qQqQq%Qq%Qq%Q%q%Q%qQ%%qQqQ%qQ%%%%%%qQ%qQq%%%%%%%QqQ%Qj6Q%%%%qQ%%%
18458E9%%qQqQ%%%%%%%%%q%QqQqQ%%qQq%%Q%%qQq%%%%%%%%%%%%%%%qQ%%%%%%%Q%q%%%%%Qq
18442E1%QqQ%%%%%%%%%qQ%%qQ%%%%%%qQ%%%%%%qQ%%%%%%%%%%%%q%Q%%qQ%%%%%qQ%%q%%QqQ
18426E9qQq%%%%QqQ%qQ%q%Q%%%%%%%%%%%q%%%Q%q%%Qq%QqQqQ%qQ%qQ%%%%%q%%Q%%%%%%%qQ
18410E9q%QqQ%%%%%qQq%%%%%%%%Qq%Q%%%qQqQ%qQ%qQ%j6J6q%%Qq%%%%Qq%Q%q%%Q%%%%qQqQ
18395E9%%q%QqQ%qQ%%%q%QqQ%%qQqQ%%%q%%Q%%%%qQ%%q%Q%%%%%%%%%%%%%%%%%%%%%%%%%%%
18379E9qQ%%%%%%%qQ%qQ%qQqQqQqQ%%%%%qQ%%%%%%qQ%q%%Q%qQ%qQqQ%%%%%%%%%qQ%%%%%%%
18363E9%%%%%%%%%%%%%%%%%%qQqQ%%%%%%%%%%%%%%%%%qQ%%%%%%%%%%%%%%%%qQ%qQ%%qQqQ%
18348E9q%Qq%%%%Q%%%%%q%%Q%%q%Q%%qQ%%%%%%%qQ%qQ%%%%%%qQ%%%%qQqQ%qQ%qQ%%%%%%%%
18332E9%%%%%%%qQ%%%%%%%qQ%%%%%%%%%%%%%%%%%%%%%%%q%QqQ%%%%qQ%%%qQ%%%%%%%Qq%qQ
18316E9%%qqJ6%%%k4K4Q%j6Qk4K4%j6J6qQ%%%%qQ%Qq%%%%%%%%%qQ%qQ%%%%%%%%%%%%%qQqQ
18302E9q%Q%%%%%%%%%%%%%%%%%%%%%%%qQ%%qQqQ%qQqQqQqQ%%%%qQqQqQqQ%q%%QqQ%qQqQ%q
18286E1Q%%%Q%j6Q%%%Qq%%%%%%%q%Q%%%%%%%%%%%%%%%%%%%%%%q%%Q%qQ%%%%%%qQqQ%%%%%%
18271E9qQ%%%%%%%%%%%%%%%%%%%%%%%%qQ%%%%%%%q%Q%%%%%qQ%%%%%%%%%%%%qQ%%%%%%%q%Q
18255E9q%Q%%qQ%%%%%%%%%%%%%%qQ%%%%q%Q%qQ%%q%%QqQq%Q%%%qQ%%%%%%%%%%q%Q%%%qQ%%
18239E9%%%%%%%%%%%%%%%%%q%%Q%%%qQqQ%%qQqQ%%%%%qQ%%%%qQ%qQqQq%%Q%%%%%q%QqQqQ%
18223E9%%%%%QqQq%%%%qQ%%qQ%%%qQqQ%%qQ%%%qQ%q%Q%qQq%%%Q%%%%q%QqQ%qQqQ%%%qQ%%%
18207E9%%%%%%%%%%%%%%%%%%%%%%%%q%%%Q%q%Q%%%qQ%qQ%%%%q%Q%%qQ%%%%%%%%%%%%%qQ%q
18192E1Q%%%qQq%%Q%qQqQqQ%%%%%%%%%%%%%%qQqQ%%%%%%%%%qQ%q%%QqQqQ%qQ%qQqQ%%%qQ%
18176E9%%%%%%%%%%%%%%%qQ%%%%%qQqQ%%QqqQqQqJ6q%%%q%Q%%qQ%%%%qQqQ%%%%%%%%%%%%%
18160E9%%%%%%%%%%%%%%%%%%%%%%%%%%%%qQ%%%%%%%%%%%%%%%%%%%%%%%%%%%%%%%qQ%%qQ%q
18145E1%%Qq%%%%%Q%q%QqQqQqQ%%%qQ%%q%Q%%%%%qQq%Q%q%%Q%%%%%%%%%%%%%%%%%%q%Qq%Q
18129E9%qQq%Q%%%%%%%%%%%%%%qQqQ%%%%%%%%%%%%%%qQqQ%%qQ%q%Q%%%%q%Q%q%Q%%%qQ%%%
18113E9%%%%%%%%%%%%%qQqQ%%qQq%Qq%Q%%%qQ%%%qQ%%q%Q%%%%%%%qQ%%%qQ%%%%%%%%%%%%%
18097E9%%%%%%%%%%%%%%%%%%%%%qQ%%%%%%%%%%%%%%%%%%qQ%%%%%qQ%%%%%%%%%%%qQ%%%%%%
18081E9%%%%%%%%Qq%qQqQqQ%qQ%%qQqQ%%%%qQ%qQqQ%q%Q%%%%%q%%%%%%Qq%%%QqQ%%%q%QqQ
18066E9%%%%%%%%%qQqQ%%%qQ%%%%%%%%%%%%%%qQ%q%Q%%%%%%%qQ%qQqQ%%%%%q%Q%%%%%%%qQ
18050E9qQqQq%%%Q%%%qQqQ%q%QqQ%%%%%%%%%%%%%%qQq%QqQ%%%%%%%%%%%%%%%%%q%Q%qQ%qQ
18034E9%%%%%%qQ%qQq%Q%%%%%%%%%%%qQ%%%qQ%%%%%%%%%%%%%%%%%%%%%Qq%%%%%%%%%%%%%%
18018E9Qq%qQqQ%%q%QqQ%%%%%%%qQ%%%%%qQ%%%%%%qQ%%%%%%qQq%Qq%%Q%%%%%qQ%%%%q%%%%
18002E1Q%%%%%%qQ%%%%%q%Q%%%%%%%%%%%%%%%%qQ%%%%%%%q%%Q%%%%%%%%%%QqQj6%Qq%QqJ6
17987F7q%q%Q%J6qQqJ6J6o4J6k4M8%k4%J6k4K4q%qQQk4J6%%%%%%%%%Qq%%%Qq%%%%%%%%%qQ
17974E9%%%%%%%%%%%%%%%%%%%%%%%%%%%%%%%%%%%%%%%%%%qQ%qQ%%q%%QqQ%qQ%%%%qQ%qQqQ
17958E9q%%%Qq%QqQ%%%qQq%Q%%%%%%%%%%%%%%%%%%%%%%%%%%%%%%%%%%%%%%%%%%%%%%%%%%%
17943E9%%%%%%%%%%%qQ%%%%%%%%q%Q%%%%%%%%%%%%%qJ6%%qq%Q%%%%%%%%%%%%%%Q%q%%%%%%
17927E9%%%%%%%%%%%%%%%%%%qQ%%%%%%%%%%%%%%%%%%%%qQ%%%%%%%%%%%%%%%%%%%%%%%%%%%
17911E9%%%%%%%%%qQ%%%%%%%%%%%%%%%%%%%%%%Qq%%%%%q%Q%%%%%%%q%Q%%%qQ%%%%%%%%%%%
17896E9%%%%%%%%%%%%%%%%%%%%%%%%%%%%qQ%%%%%%%%%%%%%%%%%q%Q%%%%%%%%%%%%%%%%%%%
17880E9%%%%%%%%%%%%%%%%%%%%%%Qq%%%%%%%%%%%%%%%%%%%%%%%%qQ%%%%%%%%%%%%%%%%%qQ
17864E9%%%%%%%%%%%%%%%qQ%%%%%%%%%%%%%%%%%%%%%%%%%%%%%%%%%%%%qQ%%%%%%qQqQ%%qQ
17848E9%%%%qQqQ%%%Qqj6QQ%qJ6%%q%%%%%%%%%%%QqQq%Q%q%%Qq%%%%qQ%%%%%%%%%%%%%%%%
17833E9%%%%%%%%%%%%%%%%%%%qQ%%%%%%%%%%%qQ%%%q%Q%%%%%%%%%%%%%%%%%%%%%%%%%%%%%
17817E9%%%%qQ%%q%Qq%%QqQ%%J6j6%%qJ6%%qqQ%%%%%%qQ%%%%%%%%%%%%%%%%%%%%%%%%%q%%
17802E1Q%qQqQ%%%qQ%%%%%%%%%%%%%%%%%%%%%%%%%%%%Qq%%%%%%%%%%%%qQ%%qQ%%%%%q%Q%%
17786E9%%%%%%%%%qQ%%%%%%%qQ%%%%%%%%%%%%Qq%%%%%%%%%%%%%%%%%%%%%%%%%%%%%%%qQ%%
17770E9%qQ%q%%Q%%%%%%%%%%%%%%%%%%%%%%%%%%%%%%%%%%%%%%%%%%%%qQ%qQ%%%%%%%%%%%%
17755E9%%%%qQ%%%%%%%%%%%%%%qQ%%qQ%%%%%%%Qq%%%%%%%%%%Q%%qQq%%%%%%%%%%%%%%%%%Q
17739F7q%qQ%%%qQ%%%%%%%%%%%%%%%%%%%%%%%%%%%%%%%%%%%q%Q%q%%Q%%%%%%qQqQ%%qQ%%%
17723E9%qQ%%qQ%qQ%%%%%%%%%%%%%%%%%%%%%%%%%%%%%%%%%qQ%%%%%%%%%%%%%%%%%%%%%%%%
17707E9%%%%%%%%%%%qQ%qQqQ%%qQ%%%%%%%qQ%J6k4QQ%qqQq%%J6q%%%%Qq%%Qq%%%%%%%%%%%
17692E9%%Q%q%%%%%%%%%%%%%%%%%%%%%%%%%%%%%%%%Qq%%%%%%%%%%%%%%%%%%%%%%%%%%q%Q%
17676E9%%%qQqQqQqQqQ%%%%%%%%%%%%%%%%%%%%%%%%%%%%%%%%%%%%%%%%%%%%qQ%%%%%%%%%%
17660E9%%%%%%%%%%%%%%qQ%%%%q%Q%%%%%%%%%%%%%%Qq%%%%%%%%%%%%%%%%%%%%%%%%%%%%%%
17645E9%%%%%%%%%%%%%%%%%%%%%%%%%%%%%%QqQq%%%%%%%%%%%%%%%%%%Qq%%%%%Q%qQq%%%%%
17629E9%%%%%%%%%%%%%%%%%Qq%%%%%%%%%%%%%%%%%%%%%%%%%%%%%%%%%qQ%%%%%%%%%%%%%%%
17613E9%qQ%%Qq%%%%J6l2QQ%Qq%%%%%%%%%%%%%%%%%%%%%%%%%%%%%%%%%%%%%%%%%%%%%%%Qq
17598E9%%%%%%%%%%%%%%%%%%%%%%%%%%%%%%%%%%%%%%%%Qq%%%%%%%%%%%%%%%%%%%%%%%%qJ6
17582F7q%%%%%%Qq%%%%%%%%%%Qq%%%Qq%%Qq%%%Qq%qQ%%%%%qQ%%%%%%%%%%%%%%%%%%QqQ%q%
17566E9%%%%%%%%%%%%%%%%%%%%%%%%%%%%%%%%%%%%%%%%%%%%%%%%%%%%%%%%%%%%%%Qq%%%%%
17551E9%%%%%%%%%%%%%%%%%%%%%%%%%%%%%%%Q%q%%%%%%Qq%%%%%%Q%q%Qq%%%%%%%%%%%%%%%
17535E9%%%%%%%%%%%%%%%%%%%%%%%%%%%%%%%%%%%%%%%%qQ%%%%%%%%qQQq%Qq%Qq%%%%%%Qq%
17519E9%%%%%%%%%%Qq%%%%Qq%%%%%%%%%%%%%%%%%%%%%%%%%%%%%%%%%%%%%%%%%%%%%%%%%%%
17503E9%%%%%%%%%%%%%%%%%%%%%%%%%%%Qq%%%%%%%%%%%%%qQ%%%%%%%%%%%%Qq%%%%%%%%Qq%
17487E9%%%%%Qq%%%%%%%%%%%%%%%%%Qq%%%%%%%%%%%%Qq%%%%%%%QqQq%%%%%%Qq%%%%%%%Qq%
17472E9%%%%%%%%%%%%%%%%%%%%Qq%q%%Q%%%q%J6q%%Qq%Q%q%%%%%%%%%%%%%%%%%%%%%%%QqQ
17456F7q%%%%%%%%%%%%%%%%Qq%%%%%%%%%%%%%%%%Qq%%%%%%%%Qq%%%%%%%%%%%%%%%%%%Qq%%
17440E9%%%%Qq%QqQ%q%Qq%%%%%%%%%%%%%%%qQ%%%%%%%Qq%%%%%%%%%%%%%%%%%%%%%%%%%%%%
17424E9%%%%%%%%%%%%%Q%qQq%Qq%Qq%%Q%q%%%%%%%%%%%%%%%%%%%%%%%%%%%qQ%%%%%%%%%%%
17409E9%%%%%%%%%%%Qq%%qQ%%%%%%%%%%%%%%%%%%%%%%%%%%%%%%%%%%%%%%%%%%%%%%%%%%%%
17393E9%%%%%%%%%%%%%%%%%%%%%QqQ%%%%%%%%q%%%%%%%%%Qq%Qq%%%%%%%%%%%%Qq%%%qQ%%q
17377E1QQ%k4K4l2M0qq%%Qj6Q%%%%%%%%%%%%%%Qq%%%%%Qq%%%%%%%%Qq%%%Qq%%%%%%%%%%%%
17362E9%Qq%%%%%%%%%%%%Qq%%%%%%%%%%%%%%%%%%%%%%%%%%%%%%%%%%%%%%%%%%%%%%%%%%Qq
17347E9%%%%Qq%%Qq%%%%Q%qQq%%%%%%%%%%%%%%%%%%%%%%QqQq%%%%%%%%%%%%%%%%%%%%%%%%
17331E9%%%%%%%%%%%%%%%%%%%%%%%%%Q%q%%%%%%%%%%%%%%%%%%%%%%%%%%%%%%Qq%%%%%%%Q%
17315F7q%%%%%%%%%%%%%%Q%q%%%%%%Qq%%%%%%%%%%%%%%%%%%%%%%%%%%%%%%%%%%%%%%%%%%%
17299E9%%%%%%%%%%%%%%%%%%%%%%%%%%%%%%%%%%%%%%%%Q%%%%q%%%%%%%%%%%Qq%%%Qq%%Qq%
17283E9%%%%%%%%%QqQq%Q%qQq%%%%%%%%%%%%%%%%%%%%%%%%%%%%%%%%%%%%%%%%%%%%%%%%%%
17268E9%%%%%Qq%Qq%%%%%%%%QqQ%%q%Qq%Qq%Qq%%%Q%q%%Qq%%%Qq%%%%%%%Qq%%%%%%%%%%%%
17252E9%%%%%%%%%%%%%%%%%%%%%%%%%%%%%%%%%%%%%%%%%Qq%%%%%%Qq%%Q%%qQ%%q%Qq%Qq%%
17236E9%%%%%%%%%Qq%Q%q%%Q%j6Q%Q%%%j6%QQ%q%%%%%%%%%%%%%%%%%%%%%%%%%%%Qq%Qq%%%
17221E9%%%%%%%Qq%%%%%Qq%%%%%%%%Qq%%%Qq%QqQ%q%%%%%Qq%%%%QqQ%%%q%Qq%%%Q%%qQ%q%
17205E9Q%%%q%%%%%Q%q%Qq%%%%%%%%%%%%%%Qq%%%%%%%%%%%%%%%%%%%%%Q%q%%%%%Qq%%%%%%
17189E9%%%%%Qq%%%%%%Q%%q%Qq%Qq%%%%%%%%%%%%Qq%%%Qq%%%%%%%%%Qq%%%%%%%%%%%Qq%Q%
17173F7qQ%%%%%q%Qq%%%%%%QqQqQq%Qq%%%Qq%Qq%Qq%%%%Qq%Qq%%%%%%%%%%%%%%%%%%%%%%Q
17158F7q%%%%Qq%Qq%%%%%%%%%%%%%%%%%%%%%%%QqQ%%%q%%%%%%Qq%%%%%Qq%%%%QqQqqJ6q%Q
17142F7%%%qQqQ%%q%%Q%q%%%%Qq%%%%Qq%%%%Qq%%%%%%%%%%%%%%%%%Qq%%%%%%%%%%%%%%%%%
17126E9%%%%%%%%Qq%%%%Q%qQ%%%q%%%%%%Qq%%%%%%Q%q%%%%Qq%Qq%Qq%Qq%Qq%%%Qq%%%%%%%
17110E9%%%%%%%%%%%%%%%%%%Q%q%%%%%%%%%Q%qQ%q%%%%%%%%%%%%%%%Qq%%%%%%%%%%%%%%%%
17095E9%%%%%Qq%%Q%%q%%%%%%%%Q%%%qQqQq%%%%%QqQ%%qQqQ%%qQqQ%%%%%%%%%%%%%%%qQq%
17079E9%%%%%%%QqQ%%%%qQ%%%%%%%%%%qQ%%%%qQq%Q%%%q%%%%%%%%QqQq%%%%Qq%%%Q%%q%%Q
17063F7%%%%%%%%%qQ%%%%%%qQ%q%%%%%%%%%%%%QqQ%%q%%%%%%%Qq%%%%%%%%%Qq%%%%Qq%Qq%
17047E9q%Qj6K4%%%q%%%Qq%Qq%%%%%%Qq%Qq%%Q%%%q%Q%%qQq%%%Q%qQ%q%%%%%%%%Q%%%%qQq
17032E9%Qq%%%%%Q%q%%QqQq%%%%Qq%%%%%%Qq%Qq%%Q%%%%q%%%%qQ%%%%Qq%%Qq%Q%%%%q%%%Q
17016F7q%%%%%%%%%%%%%%Q%%%%qQ%q%QqQq%QqQqQq%Q%qQ%%%%%%qQ%qQq%QqQ%%q%%Qq%%Qq%
17000E9%%Qq%%%%%%Qq%%%QqQ%qQq%Q%%q%%Q%q%%Q%q%%QqQqQqQ%%qQ%qQqQ%%q%%Qq%%%%Qq%
16985E9%%%%Q%q%%%%%%%%%%QqQ%qQ%qQ%%q%%QqQqQq%%%%%Q%q%%%%Qq%%%%%QqQ%%%qQq%%%%
16969E9%%%%%%%Qq%QqQq%%%Q%%%%%%%%%qQq%%%Q%q%%%%Q%%q%%Q%%q%%QqQqQ%%%%q%Q%%%%q
16953E9%%%Q%%%%%%qQq%%Q%%%%%qQq%Qq%%%Q%%qQ%q%%%%%%%%%%%%%QqQ%%%%%qQ%%q%%%%%%
16937E9%Q%q%%Qq%%%%%%Q%q%%%Qq%Q%%%%qQ%%qQqQ%qQ%qQ%%%%%%%qQ%q%Qq%%%%Qq%%Q%%%%
16921F7qQqQq%%%Q%%q%Qq%%Q%q%%%%%Qq%%%Q%%qQqQq%%%%QqQ%%q%Q%q%%%%%Q%q%K4j6q%Qq
16906E9%%%%Q%%qQ%%%qQqQ%qQqQ%%qQqQq%%%%Q%q%%QqQ%%%%%%q%Q%%q%Q%%qQ%%%%%%%%%q%
16890E9Q%%qQqQ%qQqQ%%%%%%%%%qQ%qQ%qQqQq%QqQ%%%%q%%QqQ%qQ%%qQQq%qQ%j6Q%%q%%J6
16875F7qL2k4k4M0qm0J6K4k4QQ%%%%%%q%Qq%%%%%Qq%Q%%%%%%%%%%%qQ%%%qQq%%Q%%%%qQ%%
16861F7qQq%%%%QqQ%qQ%%qQqQq%Q%%%%%%%%%%%%qQqQ%%%%q%Q%%%q%%Q%%%qQ%%qQ%%%%%%%%
16845F7%%%%%%%%%qQ%%%%qQ%%%qQ%%%%%%%%qQ%%%%qQ%qQ%%%%%%%%%%%%qQqQqQq%Q%%%%%qQ
16829F7%%%%%%%%%%%%%%%q%%%%%%%QqQq%Q%%%%q%%Q%%qQ%qQ%q%Q%q%Q%q%Q%q%Q%%%%%%%%%
16814F7%%%%%%%qQ%%%%%%%%%%%q%Q%%%%%qQ%%%q%Qq%Q%%%%%%%%%%%%qQq%Q%qQ%%%%%%%%%%
16798F7%%%qQ%%qQ%%%qQ%%qQ%%%%qQ%q%Q%%qQ%%%%qQ%%qQ%%qQ%%qQ%q%Q%qQqQ%%%%qQ%qQ%
16782F7%%%%%%%%%%%qQq%Qq%%%Q%qQqQqQ%qQ%qQ%%qQqQqQ%%q%Q%qQ%qQ%%%q%%%Q%%%q%%Qq
16766E9%QqQq%%Q%qJ6q%QqqJ6l2J6Ql2L2k4J6J6j6qJ6q%Qq%QQq%Qqq%%%Q%qQ%%%%%%%q%%%
16753E9%%QqQ%qQqQ%%q%%%%%%%%%%%QqQqQ%q%Q%%%%%%%%qQ%%%%q%Q%q%Q%%%%%%%%%%%%%%%
16737F7%%%qQ%%%%%%%%%%%%%%%%%q%%QqQ%%%%%%%%%%%%%%%%%%qQ%qQ%%%%%%%qQ%qQ%%%%%%
16721F7%q%Q%%%%q%Q%qQq%Qq%%Q%%qQ%qQqQ%%%%qQ%qQ%%%%%%%%%%%%%%%%%%%%%%%%%%%%%%
16706F7%%%%%%qQq%%Qq%Q%%%qQqQ%%%%%qQqQ%%qQqQ%%%q%QqQq%Q%qQqQ%%%%%qQ%%%%%%%%%
16690F7%%%%%%%%%%%qQqQ%%%%%%%%%%%%qQ%%%%%%%%%%%%%%%%%%%%%%%%%%q%%%%Q%%%%%%%%
16674F7%%%%%%Qj6%%%%%%QqQ%qQ%%%qQ%%%%%%%%%%%%%%%%%%%%%%%%q%%%Q%%%%%%%%%%%%%%
16658F7%%%qQ%q%QqQ%%%%%%%%%%%%%%%%qQ%%qQqQq%%%Q%%q%Q%%%%%%%qQq%%QqJ6q%%q%Qq%
16643E9Q%%%%%%qJ6q%%%%qQ%%%%%%%%q%%Q%%qQqQ%%%%%%%%%%%%%%%%%%qQ%%qQqQ%%%%%%%%
16627F7q%Q%%%%%%%%%%%%%%%%%%%qQ%%%%qQqQ%%%%%%qQ%%%%qQqQ%%%%%%%%%%%Qq%%%%%%%%
16611F7%%%%%%%%%%%%%%%%%%%%%%%%%%%%%%%%qQ%%%q%QqQ%%%qQ%%%%%qQ%%%%%%%%%%%%%%%
16596F7%%%%%%%%%%%%%%%%qQ%%%%%%%%%%%%%%%%%%%%%%%%%Qq%%%%%%%%%%%%%%%%%%%%%%%%
16580F7%qQ%%qJ6j6QqQ%%%%%%qJ6q%%%%%qQ%%%%%%%Qq%%%%%%%%%%%%%%%%%%%%%%%%qQ%q%%
16565E9QqQ%%%%%%%%%%%%%%%qQq%QqQ%%%%%%%%%%qQ%q%%Q%%%%%%%%%qQ%%%%%%%%%%%%%%%%
16549F7%%%%%%%%%%%%%%%qQ%%%%%%%%%%%%%%%%%qQqQ%%%%%%%%%%%%%%%%%%%%%%%%%%%%%%%
16533F7%%%%%%%%%%%%%%%%%%%%%qQQ%qq%%Q%%Qq%%%%%%%%%%%%%%%%%%qQ%qQ%%q%Q%%%%%qQ
16517F7%%%%%%%%%%%%%%%%%%%%%%%%%%%%%%%qQ%%%%%%%%%%%%%%%%%%%%%%%%%%%%%%%%%%%%
16502F7%%%%%%%%%%%%%qQ%%%%%%qQ%%%%%%%%%%%qQ%%%%%%%%%%%%%%%%%%%%%%%%%%%%%%%%%
16486F7%%%%%%%%%%%%%qQ%%%%%%%%%%%%%%%%%%%%%%%%%%%%%%%%%%%%%%%%%%%%%%%%%%qQ%%
16470F7%%%%%qQ%%%%%%%q%%Q%%Qq%%qQ%%%%%%qQ%qQ%%%%%%%%%%%%%%%%%%%qQ%%%%%%%%qQ%
16454F7%%%Qq%%%%Qq%%%%%qQ%%%%%%%%%%%%%%%%qQ%qQ%%%q%Q%%q%Qq%Q%Qj6%%J6j6j6M8m0
16440E1J6%K4q0J04q8QP2n6N6j6l2J6qqJ6%qQqqJ6qQq%QqQqQ%%q%%%%%%%%%qQ%%%%%%%%%%
16427F7%%%%%%%%%%%%%Qq%%%%%%%%qQ%%qQ%%%%%%%%%%%%%%%%%%%%%%%%%%%%%%%%%%%%%%%%
16411F7%q%Q%%%qQ%%Qq%%%%%QqQqQq%q%%Qq%Q%%%%%%%%%%%%%%%%%%%%%%%%%%%%%%%%%%%%%
16396F7%%%%%%%%%%%%%%%%%%%%%%%Qq%%%%%%%QqQqQq%%%%%%Qq%%Qq%%%%%%%%%%%%%%%QqQq
16380F7%%Qq%%%%%%%%%%%Qq%Qq%%%%%%%%%%%%%%%%%%%%%%%%%%%%%%%%%%%%%%%%%%%%%%%%%
16364F7%%%%%%%%%%%%%%%%%%%%%%%%%%%%%%%%%%%%%%%%%%%%%%%%%%%%%%Qq%%%%%%%%%%%%%
16348F7%%%%%%%%%%%%%%%%%%%%%%Qq%%%%%%%%Qq%%%%Qq%Qq%%%%%%%%%%%%%%%%%%%%%%%%%%
16332F7%%%%%%%%%%%%%%%%%%%%%%%%%%%%%%%%%%%%%%Q%q%%%%%%%%%QqQ%q%%%%%%%%%qQ%%%
16317F7%%%%%%%%%%%%%%%%%%%%%%%%%%%%%%%%%%%%%%%%%%%%%%qQ%%%%Qq%%QqQq%%%%%%%%%
16301F7%%%%%%%%%%%%%%%%%%%%%%%qQQq%qQQ%qK4j6j6J6j6QQq%%%%%%%%%%%%%%%%%%%%QqQ
16286G5q%%%%%%%%%%%%%%%%%%%%Qq%%%%%%%%%%%%%%%%%%%%%%Qq%%%%%%Qq%%%%%%%%%Qq%%%
16270F7%%%%%%%%%%Qq%%%%Qq%%Q%qQ%qQq%Q%qQ%%%%%%qQqQqQ%q%%Qq%%%%%%%%Qq%%%%%%%Q
16255G5q%QqQq%%%%%%%%%%%%%%%%%%%Q%q%%%%%%%%%%%%%%%%%%%%%%%%%%%%%%%%%%%%%%%%%
16239F7%%%%%%%%%%%%%%%%%%%qQQqQ%%%%%%q%%Q%q%Q%q%%%%%%%%%%qQ%%%q%Q%%%%%%Qq%%%
16223F7%%%%%%%%%%%%%%%%%%%%%%%%%%%%%%%%%%%%%%%%%%%%%%%%%%%%%%%%%%%%%%%%%%%%%
16207F7%%%%qQ%%qQQq%%Qq%%%Q%q%Q%q%Q%q%Q%q%Q%q%%%%Qq%%%%%%%%%%%%%%%%%%%%%%%%%
16191F7%Qq%%%%%%%%%%%%%%%%%%%%%%%%%%%%%%%%%%%%%%%QqQ%q%%%%%%%%%%%%%%%%%Q%%%q
16176F7Qq%Q%q%%%%%%%%%Q%%%q%Q%qQq%Qq%Qq%%%%%%%%%%%%%%%%%%%%Q%q%QqQ%q%Q%%q%%%
16160F7%%%%%%Q%q%%%%%%%%%%%%%%%%%%%%%%%%%QqQqQ%qQq%%%Qq%%%%%%%%%%%%%%Qq%%%%%
16144F7%Q%%%qQ%%%%q%%%%%%Qq%%%%%%%%%Qq%%Qq%%%Qq%Qq%Q%%qQ%qQ%q%%%%%%%%%%%%%%%
16128F7Qq%Qq%%%%%%%%%%%%%%%Q%%%%qQq%%%%%%%Qq%%%%%%%%%qQ%qQ%%%%%%%%%%%%Q%qQ%q
16113F7%%Q%%qQ%q%Qq%Q%k4J6J6l2J6Q%qQj6J6q%Qq%%%%%%%%%%%%Qq%%Q%q%%%%Q%%%q%Q%%
16098G5%%qQ%%%%%%qQ%%%q%%Q%qQ%qQ%qQq%Qq%%%%%%%%%%QqQqQqQ%%q%%%%Q%q%%Qq%Qq%%%
16083F7%%%%%%%%%%Q%q%Q%q%%Qq%%%QqQq%%%%%%%%%%%%%Qq%%%%Q%%%%%%qQ%%%%%%%%q%Q%q
16067F7%QqQ%%%%q%%%%%Q%%%qQ%%qQ%%%%qQqQ%qQqQj6Q%%Q%%q%Qq%%%%%QqQq%Q%qQ%q%%%Q
16051G5qQ%%q%Q%%%%%%%q%Q%q%%%%%%%%Qq%%%Q%qQ%%qQ%qQqQq%%%%%%Qq%%%%%%Qq%%%%%%Q
16035G5%%%%%%%%qQ%q%%%%%%%%%%%%%Q%qQq%Q%q%%%%%%%%Q%qQqQ%%%%%%%%%%qQq%%%%Q%q%
16020F7%%%%%%%Qq%%%%%%%%%%Q%%qQqQ%%qQ%%q%Q%%%%%q%Q%%%%%%%qQ%%%qQ%%%qQ%q%Qq%%
16004F7%%%%Qq%%%%%Q%q%QqQq%Q%qQ%%%%%%%qQ%%%q%Q%%%q%%Q%q%%%Q%qQqQqQ%%%qQ%%%%%
15988G5%%%%%%%%%%%%%%%%%%%%qQq%QqQq%%QqQ%qQqQq%Q%q%%Q%%q%QqQ%%qQ%qQq%%Q%%%qq
15972E9Q%%Qq%Qq%j6L2j6QqQq%%Q%qQq%%%%QqQ%q%%QqQ%%%%%%%%%%%%qQ%%%q%%%Qq%Q%%%%
15957G5%%%%q%Qq%QqQqQq%%%%%Qq%%%%%%%%%%%%%%Q%q%%Q%q%QqQ%qQ%%%%qQ%q%Qq%%%QqQq
15941F7QqQ%qQ%%%%q%%Q%%Qq%%%k4K4%%%qQ%%%qQq%%Q%%qQq%%QqQqQ%%%%%%%%qQ%q%Qq%Q%
15926G5%%%q%%%%%%%%%%%%%Qq%%%%%%%%QqQq%Q%%%%%%%%%%%%%%%%%qQ%%qQ%q%Q%%%%%%%%%
15910G5%%%%%%%%%q%%Q%%q%%%Q%q%Q%%%%%%%%%%%%%%%%%%%%%%%%%%%%%%%%%%%%%%%%%qQqQ
15894G5%%%q%Q%q%Q%%q%%%Q%%qQ%qQ%%%%%%%%%%%%%q%%%%Q%q%Q%%qQqQ%%qQ%%q%QqQ%qQ%%
15879G5qQqQqQqQ%%%%qQ%QqQq%%%%%%%%%%%q%Q%%%%%%%%%qQqQ%%qQq%%%%%%Q%%qQq%%%Qq%
15863F7%Qq%Qq%%%Q%%qQ%%%%%%%%%%%%qQ%%%%qQ%%qQ%%%%Qq%QqqQqQ%%%%%%%qQ%qQq%Q%%%
15847G5%%%%%%%qQqQq%Qq%Q%%%%%%q%%%%Q%q%%%%Qq%%Qq%Q%%%%%%%%%%q%%%%%Q%%%%%%%%%
15831G5%%%%%qQ%%%%%%qQ%qQqQ%%%qQ%%qQJ6j6Q%q%%qQ%qQQq%qQ%%%%%%%%%%%%%%qQ%%qQ%
15816G5qQ%%qQ%%%%%%%%%%%%%%q%%Q%%%%qQqQ%%qQ%%%%%%qQ%%%%%%q%%%%Qq%Q%%%%QqQq%%
15800G5%%%%%%%%%%%qQ%%%%%%%%%qQ%%%%qQqQ%%%%%%%%qQ%qQ%%%%q%%Q%q%%%%QqQqQ%%%qQ
15784G5qQ%%%qQ%%qQ%qQqQ%%%qQ%qQ%qQ%%%%%%%%%%%%%%qQ%%%%%%%q%Q%%%qQ%%%%%%%%%%%
15769G5%%%%%%%%qQ%qQ%%%%%%%%%%%%%%%%%%%%%%%%%qQqQqQ%%%%%%%%%%%%%%%%qQ%%%%%%%
15753G5%%%%%%q%QqQ%%%%qQ%%%%%%%%%%%%%%%%%%%%%%%%%%%%%%%%%%%%%%qQqQq%Q%%%%%%%
15737G5%%q%QqJ6q%Qq%qQ%q%%QqQqQq%Q%%%%%%%%%%%%%%%%%%%%%%%%%%%%%%%%%%%%%%%%%%
15721G5%%%%%%%%%%%%%%%%%%%%%%%%%%%%%%%%%%%%%%%%%%%%%%%%%%%%%%q%%%%%%Q%%%%%%%
15706G5%%%qQ%%%q%Q%%%%QqqQQq%%%%%%%%%%%%%%%%%%%%%qQ%%%%%%%%%%%%%%%%%Qq%%%%%%
15690G5%%%%%%%%%%qQ%%%qQ%%qQ%%%%%%%%%%%%%%%%%%%%%%%%%qQ%q%Q%%%%%%%%%%%%%%%%%
15674G5%%%%%%%%%%%%%%%%%%%%%%%%%%%qQ%%%%%%%%%%%%%%%%%%%%%%%%%%%%%%%%%%%%%%%%
15658G5%%%%%%%%%%%%qQqQqQ%%%%%%%%%%%%%%%%%%Qq%%%%%%%%%%%%%%%%%%%%%%Qq%Qq%%%%
15642G5%%%qQ%%%Q%j6Q%%%%%%%%%%%%%%%%%%%%%%%%%%Qq%%%%%%%%%%%%%%%%%%%%%%%%%%%%
15627G5%%%%%%%%%%%qQqQ%%%%%%%%%%%Qq%%%Qq%%%Qj6Q%%%%%%%%%%%%%%%%%%%%%%%%%%%%%
15611G5%%qQ%%%%%%%%%%%%%%%%%%%%%%%%%%%%%%%%%%%%%%Qq%%%QqQq%%%%%%%%%%%%%%%%%%
15595G5qQ%%%%%%%%%%Q%q%%%%Q%%j6QqJ6q%%%%Qq%%%%%QqQ%qQqQq%%%%%%%%%%%%%%%%%%%%
15580G5%%%%%%%%%qQ%%%%%%%%%%%%%%%%%%%%%%%%%%%%%%%%%%%%%%%%Qq%%Qq%%Q%q%%%%%%%
15564G5%%%%%%%%%%%%%%%%%%%%%%%%%%%Q%q%Qq%%%%%%%%%%Qq%%Q%q%%Qq%%%%%%%%%%%%%%%
15549G5%%%%%%%%%%%%%%%%%%%%%%%%%%%%Qq%%%%%%%%%%%%%%%%%%%%%%%%%%%%%%%%%%%%Qq%
15533G5%%%%Q%q%%%%%%%%%%%Qq%%%%%%%%%%%%%%%%%qQq%Q%%qQ%%%%%%%%%%%%%%%%%%%%Qq%
15517G5%%%Qq%%Q%%q%Q%%q%%%%QqQq%%QqQ%%%%%%%qQ%q%QqQq%%%%%%%%%Qq%%%%Qq%%%qQ%%
15501G5j6K4q%Q%q%Q%%q%QqQq%%%%%%%%Qq%%%%%%QqQq%%%%%%%%%%%%QqQ%%%%%%q%%%%%Qq%
15486G5%%%%%%%%%%%%QqQqQ%q%%%%%%%%%%Qq%%%%%%%%%%%%%%%%%%%%%%%Qq%%%qQ%%%qQ%%Q
15470H3%%%j6%Q%%%%Qq%Qq%%%%%%%%%%%%%%%%%%%%%%%%%%%%%%%%%%%%%%Qq%%Qq%%%%%%%%%
15454G5%%%Qq%%%%%%%Qq%%%%%%%%%%%%QqQq%%%%%%%%%%%%%%%%Q%qQq%%%%%%%%%%%%%%%QqQ
15439H3q%Qq%%%%%%%Qq%Qq%%%%Qq%Qq%Qq%%%Qq%%%%QqQqQqQ%qQ%%q%Qq%QqQq%%%%%%%%%%%
15423G5%%%%%Qq%Q%%qQ%q%Q%qQqQq%%%%%%%%%%%%%%%QqQ%q%%%%Q%%%%qQ%%%%%%%%qQ%%%%%
15407H3%%%qQ%qQ%qQqQ%qQqQ%%%%%qQ%%%%%%%%%%%%%qQqQ%%q%%Qq%Qq%Q%%q%Q%q%QqQqQ%%
15391H3%%qQqQq%%%%%%%%%%%%%%%Q%q%Qq%%%qQ%Qq%%Q%%q%Q%%%%%q%%Qq%%%%Qq%%%Q%%q%%
15376G5%%%%%%%%%%%%%%%%%%%%%%Qq%Qq%%%QqQ%%%%%q%%%%QqQ%%%%q%%%%%%%%%%%%%%%%%%
15360G5%%Q%%%%q%%%QqQ%qQj6QQj6J6%%%qQq%Qq%%%Qq%Qq%%%Q%qQ%q%%%QqQq%%%%%%Qq%%Q
15345H3q%%QqQq%%%%%Q%q%Qq%%%%Qq%%%%%Qq%Q%%qQqQ%%qQ%%%qQ%%q%QqQqQqQ%q%%Qq%Q%q
15329G5%%QqQqQq%Q%%%qQ%qQq%Q%qQqQqQ%%qQqQ%%qQqQqQqQqQ%%%%%qQ%qQqQq%%%%%%%%%%
15313G5%Q%%%%%%qQ%qQqQ%%%%%%%%%q%%%%%%%%Qq%%%%%%%Qq%%Q%%%%%%%%%%%%%qQ%%%%%qQ
15297H3q%QQj6%Q%q%%Q%qQqQq%%%Qq%%%Q%qQ%qQqQqQ%qQ%qQq%Q%%%%%%%%%%%%qQ%%%%%%%%
15282H3%%%%%%%qQ%%%%%%%%%%%%%%%%%%%qQ%q%%Q%%%%%%%%%%%%%qQ%%%%%%qQ%%qQ%q%J6j6
15266G5Q%%qQ%%%%%%%%qQ%%%qQ%%%q%Qq%QqQq%Q%%%qQ%qQ%%%%%%%qQqQ%%qQ%%%%%qQq%QqQ
15251H3%qQ%%%%%%%%qQ%%%%%%%qQ%%%%%%%%%%%%%%q%%Q%%%%%%%qQq%Q%%%qQqQq%Q%qQq%Qq
15235G5Q%%qQ%%%%%%%Qq%%%%%%%%%%%Qq%%qQ%%%%%%%%%%%qQ%qQ%%%%%%qQ%%%%%%%%%%%%%%
15219H3%%%%q%%%Qq%Q%qQ%%%%%%%%%qQ%%%%q%%Q%%%%%qQqQq%%Q%%%%%%%%%%%%%%qQ%%%%%%
15203H3%%%%%%%%%%%%%%%%%%%%%%%%%%%%%%%%%%%%%%%%%%%%%%%%%%%%%qQ%qQ%qQ%q%%%Qq%
15187G5%%Q%%qQ%qQ%%%%%%%%%Qq%%%%%%qQ%%%qQ%qQq%Qq%%QqQq%Q%q%Q%%%%%qQ%%Qq%%%q%
15172G5%%qQQqQ%q%Q%%qQqQ%%%q%Q%%%%%qQ%%%%%%%%%%%%%%%%%%%%%%%%%%%%%%%%%%Qq%%%
15156H3%%%%%%%%%%%%%%%%%%%%%%%q%Qq%%%QqQ%q%%%QqQqQ%%%%%%%%%%%%qQqQ%%%%%%%%%%
15140H3%%%%%%%%qQqQ%%%%%%%%%%%%%%%%%%%%%%%%%%%%%%%%%%%%%%%%%%%%%%%%%%%%%%%%q
15124G5Q%%qQ%%%%%%q%Q%%qQ%%%%qQqQ%%%%%%%%qQ%%%%%%%%%%qQqQ%%%%%%qQ%%%%%%%%%Qq
15108H3%%%%%%%%%%%%%%%%%%%%%%%qQqQqQ%%%%%%%%%%%%%%%%%%%%%%%%%%%%%%%%%%%%%%%%
15093H3%%%Qq%%%%%%%%Qq%Qq%%%%%%%%%%%%%%%%%%%%%%%Qq%%%%%%%%%%%%%%%%%%%%%%%%Qq
15077H3%%%qJ6q%%%Qq%%%%Qq%%%%%%%%%%%%%%%%%%%%%%%%%%%%%%%%%%%%%%%%%%%qQ%%%Qq%
15061H3%%%%%%%%%%%qQ%%%%%%%%%%%%%%%Q%q%%%%%%%%%%%%%%%%%%%%%%%%%%%%%%%%%%%%%%
15045H3%%%%%%%%%%%%%%%%%%%%%%%%%%%%%%%%%%%%%%%Q%q%%%%%%%QqqQQqqq%QQQj6J6q%%%
15030H3%%%%%Qq%%%%%%%%%%%qQ%%%%%%%%%%%%%%%%%%%%%%%%%%%%%%%%%%%%%%%%%%%%%%%%%
15014H3%%%%%%%%%%%%%%%%%%%%%%%%Q%%%%%%q%%QqQ%qQ%q%Qq%%%%%%%%%Q%qQ%%j6K4j6J6q
14999I1%%qJ6qqQqQq%%%Qq%%QqQq%%%%%%%%%%%%%%%%%%Qq%%%%%Qq%%%%Qq%%%%%%%%%Qq%%%
14984H3%%%%%%%%%%%%%%%%%QqQqQq%%%%Qq%%%%%Qq%%%%%%%Q%q%%%%Qq%%%%%%%%%%Qq%%%%%
14968H3QqQqQ%%%q%%%Q%q%Q%%qQ%q%%%%QqQ%q%%%%%%%%%%%QqQqQqQ%q%%%%%%%%%%%%%%%%Q
14952I1%%%%qQ%%%%q%%%%Qq%%Qq%%%Qq%%%Qq%Qq%%%%%%QqQq%Qq%%%%%%QqQ%%qQ%%%qQ%qQ%
14937I1%%qQq%%%%%%%%%Q%%qQ%qQ%%%%%q%%%%%%%%%%%%%%%%%Q%qQqQq%%QqQ%%q%Qq%Qq%%%
14921H3%QqQq%%%%%%Q%q%Q%%%%%%%q%Q%%q%%%%%%%Qq%%%Q%%qQq%%%%%%%Q%%%%%q%%%%%%%Q
14905I1q%%Qq%Qq%%Q%q%%%%%%%QqQqQq%%%%Q%q%Qq%%%%%%%%%%QqQq%Q%%%%%q%Q%j6J6q%%q
14890G5K4qqQq%J6k4%%J6n6M8ql2L2K4j6j6L2k4J6%q%%%qK4q%j6QQ%qQ%q%%Qq%%QqQqQ%q%
14877H3%QqQqQqQ%qQ%q%%%Qq%%%%Q%q%QqQ%%q%%%QqQq%Q%qQq%%%%%%Qq%%%%%%%QqQq%%%Q%
14862I1%%%qQqQqQ%%%qQ%%q%QqQ%%%%q%Q%qQ%q%%%%%%%%%QqQ%%%%%qQ%%%qQ%q%Q%qQ%%%%%
14846I1%%qQ%%%q%QqQq%Qq%Q%%%%%%%%%%%%%%%%%%%%%%%%%%qQ%%%%%%%qQ%%%%qQ%%q%%%%%
14830H3Q%qQqQq%%%%Q%%q%Q%%%%%%%%%%qQ%q%Qq%%QqQ%q%QqQ%%qQ%q%Q%%%qQ%%%%%q%QqQq
14814H3%QqQq%Qq%Q%%q%%%%%%Q%qQq%%%Q%qQ%qQ%%qQ%%%qQq%%Q%q%%Qq%Q%q%%Qq%%%%%%Qq
14799H3Qq%%%Q%qQ%%qQq%QqQqQ%%%%q%%%Q%%%%%%qQ%%q%QqQqQq%Q%q%%Qq%%Q%qQ%qQ%%%%%
14783I1%%%%%%%%%qQ%%%%qQ%%qQ%%%%%%q%%Q%%%%%%%%qQ%%%%%%%%%%%%%%%%%%%%%%%%%%%q
14767H3Q%q%%%%Q%%q%%%QqQ%qQq%Q%qQq%Q%%%q%%Qq%%QqQq%Q%%%%%%%%%qQ%%%%%%%%%%%%%
14751I1%%%%%%%q%%%%%Q%%%qQ%%%%%%%%%%%%%%%%%%%qQ%%%%%%qQ%qQ%%q%%Q%%%%%%%%%%%%
14735I1%%%%%%%%%%%%%qQ%qQ%%%%%qQqQ%%%%%%%%%%%%%%%%%q%%QqQ%%%%%%%%%%%%%%%%%%%
14720I1%%%%%%%%%%%%%%%%%%%%%%%%%%%%%%%%%%%%%%%%%%%%%%%%%%%%%%%%%%%%%%%qQ%%qQ
14704I1qJ6qqJ6q%%%qQ%%%%%%%%%%%%%%%%%%%%%qQ%%%%q%%%%%%Q%q%%%Q%%%q%Q%%q%Qq%Qq
14688H3%%%Q%%%%%%%%%%%qQqQ%qQqQq%%%Q%%%qQ%q%Q%qQq%Q%%%qQ%%%%%%%%%%%%%%%%qQQq
14673I1%%%%%%%%%%%%%%%%%%%%%%%%qQ%qQ%%qQ%%%%%%%%%q%%Q%%%%%%%%%%%%qQ%%%%%%%%%
14657I1%%Qq%%%%%%%%%%%%%%Qj6J6%q%%%%%%%%%%%%%%%%%%%%%%%%%%%%Qq%%%%qQ%%%%%%%%
14641I1%%%%%%%qQ%%%%%%%%%%%%%%%%%%%%%%%%%%%%%%%%%%%%%%%%%%%%%%%%%%%%%%%%%%%%
14626I1%%%%%%%%q%%Q%%qQ%%%%qQ%%%%%%%%%%%%%%%%%%%%%%%%%%%%%%%%Qq%%%%%%Qq%%%%%
14610I1%%%%%%%%%%%%%%%%%%%%%%%%%%%%%%%%%%%%Q%q%%Q%%q%%Q%%%%q%%%%%Q%q%%%%%%qQ
14594I1%%%Q%q%%%%%%%%%%%%%%%Qq%%%%%%%%Qq%%%%Q%qQq%%%%%%%%%%%%%%%%%%%%%%%%%%%
14578I1%%%%qQ%%%%%%%%%%%%%%%%%%%%%%%%%%%%%Qq%%%Qq%Q%%q%Qq%%Qq%%Q%j6QQqj6%M0l2
14563H3QQj6QQ%q%%%qQqQ%Qq%%%%%%%%Qq%%Qq%%%Q%q%Q%q%Q%qQq%%%Q%%q%%%%%%Qq%%%%%%
14548I1%%%%%%%Qq%%%%%Qq%%%%Qq%%%%QqQq%%%%Qq%QqQq%%%%QqQqQq%%%%%%%%%%%%%%%%%%
14532I1qJ6qQ%q%Qq%%%%%qQQq%Qq%%%%%%QqQ%%q%%%%%%%%%%%%%%Q%qQ%qQ%qQ%qQ%%q%Q%%q
14516I1%%%%%%%%%Qq%%%%%%%%Q%%qQ%q%%%%%%%%Q%q%%%%%%%QqQ%q%Qq%%Qq%%%%%%%%%%%%%
14501I1%Qq%%%Q%qQqQ%qQ%%%qQ%%%q%Qq%QqQ%q%%QqQqQ%%qQ%%%q%%%%%%%%%%QqQ%q%Q%%%%
14485I9%q%QqQ%%q%Q%q%Qq%%%%%QqQq%%%Qq%%Qq%%%%%%%%Q%q%QqQ%%%%%qQq%%Q%q%%%Q%q%
14469I1Q%%qQqQ%%q%%Q%%qQq%Q%qQ%%%%%%%%%%%qQ%%%%%%q%Qq%%%%%%%%Qq%%QqQ%%%%qQ%%
14453I9q%QqQ%qQ%qQ%%qQ%%%%q%QqQ%%qQ%j6Q%%%Q%%qQ%%%%qQqQqQ%%q%%Q%qQqQq%Q%qQq%
14438I1Q%%%%%qQ%%%%%q%%%%%%%%%%%%%%%%%%%%%%%%%%%%%%%%%%%%%%%Qq%Q%%%%%%%%qQqQ
14422I9%%q%%QqQ%%%%qQ%%%%Qq%qJ6q%%qQ%q%%%%Q%%%q%%%%%%%Qq%Q%qQ%qQ%q%%%%Q%q%Q%
14406I9%%%qQ%%%qQ%%%%%%%%%%%%q%%Q%%%%%%%%%%%%%%%%%%%%%%%%%%%%qQ%%%%%qQq%Qq%%
14390I1%%QqQ%%%%qQ%%%%%%%%%%%%%%q%%QqQqQqQ%%%%%%%%%%%q%Q%%%%%%%%%%%%%%%%%%qQ
14375I9%%%%%%%%%%%%%%%%qQ%%%%%%%%%%%%%%%%%%%%%q%Q%%%%%%%%%%q%%Qq%QqQ%%%%%%%%
14359I9%%qQqQ%%qQ%%%%%%Q%q%%%%%%%%%%%%%q%Q%%%q%Q%%%%%%%%%%%%%%%%%%%%%%%%%%%%
14343I9%%%%%%%%%%%%%%%%%%%%%%%%%%%%%%%%%%%%%%%%%%%%%%%%%%qQ%q%Q%q%Q%j6J6Qq%q
14328I1Q%%%%%%%%qQ%%%%%%%%%%%%%%%%%%%%%qQ%%%%%%%%%%%%%%%%%Qq%%%Qq%%%%%%%%%%%
14312I9%%%%%q%Q%%qQ%%%%%%%%%%%%%%%%%%%%%%%%%%%%%%qQ%qQqQ%QqQj6Q%%%%%qQ%qQQq%
14296I9%%%%%%%%%%%%%%%%%%%%%%%%%%%%%%%%%%%%%%%%%%%%%%%%%%%%%%%%%%%%%%qQ%qQ%%
14281I9%%%%%%%%%%%%%%%%%%%%%%%%%qQqQ%%%%%%%%%%%%%%%%%%%%%%%%%%%%%%%%%%%%%%%%
14265I9%%%%%%%%%%%%%%%%%%Qq%%%%%%%%%%%%%%%%QqQq%%%%%%%%%%%%%%%%%%%Qq%%%%%%%%
14249I9%%%%%%%%%%%Qq%%%%Q%%%%%q%QqQq%Qq%%Q%%%%q%%%%%%qQ%%%Qq%%qQ%qJ6j6J6qqL2
14234A23l2%K4j6j6J6%Q%q%qQ%%qJ6q%%%%%%%%Q%q%%QqQq%%Qq%%%%%%%%%%%%%%%%Qq%%%Q%
14220A07q%%%%%%%%%%%%%%%%%%%%%%Q%q%%%%%Q%%%%q%Qq%%%%%%%%%%%%%%%%%%%%%%%%%%%%
14204I9%%%Qq%%%%%%%%%Qq%%%%%%QqQqQqQq%QqQ%%%qQ%%%%%%%%%qQq%%Qq%QqQq%%%%%Qq%%
14189I9%QqQ%%qQ%%qQqQ%%q%%%%Q%q%%%Qq%%Q%qQq%%%%%Q%q%%%%%Qq%%%Q%qQq%%Qq%%%%%Q
14173A07%%q%%%%%%%%%%%Q%%%%q%Q%qQqQ%q%%%%%Q%qQq%%%%%%Q%qQ%q%%Q%%q%%%%Qq%%%Qq
14157I9%Q%%%%q%QqQ%%%%%%%%%qQ%q%%Qq%%%%%Q%%%qQqQqQ%%%%%%q%Qq%Qq%%%%%Qq%%%%%%
14141I9Q%%qQ%q%%%%%%%%%%%%%QqQq%%%Qq%QqQq%Q%%%%%%%%%qQ%%%%%%q%%%%Q%%qQq%Qq%%
14126I9Q%q%Q%%q%QqQqQq%%%Qq%%%Qq%QqQq%QqQq%%Q%%q%QqQq%%%%%Q%%%%%%%qQ%qQ%%%%%
14110A07q%QqQqQ%qQ%%%%%%%%%%%%%%%qQq%Q%%%qQ%%%%%qQ%%%%%%%%Qq%qQ%q%%Qq%QqqJ6%
14094A07q%%%Qq%Qq%%Qq%%%Qq%Q%%qQ%%%%q%Q%%%%%%%%%%%%%%%%%%%%%%%%%%%%%%%%qQqQ%
14079A07%q%%Qq%%%%Q%%qQ%%%%%%%%%%%%%q%Qq%QqQ%q%%Q%%%%%%%%%%%qQ%%%qQqQ%%%%%%%
14063A07%q%Qq%J6q%qJ6q%q%Q%qQqQ%%%%%%q%%%%%%%%%%QqQ%qQ%%%%%%q%Q%%%%%%%%%%%%%
14048A07%%%%%%%q%%Qq%%Qq%%%%%%Q%%%%%%%%%%%%%%%%%qQ%%%%%%%%%Qq%%%%%%%%%%%%q%Q
14033A07qQqQ%%%%%%%%%%%%%%%%%%%%%%%%%%%%%%%%%%%%%%QqQq%%%%%%%%%%%%%%%%%%%%%%
14017A07%%%%%%%%%%%%q%%%Q%%%%%%%%%%%%%%%%%%%%%%%%%%%%%%qQ%%%%%%%%%q%Q%%qQ%qQ
14002A07%qQ%%%%qQ%%%%%%%%%%%%%%%%%%%%%%%%%%%%%qQ%%%%%%%%%%%%%%%%%%%%%%%%%%%%
13986A07%%%%%%%%%%%%%%%%%%%%%%%%%%%%%%qQ%qQQq%%%%%%%%%%%%%%%%%%%%%%%%%%%Qq%%
13970A07Qq%%%%%%%%%%%%%%%%%%%%%%%%%%%%%%%%%%%%QqQ%q%QqQ%q%%%%%%%%%%%%%%%%%%%
13955A07%%%%%%%%%%Qq%%%qQ%%%%QqJ6k4K4qj6Q%Q%%j6Q%QqQ%%qQqQq%Qq%%%%Qq%%%%%%Qq
13940A07%%Q%%q%%%%%%%%%%%%%%%%%%%%%%%%%%%%%%%%%%%%%%%%%%%%%%%%%%%%%Q%%q%%Qq%
13925A07%%Qq%%%Q%qQq%%%%%%%%%%Qq%%%%%%%%%%%%%%%%%%%%%%%%%%%%%%%%%%%%%%%%%%Q%
13909A15q%Qq%%%%Qq%%%Qq%%%%%Qq%%%%%%%%%%Qq%%Qq%%%%%%%%%%%%%%%%%%%%%QqQ%%qQq%
13894A07%%%%%%%%%%%%%%%%%%%%Qq%%%%%%%%%%%Q%q%%%%%%%%%%Qq%%%QqQ%%%%%q%Qq%%%%%
13878A07%%%%%%%%QqQ%%%%qQq%QqQq%Qq%%%%%%%%QqQ%%qQqQq%%Q%%%%%%q%%Q%q%%Q%%q%%Q
13863A15%qQ%%%%%%qQq%QqQ%q%%QqQ%%%%q%%QqQ%qQq%%%%%Qq%%%%%%%%%%%%%%%%%%%%%QqQ
13847A15%%%%%qQqQ%q%%%%%Qq%%QqQ%%%%%%%%%%%%%%%%%%qQ%%%%%%qQ%q%Q%%%q%%%Q%q%Q%
13831A15%qQq%QqQqQ%%qQ%%%%%%%%%%qQ%%%%qQ%%qQ%%%%%qQ%%%%%%%%%%qQ%%qQ%%%%%%qQ%
13816A15%%%%%%%%%%%%%%%%qQ%%%%%%%%%%%qQ%%%%%%qQ%qQ%%%%%%%%%%%%%%%%%%%%%%%%%%
13800A15%%%%%%q%Q%q%Qq%Q%%%%%%%%%%%%%%%qQ%qQ%q%%%%Q%qQqQ%%qQ%%%%qQ%qQ%qQ%%%q
13785A07Q%qQq%Q%q%%%%%Q%%%%%%%%%%%%%%%%%%%Qq%%%%%%%%%%%%%%%%%%%%%%%%%%qQ%q%Q
13769A15qQ%qQ%%%%%%qQ%%Q%q%%%%qQ%%qQ%%%%%%%%%%%%%%%%%%%%%%%%%%%%%%%%%%%%%%%%
13754A15%%%%%%%%qQ%%%%%%%%%%%%%%%%%%%%%%%%%%%Qq%%%%%q%Q%%qQ%%%%%%%%qQ%%%%%%%
13738A15%%%%%%%%%%%%%%%%%%%qQ%%%%%%%%%%%%%%%%%%%%%%%%%%%%%%%%%%%%%%%%%Qq%%%%
13723A15Qq%%%%%%%%%%%%%%%%%%%%%q%Q%q%%Qq%QQq%%%%Qq%Qq%%%%Qq%%%QqQ%qQq%%%Qq%Q
13707A23q%%%%%%%%%%%%%%%%%%%QqQ%%%q%%%%%%%%Qq%%%%%%%%%%%%%%%%%%%%%%%%%%%%%%%
13691A15%%%%%%%%%%%%%%%Qq%%%%%%Q%q%%Qq%%Qq%%%%%Qq%%%%%%%%%%Qq%%%%%%%%%%%%%Q%
13676A23q%%%Qq%Qq%Qq%%%%%%%%%%%%%Qq%%%%%%%%%%%%%%%%%%%%%%%%%%%%%%%%%%%%%%Qq%
13660A15%%%%%Qq%%Qq%%%%%%%%Qq%%%%%QqQqQ%%q%Q%q%%%%%%QqQqQ%%%%q%Q%%%%%q%Q%%%%
13645A23%%%%q%%%%%%%%%%%%%%%%%%%%%%%%%%%%Qq%Q%q%Q%qQ%%%q%Q%%%%q%Q%%%%qQ%%%%%
13629A23%q%Q%qQ%q%%%qM0k4j6J6qQqqQ%%QqQq%%%%%%%%Q%%%q%%Q%%q%Q%%%%%%%%q%%Q%q%
13615A15%%%Qq%Q%%%q%%Qq%%%%%%%%%%%%%%%Qq%Qq%Q%%qQqQ%q%%%%%%Q%%%%%qQ%%%%%%%%%
13599A23%qQ%qQ%%qJ6qqQ%%%qQqQqqJ6j6QQq%%Q%%%q%Q%qQqQqQ%%q%%Qq%Q%%q%%%%%Q%%%%
13584A23qQ%qQq%Q%q%%%%%Q%%%qQqQq%QqQqQ%%qQq%Q%%%qQqQ%%%%%%qQ%%%%%%%%%%%qQ%%%
13568A23%qQ%qQ%%%%%%%%%%%%%%%%%%%%%%%%qQ%qQqQ%%%q%QqQ%q%%%Q%%%%q%Q%%%%q%%%%%
13553A15Qq%%Q%%%%%%%%%%%%%%%%qQ%%qQ%qQ%%%q%Q%%%%qQ%%%%qQ%%%%%%%%%qQ%%%%%%%Q%
13537A31q%%%%%%%%%%q%%%Qq%QqQqQ%%%%%qQ%%%%%%%%%%qQ%%%%%%%%%%%%%%%%%%%%%%%%%%
13522A23%%%%%%%%%%%%%%%%%%%%%Qq%%%%%%%%%%%%%%%%%%%%%%%%%%%%%%Qq%%Qq%qQqQ%%%%
13506A23%%%%%%%%%%%%%%%%%%%%%%%%%%%%%%%%%%%%%%%%qQ%%%%%%%%%%%%%%%%%%%%%%%%%%
13491A23%%%%%%%%%%%%Qq%%%%qQ%%%%%%%%%%%%%%Qq%qQQq%%%K4j6qqQ%%%Qq%%qQqQ%%%%%%
13476A23%%%%%%%%%%%q%QQq%%%%%%%%%qQQq%%%%%%%%%%%%%%%%%%%%%%%%%%%%%%%%%%Qq%%%
13460A23%%%%%%%%%%%qQ%%%%%%%%%%%%%%%%%%%Qq%%%Qq%Qq%%%%%%Qq%%%%%%Qq%%%%%%%%Qq
13444A23%%%%Qq%%%%%%%Qq%%%%QqQq%%QqQq%%%%%%Qq%Qq%%%Q%q%%%%%%%Q%%%%%%%qQ%%%q%
13429A23%Q%%%%%%qQqQ%q%%%%%%%%%%%%%QqQqQ%%%q%%%%%%Q%%q%Q%%q%Q%qQqQ%%%%%%q%Q%
13413A31%%%qQ%%%%q%Q%qQqQ%%%%%qQ%%%%%%%%%%%%%%%%%%%%%%%%%%%qQq%%Qq%%%QqQq%%%
13398A23Qq%%%%%%%%%%%%Q%%%%%q%Q%q%Qq%Qj6J6%%qQ%%q%%%QqQq%%QqQqQ%%%%q%Q%q%Qq%
13383A23%%%Q%%%%%%%%%%%%%qQ%%%qQ%%%%%q%%Q%%%%%%qQ%%%%%%qQ%%%%%%qQ%%q%%%Q%%%q
13367A23QqQ%%%q%%%%Qq%Q%%q%%QqQ%qQ%%%%%%qQqQqQqQ%%%qQ%%%%qQ%%%%%%%%%%%%%%%qQ
13352A31%%%%%%%%%%%%%qQ%%%%%%%%%%%%%%%%%%%%%%%%%%%%%%%%%%%%%%%%%%%%%%%%%%%q%
13336A23Q%qQ%%%%qQ%qQqQ%%%%%%%%qQ%%%Qq%%%%%%%%%%%%%%%%%%%%%%%%%%%%%qQ%%%%%%%
13320A31%%q%Q%%%%%%%%%%%%%%%%%%%%%%%%%%%Qq%%%%%%%%%%%%%%%%%%%%%%%qQ%%qQ%%QqQ
13305A39q%%%%%%Q%q%%%Qq%%Qq%%%%%%%%Qq%%j6K4q%Qq%QqQq%%%%Qq%%%%%%%%%%%%%%%%%%
13290A31%%qQ%%%%%%%%%%%%%%%%%%Qq%%%Qq%Qq%%%%Qq%%%%%%%%%%%%%%%%%%%%Qq%%%%%%Qq
13274A31%%%%Qq%%%%%%%%%%%%%%%%%%%%%%Qq%%%%%%%%%%%%%%Qq%%%%Q%qQqQq%%%%%%Qq%%%
13259A31%%%%%%Qq%%%%%%%%%%%%%%%%%%Qq%%QqQqQq%%%Q%q%%%%QqQ%%q%q%Q%Qq%Qq%%Q%%q
13243A31%%Qq%%Qq%%Qq%%Q%qQ%%qQq%%%%QqQ%%qQ%%%%%qQ%%qQ%%%%%%qQ%%%%qQq%QqQqQ%q
13227A31Q%%%%%%%%%%%%%q%QqQ%q%%%Qq%Q%%%%%%%%%%%%%%%%%%%%%qQqQ%%q%QqQ%%%%%%%%
13212A39%q%Q%qQ%q%%QqQ%%%%%%%%%%%%%%%%%%%%%%qQqQq%%%%%%QqQ%%%%%%%%%%%%%qQ%%%
13196A39%%%%%%%qQ%%%%%%%%%%%%%%%%%%%%qQ%%%qQ%%%%q%Q%%%%%%%%%%%%qJ6q%%%%%qQ%q
13181A31Q%%%qQ%%%qQ%qQ%%%%%%%%%%%%%%%%%%%%%%%%%%%%%%%%%%%%%%%%%%%%%%%%%%%%%%
13165A39%%%%%%%%%%%%%%%%qQ%%%%%%%%%%%%qQqJ6%qQj6J6q%%%%%%%qQ%%%%%qQqQ%%%%%%%
13151A39%%%%%%%%%%%%%%%%%%%%%%%%%%%%%%%%%%%%%%%%%%%%%%%%qQ%qQ%%%%%%%%%%%%Qq%
13135A39%%Qq%%%%%%%%%%%%%%Qq%%%%%QqqQQqQq%%%J6l2J6Qj6QQqJ6j6%qJ6%q%q%%Q%%Q%q
13121A39%%Qq%%%Qq%%%%%%Qq%%%%Q%q%%%%Qq%%%Qq%%%%Qq%%%%%%%%%%Qq%%%%Q%%q%Qq%%Qq
13105A39%%%%%%%%%%%%%%Qq%%%%Q%%qQqQqQq%%Q%q%%Qq%%%%%%%%%%%%%%%%%%%%%%%QqQ%%q
13090A39%Q%%%qQqQ%%qQqQ%%%%%%qQ%q%Qq%%Qq%%%%%%%QqQ%qQq%%Q%qQ%%qQ%%%qQ%q%Q%%%
13074A47qQqQqQ%%q%%%Q%%%%%%qQ%qQ%%%qQq%%Q%%qQ%qQqQ%%%%%%q%Q%qQ%qQ%q%Qq%%%%%%
13059A39%%%%%%%%Q%%qQ%%qQ%qQ%%%qQ%%%%%%%%%%%%%%qQq%Q%%qQ%%qQ%%%%%%%%%%%%%qQ%
13043A47%%%qQ%%%%%q%%Q%%%%%%qQ%%%%qQ%%%%qQq%%%%%%%Q%qQ%%%%%%qQqQ%%%qQq%%QqQq
13028A39Q%qQq%Q%%qQ%%qQ%%%%%%%%%%%%%%%%%%%%%%%%%%%%Qq%%%%%%%%%%q%%%J6j6%%J6j6
13013A39J6k4QJ6j6%K4%qj6%qJ6%q%QQq%%Qq%qQ%%%%%%%%%%qQ%qQ%%qQ%%q%Qq%Q%q%Q%%qQ
12999A47%%%%%%%%QqQq%%%%%%%%%%%%%%%%%%%%QqQq%%%%%%%%%%Qq%%%%%%%%%%%%%%%%%%%%
12983A47%%%%%qQ%%%%%Qq%%%%%Qq%%%%%%%%%%%%Qq%%%%%%%%Qq%%%%%%%%%%%%%%%%%%%Qq%%
12968A47%%%%%%%%%%%%%%%QqQq%%%%%%%%%%%%%%%%%%%%%%%%%%%%%%%%%%%Q%q%Q%%%qQ%%q%
12952A47QqQ%q%Q%%%qQ%q%%%Qq%%%Qq%%%%Q%%%%%qQ%q%QqQ%%%%qQq%%Q%%q%%Qq%%QqQ%%q%
12937A47QqQ%%%qQ%%qQ%%%%%%q%Q%%%%q%Q%qQ%%%%%qQ%%qQ%%%%%qQ%%%%qQqQQj6J6%q%qQ%
12921A55%%%%%%%%qQ%%%%qQq%%%%%Q%%q%Q%q%Qq%QqQ%%%%%%%%%%%%%%%%%%%%%%%%%%%%%%%
12906A55%%%%%%%%%%%%%%%%%%qQ%qQ%%%qQqQ%%q%Qq%Q%%%%%%%%%qQ%%%qQ%%%%%%%%qQqqJ6
12891A55%qQ%q%%Q%%%%%%%%%%%%%%%%%%qQ%%%%%%%%%%%%%%qQ%qQqQ%q%QqQ%%%%%%q%Qq%Q%
12875A55%%%%%%%%%%%Qq%%%%%%%%%%%%%%%%%%%%%%%%%%%%%%%%%QqQq%%%%%%%%%%%Qq%%%%%
12859A55%%%%%%%%Qq%%%%%%%%%%%%%%%%%%%%%%%%%%%%%%%%%%%%%%%%%%%%%%%%%%%%%%%%%%
12844A55%%%%%%%%Qq%%%Qq%%%%%%%%%%%%%%%%%Qq%%QqQ%%q%%%%%%%%qQ%%%%%%%%%%%%%%Qq
12828A55%%%%qQ%QqQq%Q%%%%%%%q%%Qq%%%%%%%%Qq%%QqQq%%%%%%%%%Qq%%Q%%%q%QqQqQqQq
12813A55QqQ%%%qQ%%qQ%%qQ%%%q%Qq%%QqQq%Q%%qQq%%%%%QqQq%Q%%q%%Qq%%%%%%QqQqQq%%
12797A55QqQqQ%qQ%%%%%%%%%qQqQ%%%q%%%Qq%%Q%q%%Qq%%%%%%Q%%qQ%%%%%q%Qq%%Q%%%%%%
12782A63%%%qQ%%%%%%qQ%%%%%Qj6J6q%%qQ%%qQ%%%%%%%qQ%%qQ%%%qQqQ%qQ%qQ%%%qQ%%%%%
12766A63%%%%%%%%%%%%%%%%%%qQ%%q%%%%Q%%%%%%%%%%%%%%%%%%%qQ%%%%%%%%%%%%%%%%%%%
12751A63%%qQ%%%%%%%%%Qq%%%%%%%%%%%%%%%%%%%%%%%%%%%%%%%%%%%%%%Qq%%%Qq%%%%%%%%
12735A63%%%%%%%%%%%%%%%%%%%qQ%%%%%%%%%%%%%%%%%%%%%%%%%%%%%%%%%%%%%%%%%%%Qq%%
12720A63%%%Qj6Q%%%%%%%%%%%%%%%%%%%%%%%%%%%%%%%qQQq%%%%%%%%%%%%%%%%%%%%%%%%%%
12704A63%%%%%Qq%Qq%%%%%%%%%Qq%%%%%Qq%%%%qQ%%%%%%%%%%%%%%qQ%Qj6Q%Qq%%J6k4J6j6
12690A55QqQj6QqJ6K4qk4%QJ6j6Q%%q%qJ6%q%%%QqQqQ%%%%%j6QQ%qQ%qQ%qQ%q%Q%%qQq%%%
12676A63%%%Q%%q%Qq%Q%%q%QqQ%qQqQqQ%qQ%q%%%%QqQ%q%QqQqQ%%qQ%qQ%%%qQ%%%%%%qQqQ
12661A71qQqQQq%q%Q%%%%q%J6qq%%Qq%%%%%%Q%%%%%%%%%%%%%%%%%%%%%%%%%%%%%%%%%%%%%
12645A71%%%%%%%%%%%%%%%%q%Q%%%%%%%%%%%%%%%%q%Q%q%Q%qQq%%%Q%%%%%%%%%%%%%%%%%%
12630A71%%%q%Q%%%%%%%qQ%%%%%%%%%%%%%%Qq%Qq%%%%%%%%%%%%%%%%%%%%%%qQ%%%%%%%%%%
12614A71%%%%%%%%%%%%%%%%%%%%%%%Qq%Qq%%Qq%QqQq%QqQ%q%QqQq%Qq%%%%%%%%%%%%%%%%Q
12599A79q%%Q%qQ%%q%%Q%%q%Qq%%%Q%q%%%%Qq%%%%%%%Qq%%%%%%%%%%%%Q%%q%Q%q%%%%%%%Q
12583A79q%%Q%q%%%%%%%%QqQqQq%Q%q%%%%%%%%%%%%%Q%q%%%%%%Qq%Qq%Q%q%%%Q%%%qQ%%%q
12568A71%Q%%qQqQ%q%QqQqQqQ%%q%Q%%%%%%%%%%%%%%%%%%%%%qQ%qQ%qQ%%%%%%%qQqQ%%%%%
12552A79%%%%%%%%%%%%%%%%%%%%%%%q%Q%%%%q%Qq%Qq%Q%j6QQJ6j6Qq%%%%%%%%%%%qQ%%%%q
12537A71%%%Q%%%%%%%%%%%%qQq%Q%%%%%%%%%%%%%%%%%%%%%%%%%%%%%%%%%%%%%%%%%%%%%%%
12522A79%%%%%%%%%%%%%%%%%%%%%%%%%%%%%%%%Qq%%%Qq%%%%%%Qq%%%%%%%%%%%%%%%%%%%%%
12506A79%%%%%%%%%%%%%%%%%Qq%Qq%%%%QqQq%%%Q%%%%qQ%q%%%%%%%%QqQ%q%Q%%%%%q%%Q%q
12490A79Q%%q%QqQ%%%%%%%qQq%%%%%%%Q%q%%%%Q%q%%QqQ%%q%Q%%%%%%%%qQq%%Qq%%%%%%%%
12475A79%%%%Q%%%%%q%%%%%%%%%%%%Q%%q%QqQqQ%qQq%%QqQq%Q%%%%%%%%%q%%Q%%%%%%%%%%
12459A87%qQ%q%%%QqQq%%Q%%%%%q%Q%qQ%qQqQ%%qQ%%%%%qQ%%%%%%%%%%%%%%%q%%%QqQqQq%
12444A79Q%%%%%%%%%q%%%Qq%QqQ%%%%%%%%%%%%%%%%%%%%%%%%%%%%%%%%%%%%%%%%%%%%%%q%
12428A79QqQ%%%%%%%%qQ%%%%%%%%%%%%%%Q%qQ%%q%%%%%%%%%%%%Qq%%%%%%%%%%%%%%%%Qq%%
12413A87%%%%%%%%%%%%%%%%%%%%%%%%%%%%%%%%%%%%%%%%%%%%%%%%%%%%%%%%%%%%%%%%%%Qq
12397A87%%Qq%%%%%Q%q%%Qq%%%QqQqQ%%qQ%%%qQq%Qq%%%%%%Qq%%%%%%%Qq%Qq%%%%%%Qq%Qq
12382A87Q%%qQ%%%%%qQ%%qQqQq%%%%%%%%Qq%QqQ%%%%%%qQ%%q%%%%%Qq%%%%Qq%%QqQ%qQ%%%
12366A95qQ%qQ%%q%%%Q%%%%%%%q%Q%%Qk4J6%%%QJ6j6qQq%%%%%Qq%%%%%%q%%Q%qQ%%%%%%%%
12351A95%%%Qq%%%%%%%%%%%%%%%%%%%%%%%%%%%%%%%%%%%%%%%%%qQ%%qQ%%QqQqQ%q%%QqQqQ
12336B03qQ%%%%%%%%q%QqQ%qQ%%q%%%%%%%%%%%%%%%%%%%%%Qq%%%%%%%%%%%%%Qq%%%%%%%%%
12320A95%Qq%%Q%%%qQq%%%QqQq%%%%%%%%%%%%%%%%%%%%Qq%%%%%%%qQq%Q%%QqQqQqQ%%%q%%
12305A95Qq%%%%%%%%%%%%%QqQqQ%q%Q%%q%%%%%%Qq%%Q%%%%%%%%q%Q%%%%%%%%%qQq%Qq%%Q%
12289B03%q%Q%qQq%%Q%%%%%%%%q%%Q%%%%%%%%q%Qq%Qq%%Q%qQq%QqQ%%%%%%%%%%%qQ%%%%%%
12273B03%%%%%%%%%%%%%%%%%%%%%%%%%%%%%%%%%%%%%%%%%%%%%%%%%%%%%%%%%%%%%%%%%%%%
12258B03%%%%%%%%%qQ%%%%%%%%%%%%Q%%q%%%%%%%%%%%%%%%%%%%%%%%%%%%%%%%%qQ%%%%%%%
12242B03%%%%%%%%%%%%%%%%%%%Qq%%Qq%%%%Qq%%%%%%%%%Q%%%%%%%%%%qQqQq%%%%%%%Qq%%%
12227B03%%%QqQ%%%qQq%%%Qq%Qq%%Q%qqJ6%%qJ6k4%QQ%%qQq%%%%Qq%%%Q%q%%%%Q%%%q%%Qq
12212B03Q%%qQ%%%%%%%%%%%%%%%%%%%%%%%%%%%%%%%%%%%%%%%%%%%%%%%%%%%%%%%qQ%%qQ%%
12196B11%%%%%%%%%%%%%%%%%qQ%qQ%%%%%%%%%%%%%qJ6q%qJ6qqJ6q%%%%%%%qQ%Qq%%%%%%%%
12181B11%%%%%%%%%%%%%%Q%q%Qq%QqQq%%%%%%%%%%%%%%%%%%%%%%%%%%%%%%%%%%%%%%%%%%%
12166B11%%%%%%%%QqQq%%Qq%QqQq%%%%%Qq%Qq%%%%%%%%%%%Qq%%%%%%%%%%%%%QqQ%%qQ%%qQ
12150B19q%%%Qq%Qq%Qq%%%%%%%Q%q%%Q%%q%%%%%%%Q%qQ%qQ%q%%Qq%Qq%%%Qq%%%Q%q%Q%q%%
12135B11%Q%qQ%%qQ%%%%%%%%%%%%q%%%%%%%Q%qQ%%%qQ%QqQq%%%Q%q%%%%%qQ%%%%%%%%%%%%
12119B19%%q%%%%QqQ%%%%%%%%%%%%%%%%%%%%%%%%%%%%%%%%%%%%qQ%%qQ%%%%%%%%%%%%%%%%
12104B19%%QqQ%qQ%q%QqQqQ%%%%%q%%%%%%%%%%%%%%%%%%%%%%Q%q%%Q%qQ%q%Q%qQ%%q%Qq%%
12088B19%%Qq%%%%%Q%qQ%%%%%qQq%%%%%%Qq%Qq%Qq%%%%%Q%q%%Q%%q%%%%Q%%qQQ%qqJ6q%%q
12073B19Q%%%qQq%J6qq%Q%%%qQ%%q%%%%%%%Qq%%Q%%%%%%%%%%%q%Q%%%%%%%%%%%q%QqQ%qQq
12057B19Q%%%%%%%%%%%%%%%%%%qQ%%%%%%%%%%%qQ%%%%%%qQ%%%%%%%%%%%%%%%%%%%%%q%Q%%
12042B27%%%%%%%%%%%Qq%%%%%Qq%%%%%%%%%%%%%%%%%%%%%%%%%%%%%%%Qq%%%%%%%%%%%Qq%Q
12026B35q%%Qq%%Q%q%Qq%%%%%%%%%%%Qq%%%%Qq%Q%qQ%%qQ%%q%Q%%q%Qq%%%%%%Q%%q%%%%%%
12011B27%%%%%Qq%Q%%%%%%%%%%%%%%%%%q%%%%Q%%%%%%%%%%%%%%%qQ%%%%%%%%%%%%%%%%%%%
11995B35%q%%Q%q%Q%%%%%%%%%%%%%%%%%%Qq%%%%%%%%%Qq%Qq%QqqQ%%%%%%%%%%%%%%%%%%%%
11980B35%%%%%qQ%%%%%%%%%%%%%%%%%Qq%Q%%%%%%%%%%qQ%%q%%%%%%%Qq%QqQ%q%QqQq%%Qq%
11964B35%%%%Qq%Q%q%Q%%qQ%qQ%%qQ%%%qQ%qQ%%%%%qQq%%%%Q%%%%q%Qq%%%%QqQ%%%%%qQ%%
11948B43%%%%%%%%%qQ%%qQ%%qQ%qQqQ%qQ%%%qQ%%q%%%%%Q%%%%%%%%%%%%%%%%%%%%%%%%%%%
11933B43%%%%%%%%%%%%%%%%%%%%%%%%%%%%%%qQ%%%%%%%%%%Qq%%%%%%%%%%%%%%%%%%%%%%%%
11917B43%%%%%%%%%%%%%%%%%%%%%%%%%%%%Q%%q%%%%%%%%%Qq%Q%%%qQq%%%%%%%%%%%%%%%%Q
11902B51q%%%Q%q%%%%%%%Qq%QqQ%%%%%%q%%Q%%%%%q%Q%%%qQ%%qQ%%%%%%qQ%%%%%%%%%%%%%
11886B51%%%%%%%%%%%%%%%%%%%%%%%%%%%%%%%%%%%%%%%%%%%%%%%%qQ%%%%%%%%%%Qq%Qq%%%
11871B51%%%%%%%%%%%QqQq%%%%%Qq%%%%%%Qq%%%%%%%%%%%%%%%%%%%%%%%%%%%%%%%%%%%%%%
11855B51%%%%%%%%Qq%%%%%%Qq%%%%%Q%q%QqQ%%%q%%%Qq%%%%%%%%%%%Qq%%%Q%%%qQqQ%qJ6q
11840B59%j6J6%q%%%%QqQ%q%Qq%%QqQ%%%%q%Q%%%%%%%%%%%%%%%%%%%%%%%%%%%%%%%%%%%%Q
11825B67q%%%%%%%%%%%%%%%%%%%%%%%%%%%%%%%%%%%%%%%%%%%%%%%%%%%%%%%%Qq%%QqqQ%%%
11809B59%%%%Qq%%%%%%%Qq%%%%%%%%Q%qQq%Qq%Q%qQ%q%%%%%%%%%Qq%%%Q%%%%%%q%Qq%%Qq%
11794B59%%%Qq%%%%%%%%%%%%Q%%q%QqQq%Q%%%%%%%%%%%%%%%%%%%%%%%%%%qQq%%%%%Q%%%%q
11778B59Q%%%%%qQ%q%Q%%%qQqQqQ%%%%%%%%%%%%%%Qq%%Qq%%%%%%%%%%%%%%%%%%%%%%%%%%%
11762B67%%%%%%%%%%%%%%%%%Qq%Qq%Q%%%qQqQq%Q%%%qQ%q%%%qQqJ6Qj6QQ%j6%%%%qJ6%qQq
11748B67%%%%%Q%%q%Q%q%Q%q%Qq%%Q%qQ%%%%%%%%%%%%%%%%%%%qQ%%%%%%%%%%%%%%%%%%%%%
11732B75%%%%%%%%%%q%Q%%%%%q%Q%%%%%%q%Q%%%%%%%%%%qQ%%%%Qq%%%%%%%%%Q%q%%qQ%Qq%
11717B75%%%%%%%%%%%Q%qQ%q%%%%Q%%q%Qq%%%%%%%%%Qq%%%Qq%%%%%%%%%Q%q%%%%%Qq%%%%%
11701B75Q%%%qQqQ%%%%%%%%%%%%%%qQqQ%%qQ%qQ%%qQqQ%%%%%%%%%%%%%%%%%%%%%%%%%%%%%
11685B83%%%%%%%%%%%%%%%%%%%%%%%%%%%%%%%%%%%%Qq%%%%%Qq%%%%%%%%%%%%%%QqQqQqQq%
11670B83%%%%%%%%%%%Q%qQq%%%%%%%%%%%%%%Qq%%%Q%%%q%QqQ%qQqQ%qQ%%%%%%%qQqJ6q%%%
11655B91%%%%qQ%%qQ%%%%%qQ%%q%Q%%%%qQ%%%%%%%%%%%%%%%%%%%%%%%%%%%%%%%%%%%%%%%%
11639B91%%%%%%%%%%%%%%Q%q%%%Qj6Q%%qQ%%%%%%%%%%%%%%%%%%%%%%%%%%Qq%%Qq%%%%%%%%
11624B91%%%%%%%%%Qq%%%QqQ%qQ%qQq%Q%q%%Qq%Q%q%QqQqQqQqQ%%%%qQqQ%%%%%%%%%%%%qQ
11608B99qQq%J6q%qQ%%%qQqQ%qQ%%%%%%%%%%%%%%qQ%%%%%%Qq%%%Qq%%Q%q%%%%%%Qq%%%%%%
11593B99%Q%%qQ%%qQqQ%%q%Q%qQ%%%%%%%%q%%QqQ%q%%%Q%%%%%%%%%%%%%%%%%qQq%Qq%QqQq
11577B99%Q%qQ%%%q%J6q%%%%%%%%%%%qQ%%%%%qQ%%%%qQq%QqQ%%%%%%%%%%%%%%%%%%%%%%%%
11562C07%%%%%%QqQq%%Q%qQq%%%%%%%%%%%%%%%%%%%%Qq%%Qq%%%%%%%%%%Qq%%%%Q%q%%%%%%
11546C07%%%%QqQqQqQqQqQqQq%Q%%%qQ%%%%%%%%%%qQ%%%qQ%%%%%%%%%%%%%%%%%%%%%%%%%%
11531C15%%%%%%%%%%%%%%%%%%%%%%%%%%%%Q%q%%%%%%%%%%%%%%%%%%%%%%%%%%qJ6qq%%QQqQ
11515C23%q%QqQq%%%%%%%%%%%%%%%%Qq%%%QqQ%%q%Q%%%%q%%%QqQq%%Q%%qQqQqQqQ%%%%%%%
11500C23%%%%%%%%%%%%%%%%%%%%%%%%%%%%%%%%%%%%%%%%%%%%%qQ%qQ%%qJ6%qQq%%%%%%Qq%
11485C23qJ6%q%%%%Qq%%%%%%%%%%%%%%%%Q%%qQ%%%%q%%QqQ%%qQ%q%Q%%qQ%%%qQ%%%%%%%%%
11469C31%qQ%%%%%%%%%%%%%%%qQqQ%%%%%%%%%%%%%%%%%%%%qQ%%%%%%%%%%%%%%%%%%%%%%%%
11454C31%%%%%%%%%%%%%Q%%%%q%Qq%%%%%Q%qQq%Q%qQ%%q%Q%%%%%%qQ%qQ%qQ%qQ%%%%%%%%%
11438C39%%%%%%%qQ%%%%%%%%%%%%%%%%%%%%%%%%%Qq%%%%%%%Q%q%%%%%%%%%%%%%%%%%%Q%qq
11423C31QqK4k4QqK4j6%qQQq%%%Qq%%%%%%Q%qQqQ%q%%%%%Qq%%%%Qq%%%Qq%%Qq%Q%q%%%%%%
11408C39%Q%%%%%%%%qQ%%qQq%Q%%%%%%%%%%%%%%%qQq%Q%%%%%%%%%%%%%%%%%%%%%%Qq%%%%%
11392C47%%%%%%%%QqQq%%%%%%%%%%%%%%%%%%%%%%Qq%%%%Qq%%%%%%Qq%%%Q%qQ%qQ%%%%%qQq
11377C47Q%qQ%%%%qQ%%%qQ%qQ%%q%QqQ%%%%%qQ%%%%%%%%%qQQq%Qq%%%%%%%%%%%%%%%%%%%%
11361C55%%%%%%%Qq%Qq%%%%%QqQ%q%Q%%q%Qq%QqQq%Q%%%%%q%%%%Q%qQq%%%Qq%%Q%q%Q%%%q
11346C55Q%%%%%%%%%%%%%%%%%%%QqQq%%%%%%%%qQ%%%%%%%%%%%%%%%%%%%%%%Qq%%%%%%%%%%
11330C63%%%%%%%%%Qq%Q%%%%q%Q%%%%%%qQ%%%%%%%%%%%%%%%qQ%%%%%%%%%%%%%%%%%%%%Qq%
11314C71%%%%%%%%%%%Qq%%%%%%%%%%%%%%%%Qq%%%%%%%%%%%Qq%%%%%Qq%%%%%Qq%%%%%Qq%%%
11299C71%%%%%%%Q%qQ%%%%%%%%%%%%%%%%%%qQ%qQ%%%%%qQ%%%%%%%%%%%%%qQ%%Qq%%%%Qq%q
11283C71QQj6QQj6Q%%Qq%%Qq%QqQ%%%q%%%%%%%Q%%%%%%%%%%%%%qQ%%%%%%%%%%%%%%qQq%%Q
11268C87%%%%%%%%%%%%%qQqQqQ%%%%%%%%%%%qQ%%%%%%%%%qQ%%%%%%%%Qq%Q%%q%%Qq%QqQqQ
11253C95qQq%%Q%%%qJ6qQq%Q%q%%Qq%%qQ%%%%%%Qj6%%%Q%%%%%%%%%%%%%%%%%%%%%%%%%%%%
11238C95%%%%%%%%%qQ%%%%%%%%%%Q%qQq%%Q%%%%q%%%%%%%%Q%q%%Qq%%Qq%%%%Q%%%qQ%%%qQ
11222D03%%%%%%%q%QqQ%%%%%%%%Qq%%%%qQ%%%%%%%%%%%%%%%%%%%%%%%%%%%%Q%q%%%Q%%%qQ
11206D11q%%Q%%q%Q%%%%%qQ%%%%%%%%%%%%%%%%%%%%%%%%%%%%%%%%%%%%%%%%%%%%%%%qQ%%%
11191D11%%%%%%%%%%%%Qj6Q%%%%Qq%%%Qq%%%%%%%%%%%%Qq%%%%%%Q%%%%%%%%%%%%%%%%%%%%
11176D19%%%%%%%%%%%%Qq%%%%%%%%%%%%%%%%%%%%%%%%%%Qq%%%%%%%QqQ%%q%%Q%qQ%%%%%%q
11160D19%Q%%q%QqQqQ%%qQ%%%%%%qQ%%%%%%%%%%%q%Q%%%%%%%%%%%%%%%%Qq%%%QqQq%%%%%%
11144D27%Qq%Q%q%%QqQq%%%%%J6qj6QJ6j6Q%Qm0K4%J6j6M0n6qJ6J6K4m8K4%QqqQ%qQqJ6j6
11133D27Q%%q%%Q%%Qq%%%%%Qq%%%%%%%%%%%%Q%%qQ%q%Qq%%%Qq%Q%%%%%%qQq%%Qq%%%%Qq%%
11117D35%Q%qQ%%%%%qQ%q%Q%%%%%%%%%%%%%%%%%%%%%%%Qq%%%%%Qq%qQ%%%%%%Q%q%QqQ%qQ%
11102D51%%q%%Q%qQ%%%qQ%%%%%%%q%%%%%Q%%%%%%%%%%%%%%%%%%%%%%%%%%%%%%%%%%%%%%Qq
11086D51Q%q%Qq%%%%%%%%%%%%%Qq%%QqQq%%%%%%Q%%%%%%%%%%%%%%%%%%%%%%qQ%%%%%%%%%%
11070D59%%%%%%%%%%%Qq%%%%%%%%%Q%%%q%Q%q%Q%%q%%%%QqQq%Q%%%qQ%%%%%%%%%%%%%%%%%
11055D67%%%%%%%%%%%%%%%%%%Qq%%%Q%q%%%Qq%QqqQ%%%%%%%%Qq%%%%Q%q%%%%%%%%Q%qQ%qQ
11039D75%%%%%%qQqQ%%%%%%%%%%%%%%Q%q%%%%%%%%%%%%%%%QqQq%%%%%%%%%%%Qq%%QqQ%%%%
11024D83%%qQ%%%qQ%qQ%%%%%q%Q%%%%%%%%%%%%%QqQq%%%%%%%%%%%%Q%%%qQ%qQ%%q%%Q%%%%
11008D91%%%%qQ%%%%%%%%%%%%%%%%%%%%%%%%%%%%%%%%%%%%%%%Qq%%%Q%%q%%%%%%%%%%%Q%%
10993D99%q%%%%Q%%%%%%%%%%%%%%%%%%qQ%%%%%%%%%%%%QqQ%%%q%Qq%%%%%%Qq%%%Q%%qQq%Q
10977E07qQqQ%qQ%%%%%%%%%%%%%%%%%%%%%%%%%%%%%%%%%%%%%Qq%%%%Q%%q%%%%%%Q%%%%qQq
10962E07%Qq%Q%%%%%%%%%%%%%%%%%qQ%%%%%%Q%qQqQj6J6q%%Qq%%%%%QqQ%qQ%%%%%%%%%qQ%
10946E23%qQ%%%%%%%%%%%%%%%%%%%%%%qQ%%%%%%%%%Q%q%%%%%%%%%%%QqQ%%%%%%%%qQqQ%Qq
10931E31%%%%%%%%%%%qQQ%q%%%qQ%%%%%%%%%%%%%%Qq%%%%%%%%%%QqQq%Q%q%%Q%%%%%qQ%%%
10915E39%%%%%%%%%%%%%%%%%%%%%%%%%%%%%%%%%%%%%QqQqQqQqQ%%%q%%%%qQ%qQQ%q%QqQqQ
10900E47%%qQqQ%%%%%%%%%Q%q%%%%QqQqQ%q%Qq%%Q%%%qQq%Q%%%%qQ%%%%%%qQ%%%%%%qQ%%%
10884E55%%%%%%%QqQq%Q%%%%%%qQqQ%%%%%%%qQ%qQ%%%%%%%%%%%%%%%%%%Qq%%Qq%%%%%%%%%
10869E63%%%%Q%q%%%%%Qq%%Qq%%Q%%%%%%%%%%%%%%%%%%%%%%%%%%%%%%%%%%%%%%%%%%%%%%%
10853E71%%Q%q%Q%%%q%Q%%%%%%%%%%qQ%%%%%%%%qQ%%%%%%%%%%%%%%Q%q%QqQ%q%%%Q%q%Q%%
10837E87%%%Q%q%Qq%%%%QqQq%%%%%Qq%%%%%%%%%%%%%Qq%QqQ%%%%%q%%%Q%qQ%qQ%%%%%%%%%
10822E95%%%%%%%%%%%QqQq%%%%QqQ%Qj6%%%%Q%QqqJ6%L2m0q%Q%%Q%qQqQj6J6q%%Qq%%Q%%q
10808F03Q%q%Qq%Q%%%%qQ%%%%%%%%%%%%%%%%%%qQ%%%%%%%%%%%%%Qq%%%%%%Qq%%qQ%%%%%%%
10792F11Q%%%%%%%%%%%%%%%%%%%%%%%%%%%%Q%qqQ%%%%%QqQq%%Q%%%qQqQqQ%qQ%%%%%%%%%%
10777F27%%%%%qQ%%%%%%%%Qq%%Qq%Q%qQ%%%%%%%%%%%%%%%%%%%%%%%%%%%%%%%%%%%%%%%%%%
10761F35Qq%Q%%%%%%%%%%%%%%%%QqqQ%%%Q%q%%%%%Qq%%%%QqQqQ%%%%qQ%%%%%%%%%%%%%%%%
10745F51%%%%%%%%%%%Qq%Q%qQqQq%Q%%%qQ%%%%%%%q%Q%%%%%%%%%%%%%%%%%%%%%%Qq%%%%Q%
10730F67%%%qQ%%%%%%%%Qq%%Qq%%%Q%q%%%%Q%%qQq%%QqQ%%%%%%%Qq%Q%q%%%Qq%%%Q%q%%Qq
10714F75%%%%%%%Q%%%%%%%%%%%%%%%%%%%%%%%%%%%%%%%%%%QqQqQqQ%%qQqQq%Q%%%%%%%%%%
10699F91%%%%%%%Q%q%Qq%Q%q%%%Q%%%qQ%%%%%%%%%%%%%%%%%%%%%%%%%Qq%Q%%qQ%%%%%%%%%
10683G07%%%%%%%%%%%%%%%%%%%%%%%%%%%QqQ%qQ%%%q%%%Q%%%qQ%%%%%%%%%%%Qq%%%%qK4k4
10668G07Q%%Qq%%%Q%%%qQ%%%%%%%Qq%%%%Qq%%%%%Qq%Qq%Q%qQq%Q%%%%%%%%%%%%%%%%%%Qq%
10653G31Q%qQ%%%%%%%qQ%q%Q%q%%Q%%%%%%%%%Qq%%%%%%Qq%%%%%Q%%%%%%%%%%%%%%%%%QqQq
10637G47Qq%Q%q%Q%q%Qq%%Q%%qQqQq%Q%%%qQ%%%%%%%%%%%%%%%Qq%Q%%%%%%%%%%%%%%%%%%%
10621G63%%%%%%%%%Qq%Q%%qQ%%%%%%%%%%%%%%%%%%%%%Q%%%%%qQq%QqQqQ%%%Qq%%%%%%%Qq%
10606G79%Qq%Q%%%%%%%%%qQ%%Q%q%%Qq%%%Qq%%%%Q%qQ%%%qQ%%%%%%%%%Qq%%%%%%%%%%%%%%
10590G95QqQ%%qQ%%%%%%%%%%%%%%%%%%%%%%%%%%QqQ%%%%%%%%%%%q%%J6qQqQqQ%q%%%%%Q%%
10575H19%%%%%%%%%%%%%%%Q%%%%%%%%%%%%%%%%%%%%%%%%Q%q%%%QqQq%%%Q%%%qQ%%%%%%%%%
10559H35%%%%%%%Qq%%%%%%%Qq%%Q%%%%%%qQ%%%%Q%%%%qQ%qQ%q%Q%%qJ6q%%%%qQ%%%Qq%%%%
10544H51%%QqQ%qQ%%qQ%qQ%%%%%%%%%%%%%%%%%Q%q%Q%%%%%%%%%%%%%%%%%%%%%%QqQqQ%%%%
10528H75%%%%%%%%%%Qq%%QqQ%%%%%%%%%%%%%qQ%%%%%%%%%%%%%Q%qQ%qQ%%%%%%%%%%%%%%Qq
10513H91QqQqQ%%%%%%%qQqQ%%%%%%%%%%Qq%Q%%qQ%%%%%%%%%%%Qq%%Qq%%%Q%%%%%Qq%%%%%%
10497I15%%%%%%%%QqQqQ%%qQQq%qQ%%%%%QqqQ%%%%%QqQ%Qq%j6QQQqJ6k4J6k4M0l2L2k4%Q%
10484I39qj6K4qJ6qqJ6qQj6QQqQ%%q%Qq%%QqQ%%qQq%Q%%%%%%%%%%%%Q%qQ%%%%%qQ%%%%%%%
10469I55%Q%qQ%qQ%%%%%%%%%%%%%QqQq%%%%%%Qq%Q%%%%%%%QqQ%qQ%%%%%%%%%%%%%%%%%%%%
10454I79%%%%Qq%%Q%%q%%%Q%%%%%%%%%QqQ%%qQ%%%%%%%%%%%%Q%%%q%%Q%%%%%%%%%%%%%%%%
10438A003%%%%QqQ%%%%%%QqQ%%qQqQj6Q%QqQ%%%%qJ6q%%%%%%%QqQ%%qQ%%%%%%%qQQq%%%%%
10423A027Qq%Q%%%%%qQ%%%%%%%Qq%%%Q%q%%Q%%%%%%%%%%%%%%%Q%%qQ%%%%%%%%%Qq%%%QqQ%
10408A059qQ%%%%%%%Q%%qQ%qQqQ%%%%%qQ%%%%Q%%qQ%%%%%%%%%%%%%%%%%Qq%Q%%%%%%%%%%%
10393A083%Q%%%%%%%%%%%%%%%%%%%QqQ%%%%qQ%%%%Qq%Q%%%%%%%%%%%%%%%%%%%Qq%Q%%%%%%
10377A115%%%%%%%%%%Q%%%%%%%%%%%%%Q%qQqQ%%%%%%%%%%%QqQ%%qQqQ%%%%%%%%%QqQ%%%%%
10362A147%%%%%%Qq%%Qq%Q%%%%%%%%%%%QqQ%%qQ%%%%%%%%%%%%Qq%Q%%%%%%%%Qq%%Qq%Q%%q
10347A171%Q%QqQq%%qK4j6Qq%Q%%%%%%%%%Q%qQqQ%%%%%%%%%Qq%Q%qQ%%%%%Qq%Q%%qQ%%%%%
10332A211%%%%%Qq%%%Q%%qQ%%%%%%%%%%%%Q%%%%%%%%%QqQ%%%%%%%%%%%%QqQ%%qQ%Qq%Q%qQ
10317A251%j6J6%q%%%%%%Q%%%QQq%QqqJ6q%QqQ%%q%%%Q%%%%Qq%%Q%%%q%Q%%%%%%%%%%%%Qq
10302A275%Q%%%%%%%%Q%%%%%%%%%%%%%%Q%%%%%%%%%qQ%%%Q%%%%%%Qq%%Q%%%%%%%%%%%%%%%
10287A315%%%%Q%%%%%%%Q%%%qQQq%%%Q%%%%qQ%%%%%%%%%Q%%%%%%%%%%%Qq%%Q%%%%%%%%%%%
10271A355%%Q%%%%%%%%%%Q%%%%%%%%%%QqQ%%%%%%%%%%Qq%Q%%%%%%%%%%QqQ%%%%%%%%%Q%%%
10256A403%%%%QqQ%%qQ%%%Qq%%%%Q%%%%qJ6%q%%%QqQ%%%%%%%%%%%QqQ%%%%%%Qq%QqQ%QqQq
10241A443Q%%%%%%%%%Q%%%%%%Qq%%%%Q%%%%%%%%%%%%%%QqQ%%%%%%Q%qQ%%%%J6qqQ%%%%%%%
10226A491%%%%Q%%%QqQ%%%%%%qQ%%%%%%%%%Q%%%%%%%Q%%%%%%%Q%%%%%%%%%%%%Q%%%%%%%%%
10210A539%%%%Q%%%Qq%Q%%%%%%%%%%%%Q%%%%%%Q%qQqQ%Qj6Q%Q%%q%L2k4K4k4J6j6%Q%%%Qq
10197A587Qj6J6q%%Q%q%Q%QqQ%%%%%%Q%%%%%Q%%%%%%%%%%%%Q%qQ%%%%%%%%Q%%%%%%%%%%%Q
10182A643%%%%%%%%Q%%%%%QqQ%%%%%%%%%QqQ%%%%%%%%Q%%%%%%%Q%%%%%%%%QqQ%%%%Qq%Q%%
10166A699%Q%%%%%%%Q%%%%%%%%%%%%%Q%%%%Qq%Q%%%%%%Q%%%%%%%%%QqQ%%%%Q%%%%%%%%Q%%
10151A763%%%%QqQ%%%%%Q%%%%%%%%Q%%%%%%Q%%%%%%%%QqQ%qQ%Q%q%%Q%%%%%%%Q%%%Q%%%%%
10136A827%%%%%QqQ%%%%%%%Q%%%%%%%%%%Q%%%QqQ%%Qq%QqQ%%%QqQ%%%%%Q%%%Q%%%%%%%%Q%
10120A899%%%%%%%Q%%%%%%Q%%%%%Q%%%%%%%%%Q%%%%%%%Q%qQQq%QqQ%%%%%Q%%%%%%Q%%%%Q%
10105A971%%%Qq%Q%%%Qq%%Q%%%%%%%Q%%%%%Q%%QqQ%%%%%Q%%%%%%%%Q%%%Q%q%Q%%%%Q%%%%%
10090B043%Q%%%%%Q%%%%%Q%%%%%%Q%%%%%Q%%%Qq%%%Q%%%Q%%%%%%Q%%%%Q%Qq%%%Q%%Q%%%%%
10074B131qQ%%Q%%%%%QqQ%%%%Q%%%%%Q%%%%Q%%%%%Q%%%Q%%%%%Q%%%%%%QqQ%%QqQ%%%Q%qQ%
10059B219%%%Q%%%%%QqQ%%%Q%%%%QqQ%%Q%%%%%Q%%%%%Q%%%Q%%%%%%Q%%%%%%%Q%QqQqQ%%%Q
10044B315%%%%Q%%%%QqQ%%%Q%%%%Q%%%Q%%%%Q%%%%%%%Q%%%Q%%%%%Q%%%QqQ%%%%Q%%%QqQ%%
10028B411%Q%%%QqQ%%%%Q%%Q%%%%QqQ%%%Q%%Q%%%Q%%%%%%QqQ%Q%%%Q%%%%%%Q%%%%Q%%Q%%%
10013B523%Q%%%%Q%%%%%QqQ%%Q%%%%QqQ%%%Q%%Q%%%%Q%%Q%%%Q%%%QqQ%%Q%%%Q%%%%%Q%Q%%
9998B643%%Q%%%%%Q%%%%%Q%%%QqQ%Q%%Q%%%%%Q%%%%Q%%Q%%%%Q%%%Q%%%Q%%Q%%%Q%%%%Q%%Q
9982B771%%%%Q%%Q%%%%Q%%Q%%%%%Q%%Q%%%%%Q%%%Q%%Q%%QqQ%Q%%%Q%%%Q%Q%%%%%Q%Q%%%Q%
9967B907%Q%%%%%QqQQQq%Q%%%Q%%%Q%%%%Q%QqQ%Q%Q%%%%QqQQ%%%%Q%%Q%Q%%%Q%%%%Q%Q%%%
9951C051Q%%%Q%QqQ%Q%%%%Q%%Q%%%Q%%Q%Q%%%%%Q%%Q%%Q%%Q%%Q%%%Q%Q%%%%Q%Q%%%Q%Q%%Q
9935C219%%QqQ%Q%%%Q%%Q%%Q%%Q%%Q%Q%%%%%Q%%Q%%Q%%%Q%Q%%Q%%Q%Q%%%Q%%Q%%Q%%%Q%Q%
9920C387%Q%%Q%%Q%%Q%%Q%Q%%%Q%Q%%Q%%Q%Q%%%Q%%Q%%%Q%%QQ%%%Q%QqQ%Q%Q%%Q%%Q%Q%%Q
9904C579%Q%%Q%%Q%%%Q%Q%Q%%Q%Q%QQ%%%Q%%%Q%Q%Q%%%Q%Q%%Q%Q%Q%%Q%%%QQ%Q%%%Q%Q%%Q
9889C787%Q%%Q%Q%Q%%Q%Q%%Q%Q%%Q%%Q%Q%%Q%%Q%Q%Q%Q%QQqQ%%QqJ6%Q%J6j6%K4%qQ%QqK4
9874D003%Q%%%Q%%Q%QQ%%%Q%Q%Q%%Q%QQ%%Q%Q%%QQ%%Q%Q%Q%Q%Q%Q%Q%%J6%%Q%%Q%Q%Q%Q%Q
9859D243%Q%Q%%Q%Q%%Q%Q%J6%%Q%%Q%QQ%Q%Q%%Q%QQ%Q%Q%%QQ%%QQqJ6Q%Q%%Q%Q%Q%Q%Q%Q%
9844D499J6%%%Q%QQ%%Q%QQ%QQ%%QQ%Q%Q%QQ%Q%Q%%QQ%QQ%Q%%QQ%Q%Q%QQ%%QQ%QQ%Q%%Q%QQ
9829D795%QQ%QQ%Q%Q%QQQ%Q%QQ%Q%Q%QQ%Q%Q%QQ%Q%QQQ%Q%Q%QQQ%%QQ%%J6Q%%QQQ%QQ%QQ%
9813E123Q%QQ%Q%Q%J6Q%%QQ%QQQ%Q%QQ%QQ%QQ%Q%QQ%QQQ%Q%QQQ%Q%QQQQ%QQ%Q%QQQQ%QQ%Q
9798E483QQ%QQQQ%Q%QQ%QQ%QQQ%QQQ%QQQ%QQQ%QQQ%J6%Q%Q%J6Q%QQQ%QQ%QQQ%QQQ%QJ6%QQ
9783E875Q%Q%J6QQ%J6qQJ6%QQQQ%QQQ%J6Q%QQ%J6%QQQQQ%QQQQQQ%QQQQQ%QQQQ%QQQQQQ%QQ
9769F291QQQQQQQQQQQ%QQQQQQ%QQQQQQQQQ%QJ6%QQQQQQJ6%J6%Q%QJ6QQ%J6QQ%QQQQJ6%QQQ
9754F755QQQQQQQQQQQQQQQQQQQQQQQQQQQQQQQQQQJ6QQQQQQQQQJ6%J6QQQQQQJ6%QQJ6%QQJ6
9740G275QQQQQQQJ6Q%J6QQQQQQJ6QQQQJ6QQQQQJ6QQQQQQQJ6%K4%J6QQ%J6%L2Q%J6%J6%J6J6
9728G787QQQQQJ6J6%J6QQQQJ6QQJ6QJ6QQQQQJ6QQQJ6QJ6QQQJ6QQJ6QQJ6QJ6QQQJ6QQJ6J6Q
9716H323QJ6QQJ6QQQJ6QJ6QQJ6QJ6QQJ6QQJ6QJ6QJ6QQJ6QJ6J6QQQJ6QJ6J6QQJ6QJ6QJ6QJ6
9705H867QJ6QJ6J6QJ6QJ6QQJ6J6QQJ6J6QJ6QJ6QJ6QJ6J6QJ6QJ6J6QJ6J6QJ6QJ6J6QJ6QJ6J6
9695I419QJ6J6J6QJ6QJ6J6QJ6J6J6QJ6J6J6QJ6J6QJ6QJ6J6J6QJ6J6J6QJ6J6QJ6J6J6J6QK4
9686I971QJ6J6J6J6QJ6J6J6J6QJ6J6QJ6J6J6J6J6J6QK4QJ6J6J6J6J6QK4QJ6J6J6J6J6J6J6
9677A0531J6J6J6J6J6J6J6J6QJ6K4J6J6QK4J6J6J6J6J6J6J6J6J6K4QJ6J6J6K4J6J6J6J6J6
9669A1099J6K4J6J6J6J6J6K4QJ6K4J6J6J6J6J6K4J6J6K4QJ6J6K4J6J6K4J6K4J6J6J6J6J6K4
9661A1715K4J6J6J6J6K4J6K4J6J6K4J6J6K4J6J6K4J6J6J6K4K4J6J6K4J6K4J6K4J6K4J6K4J6
9653A2363K4J6J6K4K4J6K4J6K4K4J6K4J6K4J6K4J6K4K4J6K4J6K4K4J6K4K4K4J6K4J6K4J6L2
9645A3075J6K4J6K4K4K4J6K4K4J6L2J6K4J6L2J6L2J6L2J6K4K4K4J6L2J6K4K4K4K4K4K4K4K4
9637A3843K4J6L2K4K4J6K4K4K4K4K4L2K4K4K4K4K4K4K4K4L2J6L2K4K4K4K4L2J6L2K4K4K4L2
9630A4683K4K4K4L2K4K4L2K4K4L2K4K4L2K4K4L2K4L2K4K4L2K4L2K4K4L2K4L2K4L2K4K4L2L2
9622A5603K4L2K4M0K4K4L2L2L2K4L2K4L2K4L2L2L2K4L2L2L2L2L2K4L2L2L2L2K4L2L2K4M0K4
9614A6611M0L2K4M0K4M0L2K4M0K4L2L2L2M0L2L2K4L2M0M0K4L2L2M0L2L2L2L2M0L2L2L2M0L2
9606A7731M0K4M0M0M0K4M0L2M0L2L2M0L2M0L2M0L2M0L2M0M0L2M0M0L2M0M0L2M0L2M0M0M0L2
9599A8963M0M0M0M0M0M0L2M0M0M0M8L2M0M0M0M0M0M0M0M0M0M0M8M0M0M0M0M0M8L2M8M0M0M0
9591B0331M8M0M8M0M8M0M8M0M0M8M8M0M0M8M8M0M8M0M8M8M0M8M8M8M0M8M8M8M0N6M0M8M8M0
9583B1859N6M8M0M8M8M8M8M8N6M8M8M8M8N6M0N6N6M8M8M8M8N6M8N6N6M8M8N6M8N6M8N6N6M8
9575B3571N6M8N6N6N6M8N6N6N6N6N6N6N6N6M8N6O4N6N6N6N6N6N6N6O4N6O4M8O4N6N6O4O4N6
9567B5491O4N6O4N6O4O4N6O4N6O4O4O4O4O4N6P2N6O4O4O4O4O4P2O4O4O4O4P2O4O4O4P2P2O4
9560B7659O4P2O4P2O4P2O4Q0O4P2P2O4Q0P2P2O4Q0O4P2P2P2Q0P2Q0P2P2Q0O4Q0Q0P2P2Q0Q0
9552C0115P2Q0Q0Q0Q0Q0P2Q0Q0Q0Q0Q8Q0P2Q8Q0Q0Q8Q0R6P2Q8P2Q8Q0R6Q8Q0Q8Q8Q0Q8R6Q8
9544C2923Q8Q8Q8Q0R6Q8R6Q8Q8Q8R6R6Q8Q8J04Q8R6R6R6R6R6R6R6R6R6R6R6J04J04R6J04R6
9537C5931J04R6J04J04J04J04J04J04R6J04J12J04J04J12J04J12J04J04J12J12J04J12J12
9531C8363J12J12J12J12J12J20J12J12J20J12J12J20J20J20J12J20J20J28J12J28J20J20J28
9526D1059J20J20J28J28J28J20J28J20J44J28J20J36J28J28J36J36J28J36J28J36J36J36J44
9521D4051J28J44J36J36J44J36J44J44J44J36J44J44J44J52J36J52J52J44J52J52J52J44J60
9516D7371J52J52J52J60J52J60J60J60J52J60J60J68J60J68J60J68J60J68J68J68J68J76J68
9510E1091J68J76J76J68J76J76J84J76J76J84J76J84J84J84J84J84J84J92J84J92J84J92J92
9505E5267K00J92J92K00J92K00K00K08K00K00K08K00K08K08K08K08K16K08K08K16K16K16K24
9500E9995K16K16K24K24K24K16K32K32K24K32K24K40K24K40K40K32K48K40K40K40K40K56K48
9495F5347K48K40K56K56K56K48K72K56K56K64K72K56K72K64K72K72K72K72K80K80K72K80K88
9489G1451K80K88K88K88K96K96K88K96L04L04L04L04L04L12L04L12L20L12L20L20L20L28L20
9484G8459L28L28L36L36L36L36L36L44L44L52L52L52L52L52L60L68L60L60L68L76L68L76L76
9479H6555L84L84L84L92L92L92L92M00M00M08M00M08M16M16M16M24M24M24M24M40M32M40M40
9474I5987M48M40M56M48M56M64M64M64M72M72M80M80M88M80M96M88N04M96N04N12N12N12N20
9468A07043N28N28N28N36N44N44N44N52N52N60N68N68N76N76N76N92N92N92N92O16O00O24
9463A19531O16O24O24O32O40O40O48O56O56O64O72O72O80O80O96O96P04P12P04P20P28P36
9458A34331P28P44P52P60P60P68P76P76P92P92Q08Q00Q16Q24Q24Q40Q40Q56Q56Q64Q72Q88
9453A52067Q88Q96R04R04R28R28R36R52R44R68R68R84R84J000J008J016J024J040J040J056
9449A71435J064J072J088J088J112J112J128J136J144J160J168J184J192J200J216J232J240
9445A90971J256J264J272J296J296J320J328J336J360J368J384J400J408J424J448J456J472
9441B14059J480J504J520J536J552J568J576J600J616J640J648J672J688J704J736J736J768
9437B41603J784J808J824J840J864J880J912J928J952J976J992K024K040K064K088K120K136
9433B74835K168K192K216K248K264K304K320K352K384K416K440K472K504K536K568K592K632
9429C15443K672K696K728K768K800K848K872K912K952K992L032L072L112L152L200L240L280
9425C65771L336L368L424L464L520L568L616L664L720L768L824L888L936M000M048M112M176
9421D29203M232M296M368M424M496M560M632M704M776M848M928N000N080N160N248N328N408
9417E10691N504N592N680N776N872N960O072O176O264O384O488O600O712O832O952P072P200
9414F17827P328P456P592P736P864Q008Q168Q312Q472Q632Q792Q952R136R304R488R672R864
9410G62603J0056J0264J0456J0680J0888J1136J1320J1584J1824J2072J2328J2584J2872J3128
9407I23795J3432J3712J4024J4336J4656J4984J5328J5680J6048J6416J6808J7200J7624J8032
9403A142075J8480J8928J9400J9880K0368K0888K1432K1976K2544K3128K3752K4376K5040
9400A422267K5712K6416K7144K7904K8688K9504L0344L1232L2136L3088L4072L5104L6168
9397A819779L7280L8432L9648M0896M2208M3576M5000M6488M8040M9680N1368N3152N5008
9394B410555N6960N9000O1144O3384O5752O8216P0832P3552P6432P9464Q2656Q6016Q9568
9391C343531R3320R7280J01464J05896J10584J15560J20832J26432J32384J38720J45464J52640
9389D784107J60304J68504J77248J86616J96656K07440K19008K31456K44864K59336K74960
9386G110499K91864L10184L30064L51680L75224M00896M28984M59736M93512N30648N71608
9384A1654899O16872O67056P22800P84919Q54328R32168J019712J118503J230457J357792
9381B0959506J503223J670097J862464K085350K345064K649409L008400L434689L944689M559775
9379D8022666N308118O227326P368311Q800935J0622580J2971356J6046676K0141976K5697759
9377A61207703L3388132M4263248N9977198Q3121117J17566606J68143093K36792266L06857840
9375A211317203L09604137J41646689j41646795l09604031l06857946k36792160j68143093
9374D99524004j17566632q3121118n9977171m4263248l3388132k5697733k0141988j6046703
9372I9321279j2971343j0622580q800928p368311o227333n308118m559775l944682l434686
9370C6083523l008394k649425k345054k085360j862464j670088j503224j357792j230465j118511
9367A7252746j019704r32160q54336p84912p22807o67049o16879n71608n30648m93496m59736
9365I599411m28984m00912l75216l51681l30064l10183k91865k74951k59344k44872k31456
9362F099883k19008k07424j96664j86616j77248j68496j60312j52640j45464j38712j32392
9360D214907j26432j20832j15560j10584j05896j01464r7280r3312q9568q6024q2656p9464
9357C005835p6432p3552p0824o8224o5744o3384o1152n9000n6952n5016n3152n1368m9672
9354B201363m8040m6488m5000m3576m2216m0896l9632l8440l7280l6168l5096l4072l3088
9351A681371l2152l1216l0352k9504k8688k7896k7152k6416k5712k5040k4376k3744k3136
9348A325987k2552k1968k1424k0896k0376j9880j9392j8920j8480j8040j7616j7208j6800
9345A072435j6416j6048j5680j5336j4984j4656j4336j4024j3712j3432j3136j2856j2592
9342H85227j2328j2064j1824j1576j1352j1112j0888j0680j0464j0256j0056r864r672r488
9339G33603r304r136q952q800q624q472q312q160q016p872p728p592p456p328p192p080o952
9335E96627o824o720o600o488o384o272o168o064n968n872n776n680n592n496n416n328n240
9331D94739n160n080n008m920m848m776m704m640m560m488m432m360m296m232m176m112m056
9327D16891l992l936l880l824l776l720l664l616l568l512l472l416l376l336l280l240l200
9323C56083l152l112l072l032k984k952k912k880k840k808k768k728k704k656k632k600k568
9320C07683k536k504k464k448k408k384k352k328k296k272k240k216k192k168k144k112k088
9316B68531k064k048k016k000j968j952j928j912j880j864j848j824j808j784j752j752j728
9312B36403j704j688j672j648j640j616j592j584j568j552j536j512j512j480j472j456j440
9308B09731j424j416j392j384j368j360j344j328j312j296j296j280j264j248j240j232j216
9304A87331j200j192j184j168j160j144j136j128j112j112j088j088j072j064j048j048j040
9300A68347j024j008j008j000r92r76r76r60r52r52r28r36r20r12r04q96q88q80q72q64q64
9295A48635q48q48q32q24q24q16q08q00q00p84p84p68p76p52p60p44p52p36p28p28p20p12
9290A31491p12o96o88o96o88o88o64o72o64o56o48o56o40o40o32o24o24o16o16o16n92o08
9285A17155n92n92n84n84n76n68n76n60n60n52n60n44n44n36n36n28n28n28n20n12n12n12
9280A05051n04n04m96m96m88m88m88m72m80m72m72m64m64m64m56m48m56m48m40m40m40m40
9275I4731m24m32m24m24m24m16m16m16m08m00m08m00m00l92l92l92l84l92l76l84l76l76l76
9270H5499l68l68l60l68l60l60l52l60l44l52l44l52l44l36l36l36l36l28l36l28l28l12l28
9265G7563l20l12l28l04l28k96l12l04l12k96k96l28k72k96k80k96l04k88k88k80k80k88k80
9259G0675k80k72k72k64k80k72k64k64k64k72k56k56k72k56k56k48k64k48k48k56k40k48k48
9254F4675k40k48k32k40k40k32k40k24k40k32k24k32k32k24k24k16k32k16k16k24k16k16k16
9249E9419k16k08k08k16k08k16k00k08k00k00k08k00k00k00k00j92k00k00j92j92j92j92j92
9244E4779j84j92j84j92j84j76j92j84j84j76j76j84j76j76j76j76j76j76j68j68j76j68j68
9238E0667j68j68j68j68j60j60j68j60j60j68j60j52j60j60j60j52j60j52j52j52j52j52j52
9233D7003j52j52j36j52j52j44j44j44j44j44j44j36j44j44j44j36j36j44j36j36j36j36j36
9228D3731j36j36j36j28j36j28j28j36j28j28j36j20j20j28j36j28j20j28j20j20j20j28j28
9222D0779j20j12j20j20j20j20j12j20j20j12j20j12j20j12j12j12j20j12j12j04j20j04j12
9217C8131j12j04j12j04j04j12j04j04j04j04j12j04j04r6j04j04j04r6j04j04r6j04r6j04
9212C5635r6r6j04r6r6r6r6r6r6r6q8r6r6q8r6r6q8r6r6q8q8r6q8q8q8q8q8q8q8q8q8q8q8
9204C2587q0q8q8q0q8q8p2r6q0q0q8q0q0q0q0q0q0q8q0q0q0q0p2q8p2q0p2q8p2q0p2q0p2q0
9196B9843p2q0p2p2q0p2p2p2p2p2p2p2q0o4p2p2p2p2o4p2p2p2o4p2o4p2p2o4o4p2o4o4o4p2
9189B7443o4o4p2o4o4o4o4o4p2o4o4o4n6o4o4o4n6o4o4o4o4n6o4o4n6o4n6o4n6o4n6o4n6n6
9181B5323o4n6n6o4n6n6n6n6n6o4n6n6n6n6m8n6o4m8m8o4m8o4m8n6n6n6m8n6n6n6m0n6m8n6
9173B3443n6m8m8n6m8n6m8m8n6m8n6m8m8m8m8m8n6m8m8m8m8m8m8m8m8m8m8m8m8m8m8m8m8m8
9165B1763m0m8m8m8m8m0m8m8m0m8m8m0m8m8m0m0m8m0m8m0m8m0m8m0m8m0m0m8m0m0m8m0m0m0
9157B0267m0m0m0m8l2m8m0m0m0m8l2m0m0m0m0m0m0m0m0m0l2m8l2m8l2m0m0m0l2m0m0l2m0m0
9150A8923m0m0l2m0l2m0l2m0l2m0m0l2m0l2l2m0l2m0l2m0l2l2m0m0l2l2m0k4m0l2l2l2m0l2
9142A7715l2l2m0k4m0l2l2l2l2m0l2l2l2l2l2l2l2l2l2l2l2l2l2l2k4l2m0k4m0l2l2k4l2l2
9134A6619l2l2k4l2l2l2k4l2l2l2l2k4l2l2k4l2l2l2k4l2k4l2l2k4l2k4l2k4l2k4k4l2l2k4
9126A5627l2k4l2k4k4l2k4l2k4l2k4k4l2k4l2k4k4k4l2k4k4l2k4k4l2k4k4k4l2k4k4k4k4l2
9119A4715k4k4k4k4k4k4k4k4k4k4k4l2k4k4k4k4k4j6l2k4k4k4k4k4k4k4k4k4k4k4j6k4l2k4
9111A3891j6k4k4k4k4k4k4j6k4k4j6l2j6k4k4k4j6k4k4k4k4j6k4k4k4j6k4k4j6k4k4j6k4k4
9103A3139k4j6k4j6k4j6k4k4j6k4j6k4j6k4k4k4j6j6k4j6k4j6k4j6k4k4j6j6k4j6k4k4j6j6
9095A2451k4j6j6k4j6j6k4k4j6qk4k4j6j6j6k4j6k4j6k4j6j6k4j6j6j6k4j6j6k4j6j6j6j6
9087A1819k4j6j6k4j6j6j6j6j6j6j6k4j6k4j6qk4j6j6j6k4j6j6j6j6j6k4qj6j6k4qj6k4j6
9079A1211qj6l2qql2%k4qj6k4j6j6k4qj6j6k4j6qj6j6j6j6j6j6j6j6j6qj6k4j6qj6j6j6j6
9071A0611j6j6j6j6qj6j6j6j6j6j6qj6j6j6j6j6j6qj6j6j6j6j6qj6j6qj6j6j6j6qj6j6qj6
9062A0075j6j6qj6j6qj6j6j6qj6j6qj6j6j6qj6j6qj6j6qj6j6qqj6qk4j6qj6qqj6j6qj6qj6
9053I531j6qj6qj6j6qj6j6qj6qj6qj6j6qqj6qj6j6qj6qqj6j6qqj6qj6qj6qj6qj6j6qqj6qj6
9043H979j6qqj6qj6qqj6qqj6j6qqqj6qj6qqj6qqj6qqj6j6qqqj6qj6qqj6qqj6qqqj6qqj6qq
9031H435j6qqqqj6qqj6qqj6qqj6%qqk4qqqj6qqqqj6qqqj6qqqqj6qqqj6qqqj6qqqqqqj6qqq
9019G891qqqqj6qqqqj6%qj6qqqj6qqqqj6%j6%qj6qqqqj6qqqqqqqqqqqqqqqqqj6%qj6qqqqq
9005G379qqqqqqqqqqj6qqqqqqqqqqqqqqqqqqqqqq%j6%j6q%j6%qqqqqqqq%j6qqqqqqqqqq%q
8991F883qqqqqqqq%qj6%qqqqqqqqqq%qqqqqqq%qqqqqq%qqqqqqqqq%qqq%qqq%qqqqq%qqqqq
8976F411%qqqqqq%qqqq%qq%j6%qqq%qqqqq%%qqqq%j6%qqq%qqq%qqq%qqqq%qqqqq%q%j6%qq
8961F003q%q%qqqq%q%qqqq%qqq%q%qqq%qqq%qqq%%qqqq%q%qqq%q%q%qqqq%j6%q%%qqq%%q%
8945E643j6%%qqq%q%qqqqQj6%%j6%k4J6j6J6j6Qj6k4K4l2Qj6J6l2j6QQ%q%k4J6qqj6%q%q%
8934E387q%q%qqq%q%Qj6q%q%qq%qq%%qq%j6Qqq%qqq%q%q%q%%q%qq%qqq%%qq%%qq%q%qq%%q
8919E083%q%qq%q%q%j6%q%%q%q%q%q%qq%q%%q%q%q%%qqQj6q%q%%qq%%qq%qq%%%j6%q%q%q%
8904D811%qqQj6%qQqq%q%%qq%q%q%%qqq%%%qq%q%%q%%qq%%q%q%q%q%%q%q%%q%qq%q%%q%q%
8889D563q%q%q%%%qq%%q%q%q%%q%q%q%%q%q%q%q%%qq%%qqQq%q%%q%q%%q%q%%q%q%q%q%qQq
8873D331q%%q%q%%q%%q%q%%q%%q%q%%q%q%q%q%q%%%qq%%%q%q%%%qQj6%%%q%%q%q%%q%q%%q
8858D123%q%%q%q%%%q%q%%q%%q%qQq%q%%q%q%%q%%q%qQq%%qqQqq%%%q%%qQqq%%%q%%qqQqQ
8842C947qqq%%q%%%q%%q%%q%%%q%q%%q%%q%%q%%%q%q%%%q%q%%%q%%q%%q%%%q%%q%%q%%qQq
8827C763%%q%%q%%%q%%%q%q%%%q%%qQq%q%%q%%q%%q%%%%q%%q%%q%%q%%%q%%q%%%q%%%q%%q
8811C603%%%q%%q%%%q%%q%%%q%%%%q%q%%%%q%%%q%%%q%%q%%%%q%%%q%%q%%q%%%q%%%q%%%q
8796C459%%%%q%J6j6qj6K4qq%Qj6%%Qqq%%%q%%%%q%%%q%%%q%%%%q%%q%%%q%%%q%%%%qQqq%
8781C339%%%%q%%%%q%%q%%q%Qq%%q%%%q%%%%q%%Qq%%q%q%%%%%q%%Qq%q%%%q%%q%%%q%%%q%
8766C219%%%q%QqqQ%q%Qq%q%%%q%%%%%%q%%%q%q%%%%q%Qq%%%%q%%%%%q%%q%%%%%%q%%%q%%
8750C115%%%q%%%%q%%%q%%%%%q%%%q%%%%%q%%%%q%%%%%q%%%%q%%%%%%q%%%%%q%%%%q%qQ%q
8735C011%Qj6%%%Qq%%%%q%%%%q%%%%%q%%qQ%q%%%q%Qj6Q%qQq%%qQq%%q%Qq%%%%%q%%%%qQ%
8719B931q%%%q%%%%%%qQq%%%q%%%%%%q%%%%%%%q%%%%%q%%%%q%%%q%%%%%%%q%%%%%%%q%%Qq
8704B843q%%%%%%%qQq%%%qQq%%%%%%q%%%%%%%q%Qq%%%%q%%%%q%%%%%%q%%%%%%q%%Qq%%%%q
8688B763%%%%%%q%%%%%%%qQq%%%qQq%%%%qQ%%%q%%%q%%%%%%%%q%%%%%qQqQ%q%%%%%q%%%%%
8673B699%q%%%qQ%q%%%%%q%Q%q%%%%%q%%%%%%%q%%%%%%%%%q%%%%%%%qQq%%%%qQ%qQq%%%%%
8657B635%%%%q%%%%%%q%%%%%%%%%q%%%%%%%%%q%%%%%%%%q%%%%%%%qQq%Qq%%%q%Qq%%%%%%%
8642B579%%%%q%%%%%%qQq%%%%qQ%%q%%%%%%%%%%qQq%%%%%%%qQq%%%%qQ%%q%%%%%%%%%q%%%
8626B523%%%%%q%%%Qq%%%%%%%%%%q%%Qq%%%%%%q%%%%%qQ%q%%%%%%q%Q%q%%%%%%%%%qQq%qQ
8610B475J6k4J6%k4J6j6K4%j6qJ6q%%%%Qq%%%%%%q%%%%%%%%%q%Qq%%%%%%%%q%%%%%%%%%%%
8597B443%%q%%%%%%%%%%%%q%%%%%%%%%%%%%%%qQ%q%%%%%%%q%Qq%%%%%%Qq%%QqqQqQqQq%%%
8581B403%qQq%QqQq%%%%%%%%%%%%q%%%%%%%%%%%%%qQq%Q%q%%%%%%%%%%%q%%%%%%%%%%qQqQ
8566B371%qQqQ%q%%%%%%%%%q%%Q%%%qQq%%%%%%Qq%q%Q%%q%%%%%Qq%%%%%%%%%q%QqQ%qQq%Q
8550B347q%%%%q%QqQ%%q%%%%%%%%%%%q%Qq%%%%%%%%%%%%%%%%%%q%%%%%Qq%%%%%%qQq%Q%q%
8535B307%%%%%%%%%%%%%%%%%%%%qQ%qQq%QqQq%%%%%%%%%%%%%%%%%qQ%%q%%%%%%%%%%%%%%%
8519B291%%%%%%%%%%%%qQq%%Qq%%%%%%%%%%%%%%%%%%%qQq%%%%%Qq%%%Qq%%%%%%%%%%%%%%%
8504B275qQqQ%%qQ%%q%%Q%qQj6Q%%Qq%%%%%%%%%%qQq%Q%q%%%%%%%%%%%%%%%%%%%%%%%%%%q
8488B251Q%q%%%%%%%%QqQ%%%q%%%%%%%%%%%%%%%%%%%%%%%%%%%qQ%%%q%%Q%%%%q%%%%%%%%%
8473B243%%QqQ%%qQ%%%%%j6J6qQq%%%%%%qQ%%%%%%%%%%%%%qQq%%%%Q%q%%Q%%%q%%%%Q%%qQ
8458B243%%%%%%%qQq%Qq%%Qq%%%%%%%%%%%%%%%%%%%%%%%%%%%%%%%%%%q%Q%qQ%%qQqQ%%%%%
8442B235qQqQq%Qq%Q%%qQqQj6K4j6Qj6Q%%%%%%J6q%%%%%%%%%qQ%%q%%Qq%%%%%%Qq%Q%q%Qq
8428B227Q%%%%%%q%%%%%%%%%%%%%Qq%%Q%qQ%%q%Q%%q%Qq%Q%%%%%%qQq%%%%%%%%%%%%%%%%Q
8412B235%qQ%%qQ%qQ%q%Qq%%%%QqQqQ%qQ%q%QqQq%%%%Q%%%%qQ%%%%%%%%%%%%%%%%%%%%%%%
8396B235%%%%%%%%%%%%%%%%%%%%%QqQq%QqQ%q%%%%%%%%QqQ%%%%%%%%%%%%%%%qQqQ%%%%%%%
8381B243%%%%%%%%%%Qq%Q%%%%%%q%%%Q%%q%%QqQq%Qq%Q%qQ%%qQ%%%%%%%%%%%%Qq%%%%%%%%
8365B251%%%%%%%%%%QqQ%qQ%%%qQ%q%QqQ%%%%%%%%%%%%Qq%Qq%%%%%%%%Q%%%qQqQ%qQ%%%%%
8350B267%%%%%%%%%%%%%%%%QqQq%%Q%%%%%%%%qQ%%%%%%%Qq%Qq%%%%%%%Qq%%Qq%QqQ%%%%%%
8334B283%%%%%%%%%%%Q%%%q%Q%qQ%%%%%qQ%%q%Q%Qq%QqK4q%Qm0M0l2K4%q%%%%%%%%%%%Q%Q
8320B315j6Q%%%%%%%%%%%%%%%%%%%%%Q%%%%%%qQqQ%%%%%%%Qq%%%%%QqQqQ%%%%%%%%%%%%%%
8304B323%Q%%q%%Q%qQ%%%%%%%%%%%%Qq%%%%%%Q%%%%qQ%%%%Qq%%%Q%%%%%%%%%%%QqQ%%%%%%
8289B355qQ%%%%%%%%%%%%%QqQ%%%%%%%%%%%%%%%%%%QqQ%%%%%%%%%%%%%Q%%%%%%%%%%%%%%%
8273B379%%%QqQ%%qQ%%%%%%%%%%%Q%%%%%%%Qq%Q%%%%%Q%q%Qq%QqQ%%%%%%%%%Qq%%%%Q%qQ%
8258B419%%%qQ%%%%%QqQ%%%%%%%%%%Q%%%%%QqQqQ%%%%%%%%%%%%%%QqQ%%qQ%%%%%%%%%%Q%%
8242B459%%%%%%%%%%Q%%%%%%%%%%%%%Q%%qQq%%%%Q%%%%%%QqQ%%%%%%%Q%%%%%%%%Q%qQ%%q%
8227B491Q%%%%Qq%Q%%%%%%%%%%%%Q%qQ%%%%Qq%QqQ%%%%%%Q%qQ%qQ%%%%%Qq%%%Q%%%%%%%Q%
8211B547%%%%Q%%q%Q%%%%%%%Q%%q%QqQ%Qq%Q%%Qq%qQQ%q%Q%%%%%%Q%q%Q%%%%Q%%%%%%%Qq%
8195B595%%%Q%%%%%%%%%%Q%%%%%%%%%Q%%%%%%%%Q%%%%%%%%%Q%%%%%%QqQqQqQ%%Qq%%Q%%%%
8180B651%QqQ%%%%%%%QqQ%%%%%QqQ%%%%%QqQ%%%%%%%%QqQ%%%%%%QqQ%%%%%QqQ%%%%%%%Q%%
8164B715%%%%%Q%%%Q%qQ%%%%%%%%Q%%%%%%%%Q%%%%%%%Q%qQ%%%%Qq%Q%%%%%%Q%%%%%%Q%%%%
8149B779QqQ%%%%Qq%%Q%%%%Q%%%%%%%%%%Q%%%%%Qq%%Q%%%Q%%%%%%Q%%%%%%%Q%%%%%%Q%%%%
8133B851%%Q%%%%%qQ%Q%%%%%Q%%%%%Q%%%%%%Q%%%%%Q%%%%%%Q%%%%%%%QqQ%%Q%%%%%QqQQq%
8118B931%Qq%Q%%%%%%Q%%%%Q%%%%%%%Q%%%Q%qQ%%%Q%%%%Q%%%%%%Q%%%%Q%%%%%%%Q%%%%%Q%
8102C019%%%Q%%%%%%Q%%%%%%%Q%%%%%Q%%%%%Q%%%Q%%%%%Q%%%%QqQ%%%QQq%Q%%%qQ%QqQ%Q%
8087C115%qQ%Q%qQ%%%%%%Q%%%Q%%%%Q%%%%Q%%Q%qQ%%%Q%%%%Q%%%%Q%%%%%QqQ%%QqQ%%%Q%%
8071C211%%%%Q%%Q%%%%%Q%%%Q%%%%%Q%%Q%%%%%%%Q%%%%Q%%%Q%%%%Q%%%Q%%%%Q%%QqQ%%%%Q
8055C323%%%%%Q%%%%Q%%%%Q%%%Q%%%%%Q%Q%%%%%%Q%%%Q%%%Q%%%%Q%%%Q%%%%%Q%%Q%%%%Q%%
8040C435%Q%%%Q%%%%Q%%%Q%%%%%Q%%%Q%QqQ%%%Q%%%%Q%%Q%%%%Q%%Q%%%%%Q%Q%%%Q%%%Q%%%
8024C563Qq%QQqQqQ%Q%%%%Q%%Q%%%Q%%Q%%Q%%%%Q%%Q%%%%Q%%%Q%%%Q%%Q%%%%Q%Q%%%Q%%%Q
8009C707%%Q%%%Q%%%%Q%Q%%%%Q%%QqQ%Q%%%J6%%j6J6QqQ%Qq%Q%Q%Q%%%%Q%%Q%%%%Q%%Q%%Q
7994C851%Q%%%Q%%QqQ%Q%%Q%qQQ%%%Q%%Q%%%Q%%%Q%%Q%%Q%%QqQQ%%Q%%Q%%%Q%Q%%Q%%Q%%Q
7978D019%%QqQ%Q%QqQ%%Q%%Q%%%Q%QqQ%Q%QqQ%Q%%Q%%%Q%J6%qJ6qQ%%Q%%Q%%Q%%Q%QqQ%Qq
7963D179Q%%Q%%QQ%%%Q%Q%Q%%%Q%Q%%Q%%Q%Q%%%Q%%Q%Q%%Q%Q%%%Q%%Q%Q%%Q%Q%%Q%%Q%Q%%
7948D379Q%Q%%Q%%QQqQ%Q%%QQ%%%Q%%Q%%Q%%Q%%QQ%%Q%Q%%Q%%Q%QQ%%%Q%Q%Q%%Q%%Q%Q%%Q
7932D595%%QQ%%Q%Q%%Q%%Q%Q%Q%%Q%Q%Q%%Q%Q%Q%Q%%%Q%Q%Q%Q%%Q%QQqQQ%Q%Q%Q%%Q%Q%Q%
7916D827Q%%Q%Q%%QQ%%Q%Q%QqQ%QQ%%Q%Q%Q%QQ%%Q%Q%Q%Q%Q%Q%QqJ6qQQQ%Q%%QQ%Q%%Q%QQ
7901E083%%Q%Q%%QQ%Q%Q%Q%Q%Q%Q%Q%Q%Q%Q%Q%Q%Q%Q%QQ%Q%%Q%Q%Q%Q%QQ%Q%QQ%Q%Q%Q%QQ
7886E363%Q%Q%Q%%QQQ%Q%%QQ%Q%QQ%%QQ%QQ%Q%Q%Q%QQ%Q%Q%QQQ%QQ%%QQ%Q%Q%Q%QQ%Q%QQ%
7870E667QQ%Q%Q%Q%QQQ%%QQ%QQ%QQQ%Q%Q%Q%QQ%QQ%QQ%Q%QQ%QQ%QQ%Q%QQQ%Q%J6%%QQqK4%
7855F003%%J6%Q%J6qJ6%QQ%QQ%Q%QQ%QQQ%QQQ%QQQ%%QQ%QQQQ%Q%QQQ%QQ%QQQ%QQQ%Q%QQQQ
7840F363%%QQQQ%QQQQ%QQQ%QQQ%QQ%QQQQ%QQQ%QQQ%QQQQ%QQQQQ%Q%J6%QQ%J6%QQQ%QQQ%J6
7825F763%Q%J6%QQQQQ%QQQ%QQQ%J6%QQQQQQ%QQQ%J6%QQQQQQQQQ%QQ%J6Q%QQQQ%QQQQQQ%J6
7811G187%QQQQQQQ%QQQQQQQQ%J6QQQ%QQQQQQQQQQ%J6QQQ%QJ6%J6%QQQJ6%QQQQQQQQQQQQJ6
7797G659qJ6QQQQQQQQQQQQQQQQQQQJ6%J6%J6%J6%QQQJ6QQQQQQQQQQJ6%J6QQQQQQQQQJ6%J6
7783H139QQQQQQQQQQQJ6QQQQJ6%J6QQQQJ6QQQQQQQJ6QQQQQQJ6QQQJ6Q%J6QQQJ6QQQQQJ6%J6
7770H667QQQJ6QJ6%J6QQQQQQJ6QJ6J6QJ6%QJ6J6QQQQQQJ6QJ6QQQJ6QQJ6QJ6QQQJ6QJ6QQQJ6
7758I203QJ6QQQJ6QQQJ6J6QQJ6QJ6QQJ6QJ6QQQJ6QJ6QQJ6QJ6QQJ6QJ6QQJ6QJ6QJ6QJ6QQJ6
7747I747J6QJ6QJ6QJ6%J6J6QJ6J6QJ6QJ6QJ6QJ6QJ6QQJ6J6QQJ6J6J6QQJ6J6J6QQJ6QJ6J6J6
7737A0291QJ6J6QJ6QJ6J6J6QJ6J6%K4QJ6QJ6J6QJ6J6QJ6QJ6J6J6QJ6J6J6QJ6J6QJ6J6QJ6J6
7727A0835J6QJ6J6J6J6QJ6J6QJ6J6J6QJ6J6J6J6J6QJ6J6QJ6J6J6J6J6QJ6J6J6J6J6J6J6QJ6
7719A1379J6J6J6J6J6J6J6J6QJ6J6K4QK4QJ6J6J6J6J6J6J6J6J6J6J6QK4J6J6J6J6J6QK4QJ6
7710A1955K4J6J6J6QK4J6J6J6J6J6J6J6J6J6J6K4J6J6J6J6J6J6J6J6K4J6J6J6K4J6J6J6J6
7702A2531J6J6K4J6J6J6K4QK4J6J6K4J6J6J6J6K4J6K4J6J6J6J6K4J6K4J6J6J6K4J6K4J6J6
7695A3147K4J6J6K4J6K4J6J6K4J6J6K4J6J6K4J6K4J6J6K4K4J6K4J6K4J6J6K4K4J6J6K4J6K4
7687A3811K4J6K4J6K4K4J6K4K4J6K4J6K4K4J6K4J6K4J6K4K4K4K4J6K4K4K4J6J6L2J6K4K4J6
7679A4531K4K4K4J6K4K4K4K4J6K4K4K4J6K4L2K4J6J6L2K4J6K4K4K4L2J6K4K4J6L2J6M0QK4
7671A5307K4K4K4L2L2J6J6L2L2J6K4K4L2K4K4K4J6L2K4K4K4L2J6K4L2K4K4L2K4K4K4K4K4L2
7664A6163K4K4K4K4L2K4K4L2K4K4K4L2K4L2K4L2K4K4L2K4K4L2K4L2K4K4L2K4L2L2K4L2K4L2
7656A7083K4L2K4L2K4L2K4L2L2K4L2L2K4L2L2K4L2L2K4L2L2K4L2L2L2L2L2J6M8J6M0L2L2K4
7648A8083L2L2L2L2K4M0L2K4M0K4L2L2M0K4L2L2L2L2L2L2L2L2M0L2L2L2L2L2L2M0L2L2L2L2
7640A9179L2M0L2L2M0L2L2M0L2L2M0L2L2M0M0L2L2M0L2M0L2M0L2M0L2M0L2L2M0L2M0M0M0L2
7632B0387M0M0L2M0M0M0L2M0M0M0L2M0M0M0M0M0L2M0M0M0M0M0M0M0L2M8M0M0M0M0M0M0M0M0
7625B1715M8M0M0M0M0M0M8L2M8M0M0M0M8M8L2M8M0M8M0M8L2M8M8M0M8M8M0M8M0M0M8M8M8M0
7617B3179M8M8M0M8M0M8M8M8M8M0M8M8M8M0N6M0N6M0M8M8M8M8M8M8N6M8M8M8M8M8N6M8M8M8
7609B4795N6M8M8N6M8M8N6M8N6M8M8M8N6N6N6M8N6M8N6N6N6M8N6N6M8O4M8N6N6N6M8N6O4M8
7601B6595N6N6N6N6N6N6O4N6N6O4N6N6N6N6O4N6N6O4N6O4N6O4N6O4N6N6P2N6O4N6O4O4O4N6
7594B8603O4O4O4O4O4N6P2N6O4O4O4P2N6P2O4O4O4O4O4P2O4P2O4O4P2O4P2P2O4P2P2O4P2P2
7586C0851P2O4P2P2P2P2O4Q0P2P2O4Q0P2P2P2P2Q0Q0O4Q0Q0P2P2Q0Q0P2Q0P2Q0P2Q0Q0Q0Q0
7578C3379Q0Q0P2Q8Q0Q0P2Q8Q0Q0Q0Q8Q0Q0Q8Q0Q0Q8Q8Q0Q8Q8Q0Q8Q8Q8Q0Q8Q8Q8Q8Q8Q8R6
7570C6235Q0R6Q8R6Q8Q8R6Q8R6Q8R6Q8R6Q8J04Q8R6R6R6R6R6J04R6R6R6J04R6R6J04R6R6J04
7563C9267J04R6J04R6J04J04J04J12J04J04J04J04J04J12J04J04J12J12J04J12J04J12J12
7558D1699J12J12J12J12J12J12J12J12J20J12J12J20J12J20J20J20J12J20J20J20J20J20J20
7552D4363J28J20J20J20J28J20J28J28J28J20J28J28J28J28J28J28J36J28J28J36J28J36J36
7547D7299J36J36J28J36J36J36J36J36J44J44J36J36J44J36J52J44J36J44J52J44J44J52J44
7542E0531J52J44J52J52J44J52J52J60J52J52J52J60J52J60J60J60J60J60J60J60J60J60J68
7537E4115J68J60J68J68J60J76J68J68J68J84J60J76J84J60J84J76J84J68J68J84J76J84J92
7531E8099J84J84J84J84J84J92J84J92J92J84K00J84K00J92K00J92K08J92K00K00K00K00K08
7526F2539K00K08K08K08K08K08K16K08K08K16K16K16K24K16K16K24K24K16K24K32K24K24K32
7521F7515K32K24K32K32K40K32K40K40K40K40K40K40K48K48K48K40K56K48K48K56K56K56K64
7515G3115K56K56K64K64K64K64K72K64K72K72K72K80K72K80K80K80K80K88K88K88K88K88K88
7510G9435K96K96K96K96L04L04K96L04L12L04L20L12L12L12L20L20L20L20L28L20L36L28L36
7505H6627L36L36L36L36L52L44L52L44L44L60L44L60L60L60L76L60L60L68L76L76L76L76M00
7500I4859L60L92L92L92L92L92M00M00M00M08M08M16M08M16M24M16M24M32M16M40M32M40M40
7494A04299M40M48M48M48M56M56M64M56M64M72M72M72M80M88M80M88M96M88N04M96N04N12
7489A14731N12N12N20N20N28N28N28N36N44N36N52N52N52N60N60N68N68N76N76N84N84N92
7484A26819N92O00O00O08O08O16O24O24O32O32O40O40O48O48O64O56O64O80O72O80O88O96
7479A40931O88P04P12P12P20P20P28P36P36P52P52P52P60P68P76P84P76Q00Q00Q00Q16Q16
7474A57539Q24Q32Q32Q48Q48Q56Q64Q72Q80Q80Q96Q96R12R12R20R28R36R44R52R60R68R76
7469A77275R84R92J000J008J016J032J032J048J048J064J072J080J088J096J112J120J128
7465A95195J128J152J160J168J176J184J200J216J216J232J248J256J264J272J296J296J312
7461B15971J328J336J352J360J376J384J400J416J424J440J456J472J480J488J512J528J544
7458B40267J552J568J592J600J616J632J648J672J680J696J720J736J744J776J784J800J824
7454B68907J840J864J880J904J920J936J960J992J992K024K048K064K088K112K136K160K176
7450C03003K208K224K256K280K304K328K360K376K416K432K464K488K520K552K576K608K640
7446C44035K672K696K728K768K792K832K864K904K928K968L008L040L080L112L152L192L240
7442C94011L272L312L360L392L440L488L528L576L616L672L720L760L816L856L920L968M016
7438D55723M080M136M168M256M296M344M416M488M544M608M672M736M800M872M944N016N088
7434E33187N152N240N304N392N472N552N632N720N808N888N984O080O168O264O360O464O560
7430F32227O672O768O880O992P104P224P336P456P584P712P832P968Q104Q248Q376Q528Q672
7426G61683Q816Q984R136R296R464R640R800R984J0168J0344J0544J0744J0936J1152J1344
7423I12035J1584J1792J2016J2256J2496J2736J2992J3248J3520J3792J4064J4352J4656J4960
7420A096499J5264J5592J5928J6264J6600J6968J7344J7720J8112J8512J8936J9360J9800
7417A322899K0248K0736K1208K1704K2224K2744K3304K3864K4448K5056K5672K6320K6984
7414A627411K7672K8384K9128K9880L0672L1488L2336L3216L4120L5064L6040L7056L8104
7411B050571L9200M0336M1512M2736M4016M5336M6720M8152M9648N1200N2824N4520N6288
7408B663059N8120O0048O2064O4160O6352O8648P1056P3576P6208P8976Q1880Q4920Q8120
7405C597187R1472R5016R8728J02640J06760J11112J15688J20536J25656J31056J36776J42840
7402D975467J49264J56080J63304J71000J79176J87888J97160K07064K17648K28952K41040
7400G074043K54016K67936K82888K98959L16289L34976L55159L76993M00656M26328M54256
7397A0842499M84656N17832N54104N93832O37440O85423P38320P96799Q61618R33616J013847
7395A8659986J103520J204039J317113J444752J589336J753817J941670K157202K405671K693591
7392C6270697L029042L422160L885856M436454N095215N889707O856322Q043634R517403J1367859
7390I7814349J3720820J6754689K0726962K6016739L3192923M3126299N7173383P7470505
7388C85996669J07364794J51856843K17184828L05856669L96358224L99905012J82960395
7387B147483434j82960395l99905012l96358224l05856669k17184828j51856843j07364794
7385C85996669p7470505n7173383m3126325l3192911k6016725k0726962j6754676j3720833
7383I7814349j1367859r517403q043634o856309n889714n095227m436472l885832l422176
7381C9299723l029026k693591k405681k157198j941664j753817j589344j444744j317113j204039
7379A9763506j103520j013856r33607q61618p96799p38328o85415o37448n93824n54104n17832
7376A1327155m84664m54248m26336m00656l76992l55152l34968l16297k98967k82880k67936
7374G328059k54016k41048k28952k17640k07064j97168j87880j79176j71008j63304j56080
7371E124723j49264j42832j36784j31056j25648j20536j15696j11112j06752j02648r8728
7369C783667r5016r1472q8120q4920q1880p8976p6208p3576p1056o8648o6360o4152o2064
7366B781219o0048n8120n6280n4528n2824n1200m9656m8144m6720m5336m4016m2736m1512
7363B130099m0336l9200l8112l7048l6040l5072l4120l3208l2336l1496l0672k9880k9120
7360A683459k8384k7680k6984k6312k5672k5056k4448k3864k3296k2760k2216k1712k1200
7357A363875k0736k0248j9800j9368j8928j8512j8112j7728j7336j6968j6608j6264j5920
7354A127347j5592j5272j4952j4656j4352j4072j3792j3512j3256j2992j2736j2496j2256
7351I47411j2024j1792j1568j1352j1152j0936j0736j0544j0352j0168r984r808r632r464
7348G97899r296r136q976q824q680q520q384q240q104p968p840p704p584p456p344p216p104
7344F59523o992o888o768o664o568o464o352o272o168o072n984n896n800n720n632n552n472
7340E54259n392n312n232n160n088n016m936m872m800m744m664m608m544m480m416m360m296
7336D72339m248m184m128m072m024l968l912l864l808l768l720l664l624l576l528l480l440
7332D07331l400l360l312l272l240l192l152l112l080l040l008k960k944k896k864k832k792
7328C54875k768k728k696k672k640k608k584k544k520k488k464k440k408k376k360k328k304
7324C11947k280k256k224k200k184k160k136k112k088k064k048k024k000j976j960j944j928
7320B76363j888j896j856j840j824j800j792j768j744j744j712j696j680j672j648j632j616
7317B46555j608j584j568j560j544j520j512j496j480j472j448j440j432j408j400j392j376
7313B21315j360j344j344j328j312j296j288j280j264j256j240j240j216j216j192j192j176
7309A99771j168j160j144j136j128j120j112j096j088j080j072j064j048j048j032j032j016
7305A81227j008j000r92r84r76r68r60r52r44r44r28r12r20r12q96q88q88q80q72q64q48q56
7300A60835q40q40q24q32q08q16q08q00p84p92p76p84p60p60p60p52p52p36p36p28p20p20
7295A43707p12p12o96o96o96o80o88o72o72o64o64o56o56o48o40o40o32o32o24o24o16o08
7290A29179o08o00o00o00n84n92n76n76n76n68n68n60n60n60n52n44n44n36n36n36n20n28
7285A16755n20n20n12n20m96n04n04n04m88m96m88m88m80m80m80m64m72m64m64m64m56m48
7280A06043m56m48m48m40m32m40m40m32m32m24m16m24m16m24m08m08m16m00m00m00m00m00
7275I6739l92l92l92l84l84l76l84l76l68l76l68l68l68l60l60l68l52l52l52l52l60l44l36
7269H8275l44l44l36l36l36l28l36l28l28l28l20l20l28l12l20l12l12l12l12l04l04l04k96
7264H0875l04k96k96l04k88k88k96k88k88k88k80k88k72k80k80k80k72k72k72k72k72k64k72
7259G4363k64k64k56k64k56k64k48k56k56k56k48k48k48k48k48k48k40k40k40k40k40k40k32
7254F8619k40k24k40k24k32k32k24k24k32k16k32k16k24k16k24k16k16k16k16k08k16k08k08
7248F3515k16k00k08k08k08k00k00k00k08k00j92k00j92k00j92j92k00j92j84j92j92j92j84
7243E8963j84j92j84j84j84j84j76j76j84j84j76j76j76j76j68j84j68j68j76j68j68j76j60
7238E4891j76j60j68j68j60j68j68j60j60j60j60j60j60j52j60j60j52j60j52j52j52j52j52
7233E1219j52j52j52j44j52j44j52j44j44j44j44j52j36j44j44j44j44j36j44j36j28j44j36
7227D7907j36j36j36j36j36j28j36j36j28j36j28j28j36j20j36j20j36j28j28j20j28j20j28
7222D4907j20j28j20j20j28j20j20j20j20j20j20j20j12j20j12j20j20j12j12j20j12j12j12
7217D2187j12j12j12j12j12j12j12j04j12j12j04j12j04j12r6j12j04j04j12j04r6j12j04
7212C9699j04r6j04j04r6j04r6j04r6r6r6j04r6j04q8j04r6r6r6r6r6r6r6q8r6r6q8r6r6q8
7205C6787r6q8q0r6r6q8r6q8q0q8q8r6q0q8r6q0q8q8q0q8q0r6q0q8q0q8q0q0q8q0q0q0q0q8
7197C3851p2q8p2q8q0p2q0q8p2q0q0p2q0q0p2q0p2q0p2q0p2p2q0p2q0p2p2p2q0p2o4p2p2p2
7189C1267q0o4p2p2p2p2o4p2p2p2p2o4p2o4p2o4p2o4p2o4o4p2o4o4o4p2o4o4o4p2o4o4o4n6
7181B8963p2n6o4o4o4o4o4o4o4o4n6n6o4n6o4o4o4n6o4n6o4n6n6o4n6n6o4n6n6o4n6n6n6o4
7174B6899n6n6n6n6n6n6n6n6n6n6n6n6m8o4m8n6n6n6m8n6n6n6m8n6m8n6m8n6n6m8n6m8m8n6
7166B5059m8m8n6m8n6m8m8n6m8m8m8n6m8m8m8m8m8m8m8m8m8m8m8m8m8m8m8m8m8m0m8m8m8m8
7158B3403m8m8m0m8m0m8m8m0n6m0m8m0m8m8m0m8m0m8m0m0m8m0m8m0l2m8m8m0m8m0m0m8m0m8
7150B1899m0l2m8m0m0m0m0m0m0n6l2m0m0m0m0m0m0m0m0m0m0m0l2m8l2m0m0m0m0m0l2m8l2m0
7142B0547m0l2m0m0m0l2m0l2m0m0l2m0m0l2m0l2m0l2m0l2m0l2m0k4m0m0l2l2m0l2m0l2l2m0
7135A9315l2l2l2m0l2l2m0l2l2l2l2m0l2l2l2l2m0l2l2l2l2l2l2l2l2l2l2l2l2l2l2l2l2l2
7127A8195l2l2l2l2l2k4m0l2l2k4l2l2l2k4l2l2l2k4l2l2l2l2k4l2l2k4l2l2k4l2l2k4l2k4
7119A7171l2k4l2l2k4l2l2k4l2k4l2l2k4l2k4k4l2k4k4l2l2k4k4l2k4l2k4k4l2k4k4l2k4k4
7111A6227l2k4k4k4l2k4l2j6l2k4k4k4k4k4l2k4k4l2k4k4k4k4k4l2j6l2j6l2k4k4k4l2j6l2
7104A5355j6k4l2j6l2k4k4k4j6l2j6k4l2j6k4k4k4k4k4k4k4k4k4j6k4k4k4k4k4k4j6k4k4k4
7096A4563k4j6k4k4k4k4j6k4l2j6k4k4k4j6k4j6k4k4k4j6k4j6k4k4j6k4k4j6k4k4j6k4j6k4
7088A3827k4j6k4j6k4j6k4j6k4k4j6k4j6j6k4k4j6k4j6k4j6j6k4j6k4j6k4j6k4j6k4j6j6k4
7080A3147j6k4j6j6k4j6j6k4k4j6j6j6k4j6k4qk4j6j6k4j6k4j6j6j6k4j6j6j6k4j6j6k4j6
7072A2515j6j6j6j6j6k4j6k4j6j6j6j6j6j6k4qk4j6j6j6k4j6qj6k4j6j6j6j6k4j6ql2Qj6k4
7064A1907k4l2Qm8Qj6k4j6j6qj6qk4j6j6j6j6k4qj6j6j6j6j6j6j6j6j6j6j6j6j6j6j6j6qj6
7056A1315j6j6j6j6j6j6j6qk4qj6j6j6j6qj6k4qj6j6qj6k4qj6j6j6qj6j6j6qj6j6j6qj6j6
7047A0755j6j6j6qj6j6j6j6qj6j6j6qj6qj6j6j6qj6qj6j6qj6j6qj6qj6j6j6j6qqj6j6j6qj6
7038A0211qj6j6qqj6j6j6qj6qk4j6%j6j6qj6qqj6j6j6qj6qqqk4j6qqj6qj6j6qqj6j6j6%j6
7028I675j6j6qqj6qj6qqk4qqj6qj6qj6qj6qqj6qj6qqj6qj6qj6qqj6qj6qqqj6j6qqj6qqj6q
7017I123qj6qqj6qqj6qj6qqj6qqqj6j6qqqj6qqqj6qqj6qj6qqqj6qqqj6qqj6qj6%j6qqj6qq
7005H587qqj6qqqj6qj6qqqqqj6qqqj6qqqqj6qqqqqqj6qqqqj6qqqqqqj6qqqqj6qqqqqqqqj6
6992H043qqqqqqj6qqqqqqqj6qqqqqqqqqqqqqqj6qq%j6qqqqqqj6%qj6q%j6q%qj6qqqqqqqqj6
6979G523q%qqqqqqj6%qj6%qqqqj6q%qqqqq%j6qqqqqqqq%j6qqqq%qj6%qqj6%qqqqq%qqqqqq
6965G059qqqqq%qqqqqqqq%qj6q%qj6%qqqq%qqqqqq%j6%j6%qqqq%qqqqq%qqqqqq%qqqq%j6q
6950F611%qqq%qqq%qqqqqq%qqq%j6%qqqq%qqqq%qqqq%qq%qqqqq%qqq%j6%qq%qqq%j6%qq%q
6935F203qq%qqq%qqqq%qq%qqqq%q%qq%qqqq%q%qqqq%qq%qqqq%q%q%j6%q%qq%qq%qqq%qqq%
6920E819qqq%%j6%%k4Q%qqqq%%qqqqqQqqqq%q%q%qqq%q%q%qq%qqq%%j6%q%qq%q%qq%qq%%q
6905E483qq%qq%qq%q%qq%q%q%qqq%%qqq%q%q%qq%q%q%qq%qq%q%q%qq%q%qq%q%q%qq%q%q%q
6889E155%qq%q%qq%q%%qq%q%qq%%qq%%qq%qq%%q%q%qq%q%q%qq%q%q%q%q%%qq%%q%qq%q%q%
6874D867qq%q%q%q%%qq%%%qq%qq%%q%q%qq%%q%q%q%q%q%q%q%q%q%qq%%q%q%q%q%%qq%%qq%
6858D595qq%%%%qq%%q%q%q%q%%qq%q%q%%q%q%q%q%%qq%%qq%%%q%q%q%qQqq%%q%q%q%%q%qq
6843D347%%q%%q%q%q%q%%q%q%q%%q%q%q%q%%%qq%%q%%qq%%%q%q%q%qQqq%%q%%q%%q%q%q%%
6827D131qqQqq%%%q%q%q%%qq%%%q%q%q%%qq%%%q%%q%q%q%%%%qq%%%q%q%%%qq%%q%%q%%qq%
6812C915%%%q%q%%q%%q%%q%q%%q%%q%q%%q%%q%q%%q%%%q%%q%%q%q%%q%%%q%%q%q%%q%Qj6%
6796C731Qqq%q%%q%%q%%qq%%%qQqq%%%q%q%%q%%q%q%%%q%%q%%q%%q%%%q%%%q%%q%qQq%%q%
6781C555%q%%q%%q%q%%q%%q%%%%q%%q%%%%q%%q%%q%%qQq%qQj6%%%qQqq%%qQq%%q%q%%%q%%
6765C395%q%q%%%%%q%%q%q%%%q%q%%%%q%%q%%%q%%%q%%q%%q%%q%%%q%%%%q%%q%%%q%%q%%%
6750C243q%%qQq%%q%%q%%%%q%%%q%%q%%%q%%%%j6Qq%%%qQ%j6%%%%q%Qqq%%Qj6%%%qqK4j6q
6735C107%qQ%j6K4m8O4n6QQ%qQj6Qq%qQqQj6Qq%q%%%%%q%%%%q%%%q%qQq%q%%q%%%%q%%%%q
6721B987%q%%%%%q%%%qQq%%%q%%%q%q%%%%q%%qQ%q%%qQq%q%%%%q%%q%%%%%q%%%%%q%q%%%%
6706B867%q%%q%%%%q%%%%q%%%q%%%%q%%%%%q%%%%q%%%q%Qq%%%q%%%q%%%%q%%q%%%q%%%%%%
6690B755q%%%%q%%%%q%%%q%%%%q%%qQ%qqJ6%j6%%qQqQqq%Qq%%q%%%q%%%%%q%%%q%%%%q%Qq
6675B643%%q%%%%q%%%%q%Qq%%%%q%%%%q%%%%%%q%%%%q%%%q%%q%%%%%q%%%%%%q%%%q%%%%%q
6660B539%%%%%q%%%%%q%%qQqQq%%q%%%%%qQq%%%%q%%%%%%q%%%%%q%%%q%%%q%Qq%%qQq%%%q
6644B443Qq%%%q%%%%%%%q%%%%%q%%%q%%%%%%%q%%%%%q%%%%%%q%%q%%%%q%Qq%%%%q%%%%q%%
6629B355%%%%%q%%qQq%%%%%q%%%qQq%%%%%q%%%%%q%%%%%%%%qQq%%%qQ%q%%%%q%%%%%%%q%%
6613B275%%q%%%%%%q%%%%qQq%%%%%%q%Qq%%q%%%%%q%%%%%%q%%%%%q%%%%%%q%%%q%%%%%%%%
6597B195%q%%%%%q%q%%J6%%q%q%%%q%%%%%%qQq%%%%%%%%q%%q%Q%q%%%%%%q%%%%%%%%q%%%%
6582B123%%q%%%%q%%%%%%%%qQq%%%%%q%%%%%%q%%%%%%qQqQq%%%%%q%%%%%%%q%%%%q%Qq%%q
6567B043QqQqQqq%%Q%%q%%%j6K4j6QQj6%%%q%%%%%%%%q%%%%Qq%%%%q%%%%%q%%%%%%%%q%%%
6552A987%%q%%%%%q%Q%q%%%%%%%q%%%%%q%%%%%%%%%%qQq%%%%%%%q%%%%%qQ%q%%%%%%%qQq%
6536A923%qQqQq%Qq%%%qQq%%%%%%q%%%%%%%qQq%%%%qQ%%q%%%%%%%%%%%q%%Qq%%%%q%Qq%%%
6521A867%%qQq%%%%qQ%q%%%%%q%%%%%%%qQq%%%%%%qQ%q%%%%%%%q%%Qq%%%%%%q%%qQ%%%qQq
6505A803%%%%qQ%%%q%%qQq%%Q%q%%%%Qq%q%%%%%%%%%qQq%%%%%%%q%%%%%qQq%%Qq%%%%%%qQ
6490A755q%%Qq%%%%%%qQ%q%%Qq%%%%%%qQqQq%%%%qQq%%%%%%%%%%%%q%qQ%%q%%%%%%qQqQq%
6474A699%%Qq%%%qQ%qQq%%%%%%%%q%%%%%%q%Qq%%%%%%%q%Q%qQ%q%%%%%%%%%qQq%%%%%%%%q
6459A651Qq%%%%%%%%%%qQq%%%%%%%qQq%Qq%%%%qQ%%%%j6QqK4k4J6j6%J6qq%%%%%%%q%Qq%%
6444A611%%%%%%%qQq%%%%%%%%qQq%%%%%%%%q%%%Qq%%%%%%q%Q%%%%qQq%%%%%%%q%%Qq%%%%%
6429A571%q%%%%%%%%%%qQ%q%%%%%%%%%%%qQq%%%qQ%%q%%Qq%Qq%%%%%q%%%%%%%%%%%%%%%%q
6413A523%%%%%%%%%%q%Q%q%%%%%%%%%%q%%%%%%%%%qQqQqQ%qQq%%%%%%%%q%%%%%%%%%%%%%%
6398A491%%%%q%%%%%%%%%%q%%%%qQ%q%%%%%%%%%%Qq%%%%qQ%q%%%%%%%q%%%%%%%%%%%%%%qQ
6382A451q%%%%%%%%%%qQ%%qQq%%%%%%%%%q%%%Qq%%%%%%%%qQqQ%%qQq%%%%%%%%%%%q%%%%%%
6367A411%%%%q%Qq%%Qq%%%q%Q%%qQ%qQqQq%%%%%q%%%%%%Qq%%%%%%%%%%%%%%q%%%%Q%q%%%%
6351A379%%%%q%%%%%%%%%qQqQq%%Qq%%%%%%%%q%QqQq%%%%%%%%%%%%%%%q%%Qq%%%%%%%%%%q
6335A339%%%%%%%%%%%%%%qQq%%%%%%%%%%qQ%%%qQ%q%%Qq%Qq%%%%%%%qQq%%%%%%%%%%%%%q%
6320A307QqQq%%%%%%%%%%%%%%%%q%%%%%%%%%%%%%%%%%%%q%Q%q%Qq%%%%%%%%q%%%Qq%%%%%%
6304A283%%qQ%q%QqQqQq%%%%%%qQq%%%%%%%%%%%%%%%%%%%%qQq%%%%Q%%q%%%%%%%%%%%%%%q
6289A251Qq%Qq%%%%q%Qq%Qq%%%Qq%%%%%%%%%%qQqQ%%q%%%%%%qQ%%qQ%%%qQq%%%%%%%%Qq%%
6273A227q%Q%%%%%%%%qQqQq%%%%%%%%%q%%%QqQq%q%J6q%%%qQqQqQqQ%q%%%%%%%%qQ%%qQqQ
6258A203q%%%%%%%%%%%%%%%%%%%%%%%q%%%%%%%%%%%%%%%%%%%%q%%%%%%%%%%%%%%q%Q%qQq%
6242A171%%%%%%%%%%%%%%%q%%%%%%%Qq%%%%%%%%%%%%%%%%qQ%q%Qq%%%%%%%%%%%qQqQq%%%%
6227A147Qq%%%%%%%%%%%%%%%qQqQ%qQq%%%%%%%%%%%%%qQ%qQ%q%%%QqQ%%%%%q%%%Qq%%%qQq
6211A123Q%q%Qq%%%%%%%%%%%%%%%qQ%%q%%%%%%%Qq%%%%%%%%%%%%q%%%%%%%%%%%%%%%%%%%%
6196A107%q%Qq%%%Qq%%%%%%%%%%%%%%%%%q%%%%%%%%%%%%%%%qQ%%q%%Q%%%q%Q%q%%%%%%%%%
6180A083%%%%%%%%%%%q%Q%%%%q%%%%%%%%%%%%%%%%%%qQ%%%q%Q%q%%%%%%%%%%%%%%%%q%%%%
6164A059%Q%%%%q%QqQq%%%%%%%%%%%%q%%%%Qq%QqQqQqqQ%%qQ%%%qQ%%%%qQqQq%%%%%%%%%%
6149A043%%%qQ%%%%%qQ%%%qQ%qQ%q%%%%%%%%%qQq%%%Qq%%%%%%%%%Qq%%%%%%%%%%%%%%%qQq
6133A019%Qq%Qq%%%%%%%%%%qQ%%qQqQ%%qq%J6k4J6Q%qQqqJ6q%%%%%%Qq%%%%%%%q%%%Qq%Qq
6119A003%%%%%%%%%%%%%%%%qQ%%%%%%%%%%qQq%QqQ%q%%%%%%%%%Qq%%%%%qQq%Q%q%%QqQq%%
6103I87%%%%%%%%%%%%%%%qQ%%%qQq%%%%%%%%%%%%%%%%Qj6J6q%qQqQ%%%q%QqQq%QqQq%%%qQ
6088I71%%%%%%%%%%qQ%%qQ%%%%qQ%q%Q%q%%%%%%%%%%%%qQq%Q%%q%QqQq%Qq%%%%%%%%%%%%%
6072I55%%%%%%%%%%%%%%%%%qQq%QqQ%q%%%%%%%%%%%%qQ%%q%%Q%q%QqQqQ%q%%%%%Q%q%%%%%
6056I39%%%%%%%%%%%%q%%%%Qq%%%%%Qq%%%%%%%%%%%%%%%%%%%%%qQ%q%Qq%%%%%%%%%%%%%%%
6040I23Qq%%%%%%%%%%q%Qq%Qq%%%Q%qQq%%%%%%Qq%%%qQqQq%Q%%%%%%%%%qQq%Q%qQ%%qQ%q%
6025I07%%%QqQq%%%%%%%%%%%%%%%%%%%%%q%%%%%%Qq%%%%%%%%%%%%%%qQ%qQqQ%%qQ%%%%qQq
6009H91Qq%%%%%Qq%QqQq%%%%%%%%%%%%%%%%%qQ%%%%%%qQ%qQ%%qQ%q%%%%%%%%%%%%%%%%%%%
5993H83%%%%%%%%%%%%%%%%%%%q%%Qq%Qq%%%%%%%%%%%QqQq%%%%%%q%J6q%%q%J6j6Qq%qQ%%%
5978H67%qQ%%Qq%%%%QqqQ%%%qQq%%%Q%%%%qQ%%%%%q%%%Qq%%%%%%%%%%%%qQ%%q%Q%%%%%%qQ
5962H59%q%%Q%%q%%%Q%q%%Qq%%%%Qq%%%Qq%%%%%%%%%%%%%%q%%%Q%%%%%%q%Qq%%%%%%Qq%%%
5946H43%%%%%%%%%%%%%%%%%%%%qQqQ%q%%%Q%qQq%Q%%%%%%qQq%Q%qQq%%%%%%%%%%%%%qQqQq
5930H27%%%%%%Qq%%%%%%%Qq%%%%%%%%%%%%%%%%qQ%%%%qQ%%%%%%%%%%%qQq%%%%%%%QqQq%Q%
5915H27q%%%%%%%%%%%%%%%%%%%qQ%%%%%%%%%%%%%%%%%qQq%%%%%Qq%%%%%%%%%%%%%%%%%%%%
5899H11%%%%%%%%%%%%%q%%QqQq%%%%QqQ%qQj6Q%%%%%%%%%%%%%%%%%%%%%%%%%%%%%%%%%%%%
5883H03%%%%%qQqQ%q%%%%%%Q%%%%q%%%%%%%%%%%%%%%%%%%%%%%Qq%%%%%%%%%%qQ%%%%q%%%Q
5868G95%qQ%qQ%qQqQ%%q%%%%QqQ%%q%%%%%%%%%%%%qQ%%%qQ%q%QqQ%qQqQqQq%Q%%q%%%%%%%
5852G79Qq%%%%%%Qq%%%%%q%QqQqQ%q%Qq%%%%%%%%%%%Qq%Q%%%qQqQqQq%%%%%%%%%%%%%%%%%
5836G71%%qQ%q%%Q%qQ%%q%%Q%%qQ%%%%%%%%%qQ%q%QqQqQ%q%Q%qQq%%%%%%%%%%%%%%%%%%%%
5820G63%qQ%%%%%%qQ%%%%%%q%%Qq%%%%%%Qq%%%%%%%%%%%%%%%%%%%%%%%%%%%%%%%%%%%qQ%%
5804G55%qQ%%%%%%%qQ%%%%%%%qQ%q%%%QqQq%J6qqqJ6%%q%%QqQq%%%%%%%%%%%%%%%%%%%%%%
5789G47%%%%%%%%%qQ%qQq%Qq%%%%%%%%%%%%%%%%%Qq%%%%%%%%%%%%%%%%%%%Qq%%%%QqQq%%%
5773G39%%%%%%qQ%q%Qq%%Q%%qQ%%%%%%qQ%%qQq%%Qq%%Qq%%%%%%Qq%%%%%%%qQ%%%qQ%%%%%%
5757G31%qQqQ%%q%QqQqQq%%Qq%%Q%q%QqQ%q%QqQ%%q%%%%%Qq%%%%Q%%%q%%%q%Q%%%qQ%qQ%%
5742G23%%qQqQ%%%q%Q%%%%%%%%q%Q%%q%Qq%%Qq%%Qq%%%%Qq%%%%%%%%%%%%%%%%%%%%%%%%%%
5726G15%%%%%%qQ%qQ%q%Q%%%qQ%%qQq%Qq%%%Qq%Q%%%%%q%%%%%%%%%%%%%%%qQ%%%%%%%%%%%
5710G07%%%%%%%%%%%%%%%%%%%%%q%Q%%%%%%%%qQ%%%q%%%Q%qQ%q%%%%%%%%%%%%%Qq%%%%%%%
5694F99%Qq%Qq%%%%%%%%%%%%Qq%%%%%%%%%%%%%%%%%%%%%%%%%%qQ%%qQ%%%%%%qQ%%q%QqQqQ
5678F99%%%q%Qq%Qq%Qq%%Qq%Qq%%%QqQq%%QqQq%%QqQq%%%Qq%%%%%%%%%%%%%%%%%%%%%%%%%
5663F91%qQ%%qQq%Q%%%qQ%qQ%qQqQj6QQ%%%%%q%%%qQ%%%%%%%%%%%%%%%%%%%%%qQ%q%Q%%%q
5647F75%%Q%%%qQ%q%Q%%%q%%%Q%%%%%%%qQqQqQ%qQ%%%%%%%q%Q%%%%qQqQ%qQq%%%Q%q%%%%%
5631F75%QqQq%%%%%%QqqQ%%%%q%J6qQl2QK4%%qqqJ6qQQqQ%qQqqQqJ6qqQ%qQ%%%%%%%%qQ%%
5617F75%%%qQ%%%%%%%%%%%%%qQ%%%q%%%%%Qq%%%%%%%%%%%%%%%%%%%%%%%%%%%%%%%%%%%%%%
5601F67%%%%%%qQ%%%%%%%%%qQ%q%Qq%%%Q%qQ%%%%%%qQ%qQ%%q%%%%%%%Q%%q%%Qq%Qq%%Q%q%
5585F59Q%%%q%%%%%%%%%%%%Q%qQq%Qq%%%%%%%%%%%%%%%%%%%%%%%%%%%%%%%%%%%qQ%qQqQ%%
5569F59%q%Q%q%Q%%%%qQqQ%%%%%qQ%%qQqQ%%j6Q%Qq%%%QqQqQ%q%QqQq%Qq%Q%qQ%%q%%QqQq
5554F51%%%%%%%%%%%%%%%%%%%%%%%%%%%%%%%%%%%%%%%%%%%%%%%%%%%%%%qQ%%%%%%%q%Q%%q
5538F43QqQ%%%%qQ%q%Q%%qQ%%%%%%%q%Q%%%%%%%%%%%%%%q%QqQqQq%%%%%%%%%%%%Qq%%%%%%
5522F43%%%%%%%%%%%%%%%%%%%%%%%%%%%%%%%%%%%%qQj6%%L2k4%%qJ6J6qk4J6%%qQQqQq%%%
5508F43%%qQ%%%%%q%Q%q%%%%QqQ%q%QqQqQ%q%%Qq%Q%%qQ%%%%%%%q%Qq%%%QqQq%%QqQq%%%%
5492F35%QqQqQq%%%QqQq%%%%%%%%%%%%%%%%%%%%%%%%%%%%%%Qq%%%%%%%qQ%qQ%%%%%%%%%%%
5476F35%%%%qQ%%Qq%%%%%%%%q%%QqQqQ%%%%%%%%%%qQ%qQqQ%%%%q%%%%%Qq%%%%%%Q%q%%Qq%
5461F27Qq%%%%%Q%q%%Qq%%%%%%%%%%%%%%%%%%%%%Qj6%Q%%%%%%%%%Q%%q%%%%%%%%%%%%%%%q
5445F19Q%%%%%%%%%%%%%%%%%%%%%%%%%q%QqQ%%%%%qQ%qQ%%%%%%qQ%%%%%%%%%%%%%%%%%%qQ
5429F27%q%Qq%%%Qq%Qq%%%%Q%qQ%qQ%q%Qq%Q%qQ%%%%qQ%qQ%%q%%%%%%%%%%%%Q%q%%%%%%%%
5413F19%%%%%%%%%%%%%%%%%%%%%%%%%%%%%%%%%%%%%%%Qq%Qq%%%%%%%qQ%%%%qQqQ%%%%%%%%
5398F19%%%%%%%%%QqqQ%%Qj6Q%%%%%%qQq%%QqQqQqQq%Q%qQ%qQ%%%%%%%%%%qQqQ%%%%%%%%%
5382F19q%%%%%Qq%%%%Q%%q%%%%Q%%q%%%%%%%%%%%%%%%%%%%%%Q%%q%%%Qq%Q%q%%%QqQq%%%%
5366F11%%%%Qq%Qq%%%%%%Qq%%%%%Q%qQ%%%q%%Qq%%%%%%%%%%%%%%%%%%%%%%%%%%%%%qQ%%%%
5350F11%%%%%%%%%%%%%%%%%%%%%%%%%%%%%%%%%%%%%%%%%%%qQ%%%%%q%Q%%%%%%%%Qq%%%%%%
5335F11%%%%%%%%%%%%%%%%%%%%%%%%q%Qj6K4q%%Qj6Q%%%%%%%%%%%%%%%%%Qq%%%%%qQ%%%%q
5320F03Q%%%%%%%%%%%%%%%%%%%%%%%%q%Q%%qQ%%%%qQ%qQq%%QqQqQ%q%%%%%%%%%%Q%qQq%%%
5304F03%%%%%%%Q%%qQ%qQ%%q%%%%%%%%%%%%%%%%Qq%%%%%%%%%%%%%%%%%%%%%%%%%%%%%%%%%
5288F03%%%%%%%%%%%%%%%%Q%q%%%%%Qq%%%%%%%%%%%%%%%%qQ%%%%QqQq%%%%%%%%%%%%%%%%q
5272E95Q%%%%%%%%%%%%%%qQ%%%%%%qQqQ%%%%%%%%%%%%%%%%qQ%%%%qQ%%%qQ%%%%%%%%%%%%%
5256F03%%%%%%%%%%%%%%%%%%qQq%Q%%%%%%%%%%%qQ%%%%%%%%%%%%%%%%%%%q%%Q%%%%%qQ%%%
5241F03%%qQqQ%%%%%%%%%%%%%%%qQ%qQ%%qQ%%%%%%%%%%%q%Q%qQ%%%%%%%%%q%%Qq%Qq%Q%%q
5225E95Q%%%%%%%%%%%%%q%%%%%Q%q%%Qq%%%QqQ%q%Qq%%%%%%Qq%Q%qQ%%qQqQ%q%Q%%qQ%q%%
5209E95%%%%%%%%%%%%%%%%%%%%%%%%%%%%%%QqQ%%%%qQ%%qQ%%%%%%qQ%qQq%Q%qQq%%Qq%%Qq
5193E95%%Q%%Qj6qJ6qJ6j6%%K4l2qqL2p2J04j6j6m0K4qJ6Q%qQ%q%Q%q%%qJ6q%Qq%QqQ%q%%
5181E95%%%%%%%Q%qQ%q%%%%%%%%%Q%%q%QqQ%qQqQq%%Qq%%%%Qq%Qq%Q%%%%%q%Qq%%%%%%%%Q
5165F03q%%QqQq%%%Qq%%%%Qq%%%%Qj6J6q%%%Qq%QqQq%Qqq%QQj6Q%%%Q%q%Qq%%%%Qq%%%%%%
5150E95%%%QqQqQ%q%%%%%%%%%%%%%%%%%%%%%%%%%Qq%Q%q%%%%%%%%%%%%%%%%%%%%%%%%%%%%
5134E95%%%%%%%%Qq%Qq%%%%%Qq%%%Qq%%%%Qq%Q%%q%Q%%qQ%%%%%%%qQ%%qQ%qQ%%%%%q%%%%%
5119E95%%%%%%%%%%%%%%%%%%%%Qq%%%%%%%%%%%%%%%%%%%%%%%%%%%%%Qq%%%%%%Qq%Q%q%Q%%
5103F03q%%%%%%Qq%QqQqQq%%%%Qq%Q%qQqQ%%qQ%%%%q%%%%Q%qQqQq%Q%qQ%%%%%q%Qq%Qq%Q%
5087F03%q%Qq%%%%%%%%%Qq%%%%%%%Qq%Qq%%Qq%%%%%%%%%Q%%qQ%q%%%%%%%%%%%%%Q%qQq%%%
5071E95%%%Qq%%%%%Qq%%Q%%%qQ%%%qQ%qQ%%qQq%QqQ%q%%Q%%qQ%qQqQq%%%%%%%QqQ%%qQ%%%
5055F03%%%%%%%qQ%%%%%%%qQqQ%%%%%%%%%%%%%%%%%qQ%q%%Qq%%QqQq%QqQqqJ6%qQ%%%%%qQ
5040F03%%%%%%%%%%%%qQ%%%%qQ%qQ%%qQqQ%%%%%%q%%QqQ%%%qQqQqQ%%qQ%%%%q%Q%%%%%%%%
5024F03%%%%%%%%%%%%q%Q%qQ%%%%%%%%%%%%%%%%%%%%%%%%%%%%%%%Qqq%Q%%%%%%Qq%%%qQ%%
5008F03%%%%%%%%%%Qq%%%%%qQ%%%%%%%%%%%%%%%%%%%Qq%%%%%%%%%%%%%%%%%%%%%%%%%%%%%
4993F03%%%%%%%%%%%%%%%%%%%%%%%%%%%%%%%Qq%%%Qq%%qQ%%%%%%%%%%%%%%%%%%%%%%%%%%%
4977F03%%qQ%%%Q%%q%%%%%%%%%%%%%%Qq%%%%%%%%%%%%%%%%%%%%%%%%%%%%%%%%%%%%%%Qq%%
4961F03%%%Q%q%%Qq%%Qq%Qq%%%%%%Qq%%qJ6qqQ%Qq%%%%%%%%%%%%%%%%%Q%%qQ%q%%Qq%%%%Q
4945F11q%Qq%Q%q%Q%%%%%%%%%qQ%q%QqQ%%%%%qQ%%%%%%%%%%%%%%%%%%%%%%%%%%%%%%%%%%%
4930F11%%%%%%%%%%%%%%Q%%%%j6Q%%qQ%%%%%QqQj6J6qqQ%%%%%%%%%%%%%%%%%%%%%%%%%%%%
4914F11%%%%%%%Q%q%%Qq%%%%%%%%%%%%%%%%%%%%%%%%%%%%%%%QqQ%%%qQqQq%%%%%%%%%QqQq
4899F11Qq%%%Q%%%q%%Qq%%%QqQ%q%Qq%%%QqQqQqQ%%%%%%%%%%%%%%%%%%%%qQ%%%%%%%%%%%%
4883F19%%%%%%%%%%%%%%%%%%%%%%%%%%%%%%%%%%%%%%%%%%%%%%%%%%%%qQqQ%%%%%%Q%q%%%%
4867F19%%%%Qj6Q%%%%%%Qq%QqqQ%%%%Q%j6Q%%J6q%qQQk4Q%J6qqqQ%%%%%Qq%QqQq%Qq%%%%%
4852F19%%%%%%%%%%%%%%%%%%%Qq%%%%%%%%%%QqQ%%%%%%qQ%%%%%%%%%%%%%qQqQ%%%%qQ%q%%
4837F19Q%qQ%%%q%Q%%q%%Q%%%qQ%%%%qQqQqQ%qQ%%%qQ%%%%%%%%%%%%%%%%%%%%%%%%%%%%%%
4821F27%%%%%%%%%%%%%%%%%%%%%%%%%%%%%%%%%%%%%%%%%%%%%%%%%Qq%Qq%QqQ%qQq%QqQ%%%
4805F35%qQq%Qq%%%%%%%%%%%%Qq%%Qq%%Q%qQq%%%%%Q%q%Q%%%%%qQ%qQqQ%%%%%%%%%%%%%%%
4789F35%%%%%%%%%%%%%%%%%%%%%%%%%%%%%%%%%%%%Qq%Qq%%%Q%%qQ%qQ%%qQq%QqQq%%%%%Q%
4773F43%%q%Qq%%%Q%%%%%%q%Qq%%%Qq%Q%%%%%%%%%%%%%%%%%%%qQqQ%qQ%%%%%%%%%%%%%%%%
4758F43%%%%%%%%%%%q%Q%%%%%%%%%%%%%qQ%%%%%%%Qq%qQ%%qQ%%%%%%%%%%%Qq%%%%%%%%Q%%
4742F51%q%%%%%%Qq%%QqQq%%Qq%%Q%q%Q%%qQ%q%%Qq%%%%Qq%%QqQ%%%%%%%%%%%%%%%%%%%%%
4726F51%%%%%%%%%%%%%%%%%%%%%qQ%q%%J6q%%%Qj6%Q%%%%%%%%%%%%%%%%%%%%%%%%%%%%%%%
4711F51%%%%%%%%%%%QqQqQqQ%%%%qQ%q%Q%%%%%%%%qQ%%%%%%%%%%%%%%%%%%%%%%%%%%%%%%%
4695F59%%%%%%%%%%%%%Qq%Q%%q%%%Q%%q%Q%j6K4qq%Qj6QQq%%%%%QqQq%Qq%%%Q%q%%%%%Q%%
4680F67%%%%%%%qQ%%%%%%%%%%%%%%%%%%%%%%%%%%%%%QqQqQq%Q%q%%%%%%%%%%%%%%%%%%%%%
4664F67%%%%%%%%%%Qq%Q%%%%%%%%%%q%QqQ%%%q%%%QqQ%%%%%%%%%%%%%qQ%%%%%%%%%%%%%%%
4648F75%%%Qq%%%%%%%%%%%%%%%%qQ%%%%%%%%qQ%%%%%%%%%%%%%%%%%Qq%Qq%QqQ%%qQq%%Q%q
4632F75Qq%%QqQ%%%%%q%%%%%%%%Q%%%%qQ%%%%%%%Qq%%%%%%%Qq%%%%%%%%%%%%%%%%%%%%%%%
4617F83Qq%%%Q%%%%%%%%%%%%%%%%%%%%%qQqQ%%qQqQqQ%%%%%%qQ%%%%%%qQ%%%%%%%%%%%%%%
4601F91%Qq%%%Qq%%%%%%%Qq%%Q%q%%%Q%%q%Q%%q%QqQ%q%%%%%Q%qQ%%%%%%%%%%qQ%qQ%%%%%
4585F99%%%%%%%%%%%%%%%%%%%%%qQ%%%%%%%%%%%%Qq%Qq%Q%q%QJ6k4%Q%Q%qqQ%qQq%%%Qq%%
4570F99%%Q%%%%%qQ%%%%%%%%%%%%%%%%%%%%qQ%%%%%%%%%%%Q%q%%Qq%%%%%%%%%QqQqQ%%%%%
4554G15%%%qQq%%Q%q%Q%qQqQq%%%%%Q%qQqQ%%%%%%%%%%%%%%%%%%%%%%%Qq%%%%%%%%%%%%%%
4538G15%%QqQqQ%%%qQqQ%q%Q%%%%qQ%%%q%QqQ%%%%%%%%qQ%qQ%%%%%%%%%%%%%%%%%%%%%%%%
4522G23%%%%Q%qQ%%%%%qQqQq%Q%q%%%%Q%q%%%QqQ%%%%qQ%%%%Qq%%%%%%%%%%%Qq%%%%%%%%%
4507G31%%%%%%%%%%Qq%%%%%%%%%%%Qq%%Q%%%%%%%%%%%%%%%%%%%%%%%%%%%%%%%Qq%%Q%%%%%
4491G47%q%%%Qq%%Qq%%Qq%%%%%%Q%%k4J6Q%Qq%%Qq%%%Qq%%%%%%%%%%%%%%%%%%%%%Q%q%%%Q
4475G55q%%%%%%%QqQ%%q%%%%Qq%%%%%QqQqQqQqQ%%%%%%%%%%%%%%%%%%%%%%%%%%%%%%%%%%%
4460G55%%%%%%Q%%q%%%Qq%%Qq%Q%%%%qQ%qQ%qQ%%%%%%%%%%%%%%%%%%%%%%%%%%%%%%%%%%%Q
4444G71q%Q%%%%%%%%q%Q%qQ%%%%%%%%%%%%%%%%%%%%%%%%%%%%%%Qq%%%%%%%Q%%%%qQ%%%q%%
4428G71Q%%%%qQ%%Qq%%%%%%%%%%%%%%%%%%%%%%%%%%Q%qQ%%qQ%%%%%%%%%%%%%%%%%%%%%%qQ
4412G87qQ%%%%%%%%%%%%%%%%%%%%Q%q%%Q%%qQ%%%%qQq%Qq%Q%%%%qQ%%%%%%%%%%%%%qQ%%%%
4397G95%%%%%%%%%%Qq%%%Q%q%%%%%QqJ6j6J6j6qJ6%%%%%%%%%%%%%%%%%%%%%%%%%%%%%%%%%
4382H03%%%%%Q%q%%Q%qQ%q%%%%%Q%qQ%%%%%%%Qq%%%%%%%Qq%QqQqQ%qQ%%%qQ%qQq%%Q%%%%%
4366H19%%qQ%qQ%%%%%%%%%%%%%Qq%%Q%qQ%q%%Q%%%%%%%%%%%%%%%%%qQ%%%%%%%%%%%%%%%Q%
4350H35q%%%%%Qq%%%%Qq%Qq%QqQ%%%qQ%%%%qQqQ%qQ%qQqQ%%%%%qK4j6%%%%Qq%Qq%%%%Q%%q
4335H35Q%%%Qq%%%%%%%%%%%%%%%%%%%%%%%%%%%%%Qq%%Q%q%%%Qq%%%%%Qq%Q%%%%%%%%%%%%%
4319H51%%%%Q%qQqQ%%%%%%%%%%%%qQ%qQ%%qQ%%%qQq%Q%qQ%%%%%%%%Q%q%%%Qq%%%Qq%Qq%%Q
4303H67%%%%%%%%%%%%%%%%%%%%%%%Qq%%%%%%%%%Qq%%%Q%%%%%%%%%%%%%%%%%%%Q%%q%Q%qQq
4288H75%%%%%%%%%%Q%qQ%q%Q%%%%%%%%%%qQ%Qq%%%%%%%%%%%%Q%q%%%Qq%QqQ%%%%%qQ%%qQ%
4272H91%%%%Qq%Q%qQ%qQq%%%%QqQ%qQ%%%%%%%%%%%%%%%%%%%%%%%%%%%QqQ%qQqQ%%qQ%%qQ%
4256I07%%qQ%%Qq%%%Qq%%%%QqQqJ6j6Qq%QQqq%QqQqQ%%%Qj6Q%%%%qQ%%%%%%%Q%q%Q%%%%%%
4241I23qQ%%%%%%%%%%%%%%%%%%%%Q%%%%%%%%q%%Qq%%QqQ%%%%%%%%%%%%%%%%%%%Q%q%%Q%qQ
4225I39%%%%%%qQ%%%%%%Qq%%%%%Qq%%Qq%Qq%%%%%%QqQ%qQqQ%%qQ%%%%%%%%%Q%%qQqQ%%%%%
4209I55%Qq%%%%%%%%%%%%%%%%%Q%%qQqQqQ%%%%%%%%%%%%%qQ%%%%%%%%%%%%%%%%%Qq%%%%%%
4193I63QqQq%Q%%%%%%%%%%%%%Q%%qQ%%%%%qQ%%%%%%%%%%%%%%%%%%%%Qq%Q%%%%%%%qQ%%%%%
4178I87%%%%%%%%%QqQq%Qq%%Q%%%%%%%%%q%Q%%%%%%%%%%%%%%%%%%%%QqQqQ%%%%%%%%%%%%%
4162A003%%%%Q%qQq%Q%%%%%%%%%%Qq%%%%%%Q%q%%%%Q%qQ%qQ%%%%%%%%%%%%%%%%%%%%%%%%%
4146A019%%%%%%Q%qQ%%%%%%%%%%%%%%%%%%%%%%Q%%%%%%%%%%%%%Qq%Q%q%%%%QqQ%%%%%%%%%
4131A043%%%%%%%%%%%%%%%QqQ%%%%q%Q%%%%%%%%%%%%%%%%%%%Q%%qQ%%%%%%%%Qq%%%%%%Qq%
4115A059%%%%%Q%%%%%%%%%%%%%%%%Q%%%%%q%Q%%%%qQ%qQ%%q%J6%q%Qq%Qq%%%%Qq%Q%%%%%%
4100A083%%%%QqQqQqQqQqQqQqQ%%%%%%%%%%%%%%%%%%%Q%%%%%%%%%%%%%%%%%%%%Q%%qQ%%%%
4084A107%%%%%%%%%%%%Q%%%%%%%%%%%%%%%%%%%%%%Q%%qQ%q%%%%%Qq%Q%%%%%%%%Qq%%Q%%q%
4069A123%Q%q%Q%%%%%%%%%%%QqQqQ%%%%%%%%%%%%%%%%%%%%%QqQ%%%%%%%%%%%QqQ%%qQqQ%%
4053A155%%%%%%%%%Qq%%%Qq%Q%qQ%%%%%%%%%%%Qq%%%%%QqQ%qQ%%%%%%%%%Qq%%%Q%%q%%Q%%
4038A179%%%%%%%%%%%%QqQ%%%%%%%%%%%%%%%%%%Q%%%%%%%%%%%%%%%%%%%Q%%qQ%%%%%%%%%%
4022A203Qq%%%%%%Q%%%%%%%qQ%q%Q%%%%%Qq%QqQ%%%%%%%%%%%%Qq%%%Q%%%%%Qq%%%%%%%%%%
4007A227QqQ%%%%%%%%%%%Q%%%%%%%%%%%%%%%%%Q%%qQ%%%%%%%%%%%%%%%%%%%%Q%%%%%%%%%%
3991A259%%%%%%Q%%%%%%%%Qq%%%%%QqQ%Qq%%%%QqQqQqQ%%%%%%%%%%%%%%%%%%%%%Q%%%%%%%
3975A291%%%%%%%%Q%%q%Q%%%%%%%%QqQ%%%%%%%%%%Qq%Q%qQ%%%%%%%%%%%%%%%%%%Q%%%%%%%
3960A323%Q%q%%Qq%%%QqQ%%%%%Qq%Qq%Q%%%%%%%%%Qq%%%Q%qQ%%%%%%%%QqQ%%%%%%%%%%%%Q
3944A363q%%%%%Q%%%%%%%Qq%Q%%%%%%%%%%%%Q%%%q%Q%%%%%%%%%Qq%%%%Qq%%Q%%%%%qQ%%%%
3929A387%%%Q%%%%%%%Qq%QqQ%%%%%%Qq%QQq%%%Qq%qQ%qQ%%QqQ%%%%%%%%QqQ%q%%Q%%%%%%%
3913A427Q%%%%%%%%%%%%Qq%%Q%%%%%%%%%%%%Q%%%%%%%%%%%%Q%qQ%q%Q%%%%%%%Q%QqqQ%%%%
3898A467%%%%%%%Q%%%%%%%%%%Qq%%Q%%%%%%%%Qq%Q%%%%%%%%%Q%%%%%%%%%%%%%%%Q%%%%%%%
3882A507%%Qq%Q%%%%%%%%%%%Q%%%%%%%%Qq%%QqQ%qQ%%%%%%%%%%%%%qJ6%%Q%q%Q%%%%%%%%%
3867A547%%%Q%%%%%%%%%Q%%qQ%%%%%%%%%%%QqQ%%%%%%%%Q%%%%%%%%%%Q%%%%%Qq%%Q%%%%%%
3851A595%%%%Qq%Q%%%%%%%%%%Q%%%%%%%Qq%QqQ%%%%%Qq%Q%%%%%%Q%qQ%%%%%%%%%%%%Q%%%%
3836A643%%%%Q%%qJ6qQq%Q%%%%%%%%%%%Q%%%%%%%%%%%Q%%%%%%Qq%Q%%%%%%%%%%%%%%Q%%%%
3820A691%%Q%%%%%%%%%%%%Q%%%Qq%%Q%%%%Qq%%Qq%Q%Qq%%Qq%Q%%%%%%%Q%%%%%%%%Qq%Qq%Q
3805A747%%%%Q%%%%%%%%Q%%%%%%%%%%%%Q%%%%QqQqQ%%%%%%Q%%%%%%%Qq%Q%%%%%%%%%%%Q%%
3789A803QqQq%Q%%%%%%%%%Q%%%%%%Qq%QQj6%%J6qqQ%QQq%%%QqQqQ%%%%%%QqQ%qQ%%Q%%%%%
3774A859%%%Q%qQ%%%%%Q%%%%%%%%%Q%%%%%Q%%%%%%%Q%%%%%%%%QqQ%%%%%%%Q%%qQ%%%%%%Q%
3758A923%%%%%%Q%%%%%Q%qQ%Qj6%J6%%qQ%%%Q%q%%QQ%j6K4k4QQj6QqJ6Qq%Q%%%Q%%qQ%%%%
3744A979%%Q%qQ%Qq%Q%%QqQqQqQ%%%%%%QqQ%%%%Q%%%%%%%Q%%%%%%Q%%%%%%%Q%%%%Q%qQ%%%
3729B051%%%%QqQ%%QqQqQ%%Q%%%q%J6q%%Q%%%%%Q%%%%%%Q%%%%%%Q%%%%%%Q%%%%%Q%%%%%%%
3714B123%Q%%%%Q%%%%%%%Q%%%%%%Q%%%%%Q%%%%%%%Q%%%%%%Q%%%%%%Q%%%%%QqQ%%%%%Q%%%%
3698B203%%Q%%%%Q%qQ%%%%%QqQ%%%%%Q%%%%%Q%%QqQ%%Q%%Qq%%%Q%%%%Q%%%%%%Q%%%QqQ%%%
3682B291%%QqQ%%%%QqQ%%%%%Q%%%%Q%%%%Q%%%%Q%%Qq%Q%%%%Q%qQ%%%%Q%%%Q%%%%%%%%Q%%%
3667B379%QqQqQ%Q%%%QqQ%%%Q%%%%%%%QqQ%%Q%%%%%Q%%Qq%%Q%%%Q%%Q%%%%Q%%%%%%%%Q%%%
3651B475%Q%Q%qQ%%%Q%%%%%Q%%%%Q%%%Q%%%Qq%QQq%%%Q%QqQ%%Q%%qQQ%%%QqQqqQJ6J6%%l2
3636B563%K4q%%J6qqK4qqJ6qJ6q%QqQ%%Q%qQ%QqQ%%QqQ%%%%Q%%Q%%%%%Q%%%%Q%%Q%%%%%Q%
3622B683%%%%Q%%%Q%%%Q%%%%%Q%%%%Q%%%Q%%%Q%%%%QqQ%Q%%%%Q%%%%%Q%%%Q%QqQ%%Q%%%%Q
3606B803%%Q%%%%Q%%%%Qq%Q%Q%%%%Q%%Q%%Q%%Q%%%%Q%%%%Q%%QqQ%%%Q%%%Q%%%Q%%%Q%%Q%%
3591B931%%Q%%%Q%%%Q%%Q%qQ%%Q%%Q%%%QqQ%%Q%%Q%%%%%Q%%%Q%%%Q%%Q%%qJ6%Q%%%Q%%%%%
3576C059Q%%Q%%%Q%%Q%%Q%%Q%%%QqQQq%Q%Q%QqQ%%Q%%%Q%%%Q%%%QQ%%%Q%%%Q%%%QqQ%Q%%Q
3560C219%%%Q%Q%%%Q%%Q%%%Q%Q%%%%%Q%%Q%%%Q%Q%%Q%%%Q%%Q%%Q%%Q%QqQqQQ%%%Q%%Q%Q%%
3544C379%Q%%Q%%Q%%%Q%%Q%%Q%%%Q%Q%%%Q%%Q%%%Q%Q%%QqQ%QQ%qQ%Q%Q%%%Q%Q%%%%Q%%Q%Q
3529C555%%Q%Q%%%Q%%Q%Q%%Q%%%Q%%Q%Q%%%Q%Q%%%J6q%QQ%%Q%%Q%Q%%QqQQ%%J6j6J6%%Q%%
3514C731Q%%Q%%Q%Q%%Q%QqQ%Q%Q%%Q%Q%%Q%%Q%%Q%Q%Q%%%Q%Q%Q%QqQ%Q%%QQ%%Q%%Q%Q%Q%%
3499C939Q%Q%QqJ6qQ%Q%%Q%Q%%Q%Q%%Q%Q%Q%%%QQ%%%QQ%%Q%Q%Q%Q%%Q%Q%%Q%Q%%J6%%%Q%%
3484D155Q%Q%%QQ%%QQ%%Q%Q%%Q%%QQ%Q%%Q%QQ%%QQ%%Q%Q%Q%%Q%Q%Q%Q%%QQ%Q%Q%%Q%Q%Q%Q
3468D411%Q%%QQQ%%Q%Q%Q%Q%Q%%QQ%Q%%QQ%Q%%QQ%%Q%QQQ%%%QQ%%Q%Q%Q%Q%Q%QQ%%J6QqQQ
3453D683%%Q%QQ%%J6%%QQ%Q%Q%Q%Q%QQ%%Q%Q%Q%Q%QQ%Q%J6%%Q%QQ%Q%Q%QQ%Q%Q%Q%QQ%Q%Q
3438D971Q%Q%Q%QQ%%J6%%QQ%%QQQ%QQ%%J6%%QQQ%%QQQ%Q%Q%J6Q%%Q%Q%QQ%QQQ%Q%QQ%QQ%Q
3423E291%QQ%QQ%Q%QQ%QQ%QQ%QQQ%%QQQ%J6qQQQQ%QQ%Q%QQQ%QQ%QQ%QQ%QQQ%Q%J6%Q%QQQ%
3408E643QQ%QQQ%QQQ%J6%QQ%Q%QQ%QJ6%%QQQQ%Q%J6%QQQ%QQ%J6Q%QQ%QQQ%QQQQ%QQ%J6%QQ
3393F027%QQQQ%QQQQQ%QQQ%QQQQ%QQQ%J6%%J6QQQ%J6%QQQQQ%QQQQQQ%QQQQQQQ%QQQQQ%QQQ
3378F459QQQQQ%QJ6%QQQQ%QJ6%QQQQQQ%J6Q%J6%QQQQQ%QJ6QQ%QJ6%QQQQQQ%J6QQQQQQQ%J6
3364F907%QQQQQQQQQQQQQJ6%J6Q%J6QQ%J6Q%J6QQQQQJ6QQQQQQQQQQQQQQQQJ6%J6QQQQQQQQ
3351G403J6QQ%J6QQQQQJ6%QJ6QQQQQJ6%J6QQQQJ6Q%J6%J6QJ6QQQJ6%J6QQQJ6QQQQQQJ6QQJ6
3338G907QQQQJ6QQQQQJ6QJ6%K4%J6QQQQQJ6QQQJ6QQJ6QQQJ6QQJ6QQJ6QQJ6QQQJ6QQJ6QQJ6
3326H443QJ6QQQJ6QJ6QQJ6J6%J6QJ6QJ6QJ6QQJ6QQJ6QQJ6QJ6J6QQJ6QJ6J6QQJ6QJ6QJ6%K4
3316H979QQJ6K4qJ6M0n6M8K4J6J6qQK4QK4qJ6J6J6QK4%J6J6%K4QJ6QJ6QJ6QJ6J6J6QJ6J6Q
3306I491J6QJ6J6QQJ6J6J6QJ6QJ6J6J6QJ6QJ6J6QJ6J6J6QJ6J6QJ6J6J6QJ6J6J6QJ6J6QK4Q
3297A0043J6QK4QJ6J6J6QJ6J6J6QJ6J6J6J6J6J6QJ6J6J6QK4QJ6J6J6J6J6J6J6QJ6J6J6J6J6
3288A0603J6J6J6J6J6QK4J6QJ6K4QQK4K4J6J6QJ6J6J6K4J6J6QJ6K4J6J6QK4J6J6J6J6J6J6
3279A1195K4J6J6J6J6J6J6J6J6J6J6K4QK4J6J6J6K4J6J6J6K4QK4J6J6J6K4J6J6K4J6J6J6J6
3271A1803K4J6J6J6J6K4J6J6K4J6J6K4J6J6K4J6K4J6K4J6J6K4J6J6K4K4J6J6J6K4J6K4J6K4
3264A2451J6J6K4K4J6K4J6K4J6J6K4J6K4J6K4K4K4J6K4J6K4J6K4J6K4J6L2J6K4J6K4K4J6K4
3256A3147K4J6K4J6K4K4K4K4J6K4K4K4J6K4K4K4K4K4J6K4K4K4K4K4J6K4K4K4K4K4J6K4K4K4
3248A3907K4K4K4K4K4K4K4K4K4K4K4K4K4K4K4K4K4K4L2J6L2K4K4K4K4K4K4L2J6L2K4K4K4L2
3240A4747K4K4K4K4K4K4L2K4K4L2K4K4K4L2K4L2K4K4L2K4K4L2K4L2K4K4K4L2L2K4L2K4K4L2
3232A5651L2K4L2L2K4K4L2L2K4K4L2L2K4L2L2L2K4L2L2K4L2L2K4L2K4L2L2M0K4L2K4M0K4L2
3225A6651L2K4L2L2L2L2L2L2L2L2L2L2L2L2L2M0K4M0K4M0L2K4M0L2M0K4K4M0M0L2L2L2L2M0
3217A7755L2L2M0L2L2L2M0L2L2M0L2M0L2L2M0L2M0L2M0L2M0M0L2M0M0L2L2M0L2M0M0L2M0M0
3209A8971L2M0M0L2M0M0M0M0L2M8L2M0M0M0M0M0M0M0M0M0M0M0M8L2M0M0M8M0M0M0M0M0M0M8
3201B0323M0M0M8M0M8M0M0M0M8M0M0M8M0M8M0M8M0M8M0M8M0M8M0M8M8M8M8M0M8M0M8M8M0N6
3194B1827M0M8M8M8M8M8M8M8M8M8M8M8M8M8M8N6M8M8M8M8M8M8N6M8N6M8M8N6M8N6M8M8N6N6
3186B3507M8N6N6M8M8N6N6N6M8O4M8N6M8O4M8N6N6N6N6N6N6N6N6N6N6O4N6N6N6N6O4N6N6O4
3178B5395N6O4N6O4N6N6O4N6O4O4N6O4O4N6O4O4N6O4O4O4O4O4O4O4O4O4O4O4O4O4P2O4O4P2
3170B7523O4O4P2O4P2N6P2P2P2M8Q8O4P2P2P2P2O4P2Q0O4P2P2P2Q0P2P2O4Q0P2Q0P2Q0P2P2
3162B9931Q0P2Q0Q0P2P2Q0Q0P2Q0Q0Q8P2Q0Q0Q0Q0Q0Q0Q8Q0Q0Q8Q0Q0Q8Q0Q8Q8Q0Q8Q8Q8Q0
3155C2683Q8Q8Q8Q8Q8Q0Q8R6Q8Q8Q8R6Q8Q8R6R6Q8Q8R6R6R6R6Q8R6R6R6J04Q8R6R6J04R6J04
3147C5739R6J04R6J04R6J04J04J04R6J04J04J04J04J04J04J12J04J04J12J04J12J04J12J12
3142C8243J04J12J12J04J20J04J12J20J12J12J12J20J20J20J12J20J12J20J28J12J20J28J12
3136D0891J28J20J20J28J20J28J20J28J28J28J28J20J36J28J28J36J28J28J36J36J36J28J36
3131D3843J36J36J36J36J36J36J44J36J44J44J36J44J44J44J44J44J52J44J44J52J44J52J52
3126D7123J52J44J60J52J52J52J60J60J52J60J52J60J60J60J60J68J60J68J68J60J76J60J68
3120E0787J76J68J68J68J76J76J76J76J76J76J76J76J84J76J84J76J92J84J84J92J84J84J92
3115E4907J92J92J84K00J92J92K00K00J92K00K00K08K00K08K00K08K08K08K08K16K08K16K08
3110E9547K24K08K16K24K24K16K24K24K32K24K24K32K24K32K32K40K32K32K40K40K40K40K48
3105F4819K48K40K48K48K56K48K56K56K56K56K56K64K64K56K72K56K80K64K80K64K80K72K80
3099G0819K80K80K88K80K88K88K88K96K88L04K88L04K96L12K96L12L04L12L12L12L12L20L20
3094G7699L28L20L28L28L28L28L36L44L36L36L44L44L52L44L60L52L52L60L60L68L60L68L76
3089H5651L68L76L76L84L84L84L84L92M00L92M00M00M08M00M16M08M16M16M24M16M32M24M32
3084I4883M40M40M40M48M40M56M48M64M64M56M64M72M80M80M72M80M96M88M88M96M96N20N04
3078A05715N12N20N12N28N28N28N36N44N44N52N44N60N60N68N68N68N76N84N84N92N92O00
3073A17915O00O16O08O24O24O24O32O40O40O48O56O56O72O64O72O80O88O88O96P04P04P20
3068A32371P20P20P36P36P44P52P52P60P76P68P84P84Q00P92Q08Q24Q24Q24Q40Q40Q56Q56
3063A49667Q64Q72Q80Q96Q96Q96R20R20R28R36R44R52R60R76R76R92J000J008J016J024J040
3058A69563J040J056J064J080J080J096J104J112J128J136J144J160J168J184J192J208J208
3055A88723J232J240J256J256J280J296J304J312J328J344J352J368J384J408J408J424J432
3051B11347J472J456J496J496J520J536J552J568J576J608J608J640J648J672J696J704J728
3047B38323J744J760J792J800J824J832J872J888J904J928J960J968K000K016K040K064K096
3043B70811K112K144K160K192K216K248K272K296K328K352K384K416K440K472K504K536K560
3039C10443K600K632K664K696K736K768K800K840K880K912K960K984L032L072L112L152L200
3035C59483L240L280L328L376L424L464L520L560L616L672L720L768L832L880L936L992M056
3031D21147M112M176M232M296M360M424M496M568M632M696M776M856M920N008N080N160N240
3027E00179N328N416N504N592N680N776N872N968O064O168O272O384O480O608O712O832O952
3023F03787P072P200P328P456P592P728P880Q008Q160Q312Q472Q632Q792Q960R128R304R488
3020G43299R672R872J0056J0256J0464J0672J0896J1112J1344J1584J1816J2080J2320J2584
3016H98027J2864J3136J3424J3720J4024J4336J4656J4984J5328J5688J6048J6416J6808J7200
3013A106659J7616J8040J8472J8928J9400J9872K0376K0896K1424K1976K2544K3136K3744
3010A373083K4384K5032K5720K6408K7152K7896K8696K9504L0344L1224L2136L3096L4072
3007A748747L5104L6168L7280L8432L9640M0896M2208M3576M5000M6488M8048M9672N1368
3004B302627N3152N5008N6960N9008O1136O3392O5752O8216P0824P3552P6440P9464Q2656
3001C168187Q6016Q9576R3312R7280J01464J05896J10584J15560J20832J26432J32384J38720
2999D486243J45456J52648J60304J68504J77248J86616J96656K07440K19000K31464K44864
2996F576443K59336K74960K91864L10184L30064L51680L75224M00904M28976M59744M93504
2993A0552883N30648N71608O16872O67056P22800P84920Q54334R32160J019704J118522J230447
2991A9601954J357793J503232J670087J862457K085367K345047K649425L008393L434686L944696
2989D3463137M559778N308112O227329P368311Q800948J0622560J2971343J6046703K0141988
2987A35510209K5697747L3388118M4263275N9977118Q3121170J17566633J68143146K36792160
2985I04459576L06858052L09603925J41646795j41646795l09603925l06858052k36792160
2983F67667416j68143199j17566580q3121117n9977171m4263288l3388105k5697747k0142002
2981A15368207j6046676j2971356j0622560q800935p368324o227329n308112m559768l944696
2979C9518451l434689l008393k649422k345057k085361j862455j670095j503232j357784j230465
2977A8371498j118513j019695r32169q54334p84912p22800o67048o16880n71609n30647m93504
2974A0059387m59744m28976m00904l75216l51680l30064l10192k91856k74968k59328k44872
2972F331587k31456k19000k07440j96656j86616j77256j68488j60312j52640j45464j38720
2969D347539j32376j26440j20832j15560j10584j05896j01464r7272r3320q9568q6016q2656
2967C085555p9472p6424p3560p0824o8224o5744o3392o1136n9008n6960n5008n3152n1368
2964B251283m9664m8048m6496m4992m3576m2216m0888l9640l8440l7280l6168l5096l4072
2961A714707l3096l2136l1232l0344k9504k8688k7896k7152k6416k5712k5032k4384k3744
2958A349371k3136k2544k1976k1424k0896k0368j9880j9400j8920j8480j8040j7616j7200
2955A089491j6808j6416j6048j5680j5328j4984j4664j4328j4024j3720j3424j3136j2864
2952H98067j2584j2328j2072j1816j1584j1344j1112j0896j0672j0464j0256j0064r856r680
2949G43339r480r304r136q960q784q632q472q312q168q008p872p728p592p456p328p200p072
2945F03835o944o840o712o600o488o384o264o176o064n968n872n776n680n592n496n416n328
2941E00235n248n152n088n000m920m856m776m696m632m560m496m424m360m296m240m168m120
2937D21203m048l992l936l888l824l768l720l664l624l560l520l472l408l376l344l272l248
2933C59539l184l160l112l072l032k992k952k912k880k840k800k768k736k696k664k632k600
2929C10507k560k536k504k464k448k408k384k352k328k296k272k240k224k184k168k144k112
2925B70883k088k072k040k016k000j968j952j928j904j888j864j848j824j808j776j768j744
2921B38395j728j704j688j664j656j632j624j592j584j568j552j536j512j504j488j472j456
2917B11435j440j424j416j392j384j368j360j336j336j312j304j288j280j264j256j232j232
2914A88811j216j200j192j184j168j160j144j136j120j120j104j096j088j072j064j056j040
2910A69651j032j024j024j000j000r84r84r76r60r52r44r36r28r28r12q96r04q88q72q72q72
2905A49763q48q56q40q40q32q08q32q08q00p92p92p76p76p68p60p60p44p44p36p36p28p12
2900A32475p12p12o96p04o88o80o80o72o72o64o56o56o48o40o40o32o24o24o16o16o16o00
2895A18027o00n92n92n84n84n76n76n60n68n60n60n44n52n36n44n36n28n28n28n20n12n12
2890A05835n12m96n12m96m88m96m80m88m80m80m72m64m72m64m56m56m56m48m48m40m48m32
2885I5451m40m32m32m24m24m16m16m16m16m08m08m00m08l92m00l92l84l92l84l84l76l76l84
2879H6147l68l68l68l68l60l60l60l60l52l52l52l36l52l44l36l44l28l44l28l28l28l20l20
2874G8171l28l20l20l12l20l12l04l12l04l04l04k96l04k96k96k96k88k88k88k88k88k80k80
2869G1243k80k80k72k80k72k72k64k72k64k64k64k56k64k64k56k56k56k56k48k56k48k48k40
2864F5211k48k40k48k32k40k40k40k32k32k32k32k24k32k24k24k32k16k24k24k16k16k24k16
2858E9923k16k08k16k08k16k08k08k08k08k00k08k00k00k00k00k00k00j92j92j92k00j92j92
2853E5259j92j84j92j84j84j84j92j76j84j84j84j68j84j84j76j76j76j76j68j76j68j68j68
2848E1131j68j68j68j68j68j60j60j76j52j60j68j60j68j36j76j52j52j60j52j52j52j52j52
2843D7451j52j52j52j52j44j44j44j52j44j44j44j36j44j44j36j44j44j36j36j36j44j28j44
2837D4155j36j28j36j28j36j36j28j28j28j28j36j20j28j28j28j28j28j20j28j20j28j20j28
2832D1203j20j20j20j20j20j20j12j20j20j12j20j12j20j12j12j12j20j12j04j20j12j04j12
2827C8547j12j12j04j12j04j12j04j04j04j12r6j12j04j04j04r6j04j04j04r6j04r6j04r6
2821C6043j04r6r6r6j04r6r6r6q8j04q8j04q8r6q8r6r6r6q8q8q8r6q0r6q8r6q0r6q8q8q0r6
2814C3067q0q0r6q0r6p2q0q8q8r6p2q0q8q0q0q0q8q0q8p2q0q0q0p2q8p2q0q0q0q0p2q0p2q0
2806C0307p2q0p2p2q0p2q0p2p2p2p2p2p2p2p2p2p2o4q0o4q0o4p2o4p2o4p2p2p2o4o4p2o4o4
2798B7891o4p2o4p2o4o4o4o4o4o4o4o4o4o4o4o4n6o4o4o4o4n6o4o4n6o4n6o4n6o4o4n6n6o4
2791B5755n6n6o4n6o4n6n6n6n6n6o4n6n6n6n6n6m8o4n6m8n6n6m8n6o4m8m8n6n6n6n6m8m8n6
2783B3867n6m8m8n6m8n6m8n6m8m8n6m8n6m8m8m8m8n6m0m8n6m8m8m8m8m8m8m8m8m8m0n6m8m8
2775B2179m0m8m8m0m8m8m8m8m0m0m8m8m0m8m8m0m8m0m8m0m0m8m0m8m0m8m0m0m8m0m0m0m8l2
2767B0691m8m0m0m0m8m0m0m0m0m0m0m0m0m0m0m0m0m0m0m0m0m0m0m0l2m8l2m0m0m0l2m0m0l2
2760A9339m0m0l2m0m0l2m0m0l2l2m0m0m0l2l2m0l2m0l2l2m0l2m0l2l2m0l2l2m0l2l2m0l2l2
2752A8123l2m0l2l2l2l2l2m0l2l2l2k4m0l2l2l2l2l2l2l2l2l2l2l2m0k4l2l2l2l2k4m0k4l2
2744A7027l2k4m0k4l2l2l2l2k4l2l2k4l2l2l2k4l2k4l2l2k4l2k4k4l2l2k4l2l2k4l2k4k4l2
2736A6035l2k4l2k4l2k4k4l2l2k4k4l2k4k4l2k4k4l2k4k4l2k4k4k4l2k4l2k4k4k4k4k4l2k4
2728A5123k4l2j6k4k4l2k4j6l2k4k4k4l2j6l2j6k4k4k4l2j6k4k4k4k4k4k4k4k4k4k4k4j6k4
2721A4307l2j6k4k4k4k4j6k4k4k4k4k4k4k4j6k4j6k4k4k4j6k4k4k4j6k4k4j6k4k4k4k4k4j6
2713A3547k4j6k4k4j6j6k4k4j6k4j6k4j6k4k4j6k4j6k4j6j6k4k4j6k4j6k4j6k4j6k4k4j6j6
2705A2859k4j6k4j6j6k4j6j6j6k4k4qk4j6k4qk4k4ql2%l2j6j6j6k4m0Qm0%k4ql2%m0j6qk4
2696A2147qj6k4j6k4qk4j6j6j6k4j6qk4j6j6j6j6j6j6j6j6j6k4qk4j6j6j6j6j6k4qj6j6j6
2688A1547j6j6j6k4j6qj6j6j6k4qj6j6j6j6j6j6j6j6j6j6j6j6j6qj6k4j6qj6j6j6j6j6j6j6
2680A0979j6j6qj6j6j6j6qj6j6j6j6j6qj6j6j6qj6j6j6j6qj6j6qj6j6qj6j6j6j6qj6j6qj6
2671A0443j6qk4qj6j6qj6j6qj6qk4qqj6j6j6qj6j6qj6qj6j6qj6qj6qj6j6qj6j6qj6qj6qj6
2662I891j6qj6qj6qj6j6qj6qj6qqj6qj6qj6qj6qj6qj6j6qqj6qj6qj6qj6j6qqj6qqj6qqj6q
2651I347j6qqj6qj6qqj6qj6qj6qqqj6qj6qj6qqqj6qqqj6qj6qqqj6qj6qqqj6qqj6qqj6%j6q
2640H811qj6qj6qqqqj6qqqj6qqj6%j6qqj6qqqqj6%j6qqj6qqqqqqqj6qqqqj6qqqqqqqj6qqq
2627H283qqqj6qqqqqqj6%j6qqqj6qqqqqqqqqqj6%qj6%j6qqqqqqqqqqqqj6%qqqj6%qqj6q%q
2614G787j6q%qqqqj6%qqqj6%qqqj6q%qqqqqq%j6%j6%j6%j6q%qj6qq%qqqqqqqqq%qqj6q%qq
2600G339qqqqq%qqqqqqqqqq%qqqqqqq%qqqqq%qqqqq%qqqq%qqqq%j6%qqqqq%qqqq%qqq%qqq
2585F883%qqqq%j6%q%j6%j6Qqj6qQqqqqqq%j6%%j6%qqq%qq%qq%qqq%qqqq%qq%qq%qqqq%qq
2571F507%qq%qq%qq%q%j6%qq%qqq%qqq%qq%qq%qq%q%qq%qqq%q%qqq%%qqqq%q%qqq%q%qq%q
2556F147%qq%qq%q%qq%q%j6Qq%j6%q%qq%q%qq%q%q%qq%qq%q%q%q%qq%q%q%j6%%q%q%qq%q%
2541E843q%q%qq%qq%%q%qq%q%q%q%qq%q%q%q%q%q%qq%q%q%q%qq%%qq%q%%qq%q%q%q%%qq%q
2525E547%q%q%q%q%%q%q%q%%qq%q%q%q%q%q%q%q%q%%%j6Qj6%%%qq%%q%j6Qq%q%q%%q%q%q%
2510E307q%q%%q%q%q%%q%q%q%q%%q%q%q%q%q%%%q%q%q%q%%%q%q%q%q%q%q%%q%q%%%q%q%%q
2495E075%%qq%%q%q%%qq%%q%%%q%q%%q%%q%q%%q%q%q%%%%qq%%q%q%%q%%q%q%%%q%q%%q%%q
2479D867%%q%q%%q%%%qq%%%%q%%q%q%%q%%%q%%q%q%q%qQ%qq%%%q%%qq%%q%%%%q%%q%%q%%%
2464D691%q%q%%%q%q%%q%%q%%%%q%%qq%%%%qq%Qq%q%%%q%%%q%%q%%%q%q%%q%%%q%%q%%%q%
2448D523%%q%%%q%%q%%%q%%%q%%q%%%q%%%q%%%%q%%q%%%%q%q%%%%%q%%qQq%%q%%q%%%q%%q
2432D379%%%%q%%%q%%%q%%qQq%q%%%q%%%q%%%%q%%%q%%%%%q%%q%%qQq%%%q%%%q%%q%%%%q%
2417D251%%%%%q%%q%%%%%%q%q%%%%%%q%%q%%qQq%%q%%%%%q%qQ%q%qQq%%%%q%%qQqQq%%%%q
2401D139%%%q%%%%%%%q%%q%%%%%q%%q%%%%%%q%%%%%q%%%%%q%%%%q%%%%q%%%%%q%%%q%%%%%
2386D043%%%q%%%%%%q%%%qQ%q%%%%q%%qQ%q%qQ%q%%%%q%QQl2J6Qk4%J6q%qQ%q%%%%%%%q%%
2371C963%%%q%%%%%q%%%qQq%Qq%qQq%%%qQq%%%%%%%%%%%q%%%%%%q%%%%%q%%%%qQq%%%%%qQ
2356C891qQq%%q%%Qq%%%%qQq%%%%%%q%%%%%%%qQ%%%q%%q%Q%q%%%%%qQqQqq%Q%%qQq%%%q%%
2340C819%%%%%%qQ%q%%%%%qQq%QqQq%%%%%%%q%Qq%%%%%%q%%%%%q%%%%%%%%%%%%q%%%%%%%%
2324C771%%q%%%%%%%%%%%%%%%%q%%%%Qq%%qQqQ%q%%%%qQ%q%Qq%%%%%%%%%q%%%%%%%%%%%%%
2309C731%q%%%%%%%%%q%QqQq%%%%%%%%%%%qQ%%%%%q%%%%%%%%%%%qQ%%%q%%%%%%%%%%%%%%q
2293C691%%%%%%%%%%%%%qQ%%%%%q%Qq%%%%%%%%%%%%%qQ%q%Qq%Qq%%%Q%q%%%Qq%%%%%%%%q%
2278C667%%%Qq%%%%%%%%%%%qQ%%%%%%%%%%%%%%q%%Q%%%q%Q%%q%%%%%%%%%%%%%%%%%%qQqQ%
2262C659q%Q%%qQqQq%%%%%%%%%%%%%%%%Qq%%%%%%%%%%%%%%%%%%%%%Qq%%%%%%%%%%%%%%%%%
2247C651%%%%%%%%%qQqQ%%%%%%%%qQ%%%%%%%%%%%%%%%%%%Qq%%%%%%%%%%%qQ%%%%%%%qQ%Qq
2231C651%%j6QQq%Q%%%%Qq%%%Q%q%Q%%q%Q%%%%%%%%%%%qQqQ%%%%%%%%%%%%%%QqQ%%%%%%%%
2216C667%%%%%%%%%%%%%%%%%%%%%%%%Qq%%%%Q%%%%%%%%%%%%%%%%%%%%%%%%%%%Qq%QqQqQ%%
2200C683%%%%%%%Q%q%Q%%%%%%%qQ%%%%%%%%%%Qq%%Q%%%%%%%%%%%Qq%Q%%%%%%%%%%%%%%%%%
2185C707%%%Q%%%%%%%%%%QqQqQ%%%%%%%%%Qq%%%QqQ%%%%%%%QqQ%%%%%%%%%Q%%%%Qq%%%%Q%
2169C755%%%%%%%%%%%%%Q%q%QqQ%Q%q%%Q%%%%%%%Qq%Q%%%%%%%%%%%Q%%%%%%%%%Q%%%%%%%%
2153C795%%QqQ%%%%%%%Q%%%%%%%%%%%Q%%%%%%%Q%%%%%%%%Qq%QqQ%%%Q%%%%%%%%%%%%Q%%%%
2138C851%%QqQ%%%%Q%%%%%%%%%%%Q%qQ%%%Q%%%%%%%Q%%%%%%Qq%Q%%%%Q%%%%%%%Q%%%%%%%Q
2122C923%%%Qq%Q%qQ%%%%Q%%%%QqQ%%%%%%%Q%%%Q%q%Q%%%%%Q%%%%Q%%%%%%%%QQq%%Q%Q%q%
2107C995%%Q%%%%%%Q%%%%%Q%%%%%%Q%%Q%%%%%%%QqQ%%%%Q%%%%%Q%%%%%Q%%%Q%%%%%Q%%%%Q
2091D091%%%%%Q%%%%%Q%%%%%Q%%%%QqQ%%%Q%qQ%QqQ%%%Q%%%%%Q%%%%%Q%%%%%Q%%Q%%%%%Q%
2076D187%Qq%%Q%%%Q%%%%%%Q%%Q%%%Q%%%%Q%%%%%%Q%Q%%%%Q%%Q%%%%Q%%%%Q%%%Q%%%%Q%%%
2060D299Q%%%%%Q%%%QqQQq%Q%QqQ%%%%Q%%%Q%%Q%%%%Q%%%%QQqQ%%%Qq%Q%Q%qQQ%%%QqJ6qQ
2045D427qQ%Q%%QqQ%%%%Q%%%Q%%Q%%QqQ%QqQ%QqQ%Q%%%%Q%%Q%%%%Q%%Q%%Q%%%Q%%%Q%%%%Q
2029D563%%Q%%Q%%%%Q%%Q%Q%%%Q%%Q%%%Q%%%Q%%Q%%Q%%Q%%%%Q%%%QQ%%%Q%%Q%%%Q%%%Q%%Q
2014D723%Q%%%%%Q%Q%%Q%%Q%Q%%%Q%%Q%%%Q%QqQ%%Q%Q%%%%Q%Q%%Q%%%Q%Q%%Q%Q%%%Q%Q%%Q
1998D899%%Q%QqQ%Q%Q%qQQ%%Q%%Q%%Q%Q%%Q%Q%%%Q%%%Q%Q%Q%%QQ%%%Q%%Q%%Q%Q%%Q%%%Q%Q
1982E091%%Q%Q%QqQ%Q%Q%%%Q%Q%Q%Q%%%Q%Q%%Q%%Q%Q%Q%Q%%Q%Q%%Q%%Q%%QQ%Q%%Q%%Q%%QQ
1967E307%QQqQ%%Q%Q%Q%Q%%Q%Q%Q%%Q%%Q%Q%Q%Q%Q%%Q%Q%%QQ%%QQ%%Q%%Q%Q%Q%Q%Q%Q%Q%%
1951E539%QQ%Q%Q%Q%%QQ%Q%%Q%Q%Q%Q%%Q%Q%Q%Q%Q%QQ%%Q%%Q%QQ%Q%Q%Q%Q%Q%QQ%Q%%QQ%Q
1936E811QqQ%QQ%Q%Q%Q%Q%Q%Q%QQ%%QQ%%QQ%%J6%%QQ%Q%QQ%Q%%Q%J6%%Q%QQ%QQ%Q%QQ%Q%%
1921F091Q%Q%QQ%QQQ%%QQ%QQ%Q%Q%Q%QQ%QQ%Q%Q%Q%J6%%QQ%Q%J6%%QQ%QQ%Q%%QJ6%%%J6qK4
1906F411qQQQ%Q%QQ%Q%QQQ%Q%QQQ%QQ%Q%QQQ%QQ%Q%J6%%QQ%QQ%QQQ%QQ%%J6%Q%QQ%QQ%QQQ
1891F755Q%QQ%QQ%J6%QQQ%Q%J6%QQ%QQ%QQQ%Q%QQQQ%QQQ%QQQ%QQ%QQQQ%QQJ6%J6%%QQQqJ6
1877G131QJ6qJ6qJ6J6qJ6j6J6%%J6QQJ6qJ6%J6%QQQ%J6Q%QQ%J6Q%QQQ%QQJ6%QQ%Q%J6Q%J6
1865G475%QQQQQQ%QQQQQ%QQQQQQQQQ%QQQQQQ%J6Q%QQQQQQQQ%QQQQQ%J6QQQQQQQ%QQQQQQQ%
1850G939J6QQQQJ6%QQQQQQQQQQ%J6%J6Q%J6Q%J6QQQQ%J6QQ%J6QQQ%J6%J6QQQQQQQQJ6QQQ%
1836H403J6QQQQQQQQJ6Q%QJ6QQQQQQQQJ6QQQQQJ6Q%J6%J6QQQQJ6QQQQQQJ6QQQQQQJ6QQQQQ
1823H923QQJ6QQJ6%J6QQQJ6QQQQQJ6QQQJ6QQJ6QQQJ6%J6QJ6QQQJ6QQJ6QQQJ6Q%K4QQQJ6QQ
1811I451J6QQJ6QQQJ6QQJ6QQJ6QQJ6QQJ6J6QQQJ6QJ6QQQJ6QJ6QQJ6QQJ6QJ6QJ6QJ6QQJ6QJ6
1800A0003QQJ6QJ6QJ6QJ6QJ6QQJ6QJ6QJ6QJ6QJ6QJ6QJ6QQJ6J6QQJ6J6J6QJ6QQJ6QJ6J6J6Q
1789A0539QJ6QJ6J6QJ6J6QJ6J6QJ6J6QJ6QJ6QQJ6J6J6J6QJ6J6QQK4QJ6QJ6J6QJ6J6J6QJ6J6
1780A1091J6QJ6J6QJ6J6QJ6J6J6J6J6QJ6QJ6J6J6QJ6J6J6J6QJ6J6J6J6QJ6J6J6J6QJ6J6J6
1771A1627J6J6J6J6J6J6QK4QJ6J6J6J6QJ6J6J6J6J6J6J6J6J6J6J6QK4J6J6QJ6K4J6J6QJ6%
1763A2179L2K4K4j6K4K4J6QK4K4QK4J6J6K4QJ6K4QK4QK4QJ6J6K4J6J6J6J6J6K4J6J6K4QK4
1754A2819J6QK4J6J6K4J6J6J6K4J6J6J6J6J6K4J6J6J6J6K4J6J6K4J6J6J6K4J6J6K4J6K4J6
1746A3427J6J6K4K4J6J6K4QK4K4J6J6K4K4J6J6K4J6J6K4K4J6K4J6K4J6J6K4J6K4J6J6K4K4
1739A4091J6J6K4K4K4J6K4J6K4J6J6K4K4K4J6K4K4J6K4J6K4K4K4J6K4K4J6K4J6L2J6K4K4J6
1731A4803K4K4K4J6L2J6K4K4J6L2J6K4K4K4J6K4K4K4K4J6K4K4K4K4K4K4J6L2J6K4L2J6K4K4
1723A5579K4K4K4K4K4K4K4K4K4K4K4L2K4K4K4K4K4K4K4K4K4L2J6L2K4K4K4K4L2K4K4K4L2K4
1715A6427K4K4L2K4K4L2K4K4K4L2K4K4K4L2K4L2K4K4L2K4K4L2K4K4L2K4L2L2K4L2K4L2K4L2
1707A7347K4L2K4L2K4L2L2K4L2L2K4L2K4L2L2K4L2L2L2L2K4L2K4L2L2L2L2K4L2L2L2L2L2K4
1700A8347L2L2K4M0L2K4L2L2L2L2L2L2L2L2L2L2L2L2K4M0M0K4L2L2L2L2L2M0L2L2L2L2M0L2
1692A9443L2L2M0L2L2M0L2L2M0L2L2M0L2M0L2M0L2M0L2L2M0L2M0L2M0M0L2L2M0M0L2M0L2M0
1684B0651M0M0L2M0L2M0M0M0L2M0M0M0L2M0M0M0L2M0M8L2M0M0M0M0M0M0M0M0M0M8L2M0M0M8
1676B1979M0M0M8M0L2M8M0M0M0M8M0M8M0L2M8M0M0M8M8M0M0M8M8M0M0M8M0M8M0M0N6M0M8M0
1668B3435M8M8M8M8M0M8M8M0M8M8M8M8M0M8M8N6M0M8M8M8M8M8M8M8M8M8M8N6M8M8M8M8N6M8
1661B5059N6M0N6M8N6M8M8N6M8N6M8N6N6M8N6M8N6M8N6M8N6N6N6M8N6N6N6M8O4M8N6N6N6N6
1653B6859N6N6N6N6N6N6N6N6N6O4N6N6O4N6O4M8O4N6O4N6O4N6O4N6O4O4N6O4O4N6O4O4O4N6
1645B8867N6P2N6O4P2N6P2N6P2O4O4O4O4O4O4P2O4P2N6P2O4N6P2Q0O4O4P2P2O4P2P2N6Q0O4
1637C1115P2P2P2O4Q0O4P2Q0P2P2P2P2P2P2P2P2Q0P2P2Q0P2Q0P2Q0P2Q0P2Q0Q0Q0Q0P2Q0Q0
1630C3651Q0Q0P2Q0Q0Q8Q0Q0Q0Q0Q8Q0Q0Q0Q8Q0Q8Q0Q8Q8Q0Q8Q8Q0Q8Q8Q8Q8Q8Q8Q8Q8Q8Q8
1622C6507Q8R6Q8Q8R6Q8R6Q8R6R6Q8R6Q8R6R6R6R6R6R6R6R6J04Q8J04R6J04R6R6J04R6J04
1615C9459J04R6R6J04J04J04J04J04J04J04J04J04J12J04J12J04J04J12J04J12J04J20J04
1609D1883J12J12J12J12J12J20J04J20J12J12J20J20J12J20J20J12J20J12J20J20J28J12J20
1604D4547J28J12J28J28J20J20J28J28J28J20J28J28J28J36J20J28J36J28J36J28J28J36J36
1599D7483J28J36J36J36J36J36J36J44J36J36J44J36J44J44J36J52J36J44J44J44J52J44J52
1594E0715J44J52J44J52J52J52J52J52J52J52J60J60J52J60J52J60J60J60J60J60J60J68J68
1588E4299J52J68J68J68J68J68J68J68J68J68J76J76J76J76J68J84J76J76J84J68J84J84J76
1583E8267J84J84J92J84J84J92J84J92J84J92K00J92J84K00K00J92J92K00K00K08K08J92K00
1578F2707K24J84K08K08K08K16K08K16K08K16K16K16K24K16K08K24K24K24K24K24K24K24K32
1573F7683K32K24K32K32K40K32K40K40K40K40K40K40K48K48K48K40K56K48K56K48K56K56K56
1567G3275K64K64K56K64K64K64K64K72K72K72K72K80K72K80K80K80K80K88K88K80K88K96K88
1562G9603K96K96K96L04K96L04K96L12L04L12L04L12L20L12L20L12L20L28L28L28L28L28L36
1557H6795L28L36L44L36L44L44L52L44L44L60L60L52L60L60L60L68L76L60L76L76L76L76L84
1552I5011L76L92L84L92L92L92M00M08M00M00M08M16M16M08M16M24M24M24M32M24M40M32M40
1546A04451M48M40M48M56M48M64M56M64M72M64M72M80M80M72M88M88M96M88M96N04N12N04
1541A14891N04N12N20N28N20N28N36N28N44N44N44N52N52N60N68N68N60N76N76N84N84N92
1536A26971N92O00O00O08O08O24O16O24O32O32O40O40O48O56O56O64O64O72O72O88O80O96
1531A41083O96O96P12P12P12P28P28P36P36P44P52P60P60P76P60P84P84P92Q00Q08Q16Q08
1526A57683Q24Q40Q32Q40Q56Q56Q56Q80Q80Q88Q80R04R04R20R20R28R36R36R60R60R60R84
1521A77427R76J000J000J008J016J024J040J040J056J056J080J072J088J104J104J120J128
1517A95339J136J152J152J168J176J192J200J208J216J240J240J256J264J280J288J296J320
1513B16123J320J336J352J360J376J384J400J424J424J432J464J464J488J488J512J528J536
1509B40411J560J568J584J600J616J632J656J656J688J696J720J736J744J768J792J808J816
1506B69051J848J856J880J904J912J944J960J984K000K024K048K064K088K112K136K160K176
1502C03147K200K232K256K280K304K328K352K384K408K440K456K488K528K544K576K608K640
1498C44171K672K696K728K768K800K824K872K896K936K968L000L040L080L112L160L192L232
1494C94147L272L312L360L392L448L480L528L576L624L664L720L768L808L864L912L968M016
1490D55859M080M128M184M240M304M360M416M480M544M600M672M736M808M872M944N008N088
1486E33323N160N232N312N384N472N552N640N720N800N896N976O072O176O256O368O464O560
1482F32363O664O776O880O992P104P216P344P456P584P712P832P968Q104Q240Q384Q520Q672
1478G61811Q832Q976R136R296R464R632R808R984J0160J0352J0544J0744J0944J1136J1360
1475I12179J1568J1792J2024J2256J2488J2744J2992J3248J3520J3792J4064J4352J4656J4960
1472A096635J5272J5584J5920J6264J6608J6968J7344J7720J8112J8512J8936J9360J9800
1469A323035K0256K0728K1200K1704K2224K2752K3296K3872K4448K5048K5680K6312K6984
1466A627539K7672K8384K9128K9880L0672L1488L2344L3200L4128L5064L6040L7056L8104
1463B050699L9200M0336M1520M2728M4016M5344M6712M8144M9656N1200N2832N4520N6280
1460B663187N8120O0056O2056O4160O6352O8648P1056P3576P6208P8976Q1880Q4920Q8120
1457C597315R1472R5016R8728J02640J06760J11104J15704J20528J25648J31064J36776J42840
1454D975595J49264J56080J63304J71000J79184J87880J97168K07064K17640K28944K41048
1451G074171K54024K67928K82880K98968L16288L34975L55153L76999M00649M26335M54249
1449A0842619M84664N17832N54104N93832O37440O85414P38329P96799Q61617R33608J013856
1446A8660114J103520J204033J317128J444735J589344J753808J941671K157202K405677K693585
1444C6270817L029032L422177L885838M436465N095221N889714O856315Q043635R517409J1367872
1442I7814495J3720793J6754690K0726961K6016739L3192924M3126312N7173383P7470505
1440C85996802J07364767J51856950K17184722L05856775L96358117L99904906J82960608
1438B147483647j82960395l99905119l96358117l05856775k17184828j51856844j07364767
1437C85996802p7470478n7173437m3126298l3192911k6016752k0726961j6754650j3720839
1435I7814476j1367853r517423q043634o856322n889701n095227m436458l885849l422167
1433C9299842l029032k693591k405674k157209j941662j753808j589345j444743j317111j204050
1431A9763617j103519j013848r33616q61601p96807p38329o85422o37440n93832n54105n17831
1428A1327267m84656m54248m26336m00656l76993l55159l34968l16288k98969k82887k67929
1426G328178k54016k41055k28944k17640k07072j97160j87880j79176j71008j63304j56080
1423E124843j49264j42840j36784j31048j25656j20536j15688j11112j06768j02640r8728
1421C783779r5008r1480q8120q4920q1872p8976p6216p3576p1048o8656o6352o4160o2056
1418B781339o0048n8128n6288n4520n2824n1200m9648m8152m6720m5336m4016m2736m1512
1415B130211m0336l9200l8104l7056l6040l5072l4112l3216l2336l1488l0672k9888k9112
1412A683579k8392k7672k6992k6312k5672k5064k4432k3872k3312k2744k2216k1704k1216
1409A363979k0720k0264j9800j9360j8928j8520j8112j7720j7336j6968j6624j6248j5928
1406A127451j5584j5272j4960j4648j4360j4064j3792j3520j3248j2984j2752j2488j2256
1403I47523j2016j1800j1568j1352j1144j0944j0736j0544j0352j0168r984r808r632r464
1400G98011r296r136q976q832q672q520q384q240q104p968p840p712p576p456p344p216p104
1396F59635o992o888o768o672o560o456o368o264o168o080n976n896n808n720n632n552n464
1392E54371n392n312n232n168n080n016m936m880m800m736m672m608m544m472m424m360m304
1388D72435m240m184m128m072m024l968l912l864l816l760l720l672l616l576l528l488l440
1384D07427l400l352l320l264l240l192l152l112l080l040l008k968k936k888k872k824k800
1380C54979k768k728k696k672k640k608k576k552k520k488k464k440k408k384k352k328k304
1376C12051k280k256k232k200k176k160k136k112k088k064k048k024k000j984j960j944j912
1372B76475j904j880j864j840j824j808j784j768j752j736j712j704j680j672j640j640j616
1368B46651j600j584j576j552j544j520j512j496j480j472j456j440j424j416j400j392j368
1365B21419j368j344j344j320j312j304j288j280j264j256j240j232j224j208j200j192j176
1361A99867j168j160j144j144j128j112j104j104j088j080j072j056j056j048j032j024j016
1357A81331j008j008r92r84r76r68r60r52r44r36r28r28r12r04q96q96q88q80q64q64q64q48
1352A60931q40q40q32q24q16q08q08q00p84p92p84p76p68p60p60p44p44p44p36p28p20p20
1347A43803p20p04o96p04o88o88o80o80o72o64o64o48o56o56o40o40o32o24o24o24o16o08
1342A29275o08o08o00n92n84n92n76n84n68n76n68n60n60n52n52n44n44n44n36n28n36n20
1337A16843n20n20n12n12n04n12m96m96m96m88m88m88m80m80m80m72m64m64m72m56m56m56
1332A06131m48m48m48m48m40m32m32m32m32m24m24m24m16m16m16m16m00m08m00m08l92m00
1327I6827l92l92l84l92l84l76l84l76l68l76l68l68l68l60l68l60l60l44l60l52l44l44l52
1321H8355l36l44l36l36l36l36l28l28l28l28l20l28l12l20l12l20l12l12l04l12l04l04l04
1316H0955k96l04k96k96k88k96k88k96k80k88k88k80k80k80k72k80k80k72k72k72k64k72k64
1311G4451k64k64k64k64k56k56k56k56k48k56k48k56k48k48k40k48k40k40k40k48k32k40k32
1305F8707k40k24k40k32k32k24k32k24k24k24k24k24k16k24k16k16k16k16k16k16k08k08k16
1300F3595k08k08k08k00k08k00k08k00k00k00k00k00j92j92k00k00j84k00j84k00j84j92j84
1295E9043j84j84j92j76j84j84j92j68j76j76j92j76j76j76j76j68j76j68j76j68j68j68j76
1290E4963j68j68j60j68j68j68j60j52j68j60j60j60j60j60j60j52j52j52j60j52j52j52j60
1284E1291j44j52j52j44j52j44j52j44j44j52j44j44j36j44j44j44j36j44j36j36j36j44j36
1279D7987j36j36j36j36j36j36j28j36j28j36j28j36j28j28j28j28j28j20j28j28j28j20j28
1274D4987j20j28j20j28j20j20j20j20j20j20j20j20j12j28j12j20j12j20j12j12j20j12j12
1269D2259j12j12j12j12j04j20j04j12j04j12j04j12j04j12j04j12j04j04j04j04j04j04j04
1263C9779j04j04r6j04j04j04r6j04r6j04q8j04r6j04r6r6r6r6r6r6r6r6r6r6q8r6q8r6r6
1257C6947q8q8r6q8r6q8q8q8q8r6q8q8q8q8q8q8q0q8q8q8q0q8q8q0q0q8q8q0q0q8q0q0q0q0
1249C4011q0q8q0q0q0q0q0q0q0p2q0q0q0q0p2q0p2q0p2q0p2q0p2p2q0p2p2q0p2p2p2p2p2p2
1241C1403p2p2p2o4q0p2o4p2p2p2p2o4p2p2o4o4p2o4p2o4o4p2o4o4p2o4o4p2o4o4n6p2o4o4
1233B9091o4o4o4n6p2o4o4n6p2n6p2n6o4n6o4o4n6n6o4n6o4n6o4n6o4n6n6n6o4n6o4n6n6n6
1226B7027n6n6o4n6n6n6n6n6n6m8o4n6n6m8o4m8n6n6n6m8n6m8n6n6m8n6n6m8n6m8n6n6m8n6
1218B5171m8m8m8n6n6m8m8n6m8m8n6m8m8m8m8m8n6m8m8m8m8m8m8m8m8m8m0m8n6m0m8m8m8m0
1210B3515m8m8m8m8m0m8m8m0m8m8m8m0m0m8m8m0m8m0m8m8m0m0m8m0m8l2m8m8l2n6m0m0m0m0
1202B2011m0m8m8l2m0m0m0m8m0m0m0m0m0m0m0m0m0m8l2m0m0m0m0m0m0l2m8l2m0m0m0m0m0m0
1194B0643l2m0m0l2m0m0m0l2m0m0l2m0m0l2m0l2m0l2m0l2l2m0m0l2m0l2m0l2l2m0l2m0l2l2
1187A9411l2m0l2m0l2l2m0l2l2l2m0l2l2l2l2l2l2l2m0l2l2l2l2l2l2m0k4m0k4l2l2l2l2l2
1179A8283l2l2l2l2l2l2l2l2k4l2l2l2l2l2l2k4l2l2l2k4l2k4l2l2m0k4l2k4m0j6l2k4l2l2
1171A7251k4l2l2l2k4k4m0j6l2l2l2k4l2k4l2k4l2k4k4l2l2k4k4l2k4l2k4k4l2k4l2k4k4l2
1163A6299k4k4l2k4j6l2k4l2k4k4k4k4l2k4l2k4k4k4k4l2j6k4l2k4k4k4k4l2k4k4k4k4k4k4
1156A5435k4k4k4k4k4k4k4k4k4k4k4l2j6k4k4k4k4k4k4k4j6l2k4k4j6k4k4k4k4j6l2k4j6k4
1148A4635k4k4k4j6k4j6l2j6j6l2k4j6k4k4k4j6k4k4k4j6k4k4j6k4k4k4j6k4j6j6k4k4k4j6
1140A3899k4k4j6j6k4k4j6k4k4j6k4j6j6l2j6k4j6j6k4k4j6j6k4j6k4j6j6k4k4j6j6k4j6k4
1132A3211j6j6k4j6k4j6k4j6j6k4j6j6k4j6j6j6k4j6k4j6j6k4j6j6j6k4j6j6j6k4j6j6k4j6
1124A2579j6j6j6k4j6k4j6j6j6j6j6j6k4j6j6j6j6j6j6j6j6j6k4j6j6j6k4j6qk4j6j6j6j6
1117A1995j6j6j6k4j6j6j6j6qk4qk4j6j6qk4j6qj6j6j6j6k4j6qk4j6j6j6k4k4Qj6j6k4ql2
1108A1387%j6qk4j6j6j6j6j6qj6j6j6j6j6j6qj6j6j6j6qj6j6j6qj6j6j6j6j6j6j6qk4qj6j6
1099A0835j6qj6j6qj6j6j6j6qj6j6j6j6qj6j6j6qj6qk4qj6qj6j6qj6j6qj6qj6j6qj6j6qj6
1090A0291j6qj6j6qj6j6qqk4qj6ql2%%k4qj6j6qj6j6qj6qj6qj6j6qqj6qj6qj6qj6qj6qj6j6
1080I731qj6qj6qqj6qj6j6qj6qqj6j6qj6qj6qj6qj6qqj6qj6qqj6j6qqqqj6qj6qj6qqj6j6q
1069I187j6qqqj6qj6qqj6qqqj6qj6qqj6qqqj6qj6qqqj6qqj6qj6qqqqj6qqj6qqj6qj6qqqqq
1058H643qj6j6%j6qj6q%j6qqqj6%j6qj6%j6qqj6qqj6qqqqqqqj6qqqj6qqqqqqj6qqqqqj6qq
1045H131qqj6qqqqqqqqj6qqqqqqqj6%j6qqqqqj6q%j6qqqqqqqqqqj6qqqqqqqqqqqqqqqqj6q
1032G603qqqqqqqqqqqqqqqqj6%qj6%qqqqqqqqqqqqqqqqq%j6%j6%qqqqqqqqqqqqq%j6%j6%q
1018G123qqqqqqqqqqqqq%qqqqqqqq%qqj6%qqqqqq%qqqqq%qqqqqq%qj6%qqqqqq%qqqq%qqqq
1002F651%qqqqq%qqq%j6q%qqqqqq%qqq%qqqq%j6q%q%qqqq%qqqqqqq%qqqq%qq%qqq%qqq%qq
987F227%qqqqq%qqq%qq%qqq%q%qqq%qqq%q%qqqqq%q%qqq%qqqqq%q%qqq%qq%qq%qqq%qq%qq
972E827%%j6%q%qj6%j6Q%qqq%qq%q%qq%qqq%q%qqq%qqqQj6%q%qqq%%qq%q%j6%%j6%q%qq%q
957E499%qq%qq%q%qq%q%qq%qq%qq%q%q%q%qq%%qq%qq%q%qq%q%qq%q%qqq%q%q%qq%%qq%q%q
941E171%%j6%qq%q%%%j6qq%%Qqj6%q%q%q%qq%q%q%q%q%qq%q%q%q%q%q%q%qq%qq%%%q%qq%q
926D883%qq%q%q%q%%q%qq%%qq%q%%qqq%%q%q%q%%qq%%qq%q%%qq%%q%qq%%qq%%qq%%q%%q%j6
910D603%q%%q%q%%qq%%q%q%q%q%q%q%q%q%q%%%q%q%qq%%q%%qq%q%q%q%%q%q%%q%q%%q%q%q
895D355%q%%q%q%q%q%%q%q%%%qq%%q%q%q%%q%q%%q%q%q%q%%qqQqqQqqqQqq%%q%q%%q%q%%%
879D131q%%qq%%q%%q%%qqQqq%%q%%q%q%%q%%q%q%%q%q%q%q%%%q%q%q%%q%%q%%q%q%%q%%q%
863C915%q%%q%%q%q%q%%q%%q%%q%%q%%q%q%%q%%q%q%%%%qqQj6Qq%%qq%%%q%%q%q%%%%q%q%
847C723%q%q%%q%%q%%q%%q%%q%%q%%%q%%q%q%%q%%%q%%q%q%%%q%%q%q%%%q%%q%%q%%q%%q%
832C539%q%%%q%qQq%q%%qQqQj6%qQq%%q%%%qj6K4j6%qj6%Q%%qQj6QqQq%q%qQqq%%%%q%%q%
817C387%%q%%q%%q%%%q%%%q%%q%%q%%q%%q%%%%q%%%q%%%q%%q%%q%%q%%%q%%%q%%%q%%%%q%
801C235q%%%q%%%q%%q%q%%q%%%%qQq%q%%%%q%q%%q%%%%q%%%q%qQq%%%q%%q%%%%q%qQq%%%q
786C083%%%q%%%q%%%q%%%q%%%q%%%q%%%q%%%q%%%%q%%%%%q%%%q%q%%%q%%%%q%qQq%q%%%q%
770B947%%%%q%%q%%%%q%%%%q%%%%q%%%q%%%q%%%q%q%%%%%%q%%qQq%%qQq%q%%%%%qQq%%q%%
754B827%%q%%q%%%%q%%%q%%%%q%%%q%%%%%qq%%%%%%%q%%q%%%%q%%%q%%%%%qQq%%q%%%%%q%
738B707%%q%%qQq%%%q%QqQqqQqq%%%qQq%%%q%%%q%%%qQq%%%%%q%%%%%q%%%%%q%%%%q%%q%%
723B595%%q%%%q%%%%%%%q%%%qQq%qQq%%%%q%%%%q%%%%%q%%%%q%%%qQq%%%qQq%%%q%Qq%%q%
707B491%%%%q%%%%q%%Qq%%qqQ%%q%%%q%%%%%%%q%%%q%%%%qQq%%%q%%%%%q%%q%Qq%%%%%q%%
691B395%%%%q%%%%q%%%%%%q%%%%%%%q%qQ%q%%qQq%%%%q%%%%%%q%%%%%q%%%qQq%%%q%%%%%%
675B307qQ%q%%%q%%%%%qQq%%%%%q%%%%q%%%%%%%qQq%%%q%%%%%q%%%%qQq%%%%%%q%%%%q%%%
659B219%%%q%%%%%%q%%%%%%%q%%%%q%%%%q%%%%%q%%%%%%%q%%%%%qQqq%Q%q%%QqQq%%q%%%%
644B139%%%q%%%q%Q%j6Q%%Qqq%%%qQq%%qQq%%%Qq%%q%%Qq%%%q%%%%%%%qQq%%%qQq%%%%%%%
628B067q%%%%%%%q%%%%%%%q%%%%%q%%%%%%%%%%q%%%%%%q%Qq%%%qQq%%qQq%%%%%qQq%%%%%%
612A995qQq%%%%%%q%Qq%%%%%q%%%qQqQq%%%%%q%%%%qQq%%%%%%%%q%%%%%%%q%%%%%%q%%%%%
596A923%q%%%%%%%%%q%%Qq%%%%qQq%%%%%Qj6Q%qQq%q%QqQq%%q%Qq%%%%q%%Qq%%%%q%Qq%%%
581A859%%%%%q%%%%%%%%q%%%%%%%%%%q%%%%%%%q%%%%%q%%%%%qQq%%%%%%%%%q%%%%%%%qQq%
565A795%%%%%%%%%%q%%%%%%%q%%%%qJ6qq%Qq%%%%%qQq%%%%%qQq%%%%%qQ%%%%q%%%%%%%qQq
549A739%%%%%%%%%%%q%%%%%%%q%qQ%%%%%%q%%%%%%%%%q%%%%%%qQ%q%%%%%%q%%%%%%%qQ%qQ
534A691qQq%%%%qQqQq%%%%%%%qQq%Qq%%%%%%q%%%%%qQ%qQq%q%%%%%%%%%%%%qQq%%%%%%%%%
518A635%%qQqQq%%%%%%%%%q%%%%%%%%q%%%%%%%%%%qQ%q%%%%qQ%q%%%Qq%%%%q%QqQq%%%%qQ
502A587%j6%J6j6K4j6%%Qq%%q%qQ%%qQ%qQqQqQq%%%%%%%%qQ%q%qQ%%%q%%%%%%qQ%%%q%Qq%
487A539%%%%%%%%q%%%%%%%%%%%q%%%%%%%%%%%%%q%%%%%%%%%q%%%%%%%%%%%%q%%%%%%qQ%%q
472A491Qq%%%%qQq%QqQq%%%%%%q%%%%%%%%%%%%qQq%QqQq%%%%%%%%%%q%%%%%%%%%%%%%q%%%
456A451%%%%qQ%q%%%%%%%%%%%%%%%q%%%%%%%%%qQq%%%%%%%%qQ%%q%%%%%%%%%qQ%%%q%%Qq%
440A411%%%qQ%%%q%%%%%qQ%%%q%Qq%%%%%%%qQ%%q%%%%%%%%%q%%%%%%%%%%%%%%%%q%Q%%qQq
424A371%%%%%%%%q%%%%%%%q%%Q%%q%%%%Qq%%%%%qQ%%q%%%%%%%%qQ%q%%%%%%%%q%Qq%Qq%%Q
408A339qQq%%%%qQqQq%%qQ%%%qQ%q%Qq%%Qq%%%%%%%%qQ%q%Qq%%%%%%%%%%%%qQq%Qq%%%%%%
393A299%%%%%%%q%%%%%%%%%%%%q%%%%%%%%%%q%%Q%%%qQq%%%%%%%%%%%%%qQq%%%%%%%qQqQq
377A259%Qq%%%%%%%%%%%%%%q%%%%%%%%%%%%%qQ%%%q%%%%%%%%q%Q%qQq%%%%%%%%%%%%qQqQ%
361A235q%%%Qq%%%%%%q%%%%%%%Q%qqK4j6q%QQq%%q%Qq%Qq%%%%%%%q%%%%%%%%%%%%qQqQq%%
346A195%%%%%%%%%%%%%%%qQ%q%%%%QqQq%%%%%qQ%%%%%q%Qq%%%%%%qQqQq%Qq%%%%%%qQ%%qQ
330A171%q%%Qq%%%%%%%%%%qQqQq%Qq%%%%%%%%%%%%%%%%%qQq%%%%%%qQqQ%%%%%%q%%Qq%%%%
314A139%%%%%%%%%%%%q%%%%%%%%%%qQq%%%%%%%%%%%%%%%%%%%qQq%Q%q%%Q%q%%%%%%%%%qQq
298A107Q%qQ%q%%%Qq%%%%%%%%%%%%q%Q%q%%%%%%%%%%%%%%%q%Q%%qQq%QqQq%%%%%%%%qQ%%q
283A083Q%q%Qq%qQ%%qQ%%q%%%%%%%%%%%%%%%%%qQq%%%%%%%%%%%%%%%%%%%qQq%%%%%%%%%%%
267A059%%%%%%%%q%%%%Qq%%%%%%%%%%%%%%%%%qQ%q%%%%%%%%%%%%%%%%q%%%%%%%%%%%%%qQ%
251A035qQqQ%%%%%%%%%qQ%q%%%%%%qQ%qQ%%%q%%%%%%%%%%%%%%%%%%q%QqQq%Qq%%%%%%%%%Q
235A019q%%%%q%%%Qq%%%%%%%%%qQ%%%%%%%%q%%%Qq%%%%%%%%%%%%%%%qQ%%qQ%%%q%%%%%%%%
219I87%%%qQ%q%%%%%%%%%%%%%%%%%%%%%%%%%%%q%%QqQq%%%Qq%%%%%%%%%Qq%%%%qQ%%qQq%%
203I63%%%%%q%QqQqQq%QqQ%q%Qq%%%%%%%%%%%%q%Q%%%%q%%%%%%%%%%%%%%%%%%%%%%%%%%%%
187I47qQq%%%%%%%%%%%%%%%%%%%%qQqQ%%qQq%qQ%%%%qQ%qQ%%%%%%%%qQ%%%%qQqQq%Qq%qQ%
171I23q%Q%qQqQ%%%%%%%q%%%%%%%%Qq%%%%%q%%Q%%q%%Qq%%%%%%%%%%%%%%%%%%%%%%%%%%%q
155H99%%%%%%%%%%%%%%%%%qQq%Qq%%Qq%%%QqQq%%%%%%%%%%%qQqQqQ%%%%qQqQ%%q%%%%%%%%
139H83%%%%%%%qQ%%qQq%%%%%%%%%%%%%%%%%%%%%%%%%%%q%%QqQ%q%%%%%%%%%%%%%%%qQ%%%q
123H59Q%%qQq%QQj6%Qq%%%Qq%%%%%%%q%%Qq%QqQq%%QqQq%Qq%%%%%%%%%%qQ%%%q%%%Qq%%%%
107H43%%%QqQq%%%%%%%%%%%%%%%%%%%%%%%%q%%%%%%%%%%%%qQ%%%%%%%%%%qQq%%Q%%q%%%%%
91H27%%%%%%%%%%%%%%%%q%Q%%%%%qQ%q%%%QqQq%%%%%Qq%%%%%%%%%%%%%%%q%%Q%q%%%%%%%%
75H11%%%%%%%%%%%%q%Q%%%%qQ%q%%%%%%%%%%%%%%%%%%%%%%%%%%qQ%%qQq%QqQqQq%%%%%%%%
59G95%%%%%%qQ%%qQ%q%Qq%%QqQqQq%%%%%%%%%%%%%%%%%%%%%%q%%%%Q%%q%%%%Qq%Qq%%%%%%
43G79%%%%%%%%%%%%%%%%%%qQ%%%qQqQq%%Qq%%%%%Qq%qQQQj6J6j6%%%QqqQq%%Qq%%Qq%%%%%
27G63%%%%%%%%%%%%%%%%q%Qq%%%Q%qQq%%%%%%Qq%%%%%%%%%%%%%%%qQ%%%q%%%%%%%%%%%%%%
11G47%%%%%%%q%%Q%%qQq%Q%%q%%Qq%Q%%Qj6Q%qQq%%Q%q%%j6K4k4J6%qQj6J6qQ%%q%%%%Qq%
-4G31%Qq%%%%%%%%%%%%%%%%%%%%%%%%%%%%%%qQ%%%%%%%%%qQ%q%%%Qq%%%%%%%%%%%%%%%%%%
-20G23%%%%%%%qQ%q%%Qq%%%%%%qQ%%%%%%%%%%%%%%%%%qQ%%qQ%%%%%%%%q%%%%%%%%%%%%%%%
-36G07%%%%%%%%%%%%%qQqQ%qQ%qQ%q%%%%%%Qq%%%%%%%%%%%%%%%%%%%%q%%%Q%%%%%q%Qq%%%
-52F91%%%%%%%%%%qQQq%%%%%%%%qQ%q%QqQ%qQ%%%%qQq%%QqQj6Q%%%%%%%%%%%%%%Qq%%%%%%
-68F83%%%%%%%%qQqQqQ%q%%%QqQ%qQ%q%%%%%%%Qq%Qq%%%%%%%%%%%%%%%%%%%qQ%%%%%%%q%J6
-84F83q%qQ%%qQ%q%%%%%%%%qQ%%%%%%%%%%%%%%%qQ%qQq%%%%%%%%%%Qq%qQ%%%%%%%%%%%%%%
-100F59%%%%qQ%%%%%%%qQ%qQ%%%qQ%%%qQq%qQ%%q%Q%Qj6J6qqJ6q%j6K4k4QQj6Q%QK4n6qM8
-113F59J6m8M8l2qK4%%j6Qq%%J6qq%%Q%q%%%%%%%qQ%%%%qQ%%%%%%%%%%Qq%%q%%Q%%q%%%Qq
-128F35%QqQqQq%Q%q%Qq%%Q%q%%%%%%%%%%%%%%%qQ%%%%%%q%Q%%qQqQqQqQq%%%%%%%%%%QqQ
-143F35%%qQ%q%%%%%%%%%q%Q%qQqQ%%%%%%%%qQ%q%%QqQq%%%%%%%%%%%%%%%%%%%%%%%%%%%%
-159F19%%%%%%%%qQ%%qQ%%q%%%%%%%%%%%%%%%%%%%%%%%%%%%%%%%%%%qQ%%%%%qQ%qQ%%%qQq
-175F03%%%Qq%Qq%Qq%%Qq%%%%qJ6%q%Qqq%QqQq%%Qq%Qq%%Qq%%%QqQ%qQ%%%%%%qQ%qQ%qQqQ
-191F03%q%%%%%%%%%%%%%%%%%%%%%%%%%%%%%%%q%%%%%%%%%%%Qq%%%%%%%%%%%Qq%%%%%%%%%
-206E87%%%%%%%%%%%%%%%%%%%q%%Q%qQqQq%%%%%%%%%%%%%%Qq%%%%%%%%%Q%q%%%%%%%%%%%%
-222E79%%%%%%%%%%%%%%%%%%%%%qQ%%%%%q%%%%Qq%%%%QqQq%%%Qq%%%%qJ6q%qQq%Q%%%%%%%
-238E71%%%%q%%Qq%Q%%qQq%Qq%Qq%%%Qq%%%%Qq%%%%%%%%%%%%%%%%%%%%%%%%%%%%%%%%%%%%
-253E63%%%%%%q%QqQqQqQq%%%%%%%%%%%%%%%qQ%%qQ%%%%%%%%%%%%%%qQ%%%%%%qQqQ%%%%%q
-269E47%%%%%%%%%%%%%%%%%%%%%%%%%%%%%%%%%q%Q%q%%Q%%%%%%%%%%%%qQ%q%%%%%Q%q%%%%
-285E39%Qq%%%%%%%%%%%%%%%Q%q%%%%%%%qQ%%%%%%qQ%q%Qq%Qq%%%%%%%%Q%qQ%q%%%Q%%%%%
-301E39%%%q%%%%%%%%%%%%%%%%%%qQqQ%%%%%%%%%%%%%%%qQ%qQqQ%qQ%%%q%%%%%%%%%%%%%%
-317E23%%%%%%Qq%%%%%%Q%%q%%%%Qq%%%%%%%%%%%%%%%%%%%%%%%%%%%%q%Qq%%%%%%%%%%%%%
-332E15%Qq%%%%%Qq%%QqQq%%%%%%%%%%%%%%%%%%%%%%%%%%%%%%%qQ%%%%%%%%%%qQq%Qq%Qq%
-348E07%%Qq%%%%%%%%%%%%%%%%%%%%%%%%%%%%Qq%%%%%%%%%%%%%%%%%%%%%%%%%%%%%%%%%%q
-364D99Q%%q%%%%%%%QqQ%q%Qq%%%%%%%qQ%%%%%%%%%%%%%%%%%%%%%%%%%%%q%%%QqQq%%Q%%%
-380D99qQqQ%%qQqQq%%%%%%Qq%Qq%%%%%%%%%%%%%%%%%%%%%%%qQ%%%%%%%%%%%%%%%%%%%%%q
-396D83Q%%%%%q%%%%%%%%Q%q%%%%%Q%q%%%Q%q%%%Qq%%%%%%%%%Qq%%Qq%%%%%%%%%%%%%%%%%
-411D83%%%%%%%%%%qQ%qQq%Qq%QqQ%q%%%Q%q%%Qq%%%Qq%%%Qq%%%%%%%%%%%%%%%%%%%%%%%%
-427D75%qQ%%%%%%%qQ%qQ%%%%%%%%%%q%%Q%%%qQ%%qK4%m0K4%J6l2QQ%j6Q%Qq%%%%Q%%q%%%
-442D67%%%%QqQq%%%%%%%%%%%%%%%%%%%%%%%%%%qQ%%%qQq%Q%%q%Qq%Q%qQqQ%%%%%%qQq%Qq
-457D59Q%%q%%%%%Qq%%%%%%%%%%%%%%%%%%%qQ%QqQq%Qq%Qq%%%%%qQQqq%%Q%q%%%%%%%%Qq%
-473D51%%%%%%Q%qQq%%%%%%%%%%%%%%Qq%%%%%%%%%%%%%%%%%%%%%%%%%%%%%%%%qQ%%%%%%%%
-489D51%%%%q%Q%%%%q%%Qq%Q%%%%%%qQq%%%%%%Qq%QqQq%%%%%%Qq%%%%%%%%%%%%%%%%%%%%%
-505D43%%%%%%%%%%%%%%%%%%%%%%%%%%%%%%%%%%%%%%%%%%%%%%%%%qQ%q%%%%%%%%Q%q%%QqQ
-521D43%qQ%q%%%qQ%%%Q%qQq%%%%%qQ%%%%%%%%%%%%%%%%%%%%%%%%qQ%%%%%%%%%%%%%qQ%qQ
-536D35%%%%%q%Q%q%%Qq%%%%%%%%%%%%%%%%Qq%%%%%%%%%%%%%%%%%%%%%%%%%%%%%%%Qq%%Qq
-552D27%%%%qQ%q%QqQq%%Qq%%%Q%q%%QqQq%%%%Q%%%%q%%QqQq%QqQq%%%%Qq%%Qq%QqQqQq%%
-568D19Qq%%%%%Qq%%%%%%%%%%%%%%%qQ%%%%%%%%%qQ%%qQ%%%qQ%qQ%qQj6Q%%%Q%q%%Qj6Q%%
-583D11QqQ%qQq%Q%qQqQq%%Qq%%%%Q%%q%%Q%q%Q%%qQq%%%%%%%%%%%%%%%%%%%%%%%%%%%%%%
-599D11%%%qQ%%qQ%%qQ%%%%%%%%%%%%%qQ%%%%%%%%%q%Qq%Qq%%%Qq%Q%q%%%%Qq%%%%%%%%%%
-615D03%Qq%%%%%%%%%%%%%%%%%%%%%%%%%%%%%%%%%%qQ%%%%%%%%%%qQ%qQq%Qq%%%Q%qQ%%%%
-631D03%%%%%%%%%%%%%q%Q%q%%%%%%%%%%Q%q%Q%qQ%%%qQq%Qq%%%%%%%%%%%%%%%%%%%%%%%%
-646C95%%%%%%%%%%q%%QqQ%%%%%%%%%%%%%%%%%%%%%%qQqQ%%%%%q%%%%%%%%%%%%%%%%%%%%%
-662C87%%%%Qq%%%%%%%%%%%%%%%%%%%%%%Qq%%%q%Qq%Q%Q%q%qQ%%%%%%%%%%%%%%qQ%%%%%%q
-678C79Qq%Q%%qQ%q%Q%%q%Q%qQ%%%%%%%%%%q%Q%%%%%%qQq%%%%%%%%%Qq%%%%%%%%%%%%%%%%
-694C79%%%%%%%%%%%%%%%%%%%%qQ%%%%%%%%%%%%%qJ6q%%%%Qj6%Q%%%%%%%%%%%qQ%%%qQ%%%
-709C79%%%qQ%qQqQ%%q%QqQq%%%%%%%Qq%%%%%%%%%%%%%%Q%%q%%%%%%Qq%%%%%Qq%%Qq%%%%%
-725C71%%%%%%%%%%%%%%%%Qq%%qQ%%%%%%%%%%%%%%%%%%%%%%qQ%%q%%Q%%%%%%%%%%qQq%%%%
-741C63%%%QqQq%%%%Qq%%%%%%%%%%%%%%%%%Q%q%%%%%%%%%%%%%%%%%%%%%%%%%%%%%%%%%qQ%
-757C63%%%%%%%QqQq%%%%%%%%%%%Qq%qQ%qQQ%j6%J6qqQqK4k4j6K4j6J6j6QQqQ%qQ%qQ%%%q
-770C55Q%%%%%%%%%%%%qQq%Qq%Qq%%%%%%Q%q%%%%%Qq%%Qq%%%%%%%%%%%%%%%%%%%%%%%%%%%
-786C55%qQ%%%Qq%%%%%%%%%%qQ%%qQ%%%%qQ%%qQ%qQ%%qQ%qQqQ%%%%qQq%%%%%Q%%%%%%qQq%
-802C47%%Qq%%%%%%%%%%%%%Q%q%%%%%%%%%%QqQ%q%%%%%%%%%%%Qq%%%%%%%%%%%%Qq%%Q%Qj6
-817C47%%%%%%%Qq%%%%qQ%%%%%%%%%%%%%%q%Q%%%qQ%%%%%%%%%qQ%q%%%QqQ%%%%%%%%%%%q%
-833C39Q%%q%%QqQ%qQ%q%%%%%%%%%%%Q%q%%%%%%%%%%%%%%%%%%%%%%%%qQ%%%%%%%%%%%%%%%
-849C39%qQ%%%%%%%%%%%%%%%%%%%%%%%%%%%%%%qQ%%%%%%%%%%%%%%%%%%%qQq%%%%%%Qq%%Q%
-865C39qQ%qQ%%%qQqQq%%%%Qq%%%%Qq%Qq%%%%%%%%%%%%%%%%%Q%q%QqQ%%%q%QqQq%%%%Qq%%
-881C31%%%%%%%q%Q%%%%%%%%%%%%%%%%%%%%%%%%%%%%%%%%%%qQqQ%%q%QqQ%qQqQ%q%%Qq%%%
-896C23%%%%Qq%QqQq%Q%%qQ%%qQq%Qq%%%%Qq%QqQj6Q%Q%q%%%%%%%%QqQ%q%Qq%%%%%%%%%%%
-912C23%%%%%%%%%%%%%%%%%qQ%%%%%qQ%%%%%%%%%%%%%%%%%%%%%%%%%%%%%%%%%%%%%%%%%%%
-928C23%%%%%%%%%%%%%%%%%qQ%Qq%q%Qj6J6%%q%Qq%%%%%Q%qqJ6%qQqQq%%%%Qq%Q%%%q%%%%
-943C15%%%%%%%QqQq%%Qq%%%%%%%%%%%%%%%%%%%%%%%Qq%%%%%%Qq%%%%%%%%%%%%%%qQ%%%%%
-959C15%%%%%%%%%%%%%%%%%%%%%q%%Q%%%q%Q%q%Qq%Q%q%%QqQqQqQqQ%%%%%%%%%%%%%q%Q%%
-974C15%%%q%%%QqQq%%%QqQ%qQ%q%%%%%%Qq%%Q%qQ%q%%%%%%%%Qq%%%Qq%%%%%%%%%%%%%%%%
-990C07%%%%%%%%Qq%%%%%%%%%%Qq%%%%%%%%%%%%%%%%qQ%%%%%%Qq%qQ%%%%%%%%%%%%%%%%%%
-1006C07%%%%%qQ%%%%%%%%qQq%%%%Q%%qQqQqQ%%qQ%qQ%q%%Q%%%%%%%%q%Q%%qQq%Q%q%%%%%
-1022B99QqQqQ%%q%%%%%%%%%%%%%%%%%%%%%%%Qq%%%%%%Qq%%%%%%%%%%%%%%%%%%%%%qQ%%%%
-1037B99%%%%%%%%%%%%%%%%%%%%%%%%%%%%%%qQ%%%%%%%%%%%%%%%%qQ%qQQq%Qj6L2k4Ql2J6
-1052B91%%QqQq%%Q%%%%q%%Q%%%%%%%%%%%%%%%%%%qQ%q%Qq%Qq%%Q%qQqQqQqQ%%q%%Q%q%%%
-1067B91%%Q%q%%Q%q%%%%%%%%%%%%%%Qq%Q%%q%Q%q%%%%%%%%Qq%%%%%%%%%%%%%%%%%%%%%qQ
-1083B91%%%qQ%%%%%%%%%%%%%%%%%%%%%%%%%%q%%%Q%q%%%Qq%%Q%qQ%q%Qq%%QqQ%qQ%%%%%%
-1098B91%%%%%%%%qQ%%%qQ%q%%%%%%%%%%%%%%%%%Qq%%%%%%%%%%QqQ%%%q%Qq%%%%%%Qq%Qq%
-1114B83%%%%%%%%Q%q%%%%qQ%%%qQ%%%%%%%%%%%%%%%%%%%%%%%%%%%%%%%%%%%%%%%qQq%Q%%
-1129B83%%%%%%%%%%qQ%%qQ%%%%%%q%Q%%%%%%%q%%%Qq%%%%Q%qQ%%q%Q%q%%QqQ%%qQ%%%qQ%
-1145B83qQ%q%Q%qQqQq%Q%qQq%%%%%%%%%%%%%%%%%%%%%%%%%%%%%%%%%%%%%%%%%%%%%%%%%Q
-1161B83q%%%%%%%%%%%%%%%%%%%%%%%%%%qQ%%%qQ%qQ%%%%%%%%%%%%%%%%qQ%%%%%%%%%%%%%
-1176B75%%%%%%%%%%%%qQ%%%qQ%%%%%%%%%%qQ%%%%%%%qQ%%%%%%%%%%qQ%%qQqQqQq%%Qq%%%
-1192B67%%%%%%%%%%%%QqQq%%%%Qq%Qq%Q%qQqQq%%%%%%%%%%%%%%Q%%%%%%qQ%%qQqQq%Qq%%
-1207B67%%%%%%%qQ%%%Qq%%%%%Q%qQq%%qQ%%%%%%%%%%%%%%%%%%%%%%%%%%%%%%%%%%%%%%%%
-1223B67%%%%%%qQ%qQ%qQqJ6j6Q%%qQ%%%%qQqQ%%qQ%qQ%%%%%%%%%qQ%Qj6%%Q%q%%Q%q%%Q%
-1238B67%qQ%qQ%%%%%%qQ%%%%qQq%Q%qQ%q%%%%%%%%%%%Q%%%qQ%%q%%Qq%
-1250B59
##$OBSERVED MULTIPLETS=	(I, X, Y, Hs, Vs, An, H, C, N, (J))
$$ I: Multiplet Index
$$ X: Strt Coordinate
$$ Y: End Coordinate
$$ Hs: Horizontal Chemical Shift
$$ An: Normalised Integral Area
$$ H: Hydrogens
$$ C: Category
$$ N: Name
$$ (J): Coupling Constants
(1, 74.945212465383633571, 75.066406000147566147, 75.005809232765599859, 0.87272724790849454113, 1, s, 3)
(2, 59.038921758516956118, 59.160115291808587301, 59.099518525162771709, 1.1272725397435896522, 1, s, 1)
(3, 23.81471017159182324, 23.935903724061699194, 23.875306947826761217, 0.87272754275414621272, 1, s, 4)
(4, 11.448237563522539517, 11.569431098780313505, 11.508834331151426511, 1.127272669593769594, 1, s, 5)
##$OBSERVED MULTIPLETS AREAS=	
(1, 1.2118023038469483144)
(2, 1.5652444265930736123)
(3, 1.2118027132470683416)
(4, 1.5652446068931014089)
##$OBSERVED MULTIPLETS PEAKS=	(I, X, Y)
$$ I: Multiplet Peak Index
$$ X: Peak x Position
$$ Y: Peak Intensity
(1, 75.005809232765599859, 0.11656858772039413452)
(2, 59.099518525162771709, 0.15056774020195007324)
(3, 23.875306947826761217, 0.11656861007213592529)
(4, 11.508834331151426511, 0.15056775510311126709)
##$PREDICTED PEAKS=	(X Y T A)
(59.093246086470067269,  , 3, <1>)
(74.998258831542244707,  , 4.7099999999999999645, <3>)
(23.872311209883729788,  , 3, <4>)
(11.508468469533951861,  , 3, <5>)
##$PREDICTEDCOUPLINGCONSTANTS=	J(A,B)	$$ (Hz)
140.77(1, 1)
4.58(1, 3)
0.41(1, 4)
4.58(3, 1)
139.77(3, 3)
4.03(3, 4)
4.88(3, 5)
0.41(4, 1)
4.03(4, 3)
123.48(4, 4)
2.95(4, 5)
4.88(5, 3)
2.95(5, 4)
124.42(5, 5)
##END=		$$ NMR SPECTRUM
##TITLE=	Predicted 13C NMR Spectrum
##JCAMP-DX=	6.0	$$ MestReNova 17.0.0-41178
##DATA TYPE=	NMR PEAK TABLE
##DATA CLASS=	PEAK TABLE
##BLOCK_ID=	4
##ORIGIN=	Mestrelab Research S.L.
##OWNER=	ctheodore
##CROSS REFERENCE=	NMR SPECTRUM: BLOCK_ID=3                                     
##.OBSERVE FREQUENCY=	125
##.OBSERVE NUCLEUS=	^13C
##NPOINTS=	4
##FIRSTX=	11.508834331151426511
##LASTX=	75.005809232765599859
##XFACTOR=	1
##YFACTOR=	1
##FIRSTY=	0.15056775510311126709
##XUNITS=	PPM
##YUNITS=	ARBITRARY UNITS
##PEAK TABLE=	(XYW..XYW)
11.508834331151426511,0.15056775510311126709,0.012119353525777407099
23.875306947826761217,0.11656861007213592529,0.012119355246987553731
59.099518525162771709,0.15056774020195007324,0.012119353329162710353
75.005809232765599859,0.11656858772039413452,0.012119353476393621843
##$MNOVA/PEAK_DATA_TABLE=	(T,F,A,ST,SP,APT,APC)
$$ Complementary to PEAK TABLE
$$ T: Type
$$ F: Flags
$$ A: Annotation
$$ ST: Shape Type
$$ SP: Shape Parameter
$$ APT: Attached Peaks Type
$$ APC: Attached Peaks Count
Compound,None,,0,0,0,0
Compound,None,,0,0,0,0
Compound,None,,0,0,0,0
Compound,None,,0,0,0,0
##END=		$$ NMR PEAK TABLE
##END=		$$ LINK
