##TITLE=	cyclohexene 13c
##JCAMP-DX=	6.0	$$ MestReNova 17.0.0-41178
##DATA TYPE=	LINK
##BLOCKS=	4    
##ORIGIN=	Mestrelab Research S.L.
##OWNER=	ctheodore
##$MNOVA/METADATA=	(DOCUMENT,BASE64)
eyJuYW1lIjoiL1VzZXJzL2N0aGVvZG9yZS9Eb2N1bWVudHMvY2xhc3Nlcy9OTVIgZXhwZXJpbWVudC9
naXRodWIgZmlsZXMvY3ljbG9oZXhlbmUvY3ljbG9oZXhlbmUgMTNjLm1ub3ZhIiwicGFnZXMiOlt7Im
l0ZW1zIjpbIjEiLCAgICAgICAgICAgICAgICAgICAgICAgICAgICAgICAgICAgICAiMyIgICAgICAgI
CAgICAgICAgICAgICAgICAgICAgICAgICAgICAgXX1dfQ==
##TITLE=	
##JCAMP-CS=	3.7	$$ MestReNova 17.0.0-41178
##BLOCK_ID=	1
##ORIGIN=	Mestrelab Research S.L.
##OWNER=	ctheodore
##$MNOVA/METADATA=	(ITEM,BASE64)
eyJhbmdsZSI6MC4wLCJwb2ludHMiOlt7IngiOjUzMjEuMCwieSI6NTgzNS4wfSx7IngiOjU1MjIuNTE
xMzU1OTgyNzcxLCJ5Ijo1ODM1LjB9LHsieCI6NTUyMi41MTEzNTU5ODI3NzEsInkiOjYwNjEuNjU0Nj
Y0NjA4NDU3fSx7IngiOjUzMjEuMCwieSI6NjA2MS42NTQ2NjQ2MDg0NTd9LHsieCI6NTMyMS4wLCJ5I
jo1ODM1LjB9XSwieiI6MS4wfQ==
##NAMES=	
##ATOMLIST=	
$$ AN	AS	NH
	1	C	2
	2	C	2
	3	C	2
	4	C	1
	5	C	1
	6	C	2
##BONDLIST=	
$$ AN1	AN2	BT
	1	2	S
	2	3	S
	3	4	S
	4	5	D
	5	6	S
	6	1	S
##MAXRASTER=	32768
##XY_RASTER=	
$$ AN	X	Y	Z
	1	-28379	-16384	0
	2	-28379	16384	0
	3	0	32768	0
	4	28379	16384	0
	5	28379	-16384	0
	6	0	-32768	0
##END=		$$ JCAMP-CS
##TITLE=	Predicted 13C NMR Spectrum
##JCAMP-DX=	6.0	$$ MestReNova 17.0.0-41178
##DATA TYPE=	NMR PEAK ASSIGNMENTS
##DATA CLASS=	ASSIGNMENTS
##BLOCK_ID=	2
##ORIGIN=	Mestrelab Research S.L.
##OWNER=	ctheodore
##CROSS REFERENCE=	STRUCTURE: BLOCK_ID=1                                     
NMR SPECTRUM: BLOCK_ID=3                                     
##.OBSERVE FREQUENCY=	125
##.OBSERVE NUCLEUS=	^13C
##NPOINTS=	6
##XUNITS=	PPM
##YUNITS=	ARBITRARY UNITS
##PEAKASSIGNMENTS=	(XYWA)
(23.329592622375969313, 0.17005360126495361328, 0.0072553621789470668091, <1>)
(23.333255134627318483, 0.17005361616611480713, 0.0072553632691025882195, <2>)
(25.657119158107374091, 0.23313868045806884766, 0.0060597183029287293721, <3>)
(127.86684855646622339, 0.16513881087303161621, 0.0060596751321213560004, <4>)
(127.86684855646622339, 0.16513881087303161621, 0.0060596751321213560004, <5>)
(25.657119158107374091, 0.23313868045806884766, 0.0060597183029287293721, <6>)
##END=		$$ NMR PEAK ASSIGNMENTS
##TITLE=	Predicted 13C NMR Spectrum
##JCAMP-DX=	6.0	$$ MestReNova 17.0.0-41178
##DATA TYPE=	NMR SPECTRUM
##DATA CLASS=	XYDATA
##BLOCK_ID=	3
##ORIGIN=	Mestrelab Predictor
##OWNER=	ctheodore
##NUMDIM=	1
##$MNOVA/METADATA=	(ITEM,BASE64)
eyJhbmdsZSI6MC4wLCJheGVzIjp7IngiOnsibWF4IjoyMzAuMDI1MzAyNzgzMzA2MTYsIm1pbiI6LTk
uOTk5MjY4ODY0ODg3NjM4fSwieSI6eyJtYXgiOjAuMjU2NDUyNTQ5MjQ4OTMzOCwibWluIjotMC4wMj
MzMTM4NjY1NDMwNzI1NDh9fSwicG9pbnRzIjpbeyJ4Ijo1MzIxLjAsInkiOjU4MzUuMH0seyJ4Ijo4N
zIyLjAsInkiOjU4MzUuMH0seyJ4Ijo4NzIyLjAsInkiOjgyMDguMH0seyJ4Ijo1MzIxLjAsInkiOjgy
MDguMH0seyJ4Ijo1MzIxLjAsInkiOjU4MzUuMH1dLCJ6IjowLjB9
##.OBSERVE FREQUENCY=	125
##.OBSERVE NUCLEUS=	^13C
##.SOLVENT NAME=	DMSO-d6
##.PULSE SEQUENCE=	
##.ACQUISITIONMODE=	SIMULTANEOUS (DQD)
##$ORIGINAL FORMAT=	Predictor
##$MNOVA/SCALES_VERSION=	9
##$PARAMETER FILE=	(parameters, ASCII, , 0)
$$ <?xml version="1.0" encoding="utf-8"?>
$$ <PredictorParameters>
$$     <Title>Predicted 13C NMR Spectrum</Title>
$$     <Origin>Mnova: NMR Prediction</Origin>
$$     <Name>Mestrelab Predictor</Name>
$$     <Version>1.7</Version>
$$     <Nucleus>13C</Nucleus>
$$     <Solvent>DMSO-d6</Solvent>
$$     <From>-10</From>
$$     <To>230</To>
$$     <Frequency>125</Frequency>
$$     <LineWidth>1.5</LineWidth>
$$     <Size>131072</Size>
$$     <DEPT>0</DEPT>
$$     <ProtonatedCarbons>0</ProtonatedCarbons>
$$     <ExcludeLabile>false</ExcludeLabile>
$$     <FastPrediction>0</FastPrediction>
$$     <ProtonDecoupled>1</ProtonDecoupled>
$$     <Reference/>
$$     <Options>
$$         <Settings>
$$             <Predictor Name="Mestrelab Predictor">
$$                 <Settings>
$$                     <Model>/Applications/MestReNova.app/Contents/Resources/data/13C.mbst</Model>
$$                 </Settings>
$$             </Predictor>
$$         </Settings>
$$     </Options>
$$     <MoleculeID>{ca4c3911-a3a9-4fa3-b1a5-aaef43abcbde}</MoleculeID>
$$ </PredictorParameters>
$$ 
##XUNITS=	HZ
##YUNITS=	ARBITRARY UNITS
##FIRSTX=	28750
##LASTX=	-1249.7711181640625
##DELTAX=	-0.2288818359375
##XFACTOR=	1
##YFACTOR=	1.0856365811388590639E-10
##FIRSTY=	1.6143941294899377681E-08
##MINY=	2.2477923966590651617E-09
##MAXY=	0.23313868045806884766
##NPOINTS=	131072
##XYDATA=	(X++(Y..Y))
28750A49%%%%%%%%%%%%%%%%%%%%%%%%%%%%%%%%%%%%%%%%%%%%%%%%%%%%%%%%%%%%%%%%%%%%
28734A49%%%%%%%%%%%%%%%%%%%%%%%%%%%%%%%%%%%%%%%qQ%%%%%%%%%%%%%%%%%%%qQ%%%%%%
28719A49%%%%qQ%%%%%%%%%%%%%%%%%%%%%%%%%%%%%qQ%%%%q%Q%%%%%%%%%%%%%%%%%%%%%%%%
28703A49%%%%%%%%%%%%%%%%%%%%%%%QQj6q%%Qq%%Q%%q%QqQq%%%QqQqQqQ%%%%%%%%%%%%%q%
28688A41%QqQ%%qQ%%%%%%qQ%%%%%%%%%%q%Q%qQq%QqQ%%q%Q%%%%qQ%%%%%%%%%%%%%%%%%%qQ
28672A49q%%%%%%%%%%%%%%%%%Qq%Qq%QqQ%qQ%%q%%%Q%%qQ%%%%%%%qQ%%%%%%%%%qQ%qQ%q%%
28657A41Qq%Q%%qQ%%qQ%qQ%%%%%%q%Q%%%qQ%%%%%%q%%%%%%%Qq%Q%qQq%%%QqQqQq%%Q%%qQ%
28641A49q%Qq%%QqQj6J6%j6%QQqQq%%%%%Qq%Q%q%%%%%Qq%%%%%%%Qq%%%%%%%%%%%%%%%%%%%
28626A41%%%%%%%%%%Qq%%%Qq%%%%%%%Qq%%Qq%%%%%%%%%%%%%%%%%%%%%%%%%%%%%%%%%%%%%%
28611A41%%%%%%%%%%%%%%%%%%%%%%%%%%%%%%%%%%%%%%%%%%%%%%%%%%%%%%%%%%%%%%%%%%%%
28595A41%%%%%%%%%%%%%%%%%%%%%%%%%%qQ%q%%Q%%%%%%%%%%%%%%%%%%%%%%%%%%%%%%Qj6Q%
28580A41%qQ%qQ%%%qQ%%%%%%%%%%%%%%%%%%%%%%%%%%%%%%%%%%%%%%%%%%%%%%%qQ%qQ%%%%%
28564A41%%%%%%%%%%%%%%%%%%%%%%%%%%%%%%%%%q%Q%%%qQq%QqQ%q%%%%%%Qq%%%%Q%%qQq%Q
28549A41%qQ%%q%Q%%%%%%%%%q%Qq%%Qq%%Qq%QqQ%qQ%qQ%%q%Q%%%%%%qQ%q%%Qq%Qq%%%%%%%
28533A33%%%%%%%%%QqQ%%%%%%%%%%qQq%%Q%%%q%%%%Q%q%%%Q%qQ%qQ%%%%%qQ%j6J6Qj6J6qq
28519A33Q%%%q%Q%%%%%Qq%%%%%q%QqQ%%%q%%%QqQqQq%%Q%%q%%Qq%%Qq%%%%Qq%QqQ%%%%%%q
28503A33QqQqQq%%%%%%%Q%qQ%%%%%%qQq%%%%%%%%%%%%%%%%%%%%%%%%%Qq%Qq%QqQqQq%Q%q%
28487A33%%%%%%%%%%%%%%%%%%%%%%%%%%%%%%%%%%%%%%%%%%%%%%%%%%%%%%%%%%%%%%%%%%%%
28472A33%%%%%%%%%%%%%%%%%Qq%%%%%%%%%%%%%%%%%%Qq%%qQQq%%Q%q%%%%%%qQqQ%%%%%%%%
28456A33%%%%%%%%%%%%%%%%%%%%%%%%%%%%%%%%%%%%%%%%%%%%%%%%%%%%%%%%%%%%%%%%%%%%
28441A33%%%%%%%%%%%%%%%%%%%%%%%%%%%%%%%%%%%%%qQ%qQ%%%%%%%%%%%%%%%%%%%%%Qq%%%
28425A33%%%%%%%%%%%%%%%%%%%%%%%%%%qQ%%%%%%%%%%%%%%%%%%%%%%%%%%%%%%%%%%%%%%%%
28410A33%%%%%%%%%%%%qQ%%qQ%qQ%%qQq%%J6q%%%%%%%%%%%%%%%%%%%%%%%%%%%%%%%q%Q%%%
28394A33%%%%%%%%%%%qQ%%%%%%%%%%%%%%%%%%%%%%%%qQ%%%q%%QqQqQqQq%%%%%QqQ%qQq%%Q
28379A33q%%%Q%qQq%Q%q%%%%%Q%qQq%%%%%%%%%%%%%%%%%Q%qQ%q%%Q%%%qQq%%%%%Qq%%Q%%%
28363A33%%q%%Q%q%%QqQ%q%%%%Q%%%%%%%%qQ%%%%qQqQq%Qq%%%%%%%Q%%%q%Q%q%QqQqQq%%%
28348A25%%Qq%%%Q%q%%%%QqQ%%qQ%qQqQ%q%%%%%%%%%%%%%%%%%%%%%%%%%%%%%%%%%%%%%%%%
28332A25%Qq%%%QqQ%%%qQ%qQ%q%QqQq%%%%%%%%%%%%%%Qq%%%%%%%%%%%%QqQ%%q%Qq%%%%QqQ
28316A33q%%%%%%%%%%%%%%%%%%%%%%%%%%%%%%%Q%q%QqQ%%qQq%%%%%%%%%%%%%%%%%%%%Qq%%
28301A25%%%%%%%%Qq%%%%%%%%%%%%%%%%%%%%%%%%%%%%%%%%%%%%%%%%%%%%%%%%Qq%%%Qq%%Q
28285A33Qj6QqqQQq%%%Qq%%%Qq%%%%%%%%%%%%%%%%%%%%%%%%%%%%%%%%%%%%%%%%%%%%%%%%%
28270A25%%%%%%%%%%%%%%%%%%%%%%%%%%%%%%%%%%%qQ%%%%%%%%%%%%%%%%%%%%%%%%%Qq%%%%
28254A25%%%%%%%%%%%%%%%%%%%%%%%%%%%%%%%%%%%%%%%%%%%%%%%q%%QqQ%%%%%%%%Qq%%%%%
28239A25%%%%%%%%%%%%%Qq%%%%%%%%qQ%%qQ%%%%%%qQj6J6%j6J6q%J6qq%%J6qQj6Q%%%%%qQ
28225A25%%%%%%%%%%%%%%%%%%%%%%%%%%%%%%%%%%%%%%%%%%%%qQ%%%%%%qQqQqQ%qQ%%%%%%%
28209A25%%%%%%%%%%%%%%%%%%%%%%%%%%qQ%%%%q%%Q%%%%%%%%%%%%%%%%%qQq%%%%%QqQq%%Q
28194A25%%%%%q%%Q%%%%qQ%%%%%%%%q%Q%%qQq%%Q%q%%QqQ%%qQ%%qQ%%qQqQqQ%q%QqQqQ%q%
28178A17%%Q%%%%qQ%qQ%q%%Qq%%%%%Qq%Q%%q%QqQqQqQ%Qq%%qqJ6%%%%q%Qq%%Qq%QqQ%%%%%
28163A25%%%%%%%%%q%Q%%%%%%%%%%%%%%q%QqQq%%%%%%%%Qq%%%%%%%%%%%%%Qq%%Qq%%%Q%q%
28147A17Q%q%Qq%%Qq%%%%%%%%%%%%%%%%%%%%%%QqQq%Q%q%Q%%%%%%%%%%%%qQq%%Qq%%%%%%%
28132A17%%%%%%%%%Qq%%%%%Q%q%%%%%%%Qq%%QqQ%qQ%%%%q%%%Qq%%%%%%%%%%%%%%%%%%%%%%
28116A17%%%%%%%%%%%%%%%QqQ%qQ%q%%%QqQq%%%%Qq%QqQ%qQqQq%%%%%%%%%Qq%Qq%%%%%%%%
28101A17%%%%%%%%%%%Q%q%%%%%Qq%%%%%%%%%%%%%%%%%%%%%%%%%%%%%%%%%%%%%%%%%%%%%%%
28085A17%%%%%%%%%%%%%%Qq%%%q%Q%%%%%%%%%%%%%%%%%%%%%%%%%%%%%%%%%%%%%%%%%%%%%%
28070A17%%%%%%%%%%%%%%%%%%%%%%%%%%%%%%%%%%%%%%%%%%%%%qQ%%%%%%%%%%qQ%%%%%%%qQ
28054A17%qQ%qQ%%%%qqK4%qQqQj6Q%%%qQ%%%%%%qQq%%%%Q%%%%%%%%%%%%%%%%%%%%%%%%%%%
28039A17%%%%%%%%%%%%%%%%%%%%%%%%%%%%%%%%%%%%%%%%%%%%%%%%qQ%%%%%%%%%%%%%%q%Qq
28023A09%%Q%%%%q%Q%%%%%qQ%%%%%%%%%%%%%qQ%%qQ%q%%%QqQ%%%%%%qQ%%qQ%%qQ%%qQ%%qQ
28008A17%qQ%%%%%%%%%%%%%%%%%%%%%%q%Q%%qQ%%q%%Q%qQ%qQqQ%q%%Q%qQ%%%qQ%qQq%%%%%
27992A09%Qq%%Q%qQ%%%%qQ%%%%q%%QqQ%%%%%%%%%%%%%%%%%%%%qQqQ%%q%%%%%Q%q%%Q%q%Q%
27977A17q%Q%%%%q%Q%%qQ%%%q%%%%%Q%%q%Q%%%qQ%%%%%%q%Q%q%Q%qQ%q%Q%qQqQq%%%%%Q%%
27961A17qQ%%%%%q%Q%%%%q%QqQqQ%%qQ%%%%q%%%%%%%%%%%%%%%QqQ%%q%QqQ%%%%%%%%%qQ%%
27945A17%%%%%%%%qQqQq%%QqQ%%%%%%qQ%qQ%%q%%%Q%%q%QqQ%q%%Q%q%qQ%%%%%%%QqQ%%%%%
27930A17%%%%%%q%Q%qQ%qQq%%%%%%%Q%q%%Qq%%%%%%%%%%%QqQ%%qQqQ%q%Qq%%%%%%%%%%%%%
27914A09%%%%%%%%%%%%Qq%%Qq%%%%%%%%%%%%%%%%%%%%%qQ%%%%%%%%%%%%%%%%%%%%%%%%%%%
27899A09Qq%%%%%%%%%%%%%%%%%%%%%%Q%q%%%%%Q%%%q%%%%%%%%%%%%%%%%%%%%%%%%%%%%%%%
27883A09%%%%%%%%%%%%%%%%Qq%Qq%%%%%%Q%q%Q%qQq%Qq%%%%%%%%%%%%%%%%%%%%%%%QqQq%Q
27868A17q%%%%%%%%%%%%%%%Qq%Q%q%Qq%%%%%%%%%%%%%%%%%%%%%%%%%%%%%%%%%%%%%%%%%%%
27852A09%%%%%%%%%%%%%%%qQqQ%%%%%%%qQ%%%%%%%%%%%%%%%%%%%%%%%%%%%%%%%%%%%%%%%%
27837A09%%%%%%%%%%%%%%%%%%%%%%%%%%%%%%%%q%Q%%%qQqQ%%%%%%%%%%%%%%%%%%%%%%%%%%
27821A09%%%%%%%%%%%%Qq%%%%Qqj6J6%Qq%%%%%%%%%%%%%%%%%%%%%%%%%%%%%%%%%%%%%%%%%
27806A09%%%%%%%%%%%%%%%%%%%%%%%%%%%%%%%%%%qQ%%%%%%%%%%%%%%qQ%%%%%%%%%%%%%%%%
27790A09qQ%q%%%%%%%Q%%%q%Q%%%qQ%qQ%%%%qQ%%%qQ%%%%%%qQ%%%%%%%%%%%%%%%%%%%%%%%
27775A09%%%%%%qQ%%%%%%qQ%qQ%qQ%%%qQ%%%%%%%%q%Q%%%qQ%%%%qQ%qQ%qQ%qQ%%q%%Qj6QQ
27759A09%q%QqQ%q%%%%%%%%%%Qq%Q%%%%%%%%%q%%QqQ%%%%%%%%%%qQ%%qQqQq%QqQq%QqQqQ%
27744A09%qQ%qQ%%%q%%%Qq%%Q%%%%%qQ%%%%%qQ%qQqQ%q%Q%%%%q%%Q%%%%%%%%qQq%%Q%q%%%
27728A01Q%%%%%%qQ%%qQqQq%%%%%%%%%%%Qq%%%Q%qQq%%%Qq%%%%%%%%%%Qq%%%%%%%%%%%%Qq
27713A01Qq%%%%%%%%%%%%%Qq%Qq%Q%%q%%%QqQ%%%%q%Q%qQq%Q%%%%q%%QqQqQq%%%%%%%Qq%%
27697A01Q%q%Qq%%%Qq%%%%QqQq%%%Qq%%Q%%q%Q%%q%Q%qQqQ%q%%Qq%%%%%Q%q%%Q%q%Qq%Q%q
27682A01%%Qq%%%%Qq%%Q%%q%Q%%%%%q%%%%%%%%%%%%%%%%%%Qq%%%QqQq%Qq%Qq%%%%%Q%q%%Q
27666A09q%Q%%qQ%q%%%%%%%%%%%%%%%%%%%%%%%%Qq%%%%%%Qq%QqQq%%Q%q%%%%%%%%Qq%Q%qQ
27650A09%%%qQ%q%%%QqQq%%%%%%%%%%%Qq%Qq%%Q%q%%%%%%%Qq%Qq%%Qq%%Qq%Q%q%Qq%%Qq%%
27635A01%%%%QqQqQq%%%%Q%q%Q%%qQ%q%%%%%%%%%%%%%%%%%%%%%%%%%%Q%q%%%%%%%%%%%%%%
27619A01%%%%%%%%%%%%%%%%%%%%%%%Q%q%%%%%QqQq%%%%%%%%%%%%%%%%%%%%%%%%%%%%%%%%%
27604A01%%%%%%%%%%%%%%%%%%%%%%%%%%%%%%%%%%%%%%%%%%%%%%%%%%%%%%%%%%%%%%%Qq%%q
27588I3Q%%%%%qQqQ%%%q%%QqQ%%Qqj6K4J6m8J6J6j6QqQ%QqqJ6q%%%%%Qq%%%%%%%%%Qq%%%%
27574A01%%%%%%%%%%%%%%%%%%%%%%%%%%%%%%%qQ%%%%%%%%%%%%%%%%%%%%%%%%%%%%%%%%%%%
27559A01%%%%%%%%%%%%%%%%%%%%%%%%%%%%%%%%%%%%%%%qQ%%%%%%%%%%%%%%%%qQ%qQ%%%%%%
27543A01qQ%%%%%%%%%%%%%%%%%%%%%%%qQ%%%%%qQ%%qQq%%%Q%qQq%Q%%%%%%%qQ%%%%%%%%%%
27528A01%%%%%Qqq%Q%qQQq%qQ%%%%%%%%%%%%%%%%%%%%%%%%%%%%%qQ%%%%%%%%%qQ%%q%Q%%%
27512A01%%%%%%%%%%%%%%qQ%q%Q%%q%Q%%%%%%qQ%qQ%qQ%%%qQ%%%%%%qQ%q%Qq%Qq%Q%%qQ%%
27496A01%qQ%qQqQ%%%%%%%qQ%%%%%%%%%%%%%%%%%%%%%%%%%%%%%%%%%%%%%%%%%%%%%%%%%%%
27481A01%%%q%Q%%%%qQ%%%q%%%Q%%%q%%%QqQq%Q%%%q%%%%%%%%%Qq%Q%%%qQ%%%%qQq%Q%%%%
27465A01qQq%Q%%%%%%%%%%%%%%%%%%qQq%Q%%qQ%%%q%%%%%%%%Q%%qQqQ%%%qQ%%q%Q%%%qQ%%
27450A01%q%Q%q%%%%%%%%%Qq%%%%%%%%%QqQq%%%%%%%%QqQ%%%qQ%%%%%q%Qq%Q%qQ%%%%qQq%
27434I3%Qq%%%%Q%%%%%%qQ%%%%%%%%%%%%%%%%qQ%%%%q%Q%%q%Qq%%%%Qq%%%%%%%%%%%%%%%%
27418I3%%Q%q%Q%%%%%%%%q%Q%q%%%Q%%%%%%q%Q%%qQq%%%%%%%%%Q%qQ%%qQj6Q%%%%%%%%%%%
27403I3%Qq%%%%%QqQ%q%%%Q%q%%%%%%%%QqQ%%q%%%%%%%Q%qQ%%%qQ%qQq%%%%%%%%%%Q%qQ%%
27387A01%%%%%%qQqQq%QqQq%%%%QqQ%q%%%QqQq%%QqQqQ%%qQqQ%%%%q%%%%%%%%%%%%%%%%%%
27371I3%Qq%%%%%%%%%%%%%%%%%%%%%%%%%%%%Qq%%%%%%%%%%%Qq%%Q%%q%%Q%q%%%%Q%%q%%%%
27356I3%%%Qq%%%%%%Qq%%%%%%%%%%%%%qJ6q%%QqQ%q%QqqQ%qJ6%q%%%%%%%%%%%%%%%%%%%%%
27340I3%%%%%%%%%%%%%%%%%%%%%%%%%%%%%%%%%%%%%%%%%%%%Qq%%%%%%%%%%%%%%%%%%%%%%Q
27325A01%q%%%%%%%%%%%%%Q%%q%%%Qq%%%%%%%%%%%%%%%%%%%%%%%%%%%%%%%%%%%%%%%%%%%%
27309I3%%%%%%%%%%%%%%%%%%%%%%%%%%%%%%%%%%%%%%%%%%%%%%%%%%%%%%%%%qQ%%%%%%%%Q%
27293A01q%Qj6J6j6%%L2j6qk4L2%q%j6J6%QqQj6J6%q%%%%%%%%%%%%%Qq%Qq%%Q%qQq%%%%%%
27280I3%%%%%%%%%%%%%%%%%%%%%%%%%Qq%%%%%%%%%%Qq%%%%%%Qq%%%%%%%%%%%%%%%%%%%%%%
27264I3%%%qQ%%%%%%%%%%%%%%%%qQqQ%%%qQ%%%%%%%%%%%%%%%%%%%%qQ%%%%%%%%%%%%%%%%%
27249I3%%%%qQ%%q%Q%%%%%%%%%%%%%%%%qQ%%qQ%%%%%%%%%%%%%Qq%%%%%%%%%%%%Qq%%%%qJ6
27233A01l2K4J6j6k4M8l2qK4j6%%Q%QqQqqQ%q%Q%%%%%qQqQ%%%%%%%%%%%%%%%%%%%%%%%%%%
27219I3%%%%%%%%%qQqQ%qQ%%%%%%%%%%%%%%%%%%%%%%%%qQ%%%%%%%%%%%%%%%%%%%%%%%%%%%
27204I3%%%%%%%%qQ%%%%%q%%QqQ%%%%%%qQq%%Q%%%qQ%%%%%%%%%%%%%%qQ%%%%%%%%%%%%%%%
27188I3%%%%%%%%qQq%Q%qQqQqQ%%qQqQqQ%%%%%%qQ%%%%%%%%%%%%%%%%qQ%%%qQ%%qQ%%%%Qq
27172I3%%%%%qQqQ%qQqQ%%%qQ%%q%%%QqQqQqQqQ%%%%%%%%%%%%%%%%%%%%%%%%%%%%qQ%%%%q
27156H5QqQ%%%%%%%%%%%%%%%%%%%%%%%%%%%%%%%%%%%%qQ%%q%Q%qQ%%%q%%%Q%q%%QqQqQqQ%
27141I3%%%%%%%%%%%%%%%%%%%%%%%%q%Qq%Qq%%%%%%QqQqQ%qQ%%qQqQq%%%Q%q%%Qq%%%%%%%
27125H5Q%%%%%%%%%q%Qq%Qq%%%Q%q%%%Qq%%%%%Q%%q%QQqqQ%j6Q%%Qj6J6qqJ6%%q%%%Q%q%Q
27110I3%%q%Qq%%%Q%%%qQ%%%%%%%%%%%%%qQ%qQqQ%%%%%q%%%QqQ%%qQqQ%qQ%%%%%%%%%%%%%
27094I3%%%%%%%%%%qQ%%%%%%%%%%%%%%qQ%%%q%%%%QqQq%%%%%%Q%qQ%%q%%%%%Qq%Qq%%%%%%
27078H5%Qq%%%Qq%%%%%Q%q%%Qq%Q%qQ%q%%Q%q%Q%qQqQq%%%%%%Q%%q%%%%%%%%Qq%%%%Q%qQq
27062H5QqQqQq%Qq%%%QqQ%%q%Q%%%q%Q%qQq%%%%Qq%Qq%%%%%%%Qq%%%%Qq%QqQq%%%Qq%%%%%
27047H5%%%%%%%%%%%%%%%Qq%%%QqQ%q%%Q%q%%%%%%Qq%%%%%%%%%%%%%%%%%%%%%%%%%%Q%%q%
27031H5QqQ%%%%%%%%%%qQqQ%q%%%%%Qq%Q%%qQ%q%%%%Q%%%q%Qq%Q%q%Q%q%Qq%%%%%%%%%%%%
27015H5%%%%%%%%%%%%%%%%%Qq%Q%%q%%%%%%%%%%%%%Qq%%%%%QqQqQqQ%%q%%Q%%%%qQq%%%Qq
26999H5Q%%q%%%QqqQ%Q%j6QQq%%%Q%%qQq%%%%%%%%%%%%%%%%%%%%%%%%%%%%%%%%Qq%%%%%%Q
26984I3q%%%%%%%%%%%%%%%%%%%%%%%%%%%Q%q%%%%%%%%%%%%%%%%%%%%%%%%%%%%%%%%%%%Qq%
26968H5%%%%%%%%%%%%%%%%%%%%%%%%%%%%%%%%%%%%%%%%%%%%%%%%%%%%%%%%%%%%%%%%%%%%%
26952H5%%%%%%%%%%%%%%%%%%%%%%%%%%%%%%%%%%%%%%Qq%%Qq%%%%Qq%%%%%qQ%Q%q%%%%%%%%
26936H5%%%%%%%%%%%%%%%%%%%%%%%%%%%%%%%%%%%%%%%%%%%%%%%%%%%%%%QqQq%Qq%%%%%%%%
26921H5%%%%%%%%%%%%%%%%%%%%%%%%%%%%%%%%%%%%%%%%%%Qq%%%%%%%%%%%%%%%%%%%%%%%%%
26905H5%%%%%%%%%%%%%%%%%%%%%%%%%%%%%%%%%%%%%%%%%%%%%%%%%%%%%%%%%%%%%%%%%%%%%
26889H5%%%%%%%%%%%%%%%%%%%%%%%%%%%%%%%%%%%%%%%%%q%Q%qJ6q%%%%%%%qQ%%qQ%%%%%%%
26873H5%%%%%%%%%%%%%%%%%%%%%%%%%%%%%%%%%%%%%%%%%%%%%%qQ%%%%%%%%%%%%%%%%%%%%q
26858G7Qq%Qq%Q%%%%%%%%%%%%%%%%qQ%%%%%%%%%%%%%%%%%%%%%%%%%%%%%%%%%%%q%Qq%Q%%%
26842H5%%%%%%%%%%%%%%qQq%Q%%%%qQ%qQ%%%%%%%q%QqQ%%%%%%%%%%%%%%%%%%%%%%%%%%%%%
26826H5%qQq%Q%%qQ%q%Q%Qq%%q%Q%%qQ%%%%%%%qQ%%%%%%%%%%%%%%%%%%%%%%%%%%%%%%%%%%
26810H5%%%%%%%%%%%%%%%%%%%%%%%%%%%%%%%%%qQ%%%%%%%%%%%%%%%%%%%%%q%%Q%qQq%%%%%
26794G7%%%Qq%%%Q%%%%%%qQ%%%%%%qQ%qQ%%%%%%%%%%%%%qQ%%%%%%%%%%%%%%%%%%%%%%%%%%
26779H5%%%%%%%%q%%Q%qQ%qQ%%%qQ%%%%%%%%%%%%qQ%qQ%%%%%%%%%%%%%%qQ%qQ%%%%%%%%%%
26763H5%qQ%%q%%QqQq%%%%%Qq%QqQ%%%%%%%qQ%%qQ%%%%%%%%qQqQ%%%%%%%%%%%%%%%%%%%%q
26747G7%QqQ%%%%q%Q%%%%%%%%%%%%%%%%%%%%%%%%%%%%%%%%%%%%%qQ%%%qQ%%%%%%qQ%%%%%%
26731H5qQ%%qQ%%qQ%%%%%q%%%Q%%%qQq%%%Q%qQq%Qq%Qq%%Qq%%Q%%%q%%%Q%q%Q%qQ%%%q%Q%
26715H5%%%q%%Q%%qQqQ%%%qQ%%%%%%%q%QqQ%%qQqQ%%q%QqQq%%%%%%Q%%q%%QqQ%%q%Qq%%Q%
26700H5qQ%q%%%%%%%Qq%%%%%%%%%Qq%%%%%%%%%%%%%%%%%%%%%%QqQqQ%qQqQ%%%%%%qQq%%%%
26684G7%QqQq%%%%%%%%%%%%%%%%%%%%%%%%QqQqQq%%%Q%qQ%%%%%%qQ%qQqQq%Qq%%%%%%Qq%%
26668G7%%%%%Qq%%%%%%Qq%Q%%%%%q%%Q%%%%%qQ%%q%%%QqQq%%%%%QqQq%%%QqQ%%q%%QqQq%%
26652G7%%%%%%%%%%%%Q%%%q%%%%%%Q%j6J6j6K4j6QqQQj6qQ%Qj6Q%%%%Qq%%%%%%%Q%q%Qq%%
26638G7%%%%%%%%%%%%%Q%%%%%%%%%%q%%%%%%%QqQq%Q%qQ%q%%%Q%q%%%%%%%Q%%q%QqQ%%%qQ
26622H5%qQ%%%%qQ%%%q%Qq%%%%%%%%%%Q%qQq%Qq%%%%Q%%%%q%%%QqQq%%%%%%%%%%%%%%Qq%%
26607G7%%%%%%%%%%%%%%%%%%%%%%%%%%%%%%%%%%%%%%%%%%%Qq%Q%qQq%%%%%%%Qq%%%%%%%%%
26591G7%%%QqQ%%%q%%QqQ%q%%%QqQ%q%%%%%%%%%%%%%%%%%%%%%%%%%%Q%%q%Q%%q%%%%%%%%%
26575G7%Q%q%%Q%%q%%Qq%%%%%%%%%%%%%%%%%%%%%%%%%Qq%Q%q%Qq%%Qq%%%%%%%%%%%%%%%%%
26559G7%%%%%%%%%%%%%%%%%%%%%%%%%%%%%%%%%%%%%%%%%%%%%%%%%%%%%%%%%%%%%%%%%%%%%
26543G7%%%%%QqQq%%%%%%%%%%Qq%%Qq%%%%%%%%%%%%%%%%%QqQ%q%%%%%%%%%%%%%%%%%%%%%%
26528G7qQQq%%%%%%%%%%%%Qq%%%%%%%Qq%%%%%%%%%%%%%%%%%%%%%%%%%%%%%%%%%%%%%%%%%%
26512G7%%%%%%%%%%%%%%%%%%%%%%%%%%%%%%%%%%%%%%%%%%%%Qq%%%QqQq%Qq%%%%%%%%%%%%%
26496G7%%%%%%%%%%%%%%%%%%%%%%%%%%%Qq%Qq%%%%Qq%%%%%%%%%%%%%%%%%%%%%%%%%%%%%%%
26480G7%%%%%%%%%%%%%%%%%%%%%%%%%%%%%%%%%%%%%%%%%%%q%QQq%%%qJ6q%%%%%%%%%%%%%%
26465G7%%%%%%%%%%%%%%%%%%%%%%%%%%%%%%%%%%%%%Qq%%%%%%%%%%%%%%%%%%%%%%%%%%%%%%
26449G7%%%%%%%%%%%%%%%%%%%%%%%%%%%%%%q%Q%%%%%%qQ%%%%%%%%%%%%%%%%%%%%%%%%%%%%
26433G7%%%%%%%%%%%%%%%%%%%%%%%%%%%%%%%%%%%%%%%%%%%%%%%%%%%%%%%%%%%%%%%%%%%%%
26417G7%%%%%%%%%%%qQ%%%%Qq%%QqQq%%%%q%%Qq%QqQ%%%%qQ%q%%Q%%%%%%%%%%%%%%%%%%%q
26401F9QqQ%%qQ%%%%%%%%%%%%%%%%%%%%%%%%%%%%%%%%%%%%%%%qQqQ%q%QqQ%%qQ%%%%%%%%%
26386G7%%%%%%%%%qQ%%%%%%%%%%%%%%%%%%%%%%%%%%%%%%%%%%%%%%%qQ%%%%%%%%%%%%%%%%%
26370G7%%%%%%%%%%%%%%%%%%%%%%%%%%%%%%%%%%%%%%%%%%%%%%%%%%%%%q%Q%%%%%%qQ%Qq%q
26354F9K4j6Qqq%J6q%%%%%Qq%%%%%qQ%%%%%%%%%%%%%%%%%%%%%%%%%%%%%%qQ%%%%%%%%%%%%
26339G7%%%qQ%%%%%%%%%%%%%%%%%%%%%%%%%%%%%%%%%%%%%%%%qQ%%%%%%%%%%%%q%Q%%%%%%%
26323G7%%qQ%%q%QqQqQ%%%%%%%%%%%%%%%%q%Q%%%qQ%%%%%q%%Q%%%%%%%%%%%%%q%Q%q%QqQ%
26307G7%%qQ%%%%%%%%%%%%%qQqQ%%%%%%%%%%qQqQ%qQ%%%qQ%%%%%%%%%%%%J6k4Q%qJ6q%%%%
26292G7%%%%%%%Qq%%%%%%%%%%%qQ%%qQ%%%%%%%%%%%%%%qQ%%%qQ%qQ%%%%%%%%%%%%%%%%%%%
26276G7%%%%%%%%%%%%%%%%%%qQqQ%q%%%QqQ%%%%qQqQ%%%%qQ%%%%%qQ%%%%%%%qQ%qQ%%%%%%
26261G7%%q%%%Q%%%%%%%%%%qQ%%qQqQ%%qQqQq%%%Q%%%%%%%%%%%%%%%%%%%%%%%%%%%%%qQ%%
26245G7q%QqQ%%%%%%%%%%%q%Q%%qQ%%%%%%%%%%%%%%%%q%Q%%q%%%Q%%qQ%%%%%%%%%%%%%%%%
26229G7%%%%%%%%%%%%%q%Q%q%Qq%%%%%%%%Q%q%%%Qq%Q%%qQ%%%%qQqQq%Q%%%qQqQ%q%QqQ%%
26213G7%%%%%%%%q%%Q%qQ%%%%%%%%%q%Q%%qQ%%%%%%%%%q%Qq%%%%%Q%%%%%%%%%%%%%q%Q%q%
26198F9Qq%Q%q%Q%%%q%%%%%%Qq%%Qq%%%%%%Q%qQ%%%%%%qQ%%%%%%%%%qQ%%qQq%%%Qq%Q%q%Q
26182G7q%%%%Qq%%Qq%QqQ%q%Qq%%%QqQ%qJ6j6Qq%Q%%q%Q%%%qQqQq%QqQ%%qQq%%%%Qq%%%%%
26166F9%%%%%Q%qQq%Q%%qQq%%%Q%q%%%Q%qQ%%%qQ%%q%Q%q%QqQ%%q%%%QqQ%qQqQ%%%%%%%q%
26151F9Q%qQ%%%qQ%%%%%%%%qQq%%%%Q%q%Q%%%%%qQq%%Q%%%q%%Q%%%%%%%%%%%q%%%%%%%Qq%
26135F9%%Q%q%%%%%QqQ%%%%qQ%%q%%%%%%%%%%%%%%Q%qQ%q%%Qq%Qq%%Qq%%Qq%%%%%qJ6qQ%q
26119F9Qq%Q%%%qQ%%qQ%qQq%QqQq%%%%%%%%%%%%%%%%%%%%%%Q%qQq%%Q%q%%%%%%%%%%%%%Qq
26103F9%%Qq%%Q%%%qQ%q%%%%%%%%%%%%%%%%%Q%q%%%%%%%%%%%Qq%%%%%%%%%%%%%%Qq%Q%%qQ
26088G7%%%%%%q%%%QqQq%%%%%%%%%%%%%%Qq%%%%%%%%Q%q%Qq%%%%%QqQ%q%Qq%%Qq%%%%%%%%
26072F9%%%%%Qq%Q%qQ%%q%%%%%%%%%%%%%%%%%%%Qq%%Qq%Qq%%Q%%%%q%%Qq%qJ6qQq%%%Qq%%
26056F9%%%%%%%%%%%%%%%%%%%Qq%Q%%%q%%%%%%%%%%%%%%%%%%%%%%Qq%Q%%q%QqQqQ%q%%%%%
26040F9%Qq%%%%%%%%Q%qQqQ%%%%q%%%%Qq%%%%%%Qq%%%%%%%Qq%%%%%%%%%%%%%%%%%Qq%%%%%
26025F9%%%%%%%%%%%%%%%%%%%%%%%%%%%%%%%%%%Q%%%%%q%%%%%%Q%%%%%%%%%%%%%%%%%%%%%
26009G7%%%%%q%%%%%%%%QqQq%Q%qQq%Q%qQ%%%qQQqqQqQ%%qQ%%q%Qq%%Qq%Q%%%qQ%%%q%%Qq
25993F9Q%%%%q%%%%%%%%%%%%%%%%%%Qq%%%%%Q%%q%Q%qQq%%%%%%Q%qQ%%q%%%%%%%%%%Q%qQ%
25977G7%qQq%%%%%%%%%%%%%%%%%%%%%%%%%%%qQ%%%%%%%%%%%%%%%%%%%%%%%Q%%q%%%%%%%%%
25962F9%%%%%%%%%%%%%%%%Q%q%%%%%%%%%%%%%%%%%%%%%%%%%%%%%%%%%QqQq%%%%%%%%%Qq%%
25946F9%%%%%%%%%%%%Qq%%%%Q%q%%Qq%%%%%%Qq%Qq%%%%%%Qq%%%%%%%%%%%%%%%%%%%%%%%%%
25930F9%%%%%%%%%%%%%%%%%%%%%%%%%%%%%%%%%%%%%%%%%%%QqQ%%%q%%%%%%%%Qq%%%%%%%Qq
25914F9%%%%%%%qQ%%%%%Q%qQq%%%%%%%Qq%%%%%%%%%%%%%%%%%%%%%%%%%%%%%%%%%%%%%%%%%
25898F9%%%%%%%%%%%%%%%%%%%%%%%%%%%%%%%%%%Qq%%%%%%%%%%%%%%%%%%QqqQqQ%%%%%QqQq
25883F9Qq%Qq%%%Qq%%%%%%%%%%%%%%%%%%%%%%%%%%%%%%%%%%%%%%%Qq%%%%%%%%%%%%%%%%%%
25867F9%%%%%%%%%qQ%%%%%%%%%Qq%%%Qq%%%%%%%%%%%%%%%%%%%Qq%%%%%%%%%%%%%%%%%%%%%
25851F9%%%%%%%%%%%%%%%%%%%%%%%%%%%%%%%%%%%%%%%%%%%%%%%%%%%%%%%%%%%%%%%Qq%%%%
25835F9%%%%%%%%%%%%%%%%%%%%%%%%%%%%%%%%%%%%%%qQ%%q%QQj6%Qq%Q%%%%%%%%%%%%%%%%
25820F9%%%%%%%%%%%%%%Qq%%%%%%%%%%%%%%%%%%%%%%%%%%%%%%%%%%%%%%%%%%%%%%%%%%%%%
25804F9%%%%%%%%%%%%%%qQ%%%%%%%%%%%qQ%%%%%%%%%%%%%%%%%%%%%%%%%%%%qQ%%%%%%%%%%
25788F9%%%%%%%%%%%%%%%%%%%%%%%%%%%%%%%%%%%%%%%%%%%%%%%%%%%%%%%%%%%%%%qQ%%%%%
25772F9%%%%%Qq%%%%%%%%q%QqQq%%Q%qQ%%%%%%%%%%%%%%%%%%%%%%%%%%%%%%%%%%%%%%%%%%
25756F9%%%%%%%%%%%%%%%%%%%%%%%%%%%%%%%%%%%%%%%%%%%%%%qQ%%%%%%%%%%%%%%%%%%%%%
25741F9%%%%%%%%qQ%%%%%%%%%%%Qq%%%%%%%%%%%%%%%%%%%%%qQ%%%%%%%%qQ%%%%%%%%%%%%q
25725F1Q%%%%%%qQ%%Qq%%%%%%QqqQ%%%%%%%%%%%qQqQ%%%qQ%%%%%qQ%%%%Qj6Q%%Qq%J6j6%%
25710F9Qj6%%J6k4L2j6QJ6J6m8Qj6J6Ql2L2q%qQ%q%QQqQq%Qq%Q%%%q%%%%%%%%%qQ%Qq%%%%
25697F9%%%%qQ%qQ%%%%%%qQ%%%%%%%%%%%%%%%%%%%qQ%%%%%%%Qq%%%%%%%%%%%%%%%%%%%%%%
25681F9%%%Qq%%%%qQqQ%%%%%%%qQ%%%%%%%%%%%%%%%%%%%%%%%%%%qQ%%%%%%%%%%%%%%%%%%%
25665F9%%%%%%q%Q%%%%%%%%%%%%%%%%%%%%%%%%%%%%%%%%%%%%%%%%%%%qQ%%%%%%%%%%%%%qQ
25649F9Qq%%%%%%%%%%%%%%%%qQ%%%%q%Q%%%%qQqQ%%%%%%%%%%%qQ%%%qQ%qQ%qQqQ%qQqQ%%%
25634F9%qQ%%%%%%qQ%%%%%%%%%%%%%%%%%%%%%%%qQ%%%%%%%qQ%qQ%%q%Q%%qQ%%%%%%%%%%%%
25618F9%%%%%%%%%%%%%%%%%%%%%%%%%%%%%%%%%%%%%%%%%%%%%%%%%%%%%q%%%Q%%%%%%%%%%%
25602F9%%%%%%%%%%qQ%%%%%%%%%%%qQ%%%q%Q%%%%%%%%%qQq%Q%qQq%%QqQ%qQq%Q%q%Q%qQ%q
25586F1%Q%%qQ%qQ%%%%qQq%Qq%Q%%%%%%%%%%%qQ%%%%%%%%%q%QqQ%%%%qQ%qQqQ%%%%%%%%%%
25570F9%%%%qQ%%%qQq%QqQq%Qq%%%%%%QqQ%qQ%%%%%qQ%%%%%%%%%%%%%%%%q%Q%qQ%%%%%%q%
25555F1Q%%%%%%%%%%%%%%%%%%%%%%%%%%%%%qQ%%%%%%%%%%%%%%%qQ%q%%%%Q%%q%Q%q%Q%%%%
25539F9%%%%%%%%%%%%%q%%%QqQ%qQ%%%%qQqQ%%%%q%%Q%%q%Q%%%%%%%%q%%Q%%qQ%qQ%%%qQ%
25523F9%%%%q%Q%%q%Q%q%Q%qQq%%Q%%%%%qQ%%%%q%%%%Qq%%%Q%%q%Qq%Qq%Q%%%qQ%%%qQ%%q
25507F1Qq%%%%%%Qq%%QqQ%qQ%%qQ%%%qQ%%%%%%%%%%%%%%qQ%%%%qQ%%%%%%%%%%%%%%%%qQ%q
25491F1QqQq%QqQ%%%%%%%qQqQ%%%%%qQq%%%%%%%Qq%%%Qq%Q%%q%%%%%%%%%%%Q%%%%%%%%%q%
25476F1%%Q%%q%QQq%qQq%qJ6%qQ%%%%%%qQ%%%%%%q%Q%qQ%%%qQ%q%%%%%%%%%%%%%Qq%Qq%%%
25460F1%%%Q%%%%%%%%%%%%%%%%%qQ%%q%%%%Q%q%Q%qQq%Q%q%%%%Qq%Qq%%Q%q%Q%qQ%%qQ%q%
25444F1Q%qQq%%Q%%%qQ%%%%%%%q%Q%%%%%%qQ%%%%q%%Q%%qQ%%q%%QqQq%%%Q%%%%%%%%%qQq%
25428F1Qq%%QqQ%qQq%%%QQqqQ%%qQq%%QqQq%qK4q%qJ6q%%%qJ6%k4K4%j6K4m0Ql2Q0l2%Qq%
25415F9J6l2J6QQq%qj6Q%Q%qQ%q%%Q%%%%%%%%%%qQ%%%%%qQ%qQq%%QqQq%Qq%%%Q%%q%Q%q%%
25400F1%%Q%%q%Q%qQqQ%%%%%%%%%%%%%q%%%%%Qq%%%%%%%QqQqQq%Q%qQq%%Q%%%qQ%q%%Q%%%
25385F9qQ%q%%%%%%QqQqQ%%%q%Q%q%Qq%%%%%%QqQq%%%%%%%%%%Qq%%%Q%qQ%q%QqQ%q%%Qq%%
25369F1Qq%%%%%%%%%%%%%%%%%%%%%%%%QqQ%q%Q%%qQ%%%%qQ%%q%Q%%%qj6M0m0J6%%%%%%%Qj6
25354E3Q%%%%%%Q%%%q%%Q%%%%qQqQqQ%%%%qQ%q%%%%%%%Q%%qQqQ%%%%qQq%%Qq%%%%%Q%%%%%
25338F9qQqQ%%%%q%%Qq%%%%%%%%%%%QqQ%%%%%%%%%%%%%qQ%q%Q%qQq%%Qq%Q%%%qQqQq%Qq%Q
25322F9%qQ%qQqQ%%%qQq%%Q%qQ%%qQ%%%%%%%%%%%%%%qQq%Q%%%%%%qQ%qQ%qQqQ%%%%%q%%Q%
25306F9%%%qQ%%%%%q%%Q%%qQ%%%qQ%qQ%%%q%Qq%%%Qq%QqQ%q%J6j6%Qq%%Q%%%%%%%%%%%%%q
25291F1QqQq%%Q%qQ%%%qQq%%QqQ%%%%%%%q%Qq%Qq%%%%%%%%Q%%qQ%%%qQ%%qQqQq%Q%qQq%%%
25275F1%%%Qq%%%%%%%%%Q%q%%%Qq%Q%%%%%%%qQqQqQq%%%%%%%%%%Qq%Q%q%%QqQq%%%%Qq%%%
25260F1%%Q%%qQ%%%%%q%%QqQqQq%%%%%%%%%%%%%%%%%%%%%%%%%%%%%%%%%Qq%%Q%q%%%%%%%%
25244F1%%%%%%%%%Qq%Q%%q%%qQQqQqQ%q%qQ%Q%qQq%%Qq%%Qq%QqQ%qQq%%Q%%q%%%%%%%%%%Q
25228F9qQqQ%q%Qq%%%%%%%%%%%%%%%%%%%%Q%%%q%Q%%%q%%%%%%%%%%%%%%%%Qq%%%%%%%%%Qq
25212F1QqQq%%QqQq%%%%QqQ%q%Q%q%%%%Q%%%%%%%%qQq%Q%q%%%%%%%%%%%%%%%%%%%%Q%qQq%
25196F1%%%%%%%%%Q%q%%%%%%%%%%%%%Qq%%%%%Qq%%%%%%%%%%%%%%%%%%%%Q%q%Qq%%%Qq%Q%q
25181F1%%%Qq%%Q%q%%%%%%%%%%%Q%%q%Qq%%%%%%%%%%%%%%%%%%%%%%%%%%Qq%%%%Qq%%%%%%%
25165F1%%%%%%%%%%Qq%%%%%%%%%%%%%%%Qq%%%%%%%%%%%%Qq%Q%%%%%qQ%qQqQ%%%q%%Qq%%Qq
25149F1%Qq%%%%%%%%%%%%%%%%%%%%%%%%%%%%%%%%%%%%%%%%%%%%%%%%%%%%%%%%%%%%%%%%%%
25133F1%%%%%%%%%%%%%%%%%%%%%%%%%%QqQ%%q%%%%Q%q%%%%%Q%%%q%Q%%qQ%%%%%%%q%%Qq%%
25117F1%%%%%%%%%%%%%%%%%%%%%%%%%%Qq%%QqQq%%%%%%%%%%%%%%%%%%%%Qq%%%%%%%%%%%%%
25102F1%%%%%%%%%%%%%%%%%Qq%%%%%%%%%%%%%%%%%%%qQ%%%%%%%%Qq%%%%%%%%%%%%%%%%%%%
25086F1%%%%%%%%%%%%%%%%%%%%%%%%%%%%%%%%%%%%%%Q%%q%%%%%%%%%%%%%%%%%%%%%%%%%%%
25070F1%%%%%%%%%%%%%%Qq%%%%qQ%%%%%%%%%%%QqQq%%%%%%%%%%%%Q%q%%%%%%%%%%%%%%%%%
25054F1%%%%%%%%%%%%%%%%%%%%Qq%%%%%Qq%%%%%%%%%%%%%Qq%Q%%qQ%%qQ%%%q%%%%%%%%%%%
25038F1Qq%%%%%%%%%%%%%%%Q%qQq%%%%%%%%%%%%%%%%%%%%%%%%%%%%%Q%q%%Qq%%%%%%%%%%%
25023F1%%%%%%%%%%%%%%%%%%%%%%%%%%%%%Qq%%%%%%%%%%%%%%%%%%%%%%%%%%%%%%%%%Qq%%Q
25007F9j6QQqQqQ%%q%%Q%q%Q%qQ%q%Q%q%Qq%%%%%%%%Qq%Qq%%%%%%%%%%%%%%%%%%%%%%%%%%
24991F1%%%%%%%%%%%%%%%%%%%%%%%%%%%%%%%%%%%%%%%%%%%%%%%%%%%%%%%%%%%%%%%%%%%%%
24976F1%%%%%%%qQ%%%%%%%%%%%%%%%%%%%%%%%Qq%%%%%%%%%%%%%%%%%%%%%%%%%%%%%%%%%%%
24960F1%%%%%%%%%%%%%%%%%%%%%%%%%%%%%%%%%%%%qQ%%%%qQ%Qq%q%J6qQqqJ6%q%qQ%%Qq%%
24944F1%%%%%%%qQ%%%%%%%%qQ%%%%%Q%q%Qq%%%%%%%%%%%%%%%%%%%%%%%%%%%%%%%%%%%%%%%
24929F1%%%%%%%%%%%%%%%%%%%%%%%%%%%%%%%%%%%%%%%%%%%%%%%%qQQ%q%%%Qq%%%%%%%%%%%
24913F1%%%%%%%%%%%%%%%%%%%%%%%%%%%%%%%%%%%%%%%%%%%%%%%%%%%%%%%%%%%%%%%%%%%%Q
24897F9q%%%%%%%%%%%%%%%%%qQ%%%%%%%%%%%%%QqQ%j6J6%q%Q%%q%Qq%%Qq%%%%%%%%%%%%%%
24882F1%%%%%%%%%%%%%%%%%%%%%%%%%%%%%%%%%%%Qq%%%%%%%%%%%%%%%%%%%%%%%%%%%%%%%%
24866F1%%qQ%%%%%%%%%%%%%%%%%%%%%%%%%%%%%%%%%Qq%%%%%%%%%%%%%%%%%%%%%%%%%%%%%%
24850F1%%%%%%%%%Qq%Qq%%%%%%%%%%%%%%%%%%%%%%%%%%%%%%%%%%%%%%%%%%%%%%%%%%%%%%%
24834F1%%%%%%%%%%%%%%%%%qQ%%%qJ6j6J6q%%qQ%%%%%%%%%%%%%%%%%%%%%%%%%%%%%%%%%%%
24819F1%%%%%%%%%%%%%%%%%qQ%%%%%%%%%%%%%%%%%%%%%%%%%%%%%%%%%%%%%%%%%%%%%%%%%%
24803F1%%%%%%%%%%%%%%%%%%%%%%%%%%%%%%%%%%%%%%%%%%%%%%%%qQ%%%%%%%%%%%%%%%%%%%
24788F1%%%%%%%%%%%%%%%%%%%%%%%%%%%%%%%%%%%%%%%%%%%%%%%%%%%%%%%%%%%%%%%%%%%%%
24772F1%%%Qq%Q%q%J6k4Qj6QQ%%%qQqQ%%%%%%%%%qQ%%%%%%%%%%%%%%%%%%%%%%%%%%%%%%%%
24757F1%%%%%%%%%%%%%%%%%%%%%%%%%%%%%%%%%%%%%%%%%%%%%%%%qQ%%%%%%%%%%%%%%%%%%q
24741E3Q%%%Qq%%%%%%%%%%%%%%%%%%%%%%%%%%%%%%%%%qQ%%%%qQ%%qQ%%%%%%%%%%%%%%%%%%
24725F1%%%%%%%%%%%%%%%%%%%%%%%%%%%%%%%%%%%%%%%%%%Qq%%qQ%q%QqqQ%J6q%%%%%%%%%%
24710F1%%%%%%%%%%%%%%%%%%%%%%%%%%%%%%%%%%%%%%%%%%%%%%%%%%%%%%%%%%%%%%%%%%%%%
24694F1%%%%%%%%%%%%%%%%%%%%%%%%%%%%%%%%%%%%%%%%%%%%%%%%%%%%q%Qq%%%Q%%%%%%%%%
24678F1%%%%%%%%%%%%%%%%%%%%%%%%%qQ%qQ%qQqQ%%%%qQ%qQqQ%%%%%%%%%%%%%%%%%%%%%%%
24662F1%%%%%%%%%%%%%%%qQ%%qQ%%%%%%%%%%%%%qQqQqQ%q%Q%%%%%%%%qQ%%%%%%%%%%%%%%%
24646F1%%%%%%%%%%%%%%qQ%%%%qQq%Qq%QqQ%%qQ%%%%qQ%%%%q%%Q%%%%%%%%%%%%%%%%%%%%%
24631F1%%%qQ%%%%%%%%%%%%%%%qQ%%%%%%%%%%%%%%%%%%%%%%%%%%%%%%%%%%%%%%%%%%%%%%%
24615F1%%%%%%%%%%%%%%%%qQ%%%%%%%%%%%%%%%%%%%%%%%%%%qQ%%%%%%%%%%%%%%%%%%%%%%%
24599F1%%%%%%%%%%%%Q%j6Q%%qQq%Q%Qq%%%%%%%%%%%%%%%%%%%%%%%%%%%%%%%%%%%%%%%%%%
24583F1%%%%%qQ%%%%%%q%%QqQ%q%%%%Q%qQ%%%%%%%%%%%%%%qQ%%%%%%%q%%%Q%%qQq%%Q%qQ%
24568F1%%qQ%%qQ%Qj6Q%%%%%qQ%%%%%%%%%%%%%%%%%%q%Qq%Q%qQ%%%%%%%%%%%%%%%%%%%%%%
24552F1%qQ%%%%%%%%%%%%%%%%%%%%%%%%%%%%%%%%%qQ%%%%%%%q%QqQ%%%%%%%%%%q%Q%qQ%q%
24536E3%Q%qQq%%%Q%%%qQ%%qQ%qQ%%%%%%%%%%%%%%%%%%%%%%%qQ%%%%%%%%%%%%%%%%%%%%%%
24520F1%%%%%%%%%%%%qQ%%%%%%%%%%%%%%%%%%%%%%%%%%%%qQ%qQ%%%%q%QqQ%qQ%%qQ%q%QqQ
24505F1qQqQ%%%%%%%%%%%%%%%qQqQ%%q%%%%%%Q%q%%Qq%QqQq%%%Q%%%%qQ%%%%%%%%%%%%%%%
24489F1%%%%%%%%qQ%%%%%%%%%%%%%%%%%%%%%%%%%%%%%qQQj6%%%J6j6J6j6Qq%Q%qQ%%%%%%%
24474F1%%%%%%%%%%%%%%%%%%%%%%%%%%Qq%%%%%%%%%%%%%%%%%%qQq%Qq%Q%%%q%Q%qQ%%%%%%
24458F1%%%%%%%%%%%%%%%qQq%Q%%%%%%%%%%%%%%%%%%%%q%Q%%q%Q%qQ%%%%%%%%%%%%%%%%%%
24443F1%%%%%%%%%%%%%%%qQ%%q%%%Q%%%%%%%%%%%%qQqQ%%%%%%%%%%%%%%%%%%%%%%qQ%%qQq
24427E3Q%%%%%%%%%%%%%%%%%%%%%%%%Qq%%qQj6J6Q%%%qQ%q%%%%%%qQ%%%%%%qQq%Q%%%%%%%
24412F1%qQ%%%%%%%%%%%%%%%%%%%%%%q%%Qq%%%Q%%%%%%%%%%%%%%%%%%%%%%%%%%qQ%%qQ%%%
24396F1%%%%%%%%%%%%%%%%%%%%%%%qQq%%Q%qQ%%%%%%%%%%qQ%qQ%%%%%%%%%q%%%Qq%%%Qq%Q
24380F1q%%%%%%Qq%Qq%%Qq%Qq%%%%Q%%%%%%%%%%%%%%%%%qQ%%%%%%%%qQ%%qQ%%%%%%%%%%%%
24364F1%%%%%%%%%%qQ%%q%%Q%QqqQqQ%%%%%%%%%%%%%%%%%%%%%%%%%%%%%%%%%%%%qQqQ%%%%
24348F1%%%q%%%%%%%%%%QqQqQqQq%Qq%%%Qq%%Qq%%%%%%%QqQ%%%%%%%%%%%%%%%%qQ%q%Q%qQ
24333F1%%%%%%qQ%%qQ%qQ%%%%%%%%%%%%%%%%%%%%%%%%%qQ%%%%%%%%%%%%%%%%%qQ%%%%qQqQ
24317F1qQqQq%%Q%%%%%qQ%%q%Q%%%%%q%Q%q%%Qq%QqQq%Qq%%QqQ%%%%%%%%%qQ%qQq%Q%q%%%
24301E3Q%j6Q%%%Q%%qQ%q%Q%q%%%%%Qq%%%Q%qQ%qQ%%%%%%%%%%%%%%%%q%Q%%%q%%Q%q%%QqQ
24285F1q%QqQqQq%Q%qQ%%%%%%%%%%%%%%%%q%%%%%%%%%%QqQq%Qq%%Q%q%%Q%%%%%%q%Qq%%Qq
24270E3Q%%%%%%qQ%%q%Qq%Q%q%Q%%%%qQqQ%%%%%%%%%%%%%%%%%%%%%%%%%%%%%%%%%%%qQ%%%
24254F1%%%%%%q%%%Qq%%QqQqQ%%%%%%%%%qQ%qQ%%%%%%%qQ%%%%%%Qq%%Qq%%%%%qQ%%%%%%%%
24238F1%%%%q%Q%%q%%%%%Qq%%Q%%%%%%%%qQ%%%%%%%%%%%%%%%%%%qQqQ%%%%%%%%%%%qQ%%%%
24222F1qQ%%%%%%%%%%%%%%%qQqQ%%%%%%qQ%q%Qq%%%%%Q%%%%%%%%%%%%qQ%%qQq%QqQqQq%%Q
24206F1qQq%Qq%%Qq%%Qq%Q%qQ%%%%%%%qQ%%%qQqQ%%%%%%qQ%%%%%%%%%%%%%%%%%%%%%%%%%%
24191F1%q%%%%Q%%%%%%%%%%%%qQ%%%%qQq%Q%Qq%%qQ%%%%%%%%%%%%%%%%%%%%%qQ%%%%%%%%%
24175F1%%%qQ%%%q%Q%%%qQ%qQq%%%%%%%%%%%%%%%%%Qq%Q%qQqQqQ%%q%Q%%%%%qQ%%%%%%%%q
24159E3%%%%Qq%QqQ%qQ%%%%%%%%%%%qQ%%%%%%%%%%%%%%%%%%q%Q%%%%%%%%%%qQ%%qQ%%%%%%
24143F1%qQ%%%%%%%qQqQ%%%%q%%%Qq%%QqQ%%%%%%%%%%%%%%qQ%%%qQ%qQ%qQ%%%%%%%%%%%%%
24128F1%qQ%%%%%%%%%%qQq%Qq%Q%%%%%%%%%%%%%%%%%%%%%%%%%%%%%%%%%%q%QqQq%Q%q%%%%
24112E3Qq%%Qq%%%%%%Q%%%%q%Q%%qQ%%%%%%%%%%%%%%%%%%%%%qQ%%%%%qQ%q%%Q%%qQ%%%%%q
24096E3Qq%Qq%Q%qQ%qQqQq%%%%QqQ%q%%Qq%%%%%%%%%Qq%%%%%%%%%%%Q%%%%%q%Q%q%QqQqQq
24080E3Q%%%%%q%%%Qq%Qq%%%%%Qq%%%%Q%%qQqQ%%qQ%%%%qQ%%%qQ%qQq%QqqK4j6Q%q%Q%%qQ
24065F1%%%qQ%%%%%%qQ%%q%%%%%%Q%qQq%%%%Qq%Q%q%%Qq%Qq%%%%%%%%Qq%%%%%QqQqQ%%qQq
24049E3%%%Qq%Qq%%%Q%q%%Qq%%Qq%%%%%%%%%%%Q%qQ%%%%q%%Q%%%%%qQ%qQ%qQqQ%%%%%%%%%
24033F1q%%%%%QqQqQ%%%qQ%%%qQ%qQ%qQ%%%%qQq%Q%q%Q%%q%Qq%%Q%q%Qq%%%%%%%%%Qq%%Q%
24017F1%qQ%%%%%%q%Q%%qQ%q%%Q%qQqQ%%q%%qJ6%j6Q%Qq%%%%QqQ%qQq%%%%%%%%%%%%Qq%Qq
24002E3Q%qQ%%%%%%%%%%%%%%%%%%%%%%qQ%%%%%qQ%%%%%%%%qQ%%%%%%%%%%%%%%%%%qQ%%%qQ
23986F1%q%Qq%QqQ%qQ%%q%Qq%%Q%%%%%%qQ%qQ%%%qQq%%%%%%Qq%Q%qQ%q%Q%%%%qQ%%qQ%qQ%
23970F1qQ%qQq%Q%%%%%%%%%%%%%q%QqQ%%%qQ%qQ%q%%%%%Q%%%qQq%%%%%%%%Qq%Qq%%%%%%Qq
23955E3%Q%q%Q%%%%%qQ%q%%%q%QQqQ%%%q%QqQq%Q%%qQq%Qq%Q%%%qQ%%%%qQ%%%%qQ%q%Qq%Q
23939F1%%q%Qq%%%%%%%%%%%QqQqQqQ%%%q%Qq%%%%%%%%%%%Qq%%%%%%%%%%%%%%%%%%%%Q%q%%
23923E3%%%%%%%Qq%%Q%q%%Q%%%%%%%%%%%qQ%%%%qQqQ%q%Q%%%%qQ%%%%%%%%%%%%%%%%%%%%%
23907F1%%%%q%QqQ%qQqQ%%%%%%%%q%%%Q%q%Qq%Q%qQq%%QqQ%%%%%qQ%%%%%qQ%qQq%Qq%%%Q%
23892F1%qQ%%%%%%q%%%%%%%QqQ%q%Q%%%%q%QqQ%qQ%q%%Qq%%Qq%Q%%%qQ%%%%qQ%%qQq%%Q%%
23876F1%%%%%q%%Q%%%qQ%%qQq%QqQ%q%%%%%%%%%%%QqQqQq%QqQqQqQ%%%%%qQ%%%%%%qQ%%qQ
23860F1%%qQ%%%%%%%%%%%%%%%%%%%%%%%%%%%%%%%%%%%%%%%%%%%%%%%%q%Qq%%Q%qQqQqQ%qQ
23844F1%%q%%Q%%%%q%Q%%%qQ%%qQ%%%%%%%%%qQq%QqQ%%q%QqQq%Q%%%j6J6%qQQqj6J6%qQ%%
23829F1qQ%qQ%%qQ%%%%%%%q%Q%%%%%%q%%%Qq%%%%%%Q%qQ%qQqQqQqQ%%q%%%%Q%%%%%%%qQq%
23813E3%%Q%%qQ%%q%%%%%QqQ%%%%%%%%%%%%qQ%%qQ%qQ%%%qQ%qQq%QqQ%%qQ%qQ%qQ%%%%%%%
23798F1%%%%%%%%%%qQ%%qQ%%qQqQ%%%qQ%q%Qq%%%QqQ%%%%q%Qq%%Q%%%q%%Q%%%q%%%Q%%%%q
23782E3%QqQqQqQ%q%Q%%q%%%%%%%QqQqQqQq%%%QQq%%qQqQ%%q%%%%%Q%qQ%%%qQ%%q%Q%qQq%
23766E3%%%Qq%Qq%Q%q%Q%%%%%%%%%%%%%%%%q%Qq%%Qq%%%%%%Qq%Q%q%Qq%%%%%Q%q%%%%%%Qq
23750E3QqQ%q%%%%%%%%%%Q%q%%QqQ%q%Qq%%%%%%%%%%%%%%Q%q%%%Qq%Q%qQ%%qQqQq%%Q%q%%
23735E3%%%%%%%%%%%%%%%%%%%%%%%%%%%%%%%%%%%%%%%%%%%%%%%%%Qq%%%%%%%%%%%%%%%%%%
23719E3%%%QqQ%%qQ%%%%%%qQ%q%%Qq%%%%QqQ%qQ%%%%%%%qQq%QqQ%qQq%%%%%%Qq%Q%%%%%%%
23703F1%%%%%%%%%qQ%qQqQq%QqQ%qQ%q%Q%q%%%%%%%%%%%%%%%Qq%%%%%%%Q%q%Q%%%q%%%%Qq
23687E3%Qq%%%%%%%%Qq%%%%%%%%%Q%%%qQ%qQqQ%%%qQ%%%%q%QqQ%q%Q%qQ%%qQ%%%%%qQ%%%q
23671E3%%%Q%qQ%qQ%q%QqQqQ%q%%%%%%%%%%%%%%%%%Q%%qQ%q%%%Q%qQ%%%%%qQqQ%%%q%%Qq%
23656E3%Q%%%%%%%%%%%%%%%%qQ%%q%%Qq%%%%%%%%%%%%%%%%Q%qQq%Q%q%%%Qq%Qq%%%%%%%%%
23640E3%%Qq%Q%q%QqQqQ%%%%%%%%%qQq%%%%%%%%%%%Q%%qQq%%%%Qq%Q%q%%Q%q%QqQq%Qq%%%
23624E3Q%%qQ%%q%%Q%q%%QqQ%qQ%%%%%%%%%%q%QqQqQq%%QqQqQ%%%%%qQ%qQ%qQ%qQq%QqQ%q
23608E3QqQ%q%%Q%%q%%%%%%%%%%%%%%%%Qq%%%%Qq%Q%%%j6QQq%%%Q%qQ%%qQ%q%%%%%%%%%%%
23593E3%%%%%%%%%Q%q%%%%%%Qq%%%Q%%%%%%%%%%%%%qQ%%%%qQ%qQ%%%%q%%%%Q%q%Q%%%%%qQ
23577F1%%%%%%q%%%%Qq%Q%qQ%%q%%%Q%qQq%%Q%%%%qQ%q%QqQ%q%%Qq%%%%%%%%%%%QqQqQ%q%
23561E3%%%%%%%%%%%%%%%Qq%%%%Q%%%%qQq%QqQ%%%q%Qq%Q%q%%%%%QqQ%%%q%%QqQqQ%%qQ%q
23545E3%%Qq%%%%Qq%%J6j6%J6%Qk4Q%%Qq%qQ%q%Q%q%Q%%qQq%%Qq%%%Q%%%q%%%%%%%%%%Qq%
23530E3Q%q%%%%%%%%%%%%%%QqQq%%%%%Qq%%%%%%%QqQ%q%%%%%QqQqQ%%q%Qq%%%%%%%%%%Qq%
23515E3QqQqQ%%%%%%%qQ%%qQ%%%%%%%%%%q%%%%%%%%%%%%%%%%%%%%%Qq%Q%qQqQ%q%Qq%%%%%
23499E3%%Q%qQq%%%%%%%%Q%q%Qq%%%%Qq%Q%%%q%%Qq%%Qq%%%Q%qQ%q%%%Qq%%%%%%J6j6%QqQ
23483F1%J6qj6J6Qj6QQl2QJ6j6Q%j6Q%J6j6Q%j6J6%qQ%q%QqQq%Qq%%%%%%QqQqQq%Qq%Qq%%
23470E3%QqQq%%%Qq%%Qq%%Q%%q%Qq%Q%q%%%%%%Qq%Qq%%%QqQq%%Q%%q%QqQqQq%%QqQqQ%%%%
23455F1qQ%qQq%Q%%qQq%%%Qq%%%%%%Q%q%%%Q%q%Qq%Qq%%Qq%%%%%%%%%%%%%%%%Qq%%%%%%%%
23439E3%Q%qQ%%qQ%qQ%%%%q%Qq%%%%QqQ%qQq%Qq%%Qq%QqQ%%%q%%Qq%%%%Qq%%%QqQqQqQ%%%
23423F1%q%%QqQ%%%%%%%%%%%qQ%qQqQqQ%%qQ%%%%%%%%%%q%%QqQqQ%qQ%qQq%%QqQqQqQ%%%%
23407F1q%%%%%%%%%%QqQq%%Q%%%qQq%%Q%q%%%%%%%%Qq%%%%%%%%%%%%%%%%%%%%%%%qQ%%%%%
23391E3%%%%%%%%Qq%%%Q%q%%%Qq%%%%%%%%%%%%%Q%qQ%q%%%%Qq%Qq%%Qq%Q%%q%%%%Q%%q%Q%
23376F1%%qQq%Qq%%%%%%%%%%%Qq%%%Q%qQqQqQ%q%QqQ%%%q%%%%%QqQ%%Qqq%%%J6qqQqQq%%%
23360E3%%%%%%%%%%%%QqQqQq%%%%Q%q%%%Q%%%qQqQqQ%%q%%Q%qQqQ%q%%Q%%%q%Qq%QqQq%%%
23344E3%%%%%%%%Qq%%%%%%Q%qQq%%%%%%%%Q%qQ%%%q%%%%Qq%%%%%%%%%%Qq%%%%%%%%%%%%%%
23328E3%%%Qq%%%%%%%%%%%%%%%%Qq%QqQq%Q%%%%q%%%%%%%%%%%Q%%%%%%%%%%%%%%%q%%%%%%
23313E3%%%%Q%qQq%%%%%%%%%%%%Qq%%Qq%Q%%q%%%%%Qq%%%%%%Qq%%%%%%%%%%%%Qq%Q%qQ%%%
23297F1qQ%%%%%%%%%%%%%%qQqQ%%qQ%%qQ%q%%%Q%%q%Q%qQ%q%Q%%qQ%%%%%%%%%%%%%%%%%%%
23281F1%%%%%%%%qQ%q%Q%%%%q%%QqQqQ%qQ%%%%qQq%Qq%Q%%%qQ%q%%%%%%%%%Qq%%%%%%%Qq%
23265E3Q%%q%%%Q%%%qQ%%q%%Qq%%%%%%Qq%%%%%%Qq%%Q%q%Qq%Q%qQ%qQq%%%Q%%%%q%%Qq%Q%
23250F1q%Q%%%%%%q%Q%q%%%qJ6q%Q%%qQ%%%%%%qQqQqQ%qQqQ%%%%qQ%%qQ%%%%qQ%qQ%%q%%Q
23234F1qQ%%%%qQ%%%q%Q%%%%qQ%q%%%%%%%%Qq%QqQq%%%QqQ%q%%%Qq%Q%qQ%%qQqQ%q%Qq%Q%
23218F1q%%%%Qq%%%%%%%%%%%%%%%%%%Qq%%%Q%%%q%%%%%%%%%%%%QqQ%%%qQ%%%qQqQ%q%QqQq
23202E3%Q%%q%%Q%q%%%%%%Q%q%%%QqQ%%q%%%%%%%%%%%%%Qq%%Q%qQ%qQ%%%qQ%q%%%%%%%Q%%
23187F1qQq%%%%%%Qq%Qq%QqQ%%q%%%Q%q%%%%%%%%%%%%%%%%Q%%q%%%QqQq%Q%q%%%%Qq%Qq%%
23171E3%%%%%%%%%%%%%%%%%%%%%%%%Q%q%%%%%%%%%Q%%%%%%%%qQ%q%%%Qq%%Q%%qQ%%%%%%%%
23155F1%%%qQq%Qq%QqQ%%q%Qq%%%%%QqQ%q%Q%%%%qQ%%%%%%%%%%%%qQqQq%%%%%%%Qq%%%%%Q
23139F1q%%%%%%%%%%%QqQq%%%%%%%%Qq%%%%Q%%q%Q%qQ%%qQq%qQQqQ%qQq%%%%%%QqQqQ%qQq
23123E3%%%%%%%Qq%%%%%%%%%%%%%%%Qq%%%%%%QqQ%q%%%%%%%Q%%q%%Q%qQ%q%%QqQ%%%%q%Qq
23108E3%%Qq%%%%%%%%%%%%%%%%%%%%%%%%%%%%%Qq%%%Q%q%%%%QqQq%%%%%%%%%%%%%%%%%%Qq
23092E3%%%%%%%%%%%Qq%%%%%%%%%%%%%QqQ%q%Q%%%q%%%%Qq%%%%QqQ%qQq%Q%%qQ%%q%%QqQ%
23076F1qQqQ%q%%%%%%%Qq%%%%Q%q%Qq%%%%QqQ%q%Q%%%%q%Q%qQ%%q%%%%%%Q%q%%%%%%%%%%%
23060E3%%%Qq%%Qq%%%%%%%%%%%%%%%Q%q%%Qq%%%%%%%%%Q%q%%%QqQqQqQq%Qq%Qq%%%%Qq%%%
23044E3Qq%Qq%Q%qQqQqQ%q%QqQ%%qQqQ%q%%%%%Qq%%Q%%%%%%%%%%%%%%%%%qQ%%%%%%%%q%Qq
23029E3%Q%%qQ%qQqQ%%%%%%q%%%%%%%%%%%%%%%%%%%%%%Qq%%%%Qq%%%Qq%%%%%%Qq%%%Q%q%Q
23013F1q%J6qq%%%qQ%qQ%%%Q%qQ%%%%%%%%%qQ%%%qQqQ%%%%%%%%%%%q%Qq%%Qq%%%%Qq%%%%%
22997E3Q%%qQqQqQ%q%%%%%QqQ%%%qQ%qQq%%%Qq%%%%%%%%%%%%Qq%%%%Q%qQq%%%Q%q%%%Qq%%
22981E3%%%Qq%%Qq%%Q%%%%%q%Q%qQqQq%%%%%%%%%%Q%%%%%%%%qQ%%q%%QqQqQq%%%%%%%%%%%
22966E3%%%%%%%%%%%%%%Qq%QqQqQ%q%Q%qQq%Q%%%%%qQ%%%qQ%%%qQ%%%qQ%%qQ%q%%%%%%%%%
22950E3Qq%%%%%Q%qQ%%%%qQqQq%%%%%%%%QqQqQq%%%QqQ%%%qQ%%qQ%%%%qQqQq%Qq%%%QqQq%
22934E3%%Qq%%%%%%QqQ%%%%%%%%%qQq%%Qq%%%%%%Qq%%%%%%Q%q%%%%%%%%Qq%%%Q%qQqQ%q%%
22918E3%%%%%%Qq%%%%Qq%%%%%%%Qq%%%%%%Qq%%Qq%%%%%%%%%%%%%%%%%%%%%%Qq%%%%%%%%%%
22903E3%%%%%%Q%%qQq%Q%qQqQqQqQqQ%qQ%%j6QQ%qQ%Qj6%Qq%Q%qQq%%QqQ%%%%%%q%%%%%%%
22887E3%%%%%%%%%%%%%%Q%%q%Q%%%%%%%qQ%qQq%%%%%%%%%%%%%%%%%%%%%%QqQq%%%%%%%%%Q
22871F1qQqQqQ%%qQ%%%%qQ%%q%%Qq%%%%Q%%q%%%%%%%%%QqQ%q%%%%%%%%%%%%%%%%%%Qq%%%%
22856E3%%%%%%Qq%%%QqQqQqQ%%%qQq%%%%%%%%%%%Qq%Qq%QqQq%%%Q%%%%%%%%%%%%%%%q%Qq%
22840E3%%QqQq%Q%qQ%%q%%%%QqQ%qQ%%qQ%q%%%Qq%%%%Q%%%%%%%q%Q%%%%%%qQqQ%q%Qq%%Qq
22824E3Q%%qQqQq%Q%qQq%%Q%%q%%%Q%%%qQq%Q%q%Q%qQ%%%%qQqQ%%%%qQq%%Q%%q%%Q%%q%%Q
22808F1%%qQ%%%%%%%q%Qq%%Q%%%%%%%%%qQ%qQ%qQqQ%%%%%%%%%%%%qQ%%q%%%%%%%%%%%%%%Q
22792F1q%Qq%Q%qQ%qQ%q%%QqQq%%%%%%Qq%%%Qq%%%%%%%%%%%%%Qq%%%%%%%Qj6QqQ%%%Qq%%%
22777E3%%Q%qQqQqQq%%%%Qq%%%%%%%%%%%%%%%%%QqQ%%q%%%%%%%%%%%%%%%%%%%%%Q%q%Q%%%
22761F1%%%qQ%%q%%%%%Q%q%Qq%%%Qq%Qq%%%%%%%%%Qq%%%%%%%%%%%%QqQ%q%Q%%%%q%%%%%Qq
22745E3%%%%Q%%%%%%q%%%%%%%Qq%%%%%%%%Q%%%%%q%%%%QqQ%%qQ%%%%%%qQq%%%%%%%%%%%%%
22729E3QqQ%%%q%Qq%%%%QqQqQqQ%%%%%qQ%q%%%%%Qj6Q%Qq%Q%qQq%Q%q%QqQq%%%%%%%%%Q%%
22714F1%%q%QqQqQ%%%%%%%%%%qQ%q%%%%Q%%%q%%%%%%%%%%%%%%Qq%%%%%%%%%%%%%%Qq%%%%%
22698E3%Qq%%%%QqQq%QqQ%q%Qq%QqQ%%%%%%%%qQ%%%%%%%%q%Qq%QqQq%%Q%q%Qq%%Q%%qQ%q%
22682E3%%%%%%%%%%%%%QqQ%%q%Qq%%%%%%%%%%%%%%%%%%Qq%%Q%qQqQ%%%q%%Q%qQ%%%qQ%%%q
22667E3Q%qQ%%%%q%Q%%q%%Qq%Q%%q%Qq%%Qq%Q%%q%Q%%q%%%%%Qq%Qq%%%%%%%%QqQ%%q%%%%%
22651E3%%%QqQ%%%%%%%%qQqQ%%%%%%%%qQq%QqQ%qQq%Q%%%qQqQ%qQq%Q%%qQ%%%%%%qQ%%%%%
22635F1q%Q%%qQ%%q%%%Q%%q%%%%%Q%%qQq%Q%%%%%%qQ%%q%%Qq%%%%%%%%%%Qq%%Q%q%%%%%Qq
22619E3%Q%q%%%%%%%%Qq%%QqQq%%Qq%%Qq%%%%%%Q%q%Q%%qQqQ%qQ%qQ%qQq%%Q%qQ%qJ6k4K4
22604F9Qk4qJ6q%Q%j6QQq%%Qq%Qq%%%%%%QqQq%%%%%%%%%%%%%%%%Qq%QqQ%%%%%%%%%%qQ%%%
22589F1%%qQq%%%%%%%%Qq%%Qq%%Q%%%%%%%%qQqQqQ%%%%q%Q%qQ%q%Q%%qQq%%%%%%%%QqQ%qQ
22573F1%%q%Q%q%%Q%q%%%%Qq%%%Qq%%Qq%%%%%%%%%%%%Qq%%%%%%Qq%%%%%%%QqQqQ%q%Qq%%%
22557E3%%%%%%%%%%%%%%%%Qq%%Qq%%Q%%q%%%Q%%q%Q%%%%%%qQqQ%%qQ%%qQq%qJ6%%qQq%Q%%
22542F1%%%q%%QqQ%%q%Q%%qQ%%%%qQ%qQ%%q%%%%%%%%%QqQq%%%Qq%QqQ%qQ%qQqQqQqQ%%%%%
22526F1%q%Q%%qQ%%%%%%%%%%%qQ%%%%%%%q%Q%%qQ%%q%%QqQq%Q%%%%%%%qQ%%%%%%%%qQ%%qQ
22510F1%%qQ%%%%%%%%%%%%%%%%q%%Q%q%%QqQ%%%%q%QqQqQq%%%%Qq%Q%qQqQ%qQ%q%Qq%Q%%%
22494F1%%%%%%%%%%%qQ%%%%%q%%%%%%%%%%%%qQQq%Qq%%QqQqQqQq%Q%qQqQq%%%%%%Qq%%%%Q
22479F1q%Qq%%%%%%%%%%%%%%Qq%%Q%%qQ%q%%%Qq%%%%%%Q%%%q%Qq%Q%%%%%%qQqQ%%%%%%%%%
22463F1%%%qQq%%Q%q%%Qq%%Qq%%Qq%%Q%%%%qQ%%%%%q%%%%%%%%%%%%%%%%%%%%Qq%Q%%%%qQ%
22447F1%%%%%%q%Qq%%%%%Q%%qQqQq%Q%%q%Qq%%Q%%%%%%%%%%qQ%%%q%%Q%q%%%%%Qq%QqQqQ%
22431F1%q%%Q%q%%%%%%%Q%%%%%%qJ6q%%qqJ6q%%%%Q%%%q%Q%%%%%%%%%%%qQ%%%%%%qQ%q%%Q
22416F1q%%Qq%%QqQ%q%%%%%%%%%%QqQq%Qq%%%Q%q%%%%%Qq%QqQ%%%%qQqQ%%%%%%%%%qQ%qQ%
22400F1%%%%%%%%%qQ%%%%%q%Q%q%%%%Q%%%%q%%%%%%%%%%%%%%%%%QqQq%%Q%qQqQ%qQqQq%%Q
22384F1q%%%Q%%%q%%%%%%%%Q%q%%QqQ%%%%%%%%%%%qQ%qQqQ%%q%Q%%%%%%%qQqQ%%qQq%%%%%
22369E3%QqQqQ%q%%Q%%%%%%%%%%qQ%%qQ%qQ%%%%%%%%%%qQ%%%%%%%qQ%%%%qQq%%Q%qQ%qQq%
22353E3%%%%%%%%%%%%Q%%qQ%%q%Q%q%%%%%Qq%%Q%%qQ%%%%%%%%%q%Q%%%%%%q%%Q%%q%%%Q%%
22337F1%qQ%q%Q%%%qQqQ%qQq%%%%Qq%%%%%%%%Q%qQqQ%%qQ%q%%%%%%Q%q%Q%%qQ%%%%%qQqQ%
22321F1%%%%%%%%%%%q%%%Q%qQqQ%%%%%%%qQ%%%%%q%Q%%%%%%qQq%QQqqQq%%%%Q%%qQq%%Q%q
22305E3Qq%%Q%%%%%%%%%%%%%%%%%%%%%qQ%%%%%%q%%%%%%%%%%%%%%%%%%%Qq%%%%Qq%%%%Q%%
22290F1%%%%%%%%qQq%Q%%%%%%%%qQqQ%%%%%%%%%%%%qQ%%q%%%Q%q%Q%q%Q%%%%%%qQ%%%%%%%
22274F1%%qQ%%%%%qQ%qQ%%%qQ%%%%%%qQqQ%q%%%%QqQ%qQqQ%%%q%%Qq%%%%%Qq%%%Qq%%%Q%%
22258F1q%QqQ%%%%%%%%%qQqQ%q%Q%%%%q%%%%%Q%%qQ%%%qQ%%%q%%%QqQ%%%%%%%%%%%%%%%%%
22242F1%%%%%%%%%%%%%qQ%%%%%%%%%%%%%%qQq%%%Q%%%%%%%%%%%%%%%%%%%%%%%%%%%%%%q%Q
22226F1%%qQqQ%%qQqQ%%%%%%%%%%%q%QqQq%%%Qq%%Qq%Qq%%Q%qQ%%q%%%%Q%%%q%%Qq%Q%%q%
22211E3Qq%%%%%%%Q%qQqQ%%%%%%%%%qQ%%%qQ%qQ%%%%%%%%%%%%%%%%%%%%qQqQ%%%%%%%%%%q
22195E3Qq%%%%%qJ6%q%%%Q%%%q%Q%%%qQ%%%qQ%%q%%Qq%Qq%Q%%qQq%QqQ%%%%%%%%%q%%%Qq%
22179E3QqQq%Q%qQ%%%q%QqQ%%%%%%qQqQ%%%qQ%%%%%qQ%%%%%%%%%%%%%%%%%%%%%%%%%%%%%%
22163F1qQ%%qQqQqQ%qQ%%%%%%%%%%%%%%%%qQ%qQ%qQqQqQ%%%%%%q%QqQqQ%q%QqQ%%%%%%qQ%
22148F1%%%%%%%%%%%%%%%%%%%%%%%%%%%%%%%%%%%%%%%qQ%qQ%%%qQ%qQqQ%qQ%%q%%Qj6QQqQ
22132F1%%%%%%qQ%%%%%%%%%%%%%%%%%%%%qQ%qQ%%q%Qq%%Q%%q%Q%%%%%%%%%%qQ%%qQ%%%%%q
22116E3%%Q%%%%%%q%Q%%%%qQq%Q%qQ%qQ%%qQ%%%%%qQ%%%%%%%%%qQqQq%%%%%Qq%%%%%%%%%%
22101E3Q%%%%%%q%%Q%qQq%Q%q%%Q%%%%%%%%%%%%%%%q%QqQqQ%qQqQ%%qQ%%%%%%%%%%%%%%%%
22085F1%%%%qQ%%qQ%%qQq%%Qq%%QqQq%%QqQ%qQ%q%Q%%q%%J6j6%%%QQq%%%%%%%%%%%%%%%%%
22069F1%%%%%%%%%%%%%%%qQ%%%qQqQ%%%%qQqQ%qQ%%%qQ%%%%%%%%%%%%%%%%%%%%%%%%%%%%%
22054F1qQq%%%%%%%Qq%Q%%%%%%%%%%%%%%%q%%%Qq%Qq%Q%%qQ%%q%Q%%%qQqQ%%qQ%%%%%%%%%
22038F1%%%%%%%qQ%%%%qQ%%%%qQqQ%q%Q%%%%%%%%%%%%%%%%%%%%%%%%%%%%%%%%%%%%%%%%%%
22022F1qQ%%%%%%%%%%qQ%%%%qQQj6Q%Qq%%%%%%%%%%%%%%%q%%Q%q%QqQqQ%%%%%%%%%%%%%%%
22006F1%qQ%%qQ%qQq%%QqQ%qQq%%%%%Qq%Q%qQ%%%%%%%%%%%%%%%%%%%%%%%qQ%%%%%%%%%%%%
21991F1%%%%%q%%%%%Qq%Q%%%%qQ%%%%%%%%%%%%%%%%%%%%%%%%%%%%qQ%%%%%%%%%%q%%Q%q%Q
21975F1%%%%%%%q%Q%qQ%%%%%%%%%%%%%%%%%%%%qQ%%%q%Q%%qQ%%%%qQ%%%qQ%%%%q%%%%J6k4
21960D5J6%q%J6%j6j6%J6Q%l2QJ6%%Q%Q%%q%%%%%%%%%%%%%%%%qQ%%%%qQ%%%%%%%%%%%%%%%
21945F1%%%%%%%%%%%%%%%qQqQ%%%%qQ%%%%%%%qQ%qQq%Qq%Qq%Qq%Q%%%%%%%%%%%qQ%q%%QqQ
21930F1%%%%qQ%%%%%%qQ%%%qQ%%%%%%%%%%%%%%q%Q%%%%%%%%%%qQ%%%%%%%%%%%%%%%%%%%%%
21914F1%%%%%%%%%%%%%%%%%%%%qQ%%%%%q%Q%%%%%%%%%%%%%%%%%%%%%%%qQqQ%%%%%%Q%qQqQ
21898F9q%%%%%%%%%%%%%%%%%%%%%%%%%%%%%%%%%%%%%%%%%%%%%%%%qQ%%%%%%%%%%%%%%%%%%
21882F1%%%%%%%qQ%%%%%%%%%%%%%%%%%%%%%%%%%%%%%%%qQq%Q%%%%%%%%%%%%%%%%%%%%%%%%
21866F1%%%%q%%Q%%%%%%%%%%%q%%%%Q%%%%%%%%%%%%%%%%%%%%%%%%%%%%%%%%%%%%%%%%%%%%
21851F1%%%%%%%%%%%%%%%%%%%%%%%%qQ%%q%Q%q%%Q%%QqQqqQqQQq%%%%%%%%%%%%%%%%%%%%%
21835F1%qQqQ%qQ%%%%%%%%%%%%%%%%%%%%%%%%%%%%%%%%%%%%%%%%%%%%%%%%%%%%%%%%%%%%%
21819F1%%%%%%%%%%%%%%%%%%%%%%%%%%%%%%%%%%%%%%%%qQ%%%%%%%%%%%%%%qQqQqQ%%%%%%%
21803F1%%%%%%%%%%%%%%%%%%qQ%%%%%%%%%%%%%%%%%%%%%%%%%%%%%%%%%%%%%%%%%%%%%%%%%
21787F1%%%%%%%%%%%%qQ%%%%%Qq%%%%%%%Q%q%%%%%%%%%%%%%%%%%%%%%%%%%%%%%qQ%%%%%%%
21772F1%%%%%q%Qq%Q%%%%%%%%%%%%%%%%%%%%%%%%%%%%%%%%%%%%%%%%%%%%%%%%%%%%%%%qQ%
21756F1%%%%%%%%%%%%%%%%%%%%%%%%%%%%%qQ%%%%%%%%%%%%%%%%%%%%%%%%%%%%%%%%%%%%%%
21740F1%%%%%%%%%%%%%%%%%%%%%%%%%%%%%%%%%%%%%%%%%%%%%%%%%%%%%%%%%%%%%%%%%%qQ%
21724F1%%Qq%%QqQqqQ%%%qQ%%%%%%%%%%%%%%%qQ%%%%%%qQ%%%%%%%%%%%%qQqQ%%%qQ%%%%%%
21708F1%%%%%%%%%%%%%%%%%%%%%%%%%%%qQ%%%%%%%%%%%%%%%%%%%%%%%%%%%%%%%%%%%%%%%%
21693F1qQ%%%%%%%%%%Qq%%%%%%%%%%%%%%%%%%%qQ%%%%%%%%%%%%%%%%%%%%%%%%%%%%%Qq%%%
21677F1%%%%qQ%%%%%%%%%%%%%%qQ%qQ%QqqQ%%qQqQ%%qqK4j6QQQk4Qq%J6q%qJ6Qk4J6%qQqQ
21663F9%%j6Q%%%%%%qQ%%%%%Qj6Q%qQ%%%%%%%%%%%%%%%%%%%%%%Qq%%%%%%%%%%%%%%%%%%%%
21647F1%%%%%%%%%%%%%%%%%%%%%%%%%%%%%%%%%%%%%%%%%%%%%%qQqQq%QqQ%%%%%%%%%%%%%%
21632F1%%%%%%%%%%%%%%%%%%%%%%%%%%%%%%%%%%%%%%%%%%%%%%%%%%%%%%%%%%%%%%%%%%%%%
21616F1%%%%%%%%%%%%%%%%%%%%%%%%%%%%%%%%Qj6QQj6K4k4J6J6j6%q%%%%%Qq%%%%%%%%%%%
21602F1%%%%%%%Qq%%%%%%%%%%%%%%Qq%%%%%%%%%%%%%%%%%%%%%%%%%%%%%%%%%%%%%%%%%%%%
21586F1%%%%%%%%%%%%%%q%Q%%%%%%%%qQq%Q%%%%%%%%Qq%%%%%%%%%%%%%%%%%%%%%%%%%%%%%
21570F1%%%%%%%%%%%%%%%%%%%%%%%%%%%%%%%%%%%%%%%%%%%%%%%%%%%%%%%%%%%%%%%%%%%%%
21554F1%%%%%%%%%%%%%%%%%Q%j6%Q%%%%qQ%qQ%%Qq%%%%%%%%%%%%%%%%%%%%%%%%%%%%%%%%%
21539F1%%%%%%%%%%%%%%%%%%%%%%%Q%q%%%%%%%%%%%%%%%%%%%%%%%%%%%%%%%%%%%%%%%%%%%
21523F1%%%%%%%%%%%%%%%%%%%%%%%%%Qq%%%%%%%%%%%%%%%%%%%%%%%%%%%%%%%%%%%%%%%%%%
21507F1%%%%%%%%%%%%%%Qq%Qq%%%%%%%%%%%%%%%%%%%%%%Qq%Qq%%%%%%%%%%%%%%%%%qQ%%%%
21491F1Qq%Qq%qQq%QqQ%qJ6q%qJ6qQ%q%Qq%%%%Qq%%%%%%%%%%%%%%%%%%%%%%%%%%%%%%%%%%
21476F1%%%%%qQ%qQqQ%%%%%%%%%%%%%%%%%%%%%%%%%%%%%%%%%%%%%%%%%%%%Qq%%QqQ%%%%%q
21460F1Qq%%%%%%%%%%%%%%%%%%%%%%%%%%%%%%%%%%%%%%%%%%%%%%%%%%%%%%%%Qq%%%%%%%%%
21444F1Qq%%%Qq%%%%%%%%%%%%Qq%%%%%%%%%%%%%%%%%%%%%%%%%%%%%qJ6j6J6q%%%%%QqqJ6%
21429F9qQq%Qq%%%%%%%%%%%%%%%%%%%%%%%Qq%%%%%%%%%%%%%%Qq%%%%Qq%%%%%%%Q%%q%%%Q%
21414F9%%q%%%%%%%%%Qq%Qq%Q%qQq%%%%%%%%%%%%%%%%%%%%%%Q%q%%Q%q%%%Q%%q%Q%%%%q%Q
21398F9q%Q%%qQq%%%%%%%%%%%%%%%Qq%Q%%%%q%%%%%%Qq%%%%%%%%%%%%%%Q%%%%%%%%%q%%%%
21382F1%%%%%%%%%%%%%%%%%%%%%%%%%%%%%%%Q%q%Qq%%%%Q%qQQqqQq%%Q%%q%%%%%%%Qq%%%%
21366F1%%Qq%%%%%%%%Qq%%%Qq%QqQ%qQ%q%%Q%q%Q%qQ%q%%%%%%%%%%%%%%Qq%%%%%%Qq%%%%%
21350F1%%%%%%%%%%%%%%%%%%%%%%%%%%%%Q%q%%%%%%Qq%%%%%%%%%%%%%%%%%%%%%%Q%q%%%%%
21335F1%%%%%%%%%%%%%%%%%%%%%Q%q%%%%%%%%Q%q%Qq%Q%%%q%%%%%%%%%%%%%%%%%%%%%%%%%
21319F1%%%%%%%QqQ%qQq%%%Q%%q%%%%%Q%qQ%q%%Qq%%%%%%%Qq%%QqQq%Q%q%%Qq%%%%%%%%%%
21303F1%%%%%%%%%%%%%QqQ%%%%%%qQq%%%%%%QqQq%%%Qq%Q%%q%%%Q%q%Qq%%%%%%%%%%%%%%%
21287F1%%%%QqQq%Qq%%%%%%Qq%%%Qq%%%%%%%%%%%%%%%%%%%%Qq%%%%%Q%%%q%%%%%Qq%%%%%%
21272F1%Qq%%%%%QqQq%%%%%%Q%qQ%%%qQ%%qQq%Q%%%%qQ%%qQ%qQ%qQ%%%%%qQ%q%Q%qQ%q%Qq
21256F1QqQ%%q%QqQ%%q%%%%%%Qq%%QqQq%%QqQq%%%Qq%%%%%%%%%%%%%%%%%%%%%%Qq%%QqQ%q
21240F1QqQqQ%%%%%%qQqQqQq%%%%%Q%%%%%%%%%%%%%%qQq%%%%Qq%%%%%Qq%Qq%%%QqQq%%QqQ
21224F9%%%%%%%%%%qQqQqQ%%q%%QqQ%%%q%%%%%%Qq%%%%%Qq%Q%qQ%%q%%QqQq%Q%q%%%%%%%%
21208F1%%%%%%Qq%%%%%%%%%%%Q%%qQqQ%%%%qQq%%Q%%q%%%%QqJ6q%%qQ%q%%%Q%q%Qq%%Qq%Q
21193F9qQq%%%%%%%%%Qq%%%%%%%%%%%%%%%%%%%%Qq%%%%%%%%%%%%%%%%%%%Qq%%Q%qQq%%%%%
21177F1%%%%%%%%Qq%%%%%%%%%%%%%%%%%%%%%%%%%%%QqQqQqQqQq%Q%q%%%Qq%Q%%%%%%%%qQq
21161F1Qq%%%%Q%%%qQqQ%%%%%qQqQ%q%%%%%%%Qq%%%%Qq%%%%%Qq%%%Qq%QqQ%%%qQ%q%%%%%%
21145F1%QqQqQqQq%%Qq%%%%%QqQ%qQq%Q%qQ%qQqQ%%%%qQqQq%%%%%%%%%QqQ%%%q%Qq%Qq%%%
21130F1%QqQqQqQq%%%%%%Qq%%Q%%qQ%%%%%%qQq%Q%q%Qq%%Qq%%%%%%%%%%%%%%Q%q%%%%%%%%
21114F1%%%%Q%%%%q%%Qq%%Qq%%%%Q%%%q%Q%%%q%Qq%%QqQ%%%%%%%%%%q%%Q%%%%%%q%Q%%%%%
21098F9%%%%%%%%%%%%%%%%%%%%%%%%%%%q%Q%qQ%%%%%%%q%Q%qQ%%%%%%%%%%%%%%%%%%%%%%%
21082F9%%%%%%%%%q%Qq%%%QqQ%qQ%%%%%%%%%%%%%%%%%qQ%%%%%%%%%%%%%%%%%%%%%%%%%%%%
21066F9qQ%%%%%%%%%%%%%%%%%%%%%%%%%%%%%%%%%%%%%%qQ%%%%%q%Q%%qQ%q%%QqQqQq%%Qq%
21051F1%Qq%%%%QqQq%Q%qQq%Q%%%%%%%%%%%%%%%%%%%%%%%%%%%%%qQ%%%%%%%qQ%%%%%%%%qQ
21035F9%qQ%%%%%%%%%qQ%%%%%%%%%%qQqQqQ%%q%%%%%%%%%%%QqQq%%%%Q%%%%%qJ6q%%q%J6k4
21020E3%%Q%J6qqQ%%%%%%q%QqQ%%q%Q%%qQqQ%%%%%%%%%%%qQ%%%%%%%%%%qQ%%%%%%%%%%%%%
21004F9%%%%%%%%%%%%%%%%%%%%%%%%%%%%qQ%q%Q%q%Q%%%qQ%%qQ%%%%qQ%%%%%%%q%Q%%%qQ%
20988F9%%%%qQ%%%%%%%%%%%%%%%%%%%%%%%%%%%%%%%%%%%%%%%%%%%qQq%Q%%%%%%%%%%%%%%%
20972F9%%q%%Q%%%%%%%%%%%qQ%%%%%%%%%%%%qQ%%%%%QqQqQj6QQq%qQq%Qq%Q%%%%%%%%%%%%
20957F9%%%%%%%qQq%%%%Q%q%Qq%Q%%%%%%%%%%%%%%%%%%%%%%%%%%%%%%%%%%%%%%%%%%%%%%%
20941F9%%%%%%%%%%%%%%%%%%%%%%%%%%%%%qQ%%%%%Qq%%%%%%%%%%%%%%%%%%%%%%%q%Qq%QqQ
20925F9%%%%%%%%%%%%%%%%%%%%%%%%%%%%%%%%%%%%qQ%%%%%%%%%%%%%%%%%%%%%%%%%%%%%%%
20909F9%%%%%%%%%%%%%%%%Qq%qJ6q%q%J6q%%%%j6QQ%%qQ%q%Q%%%%%%%%%%%%%%%%%%%%%%%%
20894F9%%%%%%%%%%%%%%%%%%%%%%%%%%%%%%%%%%%%%%%%%%%%%%%%%%%%%%%%%%%%%%%%%%%%%
20879F9%%%%%%qQ%qQ%%qQ%%%%%%%%%%%%%%%%qQ%%%%qQ%%%%%%%%%%%%%%%%%%%%%%%%%%%qQ%
20863F9%%%%%%%%%%%%%%%%%%%%%%%%%%%%qQ%%%%q%Q%%%%%%%%%%%%%%%%%%%%%%%%%%%%qQ%%
20847F9Qq%qQ%%%%%%%%%%%%%Qq%%%%%%%%%%%%%%%%%%%%%%%%%%%%%%%%%%%%%%%%%%%%%%%q%
20831F1%%%Qq%%Q%q%QqQ%%%%%%%%%%%%%%%%%%%%%%%%%%%%%%%%%%%%%%%%%%%%%%%%%%%%%%%
20815F9%%%%%%%%%%%%%%%%%%%%%%%%%%%%%%%qQqQ%%%%%%%%%%%%%%%%%%%%%qQ%%%%%%%%%%%
20800F9%%%%%%%%%%%%%%%%%%%%%%%%%%%%%%%%%%%%%%%%%%%%%%%%%%%%qQ%%q%Q%qJ6%q%Qq%
20784F9%Qq%%%%%%%%%%%%%%%%%%%%%%%%%%%%%%%%%%%%%%%%%%%%%%%%%%%%%%%%%%%%Qq%%%%
20768F9%%Q%%%q%%Qq%%%%%%%%%%%%%%%%%%%%%%%%%%%%%%%%%%%%%%Qq%%%%%%%%%%%%%%Qq%%
20752F9Qq%%%%%Q%q%%%%%%%%%%%%%%%%%%%%%%%%%%%%%%%%%%%%%%%%%%%Qq%%%%%%%%%%%Qq%
20737F9%%%%%%%%%%%qQ%%%%%%%%%%%%Qq%%%J6j6%%%J6qq%QQk4QQj6Q%%%%%%%%Qq%%%%%%%%
20722F9%%%%%%%%%%Qq%%%%%%%%%%%%%%%%%%%%%%%%Qq%Qq%%%%%%%%%%%%%%%%%%%%%%%%QqQq
20706F9QqQq%%%%%%%%%%%%%%%%%%%%%%%%%%%%%%%%%%%Q%q%%%%Qq%%%%%%%%%%%%Qq%%%%%%%
20690F9%%Qq%%%%%%%%%%%%%%%%%%%%%%%%%%Qq%%%%%%%%%%%%%%%%%%%%%%%%%%%%%%%%%%%%%
20675F9%%%%%%%%%Q%q%qQ%%%%Q%j6J6j6Q%%QqQqqQQq%Qq%%%Qq%%%%%Qq%%%Qq%Qq%%%%Q%%%
20659G7%%%%%%%%%q%%%%Qq%Q%qQqQ%%%qQ%q%%%QqQ%%%%%%%%%q%Q%%%%%q%%%Q%q%%Qq%%%%%
20644F9%%QqQqQq%Q%qQ%qQ%qQq%%%%%Q%qQq%%%Qq%%%%%%%%%%%Qq%%%%%%%Qq%%%%%%%%%%%%
20628F9%%QqQ%q%%%%%%%%%%%%%%%%%%%%%%%%Qq%%%%%%%%%%%%%%%%%%%%%%%%%%%%%%%%%%%%
20612F9%%q%Q%%%qQqQ%%%%%%Q%%qQqQqQq%%%QqQq%%Qq%%%%%%QqQ%qQq%%%%%%%%%Qq%QqQ%q
20596F9Q%%%qQ%%%%q%QqQq%Qq%%%Q%qQqQ%qQ%%q%Qq%%%Qq%%%%%Q%%%q%Q%%qQ%%%%%qQ%q%%
20581F9%%%%%%%%%%%%Q%%q%Qq%Qq%%%%%%%%%%%QqQqQ%q%Q%%%%%%%%%%%%%%qQ%%q%Q%q%%%%
20565F9Qq%%Qq%%%%%%%%%QqQ%%%%%q%%Qq%%%%%%%Qq%%%Q%q%%Q%q%%QqQq%%qQ%qJ6%%j6Q%%
20549F9Qq%Q%%%qQ%%%q%%%%%%%%%%%Qq%%%Q%%%qQ%%q%Q%%q%Qq%%%Qq%%Q%qQ%%%%%qQ%%%%%
20534G7%qQ%%%%%%%%%%%qQ%%%%q%Q%q%%%%%%QqQqQqQ%%qQ%%%%%%q%%Q%q%%Qq%Qq%%%%%%%%
20518F9%%%%%%%%%%%%%%Qq%%%%%%%%%%%%%Q%q%Q%%%%%%%%%%q%%QqQq%%%%%%%%%Qq%%%%Qq%
20502F9%%%QqQ%%q%Q%%%%%qQ%q%Q%%%%%%%%%%%%%%%qQq%%Q%%%qQqQ%qQqQq%%Q%%%q%%%%%%
20486F9%%%%%Qq%%%%%Q%%%qQ%%qQ%%qQ%%%%%qQ%qQqQqQqQ%qQ%%%%%%qQ%%%%%%%%%%%%%%qQ
20470G7qQqQ%%%%%%%%%%qQ%%qQ%%%qQ%qQ%%%%%%%%qQ%%%%%%%%qQ%qQqQ%q%Q%%q%Q%%qQ%%%
20455G7%%%%%%%qQ%%%%%%%%%%%%%%q%%QqQ%%%%qQ%%%%qQqQ%q%Q%%%%%%%%%%%qQ%%%%%q%Qq
20439F9QqQqQq%%%Q%qQ%%%%qQq%Q%%%%%q%%%%Q%qQ%%%%%%%%%%%%%%%%%%%%%%%%%%%%%%%%%
20423G7%%%%%qQ%%qQ%%%%qQ%%qQ%%q%%Q%%%%%%%%%%%%%%%qQ%%%%%%%%%%%%%%%%%%%%%%%%%
20407G7qQ%%%%qQ%%%%%%%q%Q%%%%qQqQ%%%%%%%%%%%%%%%%%%%%%%%%%%%%%%%%%%%%%qQ%%%%
20391G7%%qQ%%%%%%%%%%%%%%%%%%%%%%%%%%%%%%%%%%%%%qQ%%%%%%%%%%%%qQ%qQ%%%%%%%%q
20376F9%%Q%%%%%%%%%%%%%%%%%%%%qQ%%%qQ%%%%%%%%%%%%%%%%%%%%%%%%%%%%%%%%%%%%%%Q
20360H5q%%%%%%%%%%%%%%%%%%%%%%%%%%%%%%%%%%%%%%%%%%qQ%%q%Q%%%%%%%%%%qQ%%%%%%%
20344G7%%%%%%%%%%%%%%%%%%%%%%%%%Qq%%%%%%%%%%%%%%%%%%%%%%%%%%%%%%%%%%%%%%%%%%
20328G7%%%%%%%%%%%%%%%%%%%%%%%%%%%%%%%%%%%qQ%%%%%qQ%qJ6q%qQQq%%%%qQ%%%%%%%%%
20313G7%%%%%%%%%%qQ%%%%%%%%%%%%%%%%%%%%%%%%%%%qQ%%%%%%%%%%%%%%%%%%%%%%%%%%%%
20297G7%%%%%%%%%%%%%%%%%%%%%%%%%%%%%%%%%%%Qq%%%%%%%%%%%%%%%%%%%%%%%%%%%%%%%%
20281G7%%%%%%%%%%%%%%%%%%%%%%%%%%%%%%%%qQ%%%%%Qq%%%%%%%%Qq%%%%%%%%%%%%%%%%qQ
20265G7%%%%%%%%%%%%%%QqqQqQQq%%%%Qq%Qj6Q%%qJ6q%%Q%q%%%%%%%%%%%%%%%%%%%%%Qq%%
20250G7%%%%%%%%%%%%%%%Qq%%%%%%%%QqQqQ%%q%%%%%%%%%%%%Qq%%%%%%%%%%Qq%Q%%%%q%Qq
20234G7%%%%%%%Qq%%%%%%Qq%%%%%%%%%%%%%%%%Qq%%Qq%Qq%%%Q%q%Q%q%%%%%%%%%Qq%%%QqQ
20218H5%%%qQ%%%%qQ%qQ%q%Q%%%%%qQ%%%%%%%%q%%%%%%%%%%%%%%%%%%%%QqQ%q%Qq%Qq%%%Q
20203H5q%QqQ%q%%%Q%qQ%qJ6j6%%QqQq%%%%Qq%Qq%Q%%%qQ%%q%%%%%%%%%%%%%%%%%%%%%%%%
20187G7%%QqQq%Qq%%%%%%%%%%%%%%%%%%%%%%%%%%%Qq%%%%%%%%Q%qQ%%%%%%%q%Q%%%q%%QqQ
20172H5q%Q%q%Q%%q%Qq%%%%%%%%%%%%%%%%%%%%%%%%%%%%%%Q%%%qQ%%%q%%%%Qq%%QqQqQqQq
20156G7%%%%Q%%qQ%q%%%%%QqQqQ%%qQ%qQq%%%%%%%%%%%%%%%%%%QqQq%Qq%QqQ%%%%q%%%QQq
20140H5qQq%%%Q%q%Q%q%%%%%QqQ%qQq%%%%%%Q%qQq%%%%Q%%q%Q%%%q%%Qq%%QqQq%QqQ%%%%%
20124H5%%%%%%%%%%%%%%%%%%%%%%%%qQ%%%qQ%q%%QqQ%%%qQq%Q%qQq%Q%%%qQqQ%qQ%%%%q%%
20108G7%%%%%%%%QqQqQq%%%%%Q%%q%Q%%%%q%%Q%%%%qQ%%qQq%Q%%%%%qQq%Q%%%%%%%%%%%%%
20093H5Qq%%%%%%%qQ%%%%%%%%%%qQ%%q%%%Qq%%%%%qQQqJ6%qqJ6qj6K4k4K4k4K4qq%Q%%qQq
20079G7Qq%%Q%qQ%qQ%%qQ%%qQ%%%%%%%q%Q%%%%%%%%%%%%%%%%%%%q%QqQ%%%%%%%%%%%%%%%%
20063H5%%%%%%%%%qQ%%%%qQq%%%Q%%%%%%%%%%%%%%%qQqQq%%Q%%%q%%%%%Q%%%%%%%%%%%%%q
20047G7Q%%%%%%%qQq%%%%%%Qq%%%QqQqQ%qQ%%%%%%qQ%%%%%%%%%%%%%%%%%%%%%%%%%%%%%%q
20031G7%Q%qQqQ%%%%%%%%%%%%%q%QqQ%qQQj6Q%qQ%qQ%%%%%%%%qQqQqQ%%%%%qQ%%%%%%%%%%
20016H5%%%%%%%%%%%%q%%%%Q%q%%Qq%%Q%%%%qQ%%%%%%%%%%%%%%%%%%%%%%%%%%%%%%%%%%%%
20000H5%%%%%%%%%%%%%%%%%%%%%%%%%%%%%%%%%%%%%%%%%%%%%%%%%%%%%%%%%%%%%%%%%%%%%
19984H5%%%%%%%%%%%%%%%%%%%%%%%%%%%%%%%%%%%%%%%%%%%%%%%%%%%%%%%%%%%%%%%%%%%%%
19968H5%qQqQqQ%%qQq%Q%%%%QqQq%%%%%%%%%%%%%%%%q%Q%%%%%%%%%%%%%%%%%%%%%%%%%%%%
19952H5%%%%%%%%%%%%%%%%%%%%%%%%%%%%%%%%%%%%%%%%%%%%%%%%%%%%%%%%%%%%%%%%%%%%%
19937H5Qq%%Q%q%%%%%%%%%%%%%%%%%%%%%%%%Qq%Qq%%Q%q%%%%%%%%%%%%%Q%q%%%Qq%%%%Q%%
19921I3q%%%%%%%%%%%%%%%%%%%%%%%%%%%%%%%%%%%%%%%%%%%Qq%%%%%%Qq%%%%qQ%%%%%%%%%
19905H5Qq%%%Qq%%%%%%%Qq%%%%%%%%%%%%%%%%%%%%%%%%%%%%%%%%%%%%%%%%%%%%%%%%%%%%%
19889H5%%%%%%%%%%%%QqQqQq%%%%%%%%%%%%%%%%Qq%%%%Qq%%Qq%%%Qq%%%%Q%qQ%qQq%%%%%%
19874H5%%%%%Q%q%%%Q%qQq%%%%%%%%%%%%%%%%%%%%%%Q%qQqQq%%%%%%%%%%%%%%%%%%%%Qq%%
19858H5%%%%%%%%%%%%%%%%%%%QqQqQ%q%%%%%Qq%Qq%%%Qq%Q%j6Q%%%%%Q%%q%%%Qq%%%%QqQq
19842H5%%%%%%%%QqQ%%%%%%%q%Q%q%Qq%%Qq%Q%q%Q%q%Q%qQ%%%%%%%%%%%qQ%%qQq%Q%q%%Qq
19826H5Q%%%q%Q%q%Q%%%%%qQ%%%%%qQ%%%qQq%%%Qq%%Qq%%%%QqQ%%%%%%%%qQ%%q%%%%Qq%Q%
19811I3q%%%%Qq%%%%QqQ%qQ%%%%%%qQqQqQqQ%qQq%Q%%%%%%%%%qQq%%%%%%%%Qq%%QqQ%qQq%
19795H5%%QqQq%Q%%Qk4L2k4%%%J6k4K4qj6Q%Q%q%Q%qQqQ%%qQ%%%%%%%qQ%%%%%%%%qQ%%%%%
19781I3%%%%%%%%%%%%q%Q%%%%%qQqQqQ%%%%%%%%%qQ%%%%%%qQ%%%%%%%%%%%%%%%%%%%%%%%%
19765I3%%%%%%qQqQ%%%%%%%%%%%%%%%%%%%%%%%%%%%%%%%%%%%%%%%%q%%Q%%%qQ%%%%%%%%%%
19749I3%%%%%%%%%%%%%%%%%%%%%%%%%qQ%%%%%%%%%%%%%%%%%%qQq%%%%%QqQ%%q%Q%%qQ%%%%
19733I3%Qj6QqK4%ql2K4%%%J6j6%qQ%%%%%%%%%%%%%%%%%%qQ%qQ%%%qQ%%%%%%%%%%%%%%%%%
19719I3%%%%qQ%%%%%%%%%%%%%%%%%%%%Qq%%%%%%%%%%%%%%%%%%%%%%%%%%%%%%%%%%%%%%%%%
19703I3%%%%%%%%%%%%%%%%%%%%%%%%%%%%%%%%qQ%%%%%%%%%%%%%%%%%%%%%%%%%%%%%%%%%%%
19687I3%%%%%%%%%%%%%%%%Qq%Q%q%%QqQq%%%%%%%%%%%%%%%%%%%%%%Qq%%Qq%%QqQq%%%%%%%
19671I3%%Q%q%%%%%%%%%%%%%%%%%%%%%%%%%%%%%%%%%%%%%%%%%%%%%%%%%%%%%%%%%%%%%%%%
19656I3%%%%%%%%%%%%%%%%%%%%%%%%%%%%%%%%%%%%%%%%%%Qq%%%Qq%%%Qq%QqQq%%%%%%%%%%
19640I3%%%%%%%%%%%QqQqQ%%%q%QqQ%%%%%q%Q%%q%%Qq%Qq%%%Qq%Qq%%Qq%%%%%%%%Qq%%%%%
19624I3%%%%%%%%%%%%%%%%%%%%%%%%Qq%%%%%%%%Qq%%%Qq%Qq%%Qj6Q%Qq%Qq%Qq%%Q%q%QqQq
19608I3%%%%Qq%%QqQqQq%%%%QqQq%%%Qq%%%%Q%%qQq%%%Qq%%%Qq%%%%%%%%%%%%%%%%%%%%%%
19593I3%Qq%%%%%%%%Q%qQ%%%%%qQq%Q%q%%%Q%q%Q%%%q%Q%%%%%qQ%q%%QqQq%%Q%%q%Q%qQqQ
19577A01%%%%qQqQ%%%%%%qQ%%%%%%qQ%%%%qQ%%%q%QqQ%q%%%%%%QqQqQ%%%%qQ%q%Qq%Q%qQ%
19561A01%%%%%%%%%%qQqQ%%%%%%%%%qQqQ%%%qQ%%%%%%%%%%%%%%%%qQ%%%%%%%%%%%%%%%%%%
19546A01%%%%%%%%%%%%%%%%%%%%%qQ%%%%q%Q%%%%%%%%%%%%%%%%%%%%%%%%%%%%%%%%qQ%qQ%
19530A01%%qQ%qQ%%%%%%qQ%%%%%%%%%%%%%%%%%%%qQ%qQ%%%%%%%%%%%%%%%%%%%%%%%%%%%%%
19515A01%qQ%%qQqQ%%%%%%%%%%%qQ%%%qQqQ%q%Q%%%%%%%%%%%qQ%%%qQ%qQqQ%%%qQ%qQqQ%%
19499A01q%%%QqQ%qQQq%q%Q%%%%%%%%%%%%%%%%%%%%%%%%%%%%%%%%%%%%%%%%%%%%%%%%%%%%
19483A01%%%%%%%%%%%%%%%%%%%%%%%%%%%%%%%%%%%%%%%%%%%%%%%%%%%%%%%%%%%%%%%%%%%%
19468A01%%%%%%%%%%%%%%%%%%%%%%%%%%%%%%%%%%%%%%%%%%%%%%%%%%%%%%%%%%%%%%%%%%%%
19452A01%%%%%%%%%%%%%%%%%%%%%%%%%%%%%%%%%%%%%%%%%%%%%%Qq%%%%%%%%Q%qqQQ%q%%Qq
19437A01%%%%%%%%Qq%Qq%%Q%q%Qq%%%%QqQq%%%%%%%%%%%%%%%%qQ%%%%%%%%%%%%Qq%%QqQqQ
19421A09%q%%%%%Q%%qQq%%Qq%Qq%%%Qq%Qq%%%QqQq%%Qq%QqQ%qQqQ%qQ%%%qQ%%%%%qQq%QqQ
19406A09%%q%Q%q%Qq%%%%%%%%Qq%%%%%%%%%%%%%%Q%%%%%qQqQ%%%%%qQ%%%%%%%%%%%%q%Qq%
19390A01%%%%%%%Qq%%%%%%Q%%%%%%%%%%%%%qQq%Q%qQ%qqQQq%Q%q%Qq%Q%qQq%%Q%q%Qq%%Q%
19375A09q%Q%%%%%%%%%qQ%%%%%%%%%%%%qQqQ%%q%%%%Q%%%%%%%%q%Qq%%%%%%%%%%%Q%q%Q%%
19359A09%%%%%%%%%%%%%%%%%%%%%%%%%%%%%%%%qQ%qQqQ%%qQ%q%%Qq%%%Qq%QqQ%%%%qQ%%%%
19343A09qQ%q%%%%%Q%%%%%%%%%%%%%qQq%Q%qQ%%%%%%%%%%%%%%%%%q%%Qq%QqQ%%%%%%%%%%%
19328A09%qQ%%%%qQ%%%q%Q%q%Q%%QqQqqQ%Qj6Q%%%%%%%%%%%%qQ%%%%%%%%%%%%%%%%%%%%%%
19313A09%%%%%%%%%%%%%%q%Q%%%%%%qQ%%%%qQqQqQ%%%%%%%%qQ%qQ%%%%%%%%%%qQ%%%%%%%%
19297A09%%%%%%%%%%%%%%%%%%%%%%%%%%%%%%%%%%%%%%%%%%%%%%%%%%%%%%%%%%%%%%%%qQ%%
19281A09%%%%%%%%%%%%%%%%%%%%%%%%%%%%%%%%%%%%%%%%%%%%%%%%%%%%%%%%%%%Qq%%%%%%%
19266A09%%%QqQ%q%%%Qj6Q%%%Qj6J6q%%%%%%%%%Q%q%%Q%q%Qq%%%%%%%%%%Qq%%%%Qq%%%%%%
19251A09%%%%%%%%Qq%%%%%%%%%%%%%%Qq%%%Q%%%%%%%%q%%%%%%%%%%%%%%%%%%%%%%%%%%%%%
19235A09%%%%%Qq%%Qq%%Qq%%QqQqQq%%%Q%q%Q%%%qQ%%%%qQ%%%qQ%qQ%q%%%%%%%Q%q%%%%%Q
19220A17%%%q%%%%%%%%%%%%%%%%%%%%%%%%%%%%Q%%%q%%%%%Qq%Q%%%%qQ%qQqQ%%%q%QqQ%%%
19204A17qQqQ%%%%%qQ%%%%%%%%%q%%%%%%%%%%%%%%%%%%%%%QqQ%%%%%%%%%%qQqQ%%%%q%Qq%
19189A09%%%Q%qQ%%%%qQ%qQ%qQ%%%qQqQ%%%%q%%Qq%Qq%%Q%qQ%%%%%%%%%%%%%%%%%%%%%%qQ
19173A17%%%q%%%Q%%%%%%q%QqQ%%%%qQq%QqQ%%%%%%%%%%%%%%%%%%%%%%%%%%%%%%%%%qQ%%%
19158A17%%%%qQ%%qQ%%qQ%%%%%%%%%%%%%%%%%%%%%%%%%%%%%QqQj6%J6qqQ%Q%%k4QK4k4q%J6
19143A17qQ%%%qQ%%%%%%%%%%%qQ%%%%%qQ%%%%%%%%%%%%%%%%%%%%%Q%q%%%%%%%%%%%%%%%%%
19128A17%%%%%%%%%%%%%%%%%%%%%%%%%%%%%%%%%%%%%%%%%%%%%%Qq%%%Qq%%%%%%%%%%%%qQ%
19112A17%%%%%%%%%%%%%%%%%%%%%%%%%%%%%%%%%%%%%%%%%%%%%%%%%%%%%%%%%%%%%%%%%%%Q
19096A25qQ%qQq%%%%%%%%%%%Qq%%%%%%QqQqQq%%%%%%%QqqQ%%Qq%%%%%%%Qq%%%%%%%%%%Qq%
19081A17%%%%%%%%%%%%%%%%%%%%%%%%%%%%%%Qq%%%Qq%%%%%Qq%%%%%%%Qq%Qq%%%%%%%QqQ%%
19065A25%%qQ%%%%%q%QqQqQq%Q%%%%%qQ%q%%%%Q%%q%%QqQq%Qq%%%Q%%%%%%qQ%%%qQ%%%%qQ
19050A25%%qQqQ%qQq%%%%%%%QqQ%%%q%QqQ%qQ%%%%%%qQqQqQq%%%Q%%%%%%%%%%%%%%%%%%%%
19034A25%%%%%%%%%%%%%%qQQq%qQ%%%qQq%QqQ%%qQ%%%%%%%%%%%%%%qQ%%%%%%%%%%%%%%%%%
19019A25%%%%%%%%%%%%%%%%%%%%%%%%%%%%%%%%%%%%%%%%%%%%%%%%%%%%%%%%%%%%%%%%%%%%
19003A25%%%%%%%%%%%%%%%%%%%qQ%%%%%%%%%%%%%%%%%%%%%%%%%%%%%%%%%%%%%%%%%%%%%%%
18988A25%%%%%%%%%%%%%%%%%%%%%%%%%%%%%%%%%%%%%%%%%%%%%%%%%%%%%%%%%%%%%%%%%%%%
18972A25%qQ%QqQqQq%%%%Qq%%%%%%%%Qq%%%Qq%Qq%Q%q%%%Qq%%Qq%%%%%%%%%%%%%%%%Qq%%%
18956A25Qq%%%%%%%%%%%%%%%%%%%%Qq%%%%%%%%%Qq%%%%%%%%%%%%%%%%%%%%%%Qq%%%%QqQ%q
18941A25%%%Q%q%Q%qQq%%%%%%%%%%%%%%%%%%%Qq%%%Q%%%qQ%%qQqQ%q%%%Qq%%%%%%%%%%%Q%
18925A33%%%qQq%%%%%%%Q%%%%%qQ%%%%%%%%%%q%Qq%Q%%qQ%%qQ%qQ%%%%%%%qQ%%%%%qQ%Q%q
18910A33qQ%%%%%%qQ%%%%%qQ%q%QqQqQq%QqQ%%%%%%qQ%%%%%%%%%%%%%%%%%%%%%%%qQ%%%%%
18894A33%%%%%qQ%%%%%%%%%%%%%%%%%%%%%%%%%%%%qQ%%%%%%%%%%%%%%%%%%%%%%%%%%%%%qQ
18879A33%%%qQ%qQ%%%%%%%%%%%%%%%%%%%%%%%%%%%%%%%%%%%%%%%%%%%Qq%%%%%%%%%%%%%%%
18863A33%%%%%%%%%%%%%%%%%%%%%%%%%%%%QqQj6Q%%qQ%%qJ6QqqQ%%q%Qq%qQ%%%%%%%%%%%q
18848A25Q%%%%%%%%%%%%%%%%%%%%Qq%%%QqQ%%%%%%%q%%%%%%%%%%%Qq%%%%%%%%%%%%%%%%%%
18832A33%%%%%%%%%%%%%Q%q%%%%%%%%%%%%%%%%%%%QqQqQq%%%%Qq%%Qq%%Qq%%%%%%%%%%%%Q
18817A41q%%QqQq%Q%q%%%%%%%%%%%%%Q%q%Qq%%%Q%qQ%%qQ%%%q%%%%%%%%QqQqQ%%%q%%Qq%%
18801A33Qq%%%Q%%%%q%Q%q%Q%qQ%qQ%%%q%j6J6QQqqJ6q%q%Q%%qQ%%%%%%%%%%%%%%%%%%%%%
18786A41%q%Q%qQ%q%Q%%%%%%%%%%%%%%q%%Q%%%%qQ%%qQ%%%%%%%%%%%%%%%%%%%%%qQqQqQ%%
18771A41%%%%%%%%%%%%qQqQ%q%QqQqQ%%qQ%%%%%%%%%%%%%%%%%%%%%%%%%%%%%%%%%%%%qQ%%
18755A41%%%%%%%%%%%%%%%%%%%%%%%%%%%%%%%%%%%%%%%%%%%%%%%%%%%%%%%%%%%%QqQq%%%%
18740A41%%%%%%%%%Q%q%%Q%%q%%%Q%%qQ%q%%%%%%%%%%%%%%%%%%%%%QqQqQq%%%%%%%%%%%%%
18724A41%%%%%%Qq%%%%%Qq%%%%%%Qq%%%%%%%%Qq%%%%Qq%%%%%%%%%%%%Qq%QqQ%%%%%%%q%%Q
18708A49qQq%Q%qQ%%%%qQq%%Q%q%%%Qq%QqQ%%%%%%%%%%%%%%%%%%qQqQq%%%%%%%Qq%QqQqQq
18693A41Q%%%%%%%%%%%%%%%qQ%%%%%%%%%%%%%%%%%%%%%%%%%%%%%%%%%%%%%%%%%qQqQ%%%%%
18677A49qQq%Q%%%%qQ%Qq%%qQ%%Qq%%%%%%%%%%%%%%%%%%%%%%%%%%%%%%%%%%%%%%%%%%QqQq
18662A49%%%%%%%%%%Qq%%%%%%%%%%%%%%%%%%%%%%%%%%%%%%Qq%%%%%%%%%%Q%%%%%q%%QqQq%
18646A49%Qq%%%%%%%%%%%%%%%QqQq%Q%%q%%%%Qq%%%%%%%%%%%%%%Qq%%%Qq%%%Q%qQ%qQqQqQ
18631A57%qQ%qQqQqQ%%%qQ%%%%%%q%%QqQq%%Q%%%qQ%%%%%qQqQ%qQ%%%Qj6Q%qQqQ%qQ%%qQ%
18615A57%%qQq%%%%Qq%%%%%%%%%%%%%Q%%%%%%%%q%QqQ%qQ%%%%%%%%%%%%%%%%%qQ%%%%%%%%
18600A57%%%%%%%%%%%%%%%%%%%%%%%%%%%%%%%%%%%%%%%%%%%%%%%%%%%%%%%%%%%%%%%%%%%%
18584A57%%%%%Q%q%%%%%%%%%%%%%%%%%%%%%%%%%%%%%%%QqQq%%Qq%%%%%%%%%%%%%%%%%%%%%
18569A57%%%%%%%%%%%%%%%%%%%%%%%%%%%%Qq%%%%Qq%q%Q%%%Q%q%%%%%%%%%%%Qq%%Q%q%%%%
18553A57%%%Qq%%%Q%q%%%%%%Qq%%%%%%%%%%%%%QqQ%%%%qQq%Q%qQqQqQq%%%%%%%%%%%%%%Q%
18538A65%qQ%%qQq%%%%%%%%%%Q%%%%%%%%%%%%%%%%qQ%%%%%%%%%%%%%%%%%%%%%%%%%%%%%%%
18522A65%%%%%%%%%%%%%%%%%%qQ%%%%%%%%%%qQ%qQ%qQqQ%%%%qQqQ%%%%%qQ%%qQ%qQq%Qq%Q
18506A65qQqQ%%%%%%%%%%%%%%%%%%%%%%%Q%%q%%%%%%%%%%%%%%%%%%%%%%%%%Qq%Qq%%%%%%%
18491A65%%%%%%%%%%%%%%%%%%%%%%%%%%%%%%%%%%%%%%%%%%Qq%%%%%%%%%%%%%%%%%%%%%%%%
18475A65%%%%%%%%%%%%%%Q%q%%%%%%%%%%%%%%%%%%%%%%%%%%%%%%%%%%%%Qq%%%%%%%%Qq%Qq
18460A65%Q%%%%%qQ%%%q%%QqQ%%%qQq%%%%%%%%%Q%qQ%%%%%%%%%%%qQ%%%%%%%%qQ%%%%%%Qq
18444A73%%%qQ%%%%%qQQj6K4j6%%%%%%%%%%%%%%%%%%%%%%%%%%%%%%%%%%%%%%%%%%%%%%%%%
18429A73%%%%%%%%%%%%%%%%%%%%%%%%%%%%%%%%%%%%%%%%%%%%%%%%%%%%%%%%%%%%%%%%%%%%
18414A73%%%%%%%%%%%%%QqQq%%%%QqQqQ%%q%Q%q%Qq%%%%%%Qq%%%%%%%%%%%Qq%%%%%%%%%%%
18398A73%%%%%Q%%%qQ%qQ%%%qQ%%%%%%%%%%%%%%%%%qQ%%q%Qq%%%%%%Q%qJ6qqQ%%qQ%qQQ%q
18383A81Qq%qQ%%%Qq%%%%%%%%%%%%%%%%%%%%%%%%%%%%%%%%%%%%%%%%%%%%%%%%%%%%%%%%%%
18367A81%%%%%%%%%%%%%%%%%%%%%%%%%%%%%%%%%%%%%%Qq%%%%%%%%%%%%%%%%%%%%%%%%%%%%
18352A81%%%QqQq%%%%%%%%%%%%%%%%%%%%%%%%%%%%%%%%%QqQ%%qQqQ%%q%%Qq%Q%qQq%%%%%%
18336A81%%%%QqQ%%%qQqQqQ%qQqQ%%%%%%q%%Qq%%%%Q%%%q%%%qQQQq%q%%J6j6%%Qq%Qq%%Q%
18321A89%%q%%%Q%%%%%%q%Q%%qQ%%qQ%%%%%%%%%%%%%qQ%%%q%QqQ%%%%%%%%%%%%%%%%%%%%q
18305A81Q%%%%%%%%%%%%%%%%%%%%%%%%%%%%%%%%%%%%%%%%%%%%%%%%%%%qQ%%%%%%%%%%%%%%
18290A89%%%%%%%%%%%%QqQ%%qQ%q%%Qq%%%%%%%%Q%q%%%%%%%%%%%%Qq%Q%%qQ%q%Q%qQ%%qQ%
18274A97%%%%qQqQ%%%qQ%%%q%Qq%Qq%%Qq%%QqQq%%QqQ%q%Q%%qQqQqQ%%%%%%%%%%qQ%q%%%Q
18259A97qQ%%qQ%%%%%%%%%%%%%%%%%%%%%%qQ%%%%%%%%%%%%%%%%%%%%%%%%%%%%%%%%%%%%%%
18243A97%%%%%%%%%%%%%%%%%%%%%%%%%%%%%Qq%%Qq%%%%%%%%%%%%%%%%%%%%%%%Q%q%%Qq%%%
18228A97%%%%%%%%qQ%%%%%%%%%%%%%%%%%Qq%%%Qq%Qq%Qq%%%%%%%QqQqQqQq%%%Qq%%QqQq%Q
18212B05%qQqQq%Q%j6QK4%j6j6QqK4%M0p2M8J6m0K4M0q8J6J6%%J6m8K4q%QQqqQ%%q%%%Q%q
18201A97%Q%%Qj6Q%%qQqQ%%Qq%%%%%%%%%%%%%%%%%%%%%%%Qq%%%%%%%%%%%%%%%%%%QqQq%%%
18185B05%%%%%%%%%%%%%%%%%Qq%%%%Qq%%%%%Q%%%qQ%qQ%%q%%%%%%%%%%%%%%%%%%%%%%%%%%
18170B05%%%%%%Qq%%Q%qQ%%%q%Q%%%qQ%%q%%Qq%%%%%%QqQqQqQ%%%%%%%qQ%qQ%q%%%QqQ%%%
18154B13%%%qQ%%%%Qq%%%%%%%%%qQQqQq%%%%%%%%%%%%%qQ%%%%%%%%%%%%%%%%%QqQq%%%%Qq
18139B13%%%%%Qq%Q%q%%%%%%%%%%%%%%%%%Qq%%Qq%%%%%%%%%%%%%%%%%%%%%%%%%%%%%%%%%%
18123B13QqQ%q%%QqQq%%%%Q%%%%%qQq%%Q%%q%Q%%qQ%%%qQ%%%%qQ%%%%%%qQ%%qQ%%%q%%%%Q
18107B21%%qQ%%%%%qQ%%%%%%%%%%%%%%%%%%%%%%%%%%%%%%%%%%%%%%%%%%%%%%%%%%%Qq%Qq%
18092B21%Qq%%Qq%%%Qq%%%Q%q%%%Q%qQqQq%Qq%%Q%%%%%%%%%%qQ%%q%%%%%%%%QqQq%%Q%qQ%
18076B29%q%%QqQq%%%%%%%Qq%%%%QqQqQ%%%%%%%%%%%%%%%%%%%%%%%%%%%%%%%Qq%%%%%Qq%%
18061B29%%%%%%%%%%%%%%%%%%%%%%%%%%%%%%%%%%%%%%%%%%%%%%%%%%%%%%%%%%%%%%%%%%%%
18045B29%%%%%%%%%%%%%%%QqQ%%%%%%%q%%%%%%%%%Q%q%%Q%%%qQ%%q%%Q%%qQ%qQ%%%%%qQ%%
18030B37%%%%%%%%%%%%%%%%%%%%%%%%%%%%%%%%%%%%%%%%%%%%%%%%%%%%%%%%Qq%%%%%%%%%%
18014B37%%%%%%%%%%%%%%%%%%%%%%%%%%%%%%%%%%%%%%%%%%%%%%%%%%%%%Qq%%%%%%%%%%%%%
17999B37%%%%%%%%%%%%%%%%%%%QqQ%%%%%%%%%%%%q%Qq%%Q%%%%%%%%%%%%%%%%%%%%%%%%%%%
17983B45%%%%%%%%%%%%%%%%%%%%%%%%%%%%%%qQ%qQ%%%%QqQq%Qq%%%%Qq%%%%%%%%%%%%%%%%
17967B45%%%%%%%%Q%%%q%%%%%%%%%%%%%%%%%%%Qq%%Q%%%%q%%%%Qq%%%%%%%%%Qq%%%Q%%%%%
17952B53%%%qQ%%q%%%Q%%%%%%%%%%%%%%qQ%%%%%%%%%%%qQ%%%%%%%%%%%%%%%%%%%%%%%%%%%
17936B53%%%%%%%%%%%%%%%%%%%%Qq%%%%Qq%%%Qq%Qq%%Qq%%%%%Qq%%Q%qQ%qQq%Q%%qQqQ%q%
17921B53QqQq%%Qq%qQ%QQj6Qql2M0m0J28j04qk4O4%k4%J6%Qqq%Q%j6Q%qQQq%%%%%QqqQ%qQ
17908B61%Qq%qQ%%%%Qq%%%Qq%%%%%%%%%%%%%QqQq%%%%%%%%%%%%%%%%%%%%%%QqQq%%%Qq%%Q
17893B69q%%Qq%%Q%%q%Q%qQqQ%qQqQ%%%%%%%q%Q%%q%QqQ%qQ%%%%%%%%%%%%%%%%%%qQ%%%%%
17877B69%qQ%%%%%%%%%%%%%%%%%%%%%%%%%%%%%%%%%%%%%%%%%%%%%%%%%%%%%%%%%%%%QqQ%%
17861B77%%%qQ%%q%QqQ%%q%%Q%q%qJ6%%qJ6qqQ%qQ%%%%%%%qQ%%%%%%%qQ%%%%%%%%%%%%%%%
17846B77%%%%%%%%%%%%%%%%%%%%%%%Qq%%%%%%%%%%%%%%%%%%%%%%%%%%%%%%%%%%%%%%%Qq%%
17831B77%QqQqQ%q%Qq%%Q%%%%q%%%%%%%Q%%qQq%Q%%%%qQqQ%%%%qQ%%%%qQqQqQqQ%%%%%%%%
17815B85%%%%%%%%%%%%%%%%%%%%%%%%%%%%%%%%%%%%%%%%%%%%%%%%%%%%%%%%%%%%%QqQq%Qq
17800B85QqQ%q%Qq%Q%%%%%qQ%%%%%%%%%%%%%%%%%qQ%%%%%q%Q%%%%%%%%%%%%%%%%%%%%%%%%
17784B93%%%%%%%%%%%%%%%%%%%%%%%%Qq%%%%Qq%%%%%Q%%%%q%QqQ%%%%%%%%%%%%%%%%%qQ%%
17768C01%%%%qQ%%%%%%%%%%%%%%%%%%%%%%%%%%%%%%qQ%%%%%%%%%%%%%%%%%%%%%Qq%%%%%%%
17753C01%%Q%%%%%%%%%%%%%%qQ%%q%Q%q%%%%Q%%%qQ%%%%%qQq%Q%%%%Qj6%Q%%%Qqq%%Q%%q%
17738C01%Q%%%%%%%%%%%%%%%%%%%QqQq%%%%%%%%%%%%%%%%%Qq%%%%%%%%%%%%%%%%Q%%%%%%q
17722C09%%%%Q%%q%Qq%Q%%%%qQ%%%%%%%%%%%%%%%%%%%%%%%%%%%%%%%%%%%%%%%%%%%%%%%%%
17706C17%%%%%%%Qq%%%%%%Qq%%%%%%%%%%%%%%%%%%Q%%qQ%q%%%QqQq%Q%%%%%%%%%%%%%q%Q%
17691C25%%%%%%%%%%%%%%%%%%%%%%%%%%%%%%%%%%%%%%%QqqQ%QqqQ%%%%QqQqQq%%%%%%%Q%%
17675C33%%%%%%%%%qQ%%%%%%qQ%%q%%%Qq%%%Q%%%%%%%%%q%Q%%qQ%%%%%%%%%%%%%%%%%%%%%
17660C33%%%%%%%%Qq%Q%qQ%%q%%%%%%%%Qq%QqQq%%%%%%%QqQqQqQq%%%%Q%%qQ%%%%%%%%%%%
17644C41%%%%%%%%%%%%%%%%%%%%%%%%%%%%%%%%%%%%%%%Qq%%%%%%%%%%%%%%%%%%%%%%%%%%%
17629C41Q%q%QqQqQqQ%%qQ%%%%%%%%%%q%Q%q%Q%%%%%%%Qq%%%%%%%%%%%%%%%%%%%%%%%%%%%
17613C49%%%%%%%%%%%%%%%%%%QqQ%q%Qq%%%%Q%qQqQ%%qQqQ%%%%%%%%%%%%%%%%%%%%%%%%%%
17598C57%%%%%%%%%%%%%%%%%%%Q%q%Q%%%%%%%%%qQ%qQqQqQ%%%%%%%%qQ%%%%%%%%%%%%%%%%
17582C65%%%%%%%%%%%%%%%%%%%%%%%%%%%%%%%%%%%%%%%%QqQ%%%%%%%%%%%%%%q%%QqQ%%q%Q
17566C73%%qQ%qQqQ%%%%qQqQ%%Qq%%%%%%%%%%%%%%%%%%%%%%%%%%%%%%%%%%%%%%%%%QqQq%%
17551C73%Q%%%%%%%%%qQ%%%%%%%%%%%%%%%%%%%%%%%%%%%%%%%%%%%%%%%%%%%%%%%Qq%QqQ%q
17535C81Qq%Qq%%%Qq%%Q%%%%%%%%%%%%%%%%%%%%qQ%%%%qQ%%%%%%%%%%%%%%%%%%%%%%%%%%%
17520C89%%Qq%%%QqQ%qQ%qQqQ%%q%Q%%qQ%%qQ%%%%%%%%%%%%%%%%%%%%qQ%%Qq%%QqQqQ%qQq
17504C97Q%%q%%%%Qq%Qq%%Q%qQ%q%%%%Q%%qQ%%%%%%%%%%%%%%%%%%%%%%%%%Qq%%%%%%%%%%Q
17489D13q%%Qq%%%%%%%%%%%%Qq%QqQ%%%%%%%%%%%%%%%%%%%%%%%%%%%%%%%%%%%%%%%%%%Q%q
17473D13Q%q%%%Qq%QqQ%%%%%%%%%qQ%%q%%Q%qQ%%%%%%%%%%%%%%%%%%%%Qq%%%Qq%%%%%Q%q%
17457D21%QqQqQq%QqQqQ%%%%%%%%%%%qQ%%%%%%%%%%qQ%qQ%%%%%q%%Q%%%%%%%%%%QqQq%%%%
17442D29%%%%%%%%Qq%%QqQq%%Q%%qQ%qQqQ%%%%%%%%%%%%%%%%%%%%%%%%%%%%%%%%%%%%%%%%
17426D37%Q%q%Qq%%Qq%%Q%%%%%%%%%%%%%%%%%%%%%%%%%%Qq%%%%%Qq%%Q%%%%%%qQ%%%%%%%%
17411D53qQq%%Qq%Q%q%Q%%%%%%%%%%%%%%%%%%%%%%%%%%%%%%%%%%%%QqQq%%%QqQq%%%%Q%%%
17395D61qQ%qQ%%%%%%%%%%%%%%%%%%%%%%%%Q%j6J6qQqQ%%j6QQqQ%%qQ%%%%%%%%%%%%%%%%%
17380D69%%%%%%%%%%%%%%%%%%%%%%%%%%%Qq%%%QqQq%Qq%Qq%%%%Qq%Qq%%Q%%%%%%%%%%Qq%%
17365D77%%%%%%%%%%%%%%%%%%%%%%%%%%%Q%%%q%%Q%qQ%%%%%%%%%%%%%%%%%%%%%%%%%%Q%%q
17349D85Q%%qQq%Qq%%%%%%%%Q%q%%Q%qQ%qQ%%%%%%%%%%%%%%%%%%%%%%%%%%%%%%%%%QqQ%%%
17334E01%qQ%qQ%q%%%Q%%%%%%%%%%%%%%%%%%%%%%%%%%%%%%%%%%%%%%%%Qq%Q%%%%%qQqQ%q%
17318E01Q%%%%%%%%%%%Q%q%QqQ%%%%%%%%%%%%%%%%%%%%%%%%%%%%%%%%%%%%%%%%Qq%%%%Qq%
17302E17Q%%%%qQ%%%%%%%%%%%%%%%%%%%%%%%%%%%%%%%%%%%%%%%QqQq%Q%%%%%%%%%%%%%%%%
17287E33%%%%%%%%%%%%%%%%%%%%%%%%%%%Q%%qQq%Q%qQ%qQ%qQ%%%%%%%%%%%%%%%%%%%%qQQ%
17271E49%%%j6%Q%%%J6qk4L2qqQqQ%%%%%%%%%%%%%%%%%%%%%%Q%q%%%%%%%%Q%%%%%%%qQ%%%
17257E57%%%%%%%%%%%%%%QqQ%qQqQ%%%%%%%%%%%%%%%%%%%%%%%%%%%%%%%Q%%%q%QqQq%Q%%%
17241E73%%%%%%%%%%%%%%%%%%%%%%%%%%%%%%%%%%%%Qq%%Q%%%%%%%%%%%%%%%%%%%%%%%%%%%
17226E81%%%%Q%q%QqQ%%qQqQ%%%%%%%%%%%%%%%%%%%%%%%%%%%Q%%%%qQqQ%%qQ%%%%%%%Qq%Q
17210F05%%%q%%Qq%%%%QqQ%%%%%%%%%%%%%%%%%%%%%%%%%%%%%%%Q%%%%%%qQ%%%qQ%qQ%%%%%
17194F13%%%%%%%%%%%%%%%%%%%Qq%%QqQ%%%%%%%%%%%%%%%%%%%%%%%%%%%Qq%Qq%%Q%%%%%qQ
17179F29%%%%%%%%%%%%%%%%%%%QqQqQ%%%%%%%%%%%%%%%%%%%%%%%%%%%%%%%%%%%%Q%qQ%%%%
17163F45%%%%%%%%%%%%%%%%%%%%Q%qQ%%%%%q%Q%%%%qQQ%%q%%qQ%%%Qq%Qq%%Q%qQ%qQ%%%qQ
17148F61%%%%%%%%%Qq%Q%qQ%%%%%%%%%%%%%%%%%%%%%%%%%%%%%%%%%%%%%%%%%%%QqQ%%%%%%
17132F77%%%%%%%%%%%%Qq%%%Q%%%%%%%%%%%%%%%%%%%%%%%%Qq%%Q%qQ%qQq%%Q%qQq%Q%%%%%
17117F93%%%%Qq%%%Q%%%%%%%%%%%%%%%%%%%%%%%Q%qQ%q%%%QqQ%%qQ%%%%%%%%%%%%%%%Qq%Q
17101G17%qQqQ%%%%%%%%%%%%%%%%%%Q%qQqQq%QQq%%%%%%%%%%%%%%Q%%%qQqQq%Q%%%%%%%%%
17085G33%%%%Qq%%%%%%%%%%Q%%%%%%%%%%%%%%%%Qq%%%%%%%%Q%qQ%%%%%%%%Qq%%%%QqQ%%%%
17070G57%%%%%%%%%%%%%%%%%%%%%%%%%%%Q%%%%%%%%%%%%%%%%%Qq%%%%%%Q%%qQ%%qQ%%%%%%
17054G73%%%%%%%%%Q%qQ%%%%%%%%%%%%%%%%Qq%%%%Q%%%%%%%qQ%%%%%%%Qq%QqQ%%qQ%%%qQ%
17039G97%Qq%%%%%Q%qQqQ%%q%%%Q%qQQq%%%%%%%%%Q%%q%Q%qQ%%%%%%%%%%%%%%Qq%Qq%Q%%%
17023H21%%%%%%%%%%%%Q%%qQqQ%%qQ%%%%%%%%%%%%%%%%%%Qq%QqQ%%%%%%%%%%Q%qQ%%%%%%%
17008H45%%%%qQ%%%%%%%%%%%%%Q%%%%%%%%%%%%%QqQqQ%%%%%%%%%%%%%%%%%%%%%QqQ%%%%%%
16992H69%%%%%%%%%%%%%Q%%qQ%%%%%%%%%%%%%%Q%%%%%qQ%%%%qQ%%%%%%Q%Qj6qQQ%%k4K4qQ
16977H93%%%%%%qQQ%%%qQ%qQ%%%%%%%%%Q%%%%qQ%qQ%%%%%%%Q%%qQ%%%%%%%%%%%%%%%%QqQ%
16962I25%%%qQ%%%%%%%%%%%%%%%%Qq%Q%%%%%%%%%%%%%%Q%qQ%%%%%%%%%Qq%Q%%qQ%%%%%%%%
16946I49%%%%%%%Q%%%%%%%%%%%%%%Q%qQqQ%%%%%%%%%%%%%%%%Q%%%%%qQ%%%%%%%%%QqQ%%%%
16931I81%%%%%%%%%Q%%%%%%%%%%%%Q%q%Q%%%%%%%%%%%QqQqQq%Q%qJ6q%%%%%QqQ%q%%Q%%%%
16915A013Qq%%%%%%Q%%qQ%%%%%%%%%%%%%%QqQ%qQ%%%%%%%%QqQ%%%%%%%%%%%%%Q%%%%%%%%%
16900A045%%%%%Q%%%%%%%%%%Q%qQ%%%%%%%%%%%%%%%%%%%%Q%%%%%%%%%%%%%%%Qq%%Q%%%%%%
16885A077%%QqQ%%%%%%%%%%%%Q%%%%%%%%%%%%QqQ%%qQ%%%%%%Qq%Q%%%%%%%QqQ%qQ%%%%%%%
16869A117%%%%%%%%%%Q%%%%%%%%%Qq%Q%qQ%%QqQq%%Q%%%Qq%%QqQqQqQ%%%%%%%%%%%%%%Q%%
16854A157%%%%%%%Q%%%qQ%%%%%%%%%%Q%%%%%%%%%%QqQ%%%%%%%%%%%%%%%QqQ%%%%%QqQ%%%%
16839A197%%%%%%%Q%%%%%%%%%%%%%%QqQ%%%%%%%%%QqQqQ%%%%%%%%Q%%%%%%%%%%%Q%%%%%%Q
16823A245q%%%Q%%%%%%%%QqQ%%%%%%%%Qq%Q%%%%%%%%%%%%%QqQqQ%%%%Q%%%%%%%%%%Q%%%%%
16808A285%%Qq%Q%%%%%%%%%QqQ%%qQ%%%%qQ%Qq%Q%%qJ6q%QqQ%%%%QqQq%Q%%qQ%%%%%%%%Q%
16793A333%%%%%%%%%Q%%%%%%%%%Qq%Q%%%%%%Q%%%%%%%%%%Q%%%%%%%%%%%Q%%%%%%%Q%%%%%%
16777A381%%QqQ%%%%%%Q%%%%%%%%%QqQ%%%Qq%%%Q%qQ%%%%%%%Q%%%%%%%Q%%%%%%%%%%Q%%%%
16762A437%%%%Q%%%%%%%%%%Q%%%%%%%QqQ%qQ%%%%%%Q%%%%%%%%%QqQ%%%%Q%q%%Q%%%%%%QqQ
16747A493%%%%%%%%%Q%%%%%%%%Q%%%%%%%Q%%%%%Q%%%%%%Q%qQ%%%%%%%Q%%%%%Q%qQ%%%%Q%%
16731A557%%%%%Q%%%%%%%%%QqQ%%%%%%%%Q%%%%%%%%%%Q%%%%%%Q%%%%%%Q%%%%%%Q%%%%%%%Q
16716A621%%%%%%Q%%%%qQ%%Q%%%%%Q%%qQ%%%Q%%%%%%%%%QqQ%%%%Q%%%%%%%%%%%Q%%%%%Q%%
16701A685%%%Q%qQ%%%Q%%%%%%%Q%%%%%%QqQ%%%%Q%q%Q%%%Q%%%%%%Q%%%%%%%QqQ%%%%Q%qQQ
16685A765%%%QqQq%%Q%qQQ%qQ%%%%%%%%Q%%%%QqQqQ%%%Q%%%%%%Q%%%%%Q%%%%%%Q%%%Q%%%%
16670A837%%%Q%%%%%QqQ%%%%%%Q%%%Q%%%%%Q%%%%%%%%%QqQ%%%Q%%%%%%Q%%%%%Q%%%%%Q%%%
16655A917%QqQ%%%%QqQ%%%%%Q%%%Q%%%%Q%%%%%%Q%%%%%%%Q%%%%Q%%%%%Q%%QqQ%%%%%Q%%Qq
16639B005%Q%%%%Q%%%QqQ%%%%Q%%%%%%%Q%%%%Q%%%Q%%%%%%Q%%%Q%%%%Q%qQ%QqJ6%q%%Qq%Q
16624B101%%Q%%%Q%%%%%%Q%%%%Q%%%QqQ%%%QqQ%%%Q%%%QqQ%%%%Q%%%Q%%%Q%%%%%Q%%%%%Q%
16609B205%%%Q%%%%Q%%%%Q%%%%Q%%%Q%%%%%Q%%%Q%%%%%Q%%Q%%%Q%%%Q%%%%%Q%%%%Q%%%%Qq
16594B309Q%%Q%%%Q%%%%Q%%%Q%%%Q%%%%Q%%%%%Q%%%%Q%%%%Q%%Q%Qq%Q%%Q%%%%Q%%%Q%%%Q%
16578B437%%%%Q%%%Q%Q%%%%%Q%%%Q%%%Q%%%QqQ%QqQ%%%Q%Q%%%Qq%Q%J6j6Q%QqQ%%Q%%%Q%%
16563B557%Q%%Q%%%%Q%%Q%%%%Q%%%Q%%Q%%%%Q%%%Q%%%Q%QqQ%%%Q%%%%Q%%Q%%Q%Q%%%Q%%%Q
16548B701%QqQ%Q%%%%Q%%%Q%%%Q%%Q%%%Q%%Q%%%Q%%%Q%%%Q%%Q%Q%%%%Q%%Q%%%Q%%Q%%Q%%%
16533B845%Q%%%Q%%Q%%%Q%%Q%%Q%%Q%%%Q%Q%%Q%%%Q%%Q%%Q%%%Q%%Q%%Q%%%Q%Q%%Q%%%Q%Qq
16517C005Q%QQqQ%%Q%%Q%%%Q%Q%%Q%%%%J6%%%Q%QQqQq%J6%QqQ%%%%%QQ%%Q%%Q%%Q%Q%%Q%%
16503C181Q%%Q%Q%%%Q%%Q%Q%%Q%%Q%%Q%%Q%Q%%Q%%Q%Q%%Q%%Q%Q%%%QQ%%%Q%%Q%%Q%Q%%Q%Q
16487C381%%Q%%Q%Q%%Q%Q%%Q%Q%Q%%Q%%Q%%Q%%Q%QqQQ%Q%%Q%Q%%Q%Q%%Q%Q%Q%%Q%Q%Q%%Q%
16472C589Q%Q%%Q%Q%%Q%Q%%Q%Q%Q%%QQ%%Q%%Q%Q%Q%%Q%Q%Q%%Q%Q%Q%Q%Q%QqJ6%%Q%Q%Q%%Q
16457C821%Q%%Q%Q%Q%Q%Q%Q%%Q%%QQQ%%Q%QQ%QqQQQ%%%QQ%Q%Q%Q%Q%%QQ%Q%Q%Q%Q%Q%Q%%Q
16441D077Q%QQ%Q%%Q%QQ%%QQ%%QQ%%QQ%Q%Q%Q%Q%%QQ%Q%QQ%Q%Q%QQ%%Q%Q%Q%Q%Q%QQQ%Q%Q
16426D365%Q%Q%QQ%Q%Q%QQ%Q%J6%%QQ%Q%%QQ%Q%QQQ%%Q%Q%QQ%QQ%Q%QQ%Q%Q%QQ%QQ%Q%QQ%
16411D669Q%QQQ%Q%QQ%Q%QQ%QQ%Q%QQQ%Q%Q%QQQ%QQ%QQ%Q%QQ%QQ%QQ%QQQ%Q%QQQ%QQQ%QQ%
16396E021QQQ%QQ%QQ%QQ%Q%QQQ%QQQQqJ6Q%QQ%QQQ%QQ%QQ%QQ%QQQ%QQQQ%QQQ%J6%QQ%QQQQ
16381E405%QQQQ%QQQ%QQQ%QQQQ%QQQQ%QQQQQ%J6%QQ%QQQQQ%QQQQ%QQQQQ%QQQQQ%QQQQQQ%J6
16366E837%QQQ%J6%Q%J6QQQQ%QQQQQQQ%QQQQQQQQQ%QQQQQQQQQQQQ%QQQQQQQQQQQQQQQQQQQ
16351F309QQ%J6Q%J6%J6%QJ6%J6Q%QJ6QQQQQ%J6QQQQQQQQQQQQJ6Q%J6QQQQQQQQQQQQQQJ6Q
16338F781Q%J6QQQJ6QQQ%J6QQQJ6%QJ6j6K4L2j6J6QK4j6J6QJ6%J6K4qJ6QQ%J6K4%QQJ6%J6
16327G197J6%J6QQQQQQJ6QQQQJ6QQQJ6QQQJ6QQJ6%J6QQJ6%J6QQQJ6QQJ6QQJ6QJ6%J6QJ6QQ
16316G701J6QQJ6QQJ6QQJ6QQJ6QQJ6QQJ6QQJ6QJ6QQJ6QJ6QQJ6QJ6QQJ6QJ6QQJ6QJ6QJ6QJ6
16305H237QJ6QJ6QJ6QJ6QJ6QQJ6QJ6QJ6QJ6QJ6QJ6QJ6QJ6J6QJ6QJ6J6QQJ6J6QJ6QQK4QJ6Q
16294H781J6J6QJ6QJ6J6QJ6QJ6J6J6QJ6QJ6J6J6QJ6QJ6J6J6QQK4J6QJ6J6QJ6J6QJ6J6QJ6J6
16285I333J6QK4QJ6J6J6QJ6J6J6QJ6J6J6J6J6J6QJ6J6QK4QJ6J6J6J6J6J6QK4QJ6J6QJ6K4Q
16276I901K4J6J6J6QJ6J6J6J6J6QL2QJ6J6J6J6J6J6J6J6J6J6J6J6J6J6J6K4J6J6QK4J6J6J6
16268A0485J6J6J6J6J6K4J6J6J6J6J6K4J6J6J6J6J6K4J6J6J6K4QK4J6J6J6J6J6K4J6J6J6K4
16260A1077J6J6K4J6K4J6J6K4J6J6K4J6J6J6K4J6K4J6J6K4J6K4J6J6K4J6K4J6J6K4J6K4J6
16252A1701K4J6K4J6J6K4J6K4J6K4K4J6K4J6K4J6K4J6K4K4J6K4K4J6K4J6K4J6K4K4K4J6K4
16245A2381K4J6K4K4K4K4J6K4J6K4K4K4J6K4K4K4K4J6L2J6K4K4K4J6K4L2J6K4K4K4K4K4K4
16237A3125K4J6L2J6K4K4K4K4K4K4K4K4K4K4K4K4K4K4L2K4J6L2K4K4K4K4K4L2K4K4K4K4L2
16230A3933K4K4K4L2K4K4L2K4K4K4L2K4K4L2K4K4K4L2L2K4K4K4L2K4L2K4L2K4K4L2K4L2K4
16222A4813L2L2K4L2K4L2K4L2K4L2L2K4L2L2L2K4L2K4L2L2L2K4L2L2L2K4L2M0K4L2L2K4L2
16215A5789M0K4L2L2L2L2K4M0K4L2M0L2L2L2L2L2L2L2L2L2M0K4M0L2L2L2L2L2M0L2L2L2M0
16207A6869K4M0L2M0L2L2M0L2M0L2L2M0L2M0L2M0L2L2M0M0L2M0M0L2L2M0M0M0L2M0M0M0L2
16199A8053M0M0M0L2M0M0M0L2M0M0M0M0M0M0M0M0M0L2M8M0M0M0M0M0M0M0M0M8M0M0M0M0M0
16192A9365M8M0M0M8M0M8M0M0M0M8M8M0M0M8M0M8M0M8M8M0M8M0M8M8M8M0M8M8M0N6M0M8M0
16184B0829N6M8M8M0M8N6M0M8M8N6M8M8M8M8M8M8N6M8M8M8N6M8N6M8M8N6M8N6M8M8N6M8N6
16177B2477N6M8N6M8N6N6N6M8N6N6N6N6N6M8N6N6N6N6O4M8N6N6O4N6N6N6N6O4N6N6O4N6N6
16169B4317O4N6O4N6O4O4N6N6O4O4O4N6O4O4O4N6O4O4O4O4O4O4O4O4O4P2O4O4O4O4P2O4O4
16162B6397P2O4P2O4P2P2O4P2O4P2O4Q0O4P2P2O4P2Q0P2P2O4Q0P2P2P2P2Q0P2P2Q0P2P2Q0
16154B8757Q0Q0P2Q0P2Q0Q0Q0Q0Q0Q0Q0Q0Q0Q0Q0Q0Q0Q8Q0Q0Q8Q0Q8Q0Q8Q0Q8Q0Q8Q8Q8Q8
16147C1453Q0Q8Q8Q8Q8Q8R6Q8Q8Q8R6Q8R6Q8R6Q8R6R6Q8R6R6R6J04R6R6R6R6R6J04R6R6J04
16139C4437R6J04J04R6J04R6J04J04J04J04J04J04J12J04J04J12J04J04J12J12J12J04J12
16134C6853J12J12J12J12J12J12J12J12J20J12J20J12J20J20J20J12J28J12J20J28J12J28
16129C9413J20J20J28J28J20J28J28J28J20J36J28J28J28J28J36J28J28J36J36J28J36J36
16124D2245J36J36J44J36J36J36J44J44J36J44J44J44J44J44J44J52J44J44J52J44J60J44
16119D5397J52J52J52J60J52J52J60J60J60J52J60J60J60J68J60J60J68J68J60J68J68J68
16114D8917J68J76J68J76J68J76J68J84J76J76J76J84J84J76J84J84J84J84J92J84J92J84
16109E2861J92J92J92J92J92K00K00J92K00K00K00K08K00K00K08K08K08K16K00K16K16K08
16104E7301K24K08K16K24K24K16K24K24K24K24K32K32K32K32K24K40K32K32K48K40K24K56
16099F2333K48K40K48K40K56K56K40K64K56K56K64K56K64K64K64K72K64K72K72K72K80K72
16094F8053K80K80K80K88K88K80K88K96K88K96K96K96L04K96L12L04L04L12L12L12L20L12
16089G4597L20L20L28L28L28L28L36L28L44L36L44L36L52L44L52L52L52L52L68L60L68L60
16084H2133L68L76L76L76L84L84L76L92L92L92L92M00M00M08M00M08M16M16M16M24M24M24
16079I0877M32M32M32M40M48M40M48M56M56M56M64M64M72M72M80M72M80M88M88M96N04M96
16074A01093N04N12N04N20N20N28N28N28N36N44N44N44N52N60N60N68N76N68N76N84N92N92
16069A13133N92O08O08O08O16O24O24O40O32O40O48O56O56O64O72O72O80O80O96O96P04P04
16064A27453P20P20P28P36P36P44P52P60P60P76P76P84Q00Q00Q00Q16Q16Q32Q32Q40Q48Q64
16059A44693Q64Q72Q80Q88Q96R04R12R20R36R36R44R60R60R76R84R92J000J008J024J024J040
16054A64613J056J056J072J088J088J096J112J128J136J144J152J168J184J184J208J216J224
16050A83925J240J256J264J280J296J304J312J336J344J360J376J384J416J416J424J448J472
16046B06853J472J496J512J536J544J560J576J592J624J632J648J664J696J696J720J752J768
16042B34341J784J832J800J840J872J904J904J936J952J976K008K040K048K064K120K128K144
16038B67693K184K208K232K264K288K320K344K384K408K432K472K496K528K568K600K632K664
16034C08717K704K736K768K808K856K888K920K968L008L048L080L128L176L216L264L312L352
16030C59949L400L456L496L552L600L656L712L760L816L872L936L992M048M112M176M240M296
16026D25069M376M432M512M576M648M720M792M880M952N032N120N192N288N368N456N552N648
16023E09613N744N832N936O040O144O248O360O472O584O704O824O944P072P200P336P464P608
16019F22125P752P896Q040Q200Q352Q512Q680Q856R024R200R384R576R760R968J0168J0376
16015G65869J0600J0816J1040J1280J1520J1760J2024J2280J2552J2832J3112J3408J3712
16012I22805J4032J4344J4680J5024J5376J5736J6120J6504J6904J7320J7744J8192J8640
16009A133421J9112J9600K0104K0632K1160K1728K2304K2904K3528K4168K4840K5528K6248
16006A425277K6992K7768K8568K9408L0272L1176L2112L3096L4104L5168L6264L7424L8616
16003A846245L9864M1176M2536M3952M5448M7000M8632N0328N2112N3984N5944N7992O0152
16000B485365O2416O4800O7296O9928P2704P5624P8704Q1952Q5376Q9000R2832R6888J01176
15997C524061J05728J10552J15672J21128J26920J33080J39656J46672J54168J62168J70736
15995E010541J79928J89784K00376K11768K24032K37272K51568K67032K83800L01984L21760
15992G679845L43296L66800L92480M20631M51520M85504N22977N64400O10295O61313P18135
15990A3217196P81656Q52857R32952J023360J125767J242273J375344J528009J704007J907944
15987B5691365K145560K424017K752456L142473L609096M171848M856525N697536O741451
15985F1232327Q052191R718863J1867803J4681502J8428422K3511483L0547621M0497544N4874617
15983B73412373P6049500J07564648J53838256K16647018K80752039K83264192J29596204
15982A521124230j29596204k83264192k80752039k16647018j53838291j07564579p6049534
15980B73412373n4874600m0497544l0547638k3511483j8428422j4681519j1867786r718846
15978F9284535q052203o741456n697527m856534m171856l609088l142473k752456k424025
15976B7836917k145552j907944j704007j528009j375344j242265j125784j023351r32952q52857
15974A3998852p81656p18135o61313o10295n64400n22977m85504m51520m20623l92488l66800
15971H023141l43296l21760l01984k83792k67040k51568k37272k24040k11760k00376j89784
15969E190469j79928j70736j62176j54160j46672j39656j33088j26912j21120j15680j10552
15966C629789j05728j01184r6880r2832q9000q5376q1952p8704p5624p2704o9936o7296o4792
15963B547781o2416o0152n8000n5936n3984n2112n0328m8632m7000m5448m3960m2536m1168
15960A886109l9864l8624l7416l6272l5160l4112l3088l2112l1176l0272k9408k8568k7768
15957A452269k6992k6248k5528k4832k4176k3528k2896k2312k1728k1160k0632k0104j9600
15954A152533j9112j8648j8184j7744j7320j6904j6504j6112j5744j5376j5024j4680j4344
15951I36837j4032j3712j3408j3112j2832j2552j2280j2024j1760j1520j1280j1040j0816
15948G76469j0592j0384j0168r968r760r576r384r208r024q848q680q512q352q200q040p896
15945F29877p752p608p464p336p200p072o944o824o704o584o472o360o248o144o040n936n840
15941E15349n744n640n552n456n376n280n200n112n032m952m872m800m720m648m576m512m432
15937D29445m376m296m240m176m112m048l992l936l872l816l760l712l656l600l552l504l448
15933C63349l400l360l304l264l216l176l128l088l040l008k968k920k888k848k808k776k736
15929C11421k696k672k632k600k568k520k504k472k432k408k376k352k320k288k264k232k208
15925B69877k176k160k128k096k080k056k032k000j984j960j928j912j888j880j840j824j808
15921B36125j784j768j744j728j704j688j664j648j640j608j600j576j560j552j520j512j496
15918B08333j480j464j448j440j416j400j392j376j352j352j328j320j304j288j280j272j248
15914A85173j240j224j224j200j192j184j168j152j144j136j120j112j104j088j080j072j064
15910A65669j048j040j032j016j016j000r92r84r68r68r60r44r36r28r28r12r04q96q88q80
15905A46429q72q64q56q48q48q32q24q24q16q00q00p92p84p84p68p68p60p52p44p36p36p28
15900A28893p20p12p12o96p04o88o88o80o72o72o64o56o56o48o40o32o40o24o24o16o08o08
15895A14333o00o08n92n84n84n84n68n76n52n68n60n52n52n44n36n36n36n20n28n20n20n12
15890A02101n04n04n04m96m96m88m88m80m80m72m72m72m64m64m56m56m48m56m40m48m40m32
15885I1741m32m32m24m32m16m16m16m16m08m08m00m00m00l92l92l92l84l84l84l84l76l76
15880H2877l76l68l60l68l60l60l60l52l52l52l44l52l44l36l44l28l36l36l28l28l28l20
15875G5245l28l20l12l20l12l12l12l04l12k96l04l04k96k96k88k96k96k80k96k80k80k88
15870F8613k80k80k72k80k72k72k72k64k72k64k56k64k64k56k56k64k48k56k56k48k48k48
15865F2821k48k32k48k40k56k24k40k32k40k32k40k16k40k24k24k24k24k24k24k16k16k16
15860E7741k24k08k16k08k08k16k08k08k08k08k00k08k00k08k00j92k00j92k00k00j92j92
15855E3245j92j92j92j84j84j92j84j84j84j76j84j84j76j76j84j76j76j76j76j68j68j76
15850D9261j68j68j76j68j68j60j68j68j60j60j60j68j60j52j60j60j60j52j60j52j52j60
15845D5701j44j60j52j44j52j44j52j44j52j44j44j44j44j44j36j44j44j36j44j36j44j36
15840D2517j36j36j36j28j36j36j28j36j28j36j28j28j28j36j28j28j28j20j28j28j20j28
15835C9653j20j28j20j12j28j12j28j12j20j20j20j12j20j12j20j12j20j12j12j12j12j12
15830C7077j12j12j12j04j12j04j12j12j04j12j04j04j12j04r6j12j04r6j04j04j04r6j04
15824C4637j04r6j04r6r6j04r6r6r6j04q8j04r6q8r6r6r6q8r6q8r6q8r6r6q0r6q8q8r6q8q8
15817C1709q8q0r6q0q8q8q8q0q8q8q0q8q0q8q0q8q0q0q0q8p2q8q0p2q8q0p2q0q0q0q0p2q0
15810B8989q0p2q0p2q0p2q0p2p2p2p2q0p2p2q0o4p2q0o4q0p2o4p2p2o4p2p2p2o4p2o4p2p2
15802B6597o4o4p2p2n6p2o4o4o4p2o4o4o4o4o4n6p2n6o4p2n6o4o4n6o4o4o4n6o4n6o4o4n6
15795B4501o4n6n6o4n6n6o4n6n6o4n6n6n6n6o4m8n6o4n6n6n6m8n6n6n6n6n6n6m8n6n6m8n6
15787B2637n6m8n6m8n6n6m8m8n6m8n6m8m8m8n6m8n6m8m8m8n6m8m8m8m8m8m8m8m8m8n6m0m8
15779B0981m8m8m8m8m0n6m0m8m8m0m8m8m0m8m8m8m0m8m0m8m0m8m8m0m0m8m0m8m0m0m8m0m8
15772A9493m0m0m8m0m0m0m0m8m0m0m0m0m0m0m0m0m8l2m0m0m8l2m0m0m0m0m0m0m0l2m0m0m0
15764A8165m0m0l2l2m0m0m0l2m0m0m0l2l2m0l2m8l2l2m0l2m0l2m0l2m0l2m0l2l2m0l2l2m0
15757A6965l2l2m0l2l2m0k4m0l2l2l2l2m0l2l2l2l2l2m0k4l2m0l2l2l2l2l2l2l2l2k4l2m0
15749A5877k4l2l2l2k4l2l2k4m0k4l2l2k4m0k4m0k4k4l2k4l2l2l2l2k4l2k4l2k4l2l2k4l2
15742A4901l2k4l2k4l2k4k4l2k4l2k4k4l2k4l2k4l2k4l2k4k4k4l2k4k4l2k4k4l2k4k4l2k4
15734A4005k4k4l2j6l2k4k4k4k4l2j6l2k4k4k4k4k4k4k4k4k4l2k4k4k4k4j6l2k4k4k4j6k4
15727A3197k4k4k4k4k4k4k4k4k4k4k4k4j6k4k4k4k4k4k4j6k4k4j6k4k4k4j6k4k4k4j6k4k4
15719A2445j6k4k4j6k4k4k4j6k4j6k4k4j6k4j6k4k4k4j6k4j6k4j6k4j6k4j6k4j6k4k4j6j6
15712A1765k4j6k4k4j6j6k4j6j6k4j6k4j6k4j6j6k4j6j6k4j6k4j6j6k4j6j6k4j6j6j6k4j6
15704A1133k4qk4j6j6k4j6j6j6k4j6j6j6j6k4j6j6j6j6k4j6j6j6k4j6j6j6j6j6j6j6k4j6j6
15696A0533j6j6j6j6j6j6j6j6j6k4j6j6qk4j6j6j6j6j6j6j6j6qk4j6j6j6j6j6j6j6j6j6j6
15688I981qk4qj6k4qqk4j6j6j6j6j6qk4j6qj6j6j6j6j6qj6j6j6j6j6qj6j6qj6j6j6j6qj6j6
15679I405j6qj6j6j6qj6j6qj6j6j6j6qj6j6j6qj6j6qj6qk4qj6j6qqj6j6j6qj6j6j6qj6qj6
15670H861j6qj6qj6j6qj6j6qj6j6qj6qj6qj6qj6qj6qj6qj6qj6qj6j6qqj6qj6qj6qj6qj6j6
15660H325%k4%j6j6qqj6j6qqj6qqj6j6qj6qj6qqj6qqj6qj6qj6qj6qj6%j6qj6qj6qqqj6qj6
15650G805qqj6qqj6qqqj6qqqj6qj6qqj6qqqj6qj6qqqqj6qqqj6qqqj6qqqj6qqqqj6qqqqj6q
15638G269qqqqj6qqqj6%qj6qqqqj6qqqj6qqqqqqqj6qj6%qj6%j6j6Qj6%k4%qj6qqqqqqqqqq
15625F781j6q%j6%qqj6qqqqqqqqj6%j6qqq%j6qqqqqqqqqqqqqqqqqqqqqqqqqqqqqqqqqqqqq
15611F277qqqqqqqqqq%qqqqqqqqqqqqqqqq%qqj6%qqqq%j6%qqqq%qqqqqq%j6%j6%qqqq%qj6
15597E821q%qqqqq%j6%qqqq%qqq%qqqq%qqqq%qqq%qqqqqq%j6%qq%qqqqq%j6%qq%qqqq%qqq
15583E405q%qq%qqq%qqq%j6q%qq%qq%qqq%qqq%qq%qq%j6%qQqk4Qj6%%qj6%q%qq%j6%q%qqq
15569E045%%j6%q%qq%qqq%qqq%%qq%q%qqq%qq%qq%qq%qq%q%qqq%q%qq%qq%q%qq%qq%qq%q%
15554D709qqq%q%qq%qq%q%q%qqq%qq%q%q%qq%qq%q%qq%q%q%q%qq%q%%qqq%q%qq%q%%qq%qq
15538D381%q%q%qq%q%q%%qq%q%q%qq%q%q%%qq%qq%q%q%q%q%qq%q%q%q%qq%q%%q%q%q%q%q%
15523D101q%q%q%q%q%qq%%q%q%q%q%q%q%q%%qq%%qq%%q%q%qj6J6qqqQqq%q%q%q%%q%q%q%q
15508C845%%qq%%q%q%%qqq%%q%q%%q%q%%q%q%%qq%q%%qq%%q%q%%q%q%q%%q%%q%q%q%%qq%%
15493C613%qq%%%qq%%q%%q%q%%q%%q%q%%q%q%q%%qq%%q%%j6Qq%q%%q%%q%%q%q%%q%q%q%%q
15478C397%q%%%qq%%%q%q%q%%%q%q%%%q%q%%q%%q%q%%q%q%%q%%%q%q%%q%%q%%q%q%%%q%q%
15462C205%q%q%q%%%q%%q%%q%%q%%q%%q%q%%q%%%%q%q%%%%j6%%qQq%%q%q%%qqQq%%q%%q%%
15447C029q%%%q%%q%%%q%%q%%q%%q%%%qq%%%%q%q%%q%%%q%%q%%q%%%q%%q%%q%%%q%q%%q%%
15432B861%q%%%q%%%q%%q%%%q%%%q%qQq%q%%q%%q%%%q%%%%q%q%%%q%%%q%%%q%%%q%%%q%%q
15416B709%%%q%%q%%%q%%q%%%q%%q%%%%q%%%q%%%%q%%q%%q%%%%q%%q%%q%%%%q%%%q%%%q%%
15401B573q%%q%%qQ%q%qQ%%qq%%%Qj6%q%%qJ6j6QqQ%j6%%qQ%q%%%q%%%q%%qQq%q%Qqq%%%q
15387B445%%%q%%%%%%q%%qQq%%q%%%q%%%%%q%Qj6%%%q%%%%q%%%%q%%%%q%%%%q%%%%q%qQq%
15372B333%%q%%%q%%%%q%%%%q%%%q%%%%%%q%%%q%%%q%%%q%%%%%q%%%q%%%%q%%%%%q%%q%%%
15356B221%q%%%%%q%%%q%%%%q%%%%%q%%%q%%%%%q%%%%%qQq%%%q%%%q%%%%q%%%%qQq%qQq%%
15341B117%%%q%%%%%qQj6J6j6%Qj6Q%q%%%%%%q%%%q%%%%q%%%%q%%%%%q%%%%%q%%%%%q%%%%
15327B029q%%%%%%q%%%%q%%%%q%%%%q%%%%qQq%%%%q%%%%%%%q%%%%q%%%q%%%%%%%q%%%%q%%
15311A933%%%%%qQq%%q%%%%qQq%%qQq%%%%%%q%%%%%%q%%%%%%q%%%%%%q%%%%q%%%%%%%q%%%
15296A853q%%%qQ%qQq%%%q%Qq%%%%q%%%%%q%%%%q%%%%%%%q%%%%%%%qQq%%%%%qQq%%%%q%%%
15281A773qQ%q%%%%%%%%j6Q%qQ%q%%%%q%Qq%%%%%q%%%%q%Qq%%%%%qQq%%%%q%%%%%%%qQ%q%
15265A701%%%q%Qq%%%%qQ%%q%%%q%%%%%%q%%%%%%qQq%%%%%q%%Qq%%%q%%%%%%q%%%%%%%%qQ
15250A637q%%%qQ%q%%%qQ%%q%%%%%%%%q%%%%%%q%%%%%%q%%%%%%%q%%%%%%%%qQq%%%%%q%%%
15235A565%%q%%%%%%%qQ%q%%%%%%%%%%qQq%%%%%q%%%%%%%q%%%%%%%%%q%%%%%%q%Q%qqQq%Q
15219A509%q%Qq%%%%%%%q%%%%%%q%%%%%%%%q%%%%%%%%%%q%%%%%%q%%%%%%%q%%%%%%%%%q%%
15204A445%%%%%%qQq%%%%%%%%%q%%%%%%%qQ%q%%%%%%%%qQq%%%%%%q%%%%%%%%%%%%q%Qq%%%
15189A397%%%%%q%%%%%%%%%q%%%%%%%%%%q%%%%%%qQq%%%%%%q%%%%%%%%%qQ%q%%%%%qQ%%%%
15173A349%q%%%q%Qq%%%%%%qQq%%%%%%%%q%%%%%%%%qQq%%%%%%qQ%qQq%%%Q%qqQ%%%qQ%q%%
15158A293%%%q%QqQq%%%%%%%%qQq%%%%%%%%%%q%%%%%%%%%q%%%%%%%%%%%%q%%%%%%%%%%%%q
15143A245Qq%%%%%%%%q%%%%%%%%%%qQ%%q%%%%%%%%%%q%%%%%qQqQ%q%%%%%qQqQq%%%%%%%%%
15127A205%%%%%%q%%%%%%%%%%%%%%q%%%%%%%%%qQqQq%%%%%%%%%%%%q%%%%%%q%Qq%%%%%%%q
15112A157Q%%qQq%%%%%%%%q%%%Qq%Qq%%qQqQ%qQQq%q%Qq%J6j6qQ%qQq%Q%j6Q%%q%Q%q%%Qq
15097A125Qq%%%%%%%%%qQq%%%%%%%%%%qQ%q%%%%%%qQ%q%Qq%%%%%%%%%%%%%qQq%%%%%%%%%%
15082A093%%%%qQ%q%%%%%%q%Qq%%%%%%%%%%%q%Qq%%%%%%qQqQ%q%%%%%%%%%%%%qQqQq%Qq%%
15067A053%%%%%%%%%q%Q%qQqQ%%q%%%%%%%%q%%%Qq%%%%%%%%%%qQq%%%%%%%%%%%%q%%%%%%%
15051A021%%%%%%%%%%q%%%Qq%%%%%%q%%%%Qq%%qQ%%%%q%Q%%%q%Q%%q%%%%%%%%%%%%%%%%%%
15036I97q%%%%%%%%%%%qQqQq%%%%%%%%%%%q%%%Qq%%%%%%%%%%%qQq%%%%%%%%%%%%%%%%%q%Q
15021I65q%%%%%%%%qQ%qQ%%%qQq%%%Qq%%%qQ%qQ%%q%%Qq%%%%%%%%%%qQq%%Qq%%%%%%%%%%q
15005I25%%%%%%%%%%%%%%%%%qQ%%q%%Qq%%%%%%%q%Qq%%Q%q%%%%%%%%%%%%%%%qQq%%%%%%%%
14989I01%%%%%%qQqQ%q%%%%%%%qQ%%q%QqQ%q%%%Qq%%%%Q%q%%%%%%qQ%qQq%%%%%%%%%%%%%%
14974H77%%%%%%q%%QqQqQq%%%%%%%%%qQq%%%%%%%%%%%%%%%%%%%%%qQq%Qq%%%%%%%%%%%%q%
14958H45Qq%%%%%%%%%%%qQ%%%%%%%%%%qQ%%q%%%%%%%%%%%%%qQq%%%%%%%%%%%%%%%%qQ%%%%
14943H29q%%%%%%%%%%%%%%%%%%%%qQ%q%%%%%%%%%%%%%%%%%%%%%%q%%%QqQ%q%%Qq%%Qq%%qQ
14927H05Qj6QqJ6%q%%q%%%%%%%%%%%%%qQ%qQ%%%%qQqQq%%%%%%%%%%%%%%%q%Qq%%%%%%%%%%
14912G81%%%%qQ%q%%%%%%%%%%%%%%%%%%%%%%%%%qQ%qQ%%%%%qQqQ%q%%%%%%%%%%q%Q%q%%Qq
14896G57%%%%%%%%%%%%%%%%%%%%%%q%Qq%%%Qq%%%%%%%%q%%%%%QqQq%%%Q%qQq%%%%%%%%q%Q
14881G41q%%Qq%%%%%%%%%%%%%%%%%%%%%%%qQq%%Qq%Qq%Qq%%%%%%%%%%%%%%qQq%%Q%q%%%%Q
14865G25q%%%%%%%%%%%%%%%%%%%%%%%qQ%q%%%%%%Qq%%%Qq%%%%%%%%qQ%%%qQ%%q%Qq%%%%%%
14850G01%%%%%%%%%%%%%%q%%%%%%%%%%%%%%%%%%%%%%%%qQ%qQq%%%%%Q%q%Qq%%%%%%%%%%%%
14834F85%qQ%%%%%%qQq%Q%q%%%%%%%%%%%%%%%%%%%%%%%%%qQ%qQ%q%Qq%%Qq%%%%Qq%%%%%%%
14819F69%%%%%%%qQ%q%%%%%%%%%%%%%%%%%%%qQ%%%%%%%q%Q%%q%%%%qQ%%%%qQ%%qQ%%%%qQq
14803F45%%%%%%%%%%%%%%%%%%%%%%%%%%%%%%%qQ%%%%%%qQq%%%%%%%%%%%%%%%%%%%%%%%%%%
14788F37%%%%%%q%%%%%%%%%%%%%%%%%%%qQ%%%q%QqQ%q%%Q%q%%%%%%%%%%%%%%%%%%%%%qQ%%
14772F21%%%%%%%q%Qq%%%%%%%%%%%%%%%%%%%%%%qQq%%%Q%%q%%%%%%%%%%%%%%%%%%%%%%%%%
14756F05qQ%%qQq%%%%%%%qJ6q%%qQ%%%%%%%qQ%%%%%%%%%%%%%%%q%Qq%%QqQqQ%q%%%%%Q%q%
14741E89%%%%%%%%%%%%%%%%%%%%%%q%%%%%%%%%%%%%%%%%%%%%%%%%%%%%%%%%%%%%%%%%%%%%
14725E81q%QqQq%%%%%%%%%%%%%%%%%%%%%%%%%%%%%%%qQq%%%%%%%%%%%%%%%%%%%%%%%%%%%%
14710E65%%%%%%%%%%q%Q%qQq%%%%%%%%%%%%%%%%%%%q%%%QqQqQ%q%%Q%q%%%Qq%%%%%%%%%%%
14694E49%Qq%%%%%qJ6q%%%%%%qQ%%%%%%%%%qQ%q%%%%%%%%%%%%%%%%%%%%%%%%%%%%%%%%q%%
14679E33Q%qQqQqQq%%%%%%%%%%%%%%%%%%%%%%%%%%%%%%%%%%qQqQ%q%Qq%%%%%%Q%%q%%%%%%
14663E25qQ%%%%%%%%%%%%%%%%%%%%%%%%qQ%%qQq%%%%%Qq%%Qq%%%%%%%%%%%%%%%%%%%%%%qQ
14648E17q%%QqQq%%%%%%%%%%%%%%%%%%%%%%%%%%qQ%%%%%%%%%%%%q%%%QqQ%j6QQ%qQj6Q%Qq
14633E01qJ6j6Q%%Qq%%%%%%%%%%%%%%qQ%%%%%%%%%%q%%%%%%%%%%Qq%%%Q%qQ%%q%%%QqQ%%q
14618D93%Qq%%%%%%%%%%%%%%%%%%%%%%%qQ%qQ%%%%%q%%%%%%%%%%%%%%qQ%qQ%%%qQ%qQ%%%%
14602D85%%%%%%%%%%%%%%%%q%%%%%%%%%%%%%%%%%%%%%%%%%%%%%%%%%%%%%%%%%q%%Q%qQ%%q
14587D69%Qq%%%%%%%%%%%%%%%%Qq%%%%%%%%qQqQ%%%%%%%%%%qQ%qJ6k4J6%qQQk4J6%q%%%%%
14572D61%QqQq%%%Qq%%Qq%Q%q%%%%%%%%%%%%%%%%%%%%%%%%%%%qQqQqQ%q%Q%qQ%%%%%%%q%%
14557D53%%%%%%%%%%%%%%%%%%%%%%%%%%%%%%%%qQ%%%q%Q%%%%q%Q%qQq%%%%%%Qq%%%%%%%%%
14541D45%%%%%%%%%%%%%%%%%%%%%%%%%%qQ%%qQqQqQ%%%%%%%qQq%%%%%%Qq%%%%%%%%%%%%%%
14525D37%%%%%%%%%%%%%%%%%q%Q%%%q%Q%%qQ%qQ%%%q%%%QqQqQqQ%q%%%%%%%%%%%%%%%%%%Q
14510D37q%%%%%%%%%%%%%%%%%%%%%%%%%%%%%qQqQqQq%%%%%%%%Qq%%%%%Qq%%%%%Qq%%%%%%%
14494D21%%%%%%%%%%%%%%%%%%%%q%QqQ%q%Qq%QqQ%q%%%%%%%%%%%%%%%%%%%%%%%%%%%qQ%%%
14479D13q%QqQqQ%%%%%%%%%%%%%%%%%%qQ%qQ%%qQ%%qQ%%%q%QqQq%%%%%%%%%%%%%%%%%%%Qq
14463D05%%%%%%%%%%%qQq%J6qqJ6%qQk4qL2j6%%%k4L2j6QQ%qq%J6q%%%Qq%Qq%%%%%%%%%%%
14450C97%%%%%%%%%%%%%%%%%%%%%%%%%%%%%%%%qQ%q%Qq%Qq%%%Q%%qQ%%qQ%qQqQqQ%%%q%%%
14434C89%%%%%%%%%%%Q%q%%Qq%%Qq%%%%%%%%%%%%%%%%q%%%QqQ%%%%%%qQq%%%Qq%Qq%Qq%%%
14419C81%%%Qq%QqQ%%%qQq%%%%%%%%%%%%%%%%%%%%%%%%%%%%%%%%%%%%%qQ%%%%qQ%%%%%%%%
14403C81%qQqQ%%%%%%qQ%qQ%q%Q%%qQ%%q%Qq%QqQ%%q%%%%%%%%%%%%%%%qQ%%q%%Q%%qQ%%%%
14387C73%%qQ%%%%%%%qQ%q%Q%%%q%%%Qq%%%%%%%%%%%%%%%%%%%%%%%%%%%%%%%%%%%%%%%%%%
14372C65%%%%%%%%%%%qQ%%%%%%%%%%%%%%%%%qQqQ%qQ%%%%qQq%%%%%Q%%q%Qq%%Qq%%%%%%%%
14356C57%%%%%%%%%%%%%%%%%%%%%%%%%%%%%%%%%%%%%%%%%%%%qQqQ%%qQqQ%q%%%Q%%q%Qj6J6
14341C57j6QQq%qQqQ%%%%%%%Qq%%QqQq%%%%%%%%%%%%%%%%%%%%%%%%%%%%%%%%%%%%%%%%%%%
14326C49%%%qQ%q%Q%q%Qq%%%%Q%%%%%%%%%qQ%q%%%%%%%%%%%%%%%%%%Q%q%%%%%Qq%%%%Qq%%
14310C41%%%%%%%%%%%%qQ%qQqQq%%%Qq%QqQ%%%%%%qQ%%%%%%q%%%%%%%%%%%%%Qq%%%%%Qq%%
14295C33%%%Qq%%%Qq%Qq%%%%%%%%%%%%%%%%%%%%%%%%%%%%%%%qQqQ%q%Q%%qQq%Q%qQ%qQqQq
14279C25%%%%%%%%%QqQqQ%%%%%%%q%%%%%%%%%%Qq%%%%%%%%%%%%%Qq%%%%%%%%%%%%%%%%%%%
14263C25%%%%%%%%%%%%%%%%%%%%%%%%%q%QqQqQq%QqQ%%%q%Q%qQ%q%%%%%%%%%%%%%%%%%%Qq
14248C17%%%%%%%%%%%%%%%%%%%%%%%%%%%%qQ%%qQ%%%%qQ%%%%%%%%%%%%%%%%%%%%%qQ%%qQ%
14232C17%%%%%%%%qQ%qQ%%%%%%qQ%%%qQqQ%%qQ%qQ%%q%%%%qJ6q%%%Qq%%%%%%%%%%%%%%%%%
14217C09%%%%%%%%%%%%%%%%%%%%%%%%%%%%%%%%%%%%%qQ%%%%%%%%%%%%%%%%%%%%q%%Q%%%%%
14201C09q%Q%%q%%Qq%%%%%%%%%%Qq%Qq%%%%%%%%%%Qq%%%%%%%%%%%%%%qQ%%%%%qQq%Q%%%%%
14186C01%qQ%%%%%%%%%%%%%%%%qQ%%%%%%%%%%%%%%%%%qQ%%%%q%Q%%qQqQqQ%q%%%%%%%Q%qQ
14170C01qQqQqJ6j6qJ6q%qJ6Qk4K4k4qK4q%QQ%k4QJ6j6qQQqqQ%%%%qQ%%%%%%%%%%qQ%%Qq%
14157B93%%%%%%%%%%%%%%%%%%%%q%%Q%q%Qq%Q%%%%%%q%%Qq%%Q%%qQqQqQ%%q%%%%%%%%%Q%q
14142B85Qq%%%%%%%%%%%Qq%%%%%%%%%%%%%%%%%%%%%%%%%%%%%%%%%%%%%%%%%%%%%%%%q%Q%%
14126B85%%%%%%%%%%%%%%%q%Q%%%%%qQ%%%q%QqQ%%%%qQqQ%q%%Q%q%%%%%%%%%%%%%%%%%%%%
14110B77%QqQqQ%qQqQ%%qJ6qk4J6%Q%%j6J6qQ%%q%%%%%%%%%%%%%%%%%%%%%qQqQqQ%%%%%%%
14096B77%%%%%%%%%%%%%%%%%%%%%%%%%qQ%%%q%%%%Q%q%%Q%q%Q%%%%%%%%qQ%qQq%Q%q%Q%q%
14081B69%%%%%%%%%%%%Qq%%Qq%%%%%%%%%%%%%%%%%%%%%%%%%%%%%%%%%%%%%%%%%%%%%%%%%%
14065B69%%%%%%%%qQ%%%qQ%%%%%%%%%%%%q%Q%%q%QqQ%%%qQ%%qQ%%qQ%qQ%%qQqQq%%%%Qq%%
14049B61%%%Q%q%%%%%%%qQ%%%%%%%%%%%%%%%%Qq%%%%%%%Qq%%%%%%%%%%%%%%%%%%%%%%%%%%
14034B61%%%qQ%%%%%%%%%%%%%%%%%%%%%%q%%%QqQq%%Q%%%%q%Q%%%%qQ%qQ%q%%Q%%q%%%QqQ
14018B61qQq%QqQq%Qq%Q%q%%%%%%%%%%%%%%%%%%%%%%Q%%qQ%%%%%%%%q%%%%%%Qq%%%%%%%%q
14003B45Q%%%%%%%%%%%%%%%%%%%%%%%%%%%%%%%%%%%%%%%%%%%%%qQ%%%%%%Qj6Q%qQqQqJ6qj6
13988B37J6j6J6%%%%qQ%%%%%%%%%%%%%%%%%%%%%q%Qq%%%%%%%%%Qq%Q%qQ%%qQqQq%%%%%%%%
13973B45%%%%%%%%%%%%%%%%%%%%%%%%%%%%%%%%%%%%%%%%%%%%%%%%%%qQ%q%QqQqQ%%%%%%%%
13957B45%%qQq%Q%%%%qQ%%%%%%%%%%%%%%%qQ%q%%%%Q%%%%%%%%%%%%%%%%%%%%%%%%%%%%%qQ
13942B45q%Q%%q%Qq%Q%qQ%%%%qQqQ%%q%%Q%q%%%Qq%%Q%q%%%%%%Qj6J6q%%%%%%%%%%%Qq%%%
13926B37%%%%%%%%%%%%%%%%Qq%%%%%%%%%%%%%%%%%%%%q%QqQqQ%%%%%%%%%%%%%%%%%%%%%%%
13911B37%%%%%%%q%%Q%%qQ%qQqQ%%%q%Q%%%%%%%%%%%qQqQ%%qQqQqQ%%%q%%%%%%%%%%%%%%%
13895B29%%%%%%%%%%%%%%Q%q%%%%%%%%%%%%%%Q%q%Qq%%Qq%%%%Q%q%%Q%q%%%%%%%%%%%%%%%
13880B29%%%%%%%%%%%%%%%%%%%%%%Qq%%%Qq%Qq%qJ6q%%qQ%q%Q%%%%%%%%%%%%%%%%%%%%%%%
13864B29%%%%%%%%%qQ%%qQ%%qQ%%q%%%%%%%%%%%%%%%%%%%%%%%%%Qq%%%%%%%Qq%%%%%%%%%%
13849B21Qq%%Qq%%%%%Q%qQq%%%%Qq%%%%%%Qq%Qq%%%%%%%%%%%%%%%%%%%%%%%%%%%%%%Qq%%%
13833B21%%%%%%%%%%%%%%%%%%%%%%%%%%%%%%%%%%%%%%%%%%%%%%%%%%%%%%%%%%%%%qQ%%%%%
13818B21%%%%%%%%%%%%%%%%qQqQq%Q%%%qQ%%%%%%%%%%%qQ%qQ%q%%%%Qq%QqQq%%%Qq%Qq%%%
13802B13%%%%%%%%%%%%Qq%Qq%%%%%%%%%%%%%%%%%%%%%%%%%%%%%%%%%%%%%%%%%%%%%%%%%%%
13787B13%%%%%%%qQ%%qQ%%%%%%%%%%%%%%%%%qQ%q%QqQ%qQ%%%%%%%%%%%%%%%%%%%%%q%%%%Q
13771B13%%qQ%%%%qQ%%%%%qQ%%%qQ%%q%%%%QqQqQqQ%%qQ%qQ%%%q%%%%%%%%%%%%%Q%%q%%Qq
13755B05Q%%qQq%%Qq%Q%q%%%%%%%%%%%%%%QqQq%%%%%%%%%%%%%%Qq%%%%%%%Qq%Qq%Qq%%Q%q
13740B05%%%Q%q%%%%%%%%%%%%%%%%%%%%%%%%%%%%%%%%%%%%%%%%%%%%%%%qQ%%%%Q%q%%%Q%q
13724B05%%%%%%%%%%%%%%%%%%%%%%%%%%%%%%%%%%%%%%%%%%%%%%%%%%%qQ%%q%%QqQq%Qq%Q%
13709B05q%Qq%Qq%%%%QqQqQ%%%%qQ%%%%%%%%%q%%%%%%Q%qQq%Q%q%Qq%Qq%Qq%Q%qQ%%%%q%%
13693A97Q%%%%%%%qQ%qQq%QqQq%%%%%Q%q%%%%%%Qq%%%%%%%%%%%%%%%%%%%%%%%%%%Qq%%%%%
13678A97%%%%%%%%Qq%%%%%%%%%%%%%%%%%%%%%%%%qQ%%%%qQ%%%%%%%%%%%Qq%%%%%%%%%%%%%
13662A97%%%%%%%%%%%%%%%qQ%%%%%%%%%%%%%%%%%%qQ%qQ%qQ%%qQ%%qQ%%%%%%qQ%%qQ%%%%%
13647A97%%%%%%%%%%q%Qq%%%Q%q%%%%%Qq%%%%%Q%q%%J6qQqj6J6%%q%QqQq%Qq%%Qq%%%%Qq%
13632A89%%%%%%%%%%%%%%%%%%%%%%%%%%%%%%%%%%%%%%%%%%%%%%%%%%%%%%%%%%%%%%%%%%%%
13616A89%%%%%%%%%%%%%%%%%%%%%%%%%%%%%%%%%%%Qq%%%%%%%%%%%%%%%%%%%%%%%%%%%%%%%
13601A89%%%%%%%%%%%%%%qQ%%%%%%%%%%%%%%%%%%%%%%%qQ%%%%%%%%%%%%%%%%%%%%%%%q%Q%
13585A89%%%%%%%%%%qQ%qQqQ%q%%Qq%Q%q%%%%%Qq%Qq%%%Qq%%%%%%Q%qQ%qQqQq%Q%%qQqQ%%
13569A89%%%%%qQ%q%Qq%%%%%%%%%%Qq%%%%%%%%%%%%%%%%%%%%%%%%%%%Qq%%%%%%%%%%%%%%%
13554A81%%%%Qq%%%%%%%%%%%%%%%%%%%%%%%%%%%%%%%%%%%%%%Qq%%%%%%%%%%%%%%%%%%%%%%
13538A81%%%%%qQ%%%%qQq%%Q%%%q%Q%%%%%%%%%%%%%%%%%%%%%%%%%%Qq%%%%%%%%%%qQ%Qq%%
13523A81%q%QQj6Q%%qqJ6J6j6qJ6q%Qj6Qj6J6%%%q%%Qq%%Q%%q%Q%%%%%qQ%%q%%%%%%%%%Qq
13509A73%%%Qq%%%%%%%%%QqQq%%%%Q%%%%qQ%%%%%%%qQq%%%Qq%Qq%%%%%%%%%%%%%%%%%%Qq%
13493A73%%%%%Qq%Qq%Qq%%%%%%%%%%%%%%%%%%%%%%%%%%%%%%%%%%%%%%%%%%%%%%%%%%Qq%%%
13478A73%%%%%%Qq%%Q%q%%%%%%%%%%%%%%%%%%%%%%%%%%%%%%%%%%%%%%%%%%%%%%%%%%qQ%%%
13462A73%%qQ%%%%%%qQ%%qQ%%qQ%%%%%%%%%%%%%%%%%%%%%%%%%%q%Q%q%Qq%%%%Q%q%Q%q%Qq
13447A65Q%%q%Qq%%Q%%%%%%qQ%%%%%%%%%%%%%%%%%%%%%%%%%%%%%qQ%%%%%qQ%%%%%q%QqQ%q
13431A65%%Q%q%%Q%qQqQ%%%qQqQ%%qQ%%%q%Qq%%Qq%Qq%%Qq%Qq%%%%%%%%%%Q%%%%%%%qQ%%%
13416A73qQ%%%qQ%qQ%qQ%q%%Q%q%Q%qQq%%%%%%%%%%%%%%Qq%%%%%%%%%%%%%%%%%%%%%%%%%Q
13400A73q%%%%%%%%%%%%%%%%%%%%%%%%%%%%%%%%%%%%%%%%%%%%%%%%%%%%%%%%%%%%%%%%%%%
13384A65%%%%%%%%%%%%%%%%%%%%%%%%%%%%%%%%%%%%%%%qQ%%%%%%%%%%%%%%%%%%%%%%%%%%%
13369A65%%%%%%%%%%%%%%%%%%%%%%%%qQq%%%%%%Q%%%q%Q%%qQ%q%Q%%qQqQ%q%Q%%%%qQ%q%%
13353A57%%%%%%%%Q%qQq%%%%%%%%%%%%QqQ%q%QqQ%qQ%%%q%Q%%%%q%Q%%%qQq%%%%%%QqQqQ%
13338A65qQ%%%%q%%%QqQq%Qq%QqQ%%qQ%%q%%%%Q%%%%%q%%%%%%%%%%%Q%%%%qQ%%%q%%Qq%%Q
13322A65q%%%%Qq%Qq%Q%qQ%%qQ%%qQq%%%Qq%%Qq%Q%%%q%%%%%%%%%%%%%%%%%%%%%%%%%%%%%
13307A57%%%%%%%%%%%%%%%%%%%%%%%%%%%%%%%%%%%%%%%%%%%%%%%%%%%%%%%%%%%%%%%%%%%%
13291A57%%%%%%%%%%%%%q%%Q%%q%%Qq%%Q%%j6Q%QqQ%%%%%%%%%%%%%%%%%%%%%%%%%%%%%%%%
13276A57%%%%%%%%%%qQ%%%%%qQ%%qQ%%qQ%%%qQ%%%%q%Qq%Q%%%qQ%%%%%%%%%%%%qQqQ%%q%%
13260A49%Q%q%%%%%%%%%Qq%Qq%Q%%qQ%%qQ%%%%%%%qQqQ%%%qQ%%%%qQ%q%Qq%%%%%%%%%%%%%
13245A49%%%%%%%%%%QqQqQ%q%%%%%%%%%%%%%%%%%%%%%Q%%q%%Qq%%%Qq%Q%q%Qq%QqQ%Qj6%Q
13229A57Qq%j6J6qQ%%j6QqQ%%%%%Qq%%%Q%q%%%%%Qq%%%%%%%%%%%%%%%%%%%%%%%%%%%%%%%%
13214A49%%%%%%%%%%%qQ%%%%%%%%%%%%%%%%%%%%%%%%%%%%Qq%%%%%%%%%%%%%%%%%qQ%%%%%%
13199A49%%%%%%%%%%%%%%%%%%%%%%%%%%%%%%%%%%%%%%%%%%%%%%%%%%%%%%%%%%%%%%%%%%qQ
13183A49%%%%%%%%%%%%%%%%%%%%%%%%%%%%%%%%%%%%q%QqQ%qQ%%%q%%%%%Q%q%%Q%%q%Q%qQq
13168A41J6q%%%%Qq%%%%%%%%%%%%%%q%%Q%%q%%QqQqQqQ%%%%qQqQ%%%qQqQq%%QqQ%qQq%%Qq
13152A41Qq%%Qq%%Q%qQ%qQqQ%qQ%%%%%qQ%%%%%%%%q%%%%%QqQ%%%%%%%%%%%%%q%%Qq%Qq%%%
13137A41%%%%%%%%%%%%%%%%%%%%%%%%Q%qQ%q%%%%%%%%%%%%%%%%%%%%%%%%%%%%%%Qq%QqQ%%
13121A49%%%%qQ%%qQ%%%%%%%%%%%%%q%%%%%Qq%%%Qq%Qq%%%%%QqQ%%qQ%q%%%%%%%%Qq%%%%%
13106A41%%%%%%%%%%%%%%%%%%%%%%%%%%%%%%%%%%%%%%%%%%%%%%%%%%%%%%%%%%%%%%%%%%%%
13090A41%%%%%%%%%%%%%%%%%%%%%%%%%%%%%%%%%%%%%%%%%%%%%%%%%%%%%%%%%%%%%%%%%%%%
13075A41%%%%%%%%%%%%%%%%%%%%%%%%%%%%%%%%%%qQqQ%%%%%%%%%%%%%%%%%%%%%%%%%%%%%%
13059A41%%%%%%%%%%%%%%%%%%%%qQ%%qQq%%Q%%q%%qJ6%qQj6J6q%Q%q%QqQ%%%%%%qQ%%%%%%
13044A41%%%qQ%%%qQqQ%%%%q%%Q%%%%%%%%%%qQ%%%q%%Q%qQ%%%qQq%%%%%%%%%%%%%%%%%%%%
13029A33%%%%Q%%%qQq%%%%QqQqQ%qQq%%QqQ%%qQqQ%q%%%%%Q%%%%%q%Q%q%%%%%%%%%%%%%%%
13013A33%%%%%%Q%%q%%%%%%%QqQ%%qQq%%QqQ%q%%%%%%%%%%%%%%%%%%%%%%%%%%%%Q%q%%%%%
12997A33%%%%%%Qq%%%%%Q%%j6Q%%%Qq%%Qq%%QqQq%%Q%qQ%%%q%QqQq%%%%%Qq%Q%q%%%%Q%%%
12982A41q%Qq%%%%%%Qq%%Qq%%%%%%%%%%%%Qq%%%%%%%%%%%%%%%%%%%%%%%%%%%%%%%%%%%%%%
12967A33%%%%qQ%qQ%%%%%%%%%%%%%%%%%%%%%%%%%%Qq%%%%%%%%%%%%%%%%%%%%%%%%%%%%%%%
12951A33%%%%%%%%%%%%%%%%%%%%%%qQ%%%%%%%%%%%%%%%%%%q%Q%q%Q%%%%%%%%%%%%%%%%%%%
12935A33qJ6q%qQQq%qQ%%%%%qQ%%%%q%QqQqQqQ%%%%%%%%%%%%%%%%%%%%%%%%%%qQ%%%%%%%%
12920A33%%%%%%%%%%%%%%%%%%%%%%%%%%%%%%%%%%%%qQ%%%%qQ%q%%%Qq%%%Q%q%Qq%%Qq%Qq%
12905A25Q%%qQ%q%Q%%q%%%%Q%%qQ%%q%Q%%%%%%%%%%%%%%qQ%%qQq%%%%%Qq%%%%%%%%%%%%%%
12889A25%%%%%Q%q%%%Qq%%%Q%%q%Q%qQq%Qq%%%%QqQqQ%qQq%Q%q%%%%%%%%%%%Q%qQ%%%%q%%
12873A25Q%q%%Qq%%%%%%%%%%%%%%QqQ%%%q%Q%qQq%%Q%%%q%Q%%%q%%Qq%Q%%%%%qQq%Qq%%%%
12858A25%%Qq%%%%%%Q%q%%%%%%%%%%%%Qq%%%%%%%%%%%%%%%Qq%%%%%%%%%%%%%%%%%%%%%%%Q
12842A33q%%%Q%q%%%%%%%%%%%%%%%%%%%%%%%%%%%%%%%%%%%%%%%%%%%%%%Qq%%%%%%%%%%%%%
12827A25Qq%%Q%%%q%QqQq%%%%%%%%%%%%%%%%%%%%%%%qQ%Qq%%%%qQ%qQ%%%%%%%%%%%%%%%%%
12811A25%%%%%%%%%%%%%%%%%%%%%%%%%%%%%%%%%%%%%%%%%%%%%%%%%%%%%%%%%%%%%%%%%%%%
12796A25%%%%%%%%%%%%%%%%%%%%%%%%%%%%%%%%%%%%%%%%%%%%%%%%%%%%%%%%%%%%%%%%%%%%
12780A25%%%%%%%%%%%%%%%%%%%%%qQ%%qQ%%qQ%%qQ%%%%%%%%%%%%%%%%%%%%%%%%%%%%%q%Q%
12764A25%%qQ%%%qQ%qQ%%%qQqQj6K4k4J6q%%Q%q%Q%qQq%Qq%%%%Q%%%q%Q%%qQ%%%qQq%%%Qq
12750A17QqQqQq%Qq%Q%%qQq%QqQq%%%QqQq%%%Qq%%%Q%q%%%QqQ%%q%%%%%%%%%Q%%%%%%%%%%
12734A25%%%%%%%%%%%%qQq%%%%%%%%Qq%%%%%%%%%%%Qq%%%%%%%%%%%Q%q%%%%%%%%%%%%%%%%
12719A17%%%%%%Qq%%%%%%Qq%%%%%%%%%%%%%%%%%%%%%%%%%%QqQq%%%%Qq%%%QqQq%Q%qQqQ%q
12703A17%%%%%QqQ%j6Q%Qq%%%Q%%q%%Q%%%qQq%%Qq%Q%%q%%%%Q%q%%%%%%%%%%%%%%%%%%%%%
12688A17%%%%%%%%%%%%%%%%%%%%%%%%%%%%%%%%%%%%%%%%Qq%%%%%%%%%%%%%%%%%%%%%%%%%%
12672A17%%%%Qq%%Qq%%%%%%%%%%%%%%%Qq%Qq%%%%%%%%%%%%%%%%%%%%%%%%%%%%%%%%%%%%%%
12657A17%%%%%%%%%%%%%%%%%%%%%%%%%%%%%%%%Qq%%%%%%%%%Qq%%%%%%%%%%%%%%Qq%%Q%q%%
12641A17%%%%%%%%%%%%%%%%%%%%%%%%%%%%%%%%%%%%%%%%%%%%%%%%%%%%%%%%%%%%Qq%%%%%%
12626A17%%%%%%%%%%%%%%%%%%%%%%%%%%%%%%%%%%%%%%%%%%%%%%%%%%%%%%%%%%%%%%%%%%%%
12610A17%%%%%%%%%%%%%%%%%%%%%%%%%%%%qQ%%%%%%%Qq%%%%%qQ%%qQ%%%%qQ%%%%%%%%%%%%
12594A17q%Q%%%%%%%%%%%%%%%%%%%%%%%%%%%%%%%qJ6q%qQ%%%qQQqq%QQj6QQj6%qK4j6%%qJ6
12580A17q%%%Q%%q%%%%%Q%%%qQ%%%%%qQ%%%%%%%%%%%%%%%%%%%%%%%%%%%%%%%%%%%%%%%%%%
12564A17%%%%%%%%%%%%%%%%%%%%%%%%%qQ%%%%qQ%%q%Qq%Q%%q%Q%qQq%%QqQ%%%%qQ%%%%%%%
12549A17%%%%%%qQ%%%qQ%q%%Q%qQ%%%%%%qQ%%%qQq%%QqQq%Q%qQqQq%Q%%%%%%%%%%%q%%%%Q
12533A17qQ%%%%%qQ%%%%%%%%q%%%%%%%%%%Q%%%%%q%QqQqQqQqQqQq%%%%%%%%%Q%q%%Qq%QqQ
12518A17%%%%%%%%%q%%%QqQq%%%%%%%%%%QqQqQqQ%%q%Qq%Q%%%%qQqQqQ%%q%QqQqQ%%q%%%%
12502A09%%%%%%%%%%%%%%%%%%QqQq%%Q%%qQqQqQ%%%qQq%%%Q%q%Qq%%%%Q%qQ%%qQqQqQqQq%
12487A09%%Qq%%Qq%%%%Q%%%%q%%%%%%%%Q%q%%%%%%%%%%%%%%%%%%%%%%%%%Q%q%%Q%%%qQ%%q
12471A09QqQq%Qq%%%%Q%%%%q%%%%%%%%%%Qq%%Qq%%Qq%%%%%%%%%%%%%%%%%%%%%%%%%%%%%%%
12455A09%%%%%%%%%%%%%%%%%%%%%%%%%Qq%%%%%%%%%%%%%%Qq%%%%%%Qq%%%%%%%%%%%%%%%%%
12440A09%%%%%%%%%%%%%%%%%%%%%%%%%%Qq%%%%%%%%%%%%%%%%%%%%%%%%%%%%%%%%%%%%%%%%
12424A09%%%%Qq%%QqQq%%%Qq%%%%%%%%%%%%%%%%%%%%%%%%%%%%%%%%%%%%%%%%%%%%%%%%%%%
12409A09%Qj6QQqQ%%q%%%Qq%%%%%%%%%%%%%%%%%%%%%%%%%%%%%%%%%%%%%%%%%%%%%%%%%%%%
12393A09%%%%%qQ%%%%%%%%%%%%%%%%%%%%%%%%%%%%%%%%%%%%%%%%%%%%%qQ%%%%%%%%%%%%%%
12378A09%%q%Q%%%%%%%%%%%%%%%%%%%%%%%%%%qQqQ%q%%%QqQ%qQqQ%%%%qQqQ%%qQ%%%%%%%%
12362A09qQ%%%%%%q%Qq%Q%%%%%%%%%%qQ%%%%%%%%%%%%%%%%%%%%%%%%%%%%%%%q%Q%%%%qQ%%
12347A09qQ%%%%%%%%%%%%%%%%%%%%%%%%%%%%%%%%%%%%%%%%%%%%%%%%%%%%%%%%%%%%%%%%%%
12331A09%%%%%%%%%%%%%%%%%%%%%%%%%%%%%%%%%%%%%qQ%%%%%%%%%%%%%%%%%%qQ%%%%%%%%%
12316A09q%%%%%Q%qQ%%q%%Qq%QqQ%%%%q%Q%%%%%%%%%%q%Q%q%%QqQq%Qq%Q%%%%qQ%%qQ%%%%
12300A09%%%%%%%qQ%%%%%%%qQ%qQq%QqQ%j6J6%q%Q%J6j6q%J6%qK4l2QQq%qQqQq%%Q%q%Qq%
12286A01Q%qQq%QqQ%%q%%QqQqQqQ%%q%Q%%%%%%%%%%%%%%%%%%%%qQ%%%%%q%%%%%%%%%%Q%qQ
12271A09%%%%%%%%%%%%%qQq%%Q%qQ%q%Q%%q%Q%%%%%%%%qQ%%qQqQ%q%Q%%%q%%%%%%%%%%%%%
12255A01%%%Qq%%Q%%%%%%%%%%%%%%%%qQqQq%Qq%QqQq%QqQ%q%%%%%%%%%%Qq%%%%%%Qq%%%%%
12239A01%Qq%%%%Qq%%%%%%QqQq%%%%%%qJ6j6Q%qQqJ6m0M8k4Q%%qJ6%%%q%%%Qq%%Q%q%Qq%%
12225A01%%%%%%%%%%%%%%%%%%%%%%%%%%%%%%%%Qq%%%%%%%%%Qq%%%Qq%%%%Q%q%%%%%%%%%%%
12210A01%%%%%%Qq%%%Qq%%QqQ%%%%%qQq%%%%%%%%%%Qq%%%%%%%%%%%%%%%%%%%%%%%%%%%%%%
12194A01%%%%%%%%%%%%Qq%%%%%%%%%%%%%%%%%%%%%%%%%%%%%%%%%%%%%%%%%%%%%%%%%Qq%%%
12179A01%%%Q%%qQq%%%%%Qq%QqQqQq%%%%%%%Qq%%%%%%%%%%%%%%%%qQ%q%Q%%%%%%%%%%%%%%
12163A01%%%%%%%%%%%%%%%QqQq%%%%%%%%%%%%%%%%%%%%%%%%%%%%%%%%%%%%%%%%%%%%%%%%%
12148A01%%%%%%%%Qq%Qq%%%%Qq%%%%%%%%%%%%%%%%%%%%%%%%%%%%%%%%%%%%%%%%Q%q%%%%%%
12132A01%%%%%%QqQqQqQq%Qq%Qq%%%%%%%%%%%%%%%%%%%%%%%%%%%%%%%%%%%%%%%%%%%%%%%%
12116A01%%%%QqQq%%q%Q%Qq%%q%%Q%%qQ%%%%%%qQ%%qQ%%%%%%%Qq%%%%%%%%%%%%%qQ%%%%%q
12101I3%Q%%%%%%%%%%q%Qq%%Q%%%%%%%%%%%%%%%%%%%%%%%%%%%%%%%%%%%%%%%%%%%%%%%%%%
12085A01%%%%%%%%%%%%%%%%%%%%qQ%%%%%%%%%%%%%%%%%%%%%%%%%%%%%%%%%%%%%%qQ%%%qQ%
12070A01%%%%%%%%%%%%%%%%%%%%%%%%%%%%%qQ%%%%qQ%%%%qQ%qQ%qQ%%%%qQ%%%q%Q%%qQqQ%
12054A01%%%qQ%%%%%%%%%%%%%%%%%%%%%qQ%%%%qQ%qQ%%%%%qQ%%qQ%%%%%%%%%%%%%%%%%%%%
12038A01%%%%%%%%%%%%%%%%%%%%%%%%%%%%%%%%%%%%%%%%qQ%%qQ%%%%%%%%%%%%%%%%%%%%%%
12023A01%%%%%%%%%%%%%%%%%%%%%%%%%%%%%%%%%%%%%%%%%%%%%%%%%%%%%%%%%%%%%%%qQqQ%
12007A01%%%%%%qQqQ%%%%%q%%QqQ%%q%%Q%qQ%%%%%%%%%qQqQ%%q%Q%q%QqQ%%%%%%%%%%%%%%
11992A01%%%%%%%%%%%%%%%%%%%%%%qQq%Q%%%%%%%%%%%%%q%Qq%%%%%Qq%QqQ%%%%%%%%%%%%%
11976A01%qQ%%%%%%qQ%%%%%%%%%%%%%%%%qQ%%%%%%%%%%q%QqQ%%%%%q%%%%%Qq%%%Q%qQ%%%%
11961A01%qQqQ%%%%%%%%%%%%%%%%%%%%%%%qQ%qQq%%Q%%%%q%%QqQ%qQ%%%%%%q%Qq%Q%%q%Qq
11945I3QqQ%%%%%%%%%%%%%%q%Q%qQq%%%%Q%q%Qq%QqQq%%%%QqQq%Qq%%%%%Q%qQqQ%%%%%q%Q
11929A01%%q%%%%%%%%%%%%%%%%%%%QqQ%%%qQqQq%Q%q%%%Qq%%Q%qQq%%Qq%%QqQ%%%%qQ%%%%
11914A01%%%q%%%%QqQ%q%%%%%Qq%%%%%%%%%%%%%%%%%%Qq%%%%%%%%%%%%%%Q%%%%%%%%%%qQq
11898I3Q%q%Qq%Qq%%%%%%%%%%%%%Qq%%%%%%%%%Qq%%Qq%%Qq%%%Qq%%%%QqQq%%%QqQq%%QqQq
11882I3Qq%Q%%qQ%qQqqQ%Qq%%%%%%%%%%%%%%%%%%%%%%%%%%%%%%%%Q%qQq%%%%%Qq%%%%%%%Q
11867A01q%Q%qQ%q%%%Q%%%%%%qQ%q%%Qq%%%%%%%%%%Qq%Q%q%%%%%%%%%%%%%%Qq%%%%%Qq%%%
11851I3%Qq%%%%Qq%%%%%%%%%%%%%%%%QqQ%qQq%%%%%%%%Qq%%%%%%%%QqQq%%%%QqQq%%%Q%q%
11835I3%Qq%%%%Qq%%%Qq%%%%%%%%%%%%%%%%%%%%%%%%%%%%%%Qq%QqQqQj6Q%QqqQ%%qQ%QqQq
11820I3%Qq%%%Qq%%%%%%%%%%%%%%%%%%%%%%%%%%%%%%%%%%%%%%%%%%%%%%%%%%%%%%Qq%%%%%
11804I3%%%%%%%%%%%%%%%%%%%%%%%%%%Qq%%Qq%%%%%%%%%%%%%%%%%%%%%%%%%%%%%%%%%%%%%
11788I3%%%%%%%%%%%%%%%Qq%%%Q%q%%%%%%%%%%%%%%%%%%%%%%%%%%%%%%%%%%%%%%%%%%%%%%
11772I3%%%%%%%%%%Qq%%%%%%%%%%%%%%%%%%%%%%%%Qq%%%%Qq%%%%%%%%%%%%%%%%%%%%%%%%%
11756I3%%%%%%%%%%%%%%%%%%%%%%%%%%%%%%%%%%%%%%%%%%%%%%%%%%%%%%%%%%%%%%%%%%%%%
11741I3%%%%%%%%%%%%%%%%%%%%%%%qQ%%%%%%qQ%%%qQ%%%%%%%%%%%%%%%%%%%%%%%%%%%%%%%
11725I3%%%%%%qQ%%%%%%%%%%%%%%%%q%Q%%%%%%%%%%%%%%%%%%%%%%%Qq%%%%%%%%%%%%%%%%%
11709I3%%%%%%%qQ%%qQ%%%%%%Qq%%%%Qq%%%%%%%%%%%%%%%%%%%%%%%%%%%%%%%%%%%%%%%%%%
11693I3%%%%%%%%%%%%%%%%%%%%%%%%%%%%%%%%%%%%%%%%%%%%%%%%%%%%%%%%%%%%%%%%%%%%%
11677I3%%%%%%%%qQ%%%%%%%%%%%%%%%%%%%%%%%%%%%%%%%%%%%%%%%%%%%%%%%%%%%%%%%%%%%
11662I3%%%%%%%%%%%%%%%%%%%%%%%%%%%%%%%%Qq%%%%%%%%%%%%%%%%%%%%qQ%%q%qQQ%q%%Q%
11646I3%%j6J6Qq%j6J6Q%j6QqQq%Q%qQ%qQ%%%%%%%%%%%%%%%%%%%%%%%%%%%%%%%%%%%%%%%%
11631I3%%%%%%%%%%%%%%%%%%%%%%%%%%%%%%%%%%%%%qQ%%%%%%%%%%%%%%%%%%%%qQqQ%%%%%%
11615I3%%%%%%%%%%%%%%%%%q%%Q%%q%Qq%QqQq%Qq%QqQ%%%%%q%Q%%%%%%%%%%%%%%%%%%%%%%
11600I3%%%%%%%%%%%%%%%%%%%%%%%%%%%%%%%%%%%%%%%%Qq%%%%%%%%Qq%%%%%qJ6q%%%%qQqQ
11584I3%%%%%%%%qQ%%%%qQqQ%%%%%qQ%qQ%%%%%%%%%%qQqQ%%%%qQ%%%%%%%%%%%%%%%%%%%%%
11568I3%%%%%%%%%%%qQ%%%%%%%%qQ%%%%%%%%%%%%%%%qQ%%%%%qQ%%%%%%%%%%%qQ%%%%%%%%%
11553I3%qQ%%qQ%%%%%%%%%%%%%%%%%%%%%%%%qQqQqQq%%%%Qq%%QqQ%%%%%%%%%%%%%%%qQ%%%
11537I3%qQ%%qQqQ%%%%%%%%%%%%%qQ%%q%%Q%%j6QQqQ%q%J6q%%%qQ%%%%%%%qQ%%%%%%%%%qQ
11521I3%qQqQ%qQq%Q%q%%%%Q%%%%qQqQqQ%%%qQ%%qQq%Q%%%%qQ%%%%%%%%%%%%qQ%%%%%%%%%
11506I3%%%%q%%%%%Q%q%Q%%q%Q%%%%%q%Q%qQ%q%Q%q%%%%%%%Qq%%%%Q%%%qQqQ%%%%%%qQ%qQ
11490I3%%%%%%%%%%%%%%%%%qQqQqQqQ%qQ%%%%%%%%qQ%%%%qQq%%%QqQ%qQ%%qQqQ%qQ%%%%%%
11474I3%%%%%qQ%%%qQq%Q%%q%Q%%%%%%%%%qQq%Q%qQ%qQ%%%qQ%%%%%qQ%qQ%%%%qQ%%q%QqQ%
11458I3q%%Q%%%qQ%q%Q%qQq%%%QqQ%%%qQ%%%q%Qq%Qq%%Q%q%Q%%%%%q%%Q%qQ%qQq%QqQ%%%q
11442H5%QqQq%QqQqQ%q%%Q%%%qQ%%%%%%%%%%%%%%%%%%%%%%%q%%%QqQq%%Q%%%%qQ%%qQ%%%%
11427I3%%%%%%%%qQ%%%qQ%%%qQ%q%%Q%%%qQq%%Q%%q%QqQq%Qq%Q%%%%%qQqQqQ%%qQ%%%qQq%
11411H5%Q%%%%qQ%qQqQ%%%%%%%q%Qq%%%%%%%%%%%%Q%%%%%%%qQ%%%qQ%%qQ%%%%%%qQ%%%%%%
11395I3qQ%%q%%%%%%%%%%%%%%%%%%%%%%%%%%%Q%%%%%qQ%%qQ%%%%%qQq%%Q%%q%Q%%qQ%%%%%
11379I3%qQ%%qQq%%QqQqQ%%%%%%%%%%%%%%qQ%qQq%%Qq%Qq%%%%%%Qq%%%%%%%Q%qQ%qQqQ%%%
11363I3%%%qQ%%qQq%%Qq%%Q%qQ%%%qQq%QqQ%%q%%Qq%%K4l2J6QqQ%%j6%%Q%%%q%QqQq%%%%Q
11349I3q%%Q%%%%%%%%%%%%%%%%%qQ%%%%%%%%%%%%%%%%%%%%%%%qQ%q%QqQq%%%%%%%%%%%%%%
11333H5%%QqQ%%%qQ%qQqQ%q%%%%%Qq%%%%%%%Qq%%%%%%Q%%%q%%%%%%%%%%%%%%%%%%%%%%%%%
11317H5%%%%%%%%%%%%%%%%%%%Qq%%%%Qq%%Qq%Qq%Q%q%Q%%qQqQqQq%%%%Qq%%Q%%q%Q%%%%qQ
11301I3qQ%qQ%%qQ%q%%QqQ%%q%Q%qQ%q%QQqq%QqQqQqQ%qQq%%QqQ%q%%Q%%q%%Q%%%q%Qq%%%
11285H5%%%%%%%%%%%%%%%Qq%Q%%q%Q%q%Q%%qQ%qQ%q%Qq%%%%Qq%QqQ%q%%%%%%%%%%%%%%%%%
11270H5%%%%%%%%%Q%qQqQ%%%%%%%%%%qQq%%%Qq%%%Qq%%%Q%%%q%%%QqQqQ%q%%QqQ%%qQ%%%%
11254I3qQq%%%%%%%%%QqQqQ%%qQ%%%qQ%q%Qq%QqQq%%%%%%%%%%Qq%%%%%Qq%%%%%%%%%%%%%Q
11238I3%q%%%Q%qQq%%Qq%Qq%Q%qQqQ%%q%QqQq%%%%Qq%%%QqQ%qQ%%%%%%%qQqQqQq%%Q%q%%%
11222H5%%%%%%%%%%%%%%%%%%%%%%%Q%qQ%qQqQ%%%q%%%%%Qq%%%%%%%Q%qQq%%%%%%%%Q%q%%%
11206H5QqQ%q%%%Qq%%%%%%%%%QqQq%%QqQq%%%%Qq%Qq%Qq%%Qq%%%%%%%%Qq%%%%%%%%%%%%%%
11191H5%Qq%%%Qq%%%%%Qq%%%%%%%%%%%%%%%%%%%%%Qq%Qq%%%%%%%%Q%qQq%Qq%%%%%qJ6q%%Q
11175I3q%%%%%%%%%%%%qQ%%%%%%%%%%%%%%%%%%%%%%%%%%%%%%%%Qq%%%%%%%%%%%%%%%%%%%%
11159H5%%%%%%%%%%%%%%%%%%%%%%%Qq%Qq%%%%%%%%%%%%%%%%Qq%%%Qq%%%%Qq%%QqQ%qQ%q%Q
11143I3q%Qq%%Qq%%%%%%%%%%%%%%%%Qq%%%%%%%%%%%%%%%%QqQ%q%%Qq%%%%Qq%%%%%%%%%%%%
11128H5QqQ%%q%%Qq%%%%%%%%%%%%Qq%Qq%Qq%Qq%%%%%%qQ%Qj6Q%Qq%%%%%%%%%%%%%%%%%%%%
11112H5%%%%Qq%%%%%%%%%%Qq%%%%%%%%%%%%%%%%%%%%%%%%%%%%%%%%%%%%%%%%Qq%%%%%%Q%%
11096I3qQqQ%q%%%%%%%%%%%%%%%%%%%%%%%%%Q%%%%%q%%%%%%%%%%%%Qq%Q%%q%%%%%%%%%%%%
11081H5%%%%%%%%%%%%%%%%%%%Qq%%%Qq%%%%Qq%%%%%%%Qq%%%%%%%%%%%%%%%%%%%%%%%%%%%%
11065H5%%%%%%%%%Qq%%Qq%QqQq%Qq%%%%Qq%%%%%%%Q%%%%%%q%%%%%%%%%%%%%%%%%%%%%%%%Q
11049I3q%Qq%%Q%q%%Qq%%%%%%%%%%%%%%%%%%%%%%%%%%%%%%%%%%%%%%%%%%%%%%%%%%%%%%%%
11033H5%%%Qq%%%%%%Qq%%%%%%%%%%%%%%%%%%%%%%%%%%%%%%%%%%%%%%%%%%%%%%%%%%%%%%%%
11017H5%%%%%%%%%%%%%%%%%%%%%%%%%%%%%%Qq%Qq%%%Qq%%%%%%%%%Qq%Q%%%%qQqQ%qQ%q%%Q
11002I3%%q%Qq%Qq%%%%%Q%q%%%%%%%%%%%%%%%%%%%%%%%%%%%%%%Qq%%Qq%%%%%%%%%%%%%%%%
10986H5%%%%%%Qq%%%%%%%%%%%%%%%%%%%%%%%%%%%%%%%%%%%%%%%%%%%%%QqQq%%%%%%%%%%%%
10970H5%%%%%%%%%%%%%%%%%%%%%%%%%Qq%%%%%%%%%%%%%%%%%%%%%%%%Qq%Qq%%%%%%%%%%%%%
10954H5%%%%%%%%%%%%%%%%%%%%%%%%%%%%%%%%%%%%%%%Qq%Qq%%%%Qq%%Q%q%%Q%q%%%%%%%%%
10938H5%%%%%%%%%%%%%%Qq%Qq%%%Qq%%%%%%%%%%%%%%%%%%%%%%%%%%%%%%%%%%%%%%%%%%%%%
10923H5%Q%qQq%%QqQqQq%%Q%q%%%%%%%%%%%%%%%%%%%%%%%%%%%%%%%%%%%%%%%%%Qq%%%%%%%
10907H5%%%%%%%%%%%%%%%%%%%%%%%%%%%%%%%%%%%%%%%%%%%%%%%%%%%%%%%%%%%%%%%%%%%%%
10891H5%%%%Qq%%%%%%%%%%%%%%%%qQQq%qQJ6j6%%%QqQ%qQ%q%%%%%%%%%%%%%Qq%%%%%%%%%%
10876H5%%%%%%%%%%%%%%%%%%%%%%%%%%%%%%%%%%%%%%%%%%%%%%%%%%%%%%%%%%qQ%%%%%%%%%
10860H5%%%%%%%%%%%%%%%%%%%%%%%%%%%%%%%%%%%%%%%%%%%%%%%%%%%%%%%%%%%%%%%%%%%%%
10844H5%%%%%%%%%%%%%Qq%%%%%Qq%%%%%%%%%%%%%%%%%%%%%%%%%%%%%%%%%%%%%%%%%%%%%%%
10828H5%%%%%%%%Qq%%%%%%%qQQq%%%%%%%%%%%%%Qq%%%%%%%%%%%%%%%%%%%%%%%%%%%%%%%%%
10813H5%%%%%%%%%%%%%%%%%%%%%%%Qq%%%%%%%%%Qq%Q%%q%%%%%%Qq%%%%%%%%%%%%%%%%%%%%
10797H5%%%%%%%%%%%%%%%%%%%%%%%%%%%%%%%%%%%%%%%%%%%%%%%%%%%%%%%%%%%%%%%%%%%%%
10781H5%%%Qq%%%%%%%%%%%%%%%%%%%%%%%%%%%%%%%%%%%%%%%%%%%%%%%%%%qQ%%Qq%%%Qq%Q%
10765I3qQq%%%%%%%%%%%%%%%%%%%%%%%%%%%%%%%%%%%%%%%%%%%%%%%%%%%%%%%%%%%%%%%%%%
10749H5%%%%%%%%%%%%%%%%%%%%%%%%%%%%%%%%%%%%Qq%%%%%%%%%%%%%%%%%%%%%%%%%%%%%%%
10734H5%%%%%%%%%Qq%%%%%%%%%%%%%%%%%%%%%%%%%%%%%%%%%%%%%%%%%%%%%%%%%%%Qq%%%%%
10718H5%%%Qq%%%%%%%%%%%%Qq%Q%q%Qq%q%QQj6QQ%q%%Qj6Qqj6%J6M0Qo4J6K4k4QQk4K4Qj6
10705H5%Qq%%Qj6J6%q%Qq%%qQQq%%Qq%%%%%%%%%%%%%%%%%%%%%%%%%%%%%%%%%%%%%%%%%%%%
10689H5%%%%%%%%%%%%%%%%%%%%%%%%%%%%%%%%%%%%%%%%%%%%%%%%%%Qq%%%%%%%%%%%%%%%%%
10674H5%%%%%%%%%%%%%%%%%%%%%%%%%%%%%%%%%%%%%%%%%%%%%%%%%%%%%%%%%%%%%%%%%%%%%
10658H5%%%%%%%%%%%%%qQ%%%%%%%%%%%%%%%%Qj6QQ%q%%%Qq%%%%qQ%%%%%%%%%%%%%%%Qq%%Q
10642I3q%%%%%%%%%%%%%%%%%%%%%%%%%%%%%%%%%%%%%%%%%%%%%%%%%%%%%%%%%%%%%%%%%%%%
10626H5%%%%%%%%%%%%%%%%%%%%%%%%Qq%%%%%%%%%%%%%%%%%%%%Qq%%%%%%%%%%%%Qq%%Qq%%%
10611H5%%%%%%Qq%%%%%%%%%%%%%%%%%%%%%%%%%%%%%%%%Qq%%%%%%%%%%%%%%%%%%%%%%%%%%%
10595H5%%%Qq%%%%%%Qq%%Q%%%%j6Q%%qQ%%%%%%%%%%%%%%%%%%%%%%%%%%%%%%%%%%%%%%%%%%
10579H5%%%%%%%%%%%%%%%%%%%%%%%%%%%%%%%%%%%%%%%%Qq%%%Qq%Qq%%%%%%%%%%%%%%%%%%%
10564H5%%QqQq%%%%%%%%%%%%%%%%%%%%qQ%qQ%%%%%%%%QqQq%%%%Q%qQ%q%%%%Qq%%%%Qq%%%%
10548H5%%%%%%%%%%%%%%%%%%%%%%%%%%%%%%%%%%%%%%%%%%%%%%%%%%%%%%%Qq%%%%%%%%%qQ%
10532H5%%%%%%%%%%%%%%%%%%%%%%%%%%%%%%%%%%%%%%%%%%%%%%%%%%%%%%%%%%%%%%%%%%%%%
10516H5%%%%%%%%%%%%%%%%%%%%%%%%%%%%%%%%%%%%%%%%%%%%Q%qQq%%%%%Qq%%%%%%%%%%%%Q
10500I3q%%%%%%%%%%%%%%%%%%%%%%%%%%%%%%%%%%%%%%%%%%%%%%%%%%%%%%%%%%%%%%%%%%%%
10485H5%%%%%%%%%%%Qq%%%%%%%%%%%%%%%%%%%%%%%%Qq%%qQ%Qq%%qQ%%Qj6Q%%qQ%%%%qQ%%%
10469H5%%%%%%%%%%%%%%%%%%%%%%%%%%%%%%%%%%%%%%%%%%%%%%%%%%%%%%%%%%%%%%%%%%%%%
10453H5%%%%%%%%%%%%%%%%%%%Qq%Qq%%%%Qq%%%%%%%%%%qQ%%%%%Qq%%%%%%%%%%%%%%%%%%%%
10437H5%%%%%%%%%%%%%%%%%%%%%%%%%%%%%%%%%%qQ%%%%%%%%%%%%%%Qq%%%%Qq%%%%%Q%q%Qq
10422H5Q%qqQJ6j6QqJ6k4J6%qQk4K4qK4l2L2k4J6l2L2m0L2%j6K4l2K4j6QJ6%%qq%qJ6q%Qq
10411H5%%Qq%%Qq%%%%%%%%%QqQq%%%%%%%%%%%%%%%%Qq%%%%%%%%%%%%%%%%%%%%%%%%%%%%%%
10395H5%%%%%%%%%%%%%%%%%%%%%%%%%QqQq%%%Qq%Qq%Q%qQq%%%%%%%%%%%%%%%%%%%%%%%%%%
10379H5%%%%%%%%%%%%%%%%%%Qq%%%%%%%%%%%%%%%%Qq%QqQ%q%%Qq%%%%%%%%%%%%Qq%%QqQ%q
10364H5%%%%Q%qQq%%Qq%%%%%%%%Qq%Qj6QQq%J6%k4Q%Qqq%Q%%%%%%%%QqQ%%q%%%%Qq%Qq%%%
10349H5Qq%%%%%%%%%%%%%%%%%%%%%%%%%%%%%%%%%%%%%%%%%%%%%%%%%%%%%%%%%%%%%%%%%%%
10333H5%%%%%%%%%%%%%%%%%%%%%%%%%%%%qQ%%%%Qq%%%%%%%%%%%%%%%%%Qq%%%%%%%%%%%%%%
10317H5%%%%%%%%%%%%%%Qq%%%%%%%%%%%%%%%%%%%%%%%%%%Q%q%%%%Qq%%Qq%%%%%%%%%%%%%%
10301H5%%%%%%Q%%%q%%%%%%%%%%%Q%%q%QqQq%%%%%%%%%%%%%%%%%%%%%%%%%%%%%%%%%%%%%%
10285H5%%%%%%%%%%%%%%%%%%%%%%%%%%%Qq%%%%%%%%%%%%%%%%%Qq%Qq%%%%%%%%%%%%%qQ%%%
10270H5%%%%%%qQ%%%%%%%%%%%%%%%%%%%%%%%%%%%%%%Q%%q%%%%%%%%%%%%%%%%%%%%%%%%%%%
10254H5%%%%%%%%%%%%%%%%%%%%%%%q%Q%%%%%%%%%%Q%q%QqQ%%q%%Qq%%%%%%%%%%%%%qQ%Qj6
10238G7J6q%%%Qj6Q%%%%%%%%Qq%%%%%%%%%%%%%%%%%%%%%%%%%%%%%%%%%%%%%%%%%%%%%%%%%
10223H5%%%Qq%%%%%%%%%%%%%%%%%%%%%%%%%%%%%%%%Q%qQqQqQqQq%%%%%%%%%%%%%%QqQ%%q%
10207H5%%%%%%%%%Qq%Qq%%%%%%%%%Qq%%%%%%%%%%%%%%%%%%%%%%%%QqQqQ%q%Qq%%%%%%%%%%
10191H5%%%%%%%%%%%%%%%%%%%%%%%%%%Qq%%%%%%Qq%%%%%%%%Qq%%qJ6%%q%%%QqQqQ%%%%qQ%
10176I3q%%%%%%%%%%%%%%%%%%%%%%%%%%%%%%%%%%%Qq%Q%qQqQq%%Q%%%q%%%%%%%%%%%%%%%%
10160H5%%%%%%%Qq%%%%%%%%%%%%%%%%%%%%%%%%%Qq%Q%q%Qq%Q%%%q%%Q%%%%%%qQq%%Qq%%%%
10144H5%%%%Qq%%%%%%%%%%Q%q%%%%%%%QqQ%q%%%%QqQq%%%%%%%%%%%%%%%%%%%%Q%q%Qq%%%Q
10128I3%qQq%Qq%%%Qq%%%%Q%%qQq%%QqQ%q%Q%q%Qq%%%%QqQqQq%%%%%%%%%%%%%%%%Qq%%%%%
10113H5%%%%Qq%Q%q%%%%%%%%Qq%%%%%%Qq%%%%%%%%%%%%%%%%%%%%%%%%%%%%%%%%%%%%%%%%%
10097H5%%%Qq%%%%%%%%%%%Qq%%%%%%%%%Qq%%Qq%%Qq%%%%Qq%%%%%%%%%%%%%%%%%%%%%%%%%%
10081H5Qq%%%%%%%%%%%%%%%%Q%q%%%%%%%%%Qq%Q%q%%%%%%%%%%Qq%%%%%%%%Qq%%Qq%%%%%%%
10065H5%%%%Q%q%%%%%%Qq%%%%%Qq%Q%qQ%%qQq%Qq%%%%%%%%%%%%%%%Qq%Q%q%%%%%%%%Qq%%Q
10049I3qQq%%Qq%%%%%%%%%%%%%%Qq%%%%%%%%%%%%%%%%%%%%%%%%%%%%%%%%%%%%%Q%qQqQ%q%
10034H5Qq%Qq%%Q%%qQq%%Qq%%%%%%%%%%%Qq%%%%%%%%%%%%%%%%%%%%%%%%%%%%%%%Qq%%%%%%
10018H5%%%%%%%Q%%%qQq%%Qq%%%%%%%%%%%%%%%%%%%%%%Qq%%%Qq%Q%q%%%%QqQq%qJ6q%%Qq%
10002H5qJ6q%%%%%%%%%%%%%%%%%%%%%%%%%%%%%%%%%%%%%%%%%%%%%%%%%QqQq%%%%%%Q%q%%%
9987H5%%%%%QqQq%%%%%%%%%%Qq%QqQq%Q%%q%%%%Qq%%%%%%%%%%%%Qq%%QqQq%Q%%%q%Qq%Q%q
9971H5%Qq%Q%q%Qq%Qq%%%%%%%%%%%%%%%%%%%Qq%%%Qq%%%QqQ%%%%q%%%%%%Qq%%%%%%%%Qq%%
9955H5%%%Qq%%%%%%%%Q%q%Qq%%Qq%%%QqQj6Qq%Q%%%%%%%QqJ6j6%%Q%%%q%Q%%%qQ%q%%%%%%
9939H5%%%%%%%Qq%%%%QqQqQq%%%%%%%%%%Qq%%%Qq%Q%%qQ%%%%%%q%%%%%%%QqQq%%%%%%%%%Q
9923I3qQq%Q%%qQ%q%Q%%q%Qq%%Qq%Q%%%q%%QqQ%qQqQ%%q%Q%q%Q%qQq%%%%QqQqQq%%%QqQ%%
9907I3%%%%%%%qQ%qQ%%%%%%%%%q%%%%%Q%qQq%%Qq%%QqQ%%%%qQ%qQ%qQqQ%%%%%%%%%%%%%q%
9891H5%%QqQ%q%QqQ%%qqQ%%%%Qq%%Q%%q%Q%q%%%%%QqQqQ%q%%Q%q%Q%q%%%%%Qq%%QqQq%%Q%
9875I3q%Q%%q%%%QqQq%%Qq%%%%%%%%%%%%%%%%%%%%%%%%%%%%%Qq%Qq%%%%%%Q%q%%%%%%QqQq
9859H5QqQqQ%%q%%Q%%%q%%QqQ%%%%qQq%Q%qQqQqQ%%%%%q%%Q%%%%%%%%%%%%q%Q%%%%q%%Qq%
9843H5%QqQ%%%%qQ%%%%%%%%%%%%%%%%q%%%Q%q%%Q%%%%%%%%%%q%Q%%%qQ%%qQq%Q%%%%%q%%Q
9827I3%%%qQq%Q%%%%%%%%%%%%%%%%%%%%%%%%%%%%%%%%%%%%%%%%%%%%%%%qQqQ%qQ%%%qQqQ%
9811I3%%%%%%%%%%q%%%%%%%Q%qQq%%Qq%Qq%%Q%%q%%Qq%Qq%%%%%%%Q%qQqQ%qQ%%%%%%%%%%%
9795I3%%%%qQ%q%%Qq%QqQq%QqQq%QqQqQqQqQ%q%Q%%qQq%%Q%%%%qQ%%%%q%%%%%%Qq%%Q%%%%
9779I3qQq%Q%q%%Q%%%q%Qq%Q%qQq%Q%qQ%Qq%%%qJ6q%qQQQk4qJ6%qQ%%%qQ%%qQq%%%%%%Q%q
9764H5%%%%%Q%q%%%%Qq%%%%%%Qq%%%%%Qq%%%%%QqQq%%%%%%%%%%%%Qq%Qq%%%QqQ%%qQqQqQ%
9748I3%q%%QqQqQq%%%%Q%q%%Q%qQ%q%%Q%%q%%%QqQq%%Q%q%Q%%qQq%Q%q%%%%%%%%%%Qq%Q%%
9732I3q%%%%%%%%Q%%%%%%%%qQq%%%%%%Qq%%%%%Q%q%%%%%%Q%q%%%%%%%Qq%%Qq%%%%Qq%%Q%%
9716I3q%Qq%Q%qQqQ%q%Q%q%%%Qq%QqQq%QqQq%QqQ%%%%%%%%qQ%%%q%Q%qQ%%q%%%%%%%%Qq%%
9700H5QqQqQ%%%%%%%q%Qq%Qq%Q%%%%%%%%%%%%%%%%%%%%%%%%%qQqQ%%%qQ%%%%%%%%%%%%%q%
9684H5Q%%%%%qQ%%%%%%%%%%%%%%q%Q%%%%%%%%%%%qQ%%qQ%%qQ%%qQq%QqQ%%%%%%%%%%%%%%q
9668H5Q%%%%qQ%qQq%Q%%qQ%%qQ%%%%%qQ%%%%%%%%%%%%%%%%%%qQ%%%q%Q%%qQq%Q%%q%Q%%%q
9652H5%Q%%qQ%%q%%Q%%%%qQ%%qQq%%%QqQ%%%%%%%%%%%%%%%qQ%%%%qQqQ%qQq%Q%%%%%%%%%%
9636I3%%%%%%%%%%%%%%%%%%%%%%%%%%%%%%%%%%%%qQ%qQ%%%qQ%%qQ%%%%%%%q%QqQ%%%%%%%%
9620I3%%%%%%qQ%%q%QqQqQ%%q%%%%Q%%%qQ%%%q%QqQ%q%%Q%%%%qQ%%%%%%%%qQ%%%%%%%%%%%
9604I3qQ%%%%%qQ%%%qQ%%%%%%%%%%%%%%%%%%%%%qQ%%qJ6%qQq%%%%%%%%%%%%%%%%%%q%%%Q%
9588I3q%%Qq%%QqQ%%%qQ%%%%%%%%%%%%%%%%%%%%q%QqQ%q%%Q%qQ%%%qQ%%qQ%%%%%%%%%%%%%
9572I3qQ%%%%%%%%%%%%%%%%%qQ%%%%%%%%%%%qQ%%%%%%%%%%%%%%%%%%%%%%%%%%%%%%%%%%%%
9556I3%%%%%%%%%%%%%%%%%%%%%%%%%%%%%%%%%%%%%%%%qQ%%%%%%%%%%qQ%%%%%%%%qQ%%%%%%
9540I3%%%%%%%%%qQq%Q%Qq%qJ6qqQ%%%Qq%%%%%%%%%%%%%%%%%%%%qQ%%%%%%%%%%%%%%%%%%%
9524I3%%%%%%%%%%%%%%%%%qQ%%%%%%%qQ%%%%%%%%%%%%%%%%%%%%%%%%%%%%%%%%%%%%%%%%%%
9508I3%%%%%%%%%q%QqQ%%%%%%%%%%%%%%%%%%%%%%%%%%%%%qQ%%%%%%%%%%%%%%Qq%%%%%%%%%
9492I3%%%%%%%%%%%%%%%%%%%%%%%%%%%%%%%%%%%%%%%%%%%%%%%%%%%qJ6j6J6q%Qk4QqK4qQq
9477I3qQqQ%%%%%%%qQ%qQ%qQ%qQ%%%%%%%%%%%%%%%%%%%q%Q%%%%%%%%%%%%%%%%%%%%%%%%%%
9461I3%%%qQqQ%%%%%%%%%%%%%%%%%%%%%qQ%%%%%%%qQ%%%%%qQ%%%%%%%%%%qQ%%%%%%qQqQ%q
9445H5Q%q%%%%%Q%%%%%%%%%%%%%%Qq%%%%%%%%%%%%%%%%%%%%%%%%%%%%%%%%%%%%%%%%%%%%%
9429I3%%%%%%%qQqQq%Qq%%%Q%q%Q%%%%%%%%q%%QqQ%%Q%qQQj6qQ%%%%%%%%%%%%%%%%%%%%%%
9413I3%%%%%%Qq%%%%%%%%%%%%%%%%%%%%%%%%%%%%%%%%%%%%%%%%%%%%%%%%%%%%%%%%%%%%%%
9397I3%%Qq%%%%%%%Qq%%%%%%%%%%Qq%%%%%%%%%%Qq%%%Qq%%%%%%Qq%%%Qq%%%%%%%%%%%%%%%
9381I3%%%%%%%%%%%%%%%%%%%%%%Qq%%%%%%%%%%%%%%%%%%%%%%%%%%%%%%%%%%%%%%%%%%%%%%
9365I3%%%%%%%%%%%%%%%%Qq%%qQQq%%%%%%%%%%%%%%%%%%%%%%%%%%%%%%QqQqQqQq%%%%%%%%
9349I3%Qq%Q%q%%%%QqQ%%qQ%q%%%Q%%q%%Qq%%%Qq%%%%%%%%%%%%%%%%%%%%%%%%%%%%%%%%%%
9333I3%%%%%%qQ%%%%%%%%%qQ%%%%%%%%%%%%%%%%%%%%%%%%%%%%%%%%%%%%%%%%%%%%%%%%%%%
9317I3%%%%%%%%%%%%%%%%%%%%%%%%%%%%%%%%%%%%QqQq%%%%%%%%%%%%QqQ%%%q%%%%%%%qQ%%
9301I3%%%%%Q%%%q%%%%%%%%%%%%%%%%%Qq%%%%%Q%qQq%%%%%%%%%%%%%%%%%%%%%%%%%%%%%%%
9285I3%%%%%%%%%%%%%%%%%%%%%%%%%%%Qq%%%%%%%%%%%%%%%%%%%%%%%%%Qq%%%%Q%q%%%%%%%
9269I3%%%%%%%Qq%%%%%%%%Qq%Q%%%q%%%%%%Qq%Q%%%q%%%%%%%%%%%%%%Qq%Qq%%%%%%%%%%%%
9253I3%%%%%%%%%%%%%%%%%%%%%%%%%%%%%%%Qq%Qq%%Qq%%%%%Q%qQq%Q%qQ%qQ%%%%%%%%%%%%
9237A01q%Q%q%%%%%%%%Q%q%%%%%%%%%%%%%%%%%%Qq%%%Qq%Qq%%Q%qQ%%qQ%%q%%QqQqQ%%q%%
9221I3%%QqQ%q%%Q%%qQq%%%Q%q%Q%%q%%%%%Q%q%%QqQqQqQqQ%%%%q%%Qq%%QqQ%%q%%%%Qq%%
9205I3%%Q%%%%%%q%%%%Qq%%%%QqQ%qQq%%%QqQ%qQ%%%%%%qQ%%%%%qQqQq%%%%%%%%%Q%q%%%%
9189I3%%%%Q%%q%%%Qj6Q%%%Q%qQ%%q%%QqQ%qQq%%%Qq%%Q%%qQq%Qq%%%%%%%%%%%%%%%%%%%%
9173I3%%%%%%%%%%%%%%%%%%%%%%%%%%%%%%%%%%%%%Qq%%%Q%qQ%qQqQq%%%%%%%%%%%%%%%%Qq
9157I3%%%Qq%%%%%%%%%%%%%%%%Qq%%%%%%%%Q%qQ%%%%%%%%qQ%q%Q%%%q%%%%%%%%%%%%%%%%%
9141I3%%%%%Qq%%%Q%%qQq%%%Q%%%%%qQ%%%%%%%%%%%%q%%QqQ%%q%%Qq%%%%%Qq%Qq%Qq%QqQ%
9125A01qQ%%%q%%%%%%%Q%qQq%%%Qq%Qq%Q%qQqQqQq%%Qq%%%%%%%%%%%%QqQ%%q%%QqQ%qQ%%%
9109A01%%%%%%%%%%%%qQ%q%%%%Qq%%%%%Q%%%q%%%QqQ%%%%%%%%%%%%%%%%qQ%qQ%%%%%%%%%%
9094A01%%%%%%%%%%%%%%%%qQ%%%%%%%%%%%%%%%%%%%qQ%%%%%%%%%%%%%%%%%%%%%%%%%%%%%%
9078A01%%%%%%q%%%%%Q%%%%%q%%Q%q%Qq%Q%%%%%%%q%Q%%%%qQqQqQQq%%qQ%%%%%%%%%%%%%%
9062A01%%%%%%%%%%%%%%%%%%%qQ%%%%%%%%%%%%%%%%%%%%%%%%qQ%%%%%%q%Q%%%%%%%%%%qQ%
9046A01%%%%%%%%%%%%%%%%qQqQ%%%%%q%Q%q%%%%Q%%%%%%%qQq%Q%%%%%%%%%%%%%%%%%%%%%%
9030A01%%%%%%%%%%%%%%%%%%%%%%%%%%%qQ%%%%%%%%%%%%%%%%%%%%%%%%%%%%%%%%%%%%%%%%
9015A01qQ%%%%%%%%%%%%%qQQq%%%%%qQQqqJ6q%%%%%%%%%%%%%%%%%%qQ%%%%%%%%%%%%%%%%%
8999A01%%%qQ%q%Qq%%%%%QqQ%%%%%%%%%%%%%%%%%%%%%%%%%%%%%%%%%%%%%%%%%%%%%%%%%%%
8983A01%%%%%%%%%qQ%qQ%q%Qq%%Q%%qQ%%%%%%%%%%%%%%%%%%%%%%%qQ%%%%%%%%%%%%%%%%%%
8968A01%%%%%%%%%%%%%%%%%%%%%%%%qQ%%%%%%%%%%%%%%%%%%%%%%%%%%%%%%%%%%%%%%%%%%%
8952A01Qk4J6Qq%Qqq%Q%%qQq%Q%%%%%%%%%%%%%%%%%%%%%%%%%%%%%%%%%%%%%%%%%%%%%%%%q
8936I3QqQ%%%%%%%%%%%%%%%%%%%%%%%%%%%%%%%%%%%%%%%%%%%%%%%%%%%%%%%%%%%%%%%%%%%
8920A01%%%%%%%%%%%%%%%%%%%%%%%%%%%%%%%%%%%%%%%%%%%%%%%%%%%%%%%%%%%%%%%%%%%%%
8905A01%%%%%%%%%%%%%%%%%%%%%%%%%%%%%Qq%%%%%%%%%%%%%%%%%%Qq%qQ%%%%QqQq%%%%%%%
8889A01%%%%%%%%%%%%%%%%%%%%%%%%%%%%%%%%%%%%%%%%%%%%%%%%%qQ%%%%%%%%%%%%%%%%%%
8873A01%%%%%%%%%%%%%%%%%%%%%%%%%%%%%%%%%%%qQqQ%%%%%%%%Qq%%%%%%%%%%%%%%%%%%%%
8857A01%%%%%%%%%%%%%%%%%%Qq%%%%%%%%%%%%%%%%%%%%%%%%%%%%%%%%%%%%%%%%%%%%%%%%%
8841A01%%%QqQqQq%QqQ%%qQ%q%Qq%Qq%%%Qq%Q%%%q%qQj6%%M0l2J6q%Q%q%qQ%%%%%Qq%%Qq%
8827A01%%%%%%%%Qq%%%%%%%%%%%%%%%%%%%Qq%%%%%%%%%%%Qq%%%%%%%%%%%%%%%%%%%%%%%%%
8811A01%%%%%%%%%%%%%%%%%Qq%Q%%%%%%qQ%%qQ%q%QqQq%%%%%%%%%Qq%%%%%%%%%%%%%%%%%%
8795A01%%%%Qq%%%%Qq%%%Q%%q%Q%%q%%%%%%%%%%%Qq%%%%%%%%%%%%%Qq%%%Q%q%QqQ%%qQ%%q
8779A01%QqQq%%%Q%qQ%q%%%Q%q%%%Q%%qQ%q%Q%qQ%q%Qq%%%%%%%%%%%%%%QqQ%%%qQ%qQ%%q%
8763A01%%%%%%%%%%%%%%QqQ%%%%%qQqQqQ%qQq%%%%%%%%%%%%%%Qq%%%%Q%qQqQ%q%Q%%%%%%%
8748A09%%%%qQ%%%%%q%QqQ%%q%%%%%Q%%q%Qq%%Qq%Qq%%%%%%%%%%%%Qq%%Qq%Q%qQqQq%Q%%%
8732A09%qQ%%%%%%%%qQ%%%%%%%%%%%%%%qQ%qQq%Qq%%%%%%Q%%%qQ%qQ%%%%%%%qQ%q%Q%q%%%
8716A01%Q%qQQj6%Q%qQ%%%qQ%qQqQ%%%%%%%%%%%%qQ%%%%q%%Qq%%%%%%%%%%%Qq%Q%%%q%%Q%
8700A09%qQ%%%qQq%%%%%%Q%%%%%%%q%%Q%q%Q%qQ%%q%QqQq%%Q%%%qQq%%QqQ%q%%Q%%%%%%%%
8685A09%%%%%%%%%%%%%%%%%%%%%%%%%%%%%%qQ%q%%%%%%Q%q%%%QqQ%%%qQ%%%%%%%%%%%%qQ%
8669A09%%%%%%q%Q%%%%%%%%%%%%%%%%%%%%%%%%%%%%%%%qQq%Qq%%QqQq%%Q%q%Q%%%%%%%%%%
8653A09%%%%%%%%%%qQ%%%q%%QqQqQ%%%%qQ%%%%q%Q%%q%QqQ%q%%QqQ%%%%%%%%%%%%%%%%qQq
8637A01%%Q%qQ%%%%%qQ%%%%%%%%%%%%q%Q%qQ%%%%%%%%%%%%%Qq%qQ%%%%%%%%qQ%%%%%%%%%%
8621A09%%%%%%%%%%%%%%%%%%%%%%%%%%%%%%%%q%Q%%%%%%%%%%%%%q%Q%%%%%%%%%q%Q%%%%%%
8606A09qQ%%%%%%%%qQ%%%%%%%%%%%%%%%%%qQQ%qqQqQ%%%%%qQ%%%%%%%%%%%%%%%%%%%%%%%%
8590A09%%%%%%%%qQ%%%%q%Q%%%%%%%%%%%%%%%%%%%%%%%%%%%%%%%%%%%%%%%%%%%%%%%%%%%%
8574A09%%%%%%%%%%%%%%%%%%qQ%%%%%%%%%%%%%%%%%%%%%%%%%%%%%%%%%%%%%%%%%%%%%%%%%
8558A09%%%%%%%%%%%%%%%%%%%%%%%%Qq%Q%q%%Qq%%%%Qq%%%Qq%%Qq%%%%%Qq%%%%QqQq%%%%q
8542A01L2k4q%%L2j6q%QQj6Qq%Qj6J6q%%Q%%%qQ%q%%%%%%%%%%%%%%%%%%%%%%%%%%%%%%%%%
8528A09%%Q%q%%%%%%%%%%%%%%%%%%%%%%%%%%%%%%%%%%%%%%%%%%%%%%%%%%%%%%%%%%%%%%%%
8512A09%%%%%%%%%%%%%%%%Qq%%%%%%%%%%%%%%%%%%%%%%%%%%%%%%%%%%%%%%%%%%%%qQ%%%%%
8497A09%%%%%%%%%%%%%%%%%%%%%QqQq%%QqQqQq%%%Qq%%%%Q%%q%Q%%%%j6J6j6QQj6J6l2J6J6
8483A17K4l2K4j6Qj6qK4Qj6j6J6q%qQQqJ6j6%%%QqQqQq%%%Qq%%%%%%%%%%Q%q%%%%%%%%Qq%
8469A09%%%%%%Qq%Qq%%%Q%qQq%%Qq%%%Qq%%%%%Qq%%%%%%%%%QqQ%%%q%%%%QqQq%%%%Q%q%%%
8453A09%Q%%q%Q%q%%%%%%%%%Qq%%%%%%%%%%%%%%%%%%%%%Qq%%%%%%%%%%Qq%%%%%Qq%%%%%%%
8438A09%%%%%%%%%%%Qq%%%%%%%%Qq%%%%%Q%qQq%%Q%%%%q%%QqQqQ%q%Qq%Q%qqQ%%%QqQq%Qq
8422A09%Q%q%%%%%%Q%q%Q%%q%Qq%Q%%qQqQqQ%%%%q%%%%Qq%%%%%QqQq%%%QqQ%q%%%%%%Qq%Q
8406A17qQ%qQq%%%%%%Qq%%%%%Q%q%%%%%%Qq%%Qq%%%%%%%%%%%%%%QqQqQ%qQ%%%qQqQ%%%%%%
8390A17%q%%%Qq%%%%%%%%QqQqQq%%%Q%%%%%%%%%%%%%%%%%qQ%q%Q%%%%qQ%%%q%%%QqQ%q%%%
8374A09Qq%QqQqQ%%%%%%%%%%%%%qQ%%qQqQq%QqQqQqQ%%%q%%%Q%%%%Qj6Q%%%q%%%Q%q%%Q%%
8359A17%q%%%%%%%Q%%%qQ%%%qQ%%%%%%%%%%%%%%%qQ%%%%%%%%%%%qQ%%%%%%%%%%%%%%%%%%%
8343A17%%%%qQ%%%%%%%%%%%qQ%%%%%%qQ%%%%%%%%q%%Q%%qQ%%q%Q%%%%%%%%%%%%%%%%%%%%%
8327A17%%%%%%%%%%%%%%%%%%%%%%%%%%%%%%%%%%%%%%%%%%%%%%%%%%%%qQ%%%qQ%qQ%%%%qQ%
8312A17%%%%%%%%%%%QqQq%%%Qq%%%%%%%%%qQ%%%%%%%%%qQ%%%%%%%%%%%%%%%%%%%%%%%%%%%
8296A17%qQ%%%%%%%%%%%%%%%%%%%%qQ%%%%%%%%%%%%%%%%%%%%%%%%%%%qQ%%%%%%%%%%%%%%%
8280A17%%%%%%%%%%%%%%%qQ%qQ%%qQ%%%%%%%%%%%%%%%%%%%%%%%%%%%%%%%%%%%%%%%%%%%%%
8264A17%%%%%%%%%%%%%%%%%%%%%%%%%%%%%%%%%%%%%%%%%%%%%%%%%%%%%%%%%%%%%%%%%Q%q%
8248A17Q%q%QqQ%qqJ6qqJ6qQ%q%Qq%%%%%%%%%%%%%%%%%%%%%%%%%%%%%%%%%%%%%%Qq%%%%%%
8233A17%%%%%%%%%%%%%%%%%%%%%%%%%%%%%%%Qq%%%%%%%%%%%%%%%%%%%%%%%%%%%%%%%%%%%%
8217A17%Qq%%%%%%%%%%%%%%%%%%%%%%%%%%%%%%%%%%%%%%qQ%%%%%%%%%%%%%%%%QqQq%%%Qq%
8201A17%%%%%%%%%%%%%%%%%Q%%%%q%%QqQqQ%q%%%%%%%%Q%%q%%%%Q%%%qQq%%%%%%%%%%%%%Q
8186A25qQq%Qq%Q%%qQ%%%qQ%%qQ%%%q%%%%%%%%%Qq%%%%%%%%Q%qQ%q%QqQ%%qQq%%%%Q%q%%%
8170A17%%%Q%q%Q%%%%%%qQ%%%qQ%qQ%%%%%%%qQ%%qQ%qQ%qQqQqQqQ%%%q%%%%%%%%%%%%%%%%
8154A17%%%%%%%Qq%%%%%Qq%%%%%%%%%Qq%Q%q%Qq%%%%%%%%%%%QqQq%%%QqQqQqQ%q%QqQ%%%%
8138A25%%%%%%%%%%%%%%%q%%Q%%qQqQ%%%qQq%QqQ%qQq%Q%qQqQ%qQq%Qq%%Q%%%%qQ%%%%%%q
8122A17Q%%%%%%%%%%%%%%%qQq%%%Qq%QqQ%q%%QqQ%%%%q%%Q%%%%%%%%%%%qQ%qQ%%%%%%%%%%
8107A25%%qQ%%%%%%%%%q%QqQq%%Qq%Q%%%%qQqQ%%qQ%qQ%%%%%%%%%%%%%%%%%%%%%%%%%%%%%
8091A25%%%%%%%%%%%qQ%%%%%%%%%%%qQ%%%%%%%%%%%%%%%%%%%%%%%%%%%%%%%%%q%Q%%%%qQq
8075A17%QqQ%%%%%%q%%Q%%%%%qQQq%%%%%%%%%%%%%%%%%%%%%%%%%%%%%%%qQ%%%%%%%%%%%%%
8059A25%%%%%%%%%%%%%%%%%%%%%%%%%%%%%%%%%%%%%%%%%%%qQ%%%%%%%%%%%%%%%%%%%%q%%Q
8044A25%qQ%%qQ%%%%%%%%%%%%qQ%%%%%%%%%%%%%%%%%%%%%%%%%%%%%%%%%%%%%%%%%%%%%%%%
8028A25%%%%%%%Qq%%%%%%%%%%%%%%%%%%%%%%%%%%%%%%%QqQq%%%Qq%Qq%%%%%Qqq%Q%%%q%%J6
8012A33qQ%q%qQ%%%%%%%%%%%%%%%%%%%%%%%%%%%%%%%%%%%%%%%%%%%%%%%%%%%%%%%%%%%%%%
7996A25%%%%%%%%%%%%%%%%%%%%%%%%%%%%%Qq%%Qq%%%%QqQq%%%%%%%%%%%%%%%%%%%%%%%%%%
7980A25%%%%%%%%%%%%%%%%%%%%%%%%%%%%%%%%%%%%%%%%%%%Q%q%%%%%%Qq%%%%%QqQ%%%%%%q
7965A25Q%%q%%%%%%%%%%%%%%%%%%%%%%%%%%%Q%%%%%%%qQ%%q%%QqQ%q%%Qq%QqQq%%%%%%%%%
7949A25%%%%%%%%%%%%Qq%%%%%%%%%%%%%%%%%QqQq%%Qq%%Qq%%Q%q%QqQ%%qQ%%q%QqQ%%qQ%%
7933A33%qQ%qQq%%%%%%%%%QqQq%%%QqQq%%Qq%%Q%qQ%%qQq%%Qq%Q%qQqQqQ%%%q%%%%Q%q%Qq
7917A25%%Q%%%q%Q%%%%%%%%%%%%qQ%%%%%%q%Q%%qQ%%qQq%Qq%%%%%%%%Qq%%QqQq%%%%QqQ%%
7901A33qQ%%%qQ%qQ%q%%Q%q%Q%%qQ%qq%J6q%%J6j6%%Q%qQ%qQ%%q%%%Q%qQ%%%%qQ%%%%%%%%
7886A33%%%%%%%%%%%%%%%%%%q%QqQqQqQ%q%%%%%%Q%%%%%%%%%%%%%%%%%%%%%%%%%%%%%%%%%
7870A33%%%%%%%%%%%%%%%%%%%%%%%%q%%Q%q%Q%qQ%%qQ%%%%%%%%%%%%%%%%%%%%%%%%%%%%%q
7855A25Q%%%%%%%%qQ%%%%%%%%%%%%%%%%%%%%%%%%%%%%%%%%%%%%%%%%%%%%%%%%%%%%%%%%%Q
7839A41qqQ%%%%q%qJ6%qQqQ%%%%%%%%%%%%%%%%%%%%%%%%%%%%%%%%%Qq%%%Qq%%%%%%%%%%%%
7823A33%%%%%%%%QqQq%%%%%%%%%%%%%%%%%%%%%%%%%%%%%%%%%%%%%%%%%%%%%%%%%%%%%%%Qq
7808A33%%%%%%%%%%%%%%%%Qq%%%%%%%%%%%%%%%%%%%%%%%qQ%%%%%%%%%%%%%%%%Qq%%%%%%%%
7792A33%%%%%%%%%%%%%%%%%%%%%%%%%%%%%%%%%%%%%%%%%%%%%%%Qq%%%%QqQq%%%qQqQ%%%%q
7776A25Q%%%%%%%%%%%%Q%qQq%%%%QqQ%q%Q%%%%%qQ%%%q%%%%%%Qq%Qq%%%%%%%%%%%%%%%%%%
7760A33%%%%%%%%%%%%%%%%%%%%%Qq%%%%%%%%%%%%QqQq%%%%%%%%%%Q%q%%Qq%%%%%%Qq%%%%%
7744A33%%%%%%%%%%%%%%%%%%%%%Qq%%%%%%%%%%%%%%%Q%%%%%%%%%%%%%%%%%%%%%%q%%%%%%Q
7729A41q%%%%QqQq%%QqQqQ%%qQqQ%%%%qQ%qQ%qQq%Q%j6J6qQqQq%%%%Q%qQqQ%qQ%%%%%%qQ%
7713A41q%Qq%QqQq%%%%%%%%QqQ%%qQqQqQ%%qQ%qQ%%%%%q%Q%%%%%%%%%%%%%%%%%%%%%%%%%%
7697A41%%%%%%%%%%%%%%%%q%Qq%%%%Q%q%%%Q%%%q%QqQ%%%%%%%%%%%%%%qQqQqQ%%%%%%%%%%
7682A41%%%%%%%%%%%%%%%%%%%%%%%%%%%%%%%%%%%%qQ%%%%%%%%%%%%%%%%%%%%%%%%%%%%%%%
7666A41Qq%%%%%%Qq%%%%%QqQq%qJ6q%%qQ%%%%%%%Qq%%%%%qQ%%%%%%%%%%%%%%%Qq%%%%%%%%
7650A41%%%%%%%%%%%%%%%qQ%%%%%%%%%%%%%%%%%%%%%%%%%%%%%%%%%%%%%%%%%%%%%%%%%%%%
7635A41%%%%%%%%%%%Qq%%QqQq%%%%%%%%%%Qq%%%%%%%%%%%%%%%%%%%%%%%%%%%%%%%%%%Qq%Q
7619A49q%%%%%%%%%%%%%%%%%%%%%%%%%%Qq%%%%%%%%%%%%%%%Qq%%%%%%%%%%Qq%qJ6Qk4%QJ6
7604A57j6qJ6qqK4j6%%%%Qq%%%%%Qq%%%%%%%%%%%%%Qq%%%%%%%Q%qQq%Qq%%%%%%%%%%%%%%%
7589A41%%%%%%%%%%%%QqQ%qQ%qQ%q%QqQ%%q%%%%%%%Qq%%%%%Qq%%Qq%%%%%Q%%q%%Qq%%%%%%
7573A41QqQ%%q%%%%%%%%Q%qQ%%%%%%qQ%%qQq%%%%%%%%%%%%%%%%%%%Qq%%%QqQ%%q%%Q%q%Qq
7557A41QqQ%%%%%%q%Q%qQ%%q%%%%Q%%%%q%%%%%%%%%%%%%%%%%%%QqQqQj6Q%qQJ6j6%Qq%qJ6
7542A49%qQ%q%Q%qQ%%%%%qQqQ%%%%%qQ%%q%QqQ%%%%%%qQ%%%%%%%%%%%%%%%%%%%%%%%%%%%%
7526A49%%%%%%qQ%qQ%%%%qQqQ%%%%%%qQq%Q%q%%Qq%QqQ%qQ%%%%%%%%%%%%%%%%%%%%%%%%%%
7511A49%%%qQ%qQ%qQ%%%%%%%%%%%%%%%%%%%%%%%%%%%%%%%%%%%qQ%%%%%%Qq%%%%%%%%%%%%%
7495A49%%%%%%%qQ%%%%%%%%%%%%%%%%%%%%%%%%%qQ%%%%%%qQq%Q%%%%%%%%%%%%%%%%%%%%%%
7479A49%%%%%%%%%%%%%%%%%%%%%%%%%%%%%%%%%%%%%%%%%%%%%%%%%%%%%%%%%%%%%%%%%%%%%
7463A49%%%%%%%%%%%%%%%%%%%%%%%%%%%%%Qq%%%Q%qQq%%%%%%%%%%%%%%%%%%%%%%%%%%Qq%%
7448A49%%%%%%%%%%%%%%%%%%Qq%%Qq%%%%%%%%%%%Qq%%Qq%%%%%%%%%%Qq%%%%%%Qq%%%%%%%%
7432A49%%%%%%%%%%%qQ%%%%qQ%%%%%QqqJ6Qq%%%%q%%%%%%Q%qQq%Qq%%Qq%%%%%%%%%%%%%%%
7416A49%%%QqQ%%%q%Q%%%qQ%%%%%qQq%%%%%%Qq%%%%%%Qq%%%%%%Q%%%%%q%%%%%%QqQ%qQ%qQ
7400A57q%%%Q%%qQqQ%%%qQ%%%%%qQ%%%%%%%%%%%%%%%%%%%%%%qQ%qQ%%%%%q%QqQqQ%%%%%%%
7385A57%%%%%%%%%%%%q%%%Qq%Qq%%Q%%%%%%%%%%%%q%%Q%qQqQ%%%%%%%%%%%%%%%%%q%QqJ6q
7369A57%qQ%q%%%Q%%qQqQqQ%%%%%%%%%%%q%Q%%%%%%%%%%%%%%%%%%%%%%%qQ%%qQ%%%%%%%%%
7353A57%%%%%%%%%%qQ%%%%%%%%%%%%%%%%%%%%%%%%%%%%%%%%%%%%%%%%%%%%%%%%%%%%%%%%%
7337A57%%%%%%%%%%%%%%%%%%%%%%%%%%%%%%Qq%%%%%%%%%%%%%%%%%%%%%%%%%%%%%%%%%%%%%
7322A57%%%%%%%%%%%%%%%%%%%%%%%%%%%%%%%%%%%%%%%QqQqQq%%%%%%%%qQQqQq%qQ%%%%%%%
7306A57%%%%%%%%Qq%%%%Q%%q%%%%%%%%%%%%%%%%%%%%Qq%Qq%%Qq%%Q%%qQ%%%%%%qQq%%%%%Q
7290A65%q%%Qq%Q%q%QqQq%Qq%%Q%q%%QqQ%%q%%%%%%%%%%%%%%%%%%%%%%%%Q%%%%%%%%%%%%%
7274A65%%%qQ%%q%%%%%%%%%%%%Q%q%%%%%%%QqQq%%Q%q%Q%%%q%QqQ%%%%%%%%%%%%%%%%%%%%
7258A65%%%%%%%%%%%%%%%%%%%%%%%%%%qQ%%qQ%%%%%qQ%%%%%%%%%%%%%%%qQ%%%%%%%%%%%%%
7243A65%%%%%qQ%%%%%%%%%%%%%%%qQ%%qQ%q%Q%qQ%%%q%QqQq%%%%%%%Q%%q%%%Q%qQ%%%%%%%
7227A65%%%%%%%%%%%%%%%%%%%%%%%%%%%%%%%%%%%%%%%%%%%%%%%%%%%%%%%%%%%%%%%%%%%%%
7211A65%%%%%Qq%%%%%%%%%%%%%%%%%%%%%%%%%%%%%%%%%%%%%%%%%%%%%%%%%%%QqQ%q%%%%%%
7195A65%%%QqQq%%%Q%qQq%Qq%qQ%%%Qq%%%%%%%%%%%%%%%%%%%%%%%%%%%%%%%%%%%%%QqQq%%
7179A65%%%Qq%%%%%%Qq%Q%q%%%%%%%%%%Qq%%%%QqQ%%%%q%QqQ%%%%%%%%q%Qq%%Qq%%%%%%%Q
7164A73%%q%QqQqQq%Qq%%Q%qQ%%%%%%q%%%%Q%qQq%Qq%Qq%%Q%q%%%%%Q%%q%%%%Q%%%%%%%qQ
7148A73%q%Q%q%Q%%%%%qQqQq%%%%QqQ%%%%%%qQ%qQ%%%qQqQ%%qQ%%q%%J6%qQj6%QqQ%%qQ%%
7133A73%%%%qQ%%%%qQ%%%%%%%%%%%%%%%%%%%%%%qQq%%Q%%%%%%qQ%%%%qQqQ%%%%%%%%%%%q%
7117A65QqQ%%%%q%Q%%%%%%%%%%%%%%%%%%%%%%%%%%%%%%%%%qQ%%%%%%%%%%%%%%%%%%%%%%%%
7101A73%%%%%%%%%%%%%%%%%%%%%%%%%%%%%%%%%%%%%%%%%%%%%%%%%%%%%%%%%%%%%%%%%%%%%
7085A73%%%%%%%%%%%%%%%%%%%%%%%%%%%%%%%%%%%Q%qqJ6%%q%qQ%%%%%%%qQ%%%%%%%%%%%%%
7070A73%%%%%%%%%%%%%%%%%%%%%%%%Qq%%%%%%Qq%%%%%%%%%%%%%%%Qq%Qq%%%%%%%%%%%%%%%
7054A73Q%%%%%qQ%q%Qq%%%Q%%%q%QqQq%%%%QqQqQqQq%Qq%%%%Q%%%%%%%%%%%%%%%%%%%%%%q
7038A73Q%%qQq%%%%%Q%%%%%%%%qQ%%q%Q%%qQ%%%%%%%%%%%qQ%%%%qQ%%%%qQqQ%%qQ%qQqQ%%
7022A81%%qQq%Q%%%%%qQ%q%Qq%%%Qq%Q%qQqQ%%%%%%%%%%%%%%%%%%%%%%%%%%%%%%%%%%%%%%
7006A81%%%%%%%%%%%%%%%%%%%qQ%%%%%%%%%%%%%%%%%%%%%%%%%%%%%%%%%%%%Qq%%%%%%%%%%
6991A81%%%%%%%%%%%%%%%%%%%%%%%%%%%%%QqQq%%%%%%%%%%%%%%%%%%%%%%%%%%%%%%%%%%%%
6975A81%qQ%%%%%%%%%%%%%%%%%%%%%%%%%%%%%%%%%%%%%%%%%%%%%%%%%Q%%q%Qq%Qq%qqJ6qQ
6959A81%%Qj6K4k4qL2%l2qQL2qq%Q%Qj6%J6qq%%%%qQ%%%%%%%%%%%QqQq%%%%%Qq%%%%%%%%%
6945A81%%%%%%%%%Qq%%Qq%%%%%%%Q%%%%%%%%%%%%%%%%%qQ%qQqQqQ%%%%qQ%%%%%%%q%Q%%%%
6930A89%%%%%%%%qQqQqQ%%%%%%%qQqQ%%%%%%%%%%%%%%%%%qQ%%%%%%%%%%%%%%%qQ%%%%%q%%
6914A81Q%qQqQ%%%%%%qQ%%%%%%%%%%%%%%%%Qq%%%QqQq%%%%%%%%%%%%qQ%q%J6j6QqQqQ%qQ%
6898A89qQqQ%%%%%%%%%%%%%%%%%%%%%%%%%%qQ%%%%%%%%%%%%%%%%%%%%%%%%%%%%%%%%%%%%%
6883A89%%%%%%%%%%%%%%%%%%%QqQ%%%q%Qq%%Qq%%%%%Q%q%%%%%%%%%%%%%%Qq%%%%%%%Q%q%Q
6867A97qQq%%QqQqQ%q%%%%%%Qq%%%%%%Qq%%Qq%%Q%q%Q%%%%qQ%%%%qQqQqQqQqQ%%q%Qq%%%%
6851A89%%%%%%%%%%Q%%%%%q%%Q%%%%%%%q%QqQ%qQ%%qQj6QQ%qQqQ%q%Qq%%%QqQqQ%%%%%%q%
6835A89QqQ%qQ%%%q%Q%%%%qQq%Q%qQ%%%%%%%%%%%%%%%%%%%qQqQ%%%%%%%%%%%%%%%%%qQ%%%
6820A97%%%%%qQ%%%%%qQ%%%%%%%%%%%%%%%%%%%%%%%%qQ%qQ%qQ%%%%%%qQ%%%%%%%%%%%%%%%
6804A97%%%%%%%%%%%%%%%%%%%%%qQ%%%qQ%%%%%%%%%%%%%%%%%%%%%%%%%%%%%%%%%%%%%%%%%
6788A97%%%%%%%%%Qq%%%%%%qQ%%Qq%%%%%Qq%Qq%%%%%%%%%%%%%%%%%%%%%%%%%%%%QqQqQ%%%
6772B05%q%%%QqQ%%%qQ%%%%%%%%q%%QqQq%%%Q%qQ%%q%%%%%%%%%%Q%qQq%Q%%qQ%q%%Q%q%Qq
6757A97%%Q%%qQ%qQ%%%%%%%q%%Q%qQ%%%%%%%%%%%%%%%%%%%%%%%%%%%%%%%%%%%%%%%%%%%%%
6741B05%%%%%%%%%%%%%%%qQ%%%%qQ%%%%%%%%%%%%%%%%%%%%%%%%%%%%%%%%%%%%%qQ%%%%%qQ
6725B05%%qQqQ%Qq%%%Q%q%Qq%%%%Qq%%%%%%%%Qq%%%%%%%%%%%%%%%%%%%%%%%%%%%%%%qQ%%%
6709B05%%%%%%%%%%%%%%%%%%%%%%%%%%%%%%%Qq%%Qq%%%%%%%%%%%%%%%%%%%Q%q%%%%Q%q%%%
6693B05%Q%qQ%%q%%Qq%Q%qQqQ%q%%%%%%%%%%Q%q%QqQ%qQ%q%%%%%%Qq%%%Qq%%%%Qq%%%%%%%
6678B05%QqQq%%%QqQq%Q%qQ%%%%%Qq%%%%%qQq%QqQ%qQk4J6J6qQm0M0J6k4j6qK4%%%%QqqQq
6664B05J6q%q%Qq%Q%%%q%Q%%%%%%%%%%%%%%%qQqQ%%%%qQqQqQ%%%%%%%%%%%%%%%%qQ%%%%%%
6648B13%%%%%%%%%%%%%%%%%%qQ%%%qQqQ%%%qQqQ%%%%%%%%%%%%%%%%%qQ%%%%%%%%%%%%%%%%
6632B13%%%%%%%%%%%%%%%%%%%%%%%%%%%%%%%%%%%%%%%%%%%%%Q%%q%%%%%%%%%%Qq%Q%qQqQq
6617B13QqQq%%%%%%%%%%%%%%%%%%%%%%%%%%qQ%%%%%qqQJ6k4J6qK4j6qJ6%q%%Qq%Qq%%Qq%Q
6602B21qQ%%q%Q%%qQ%%q%Q%%%%%%%qQ%%%%%%%%%%%%%%%%%%%%%%%%%%q%Qq%%%%QqQqQ%qQ%%
6586B21%qQ%%%%qQ%%%%%%%%%%%%%%%%%%%%%%%%%%%%%%%%%%%%%%%%%%%%%%%%%%%%%%%%%%%%
6571B21%%%%%%%%%%%%%%%%%%%%%%%%%%%%Qq%%%%%%%Qq%%%%%%%%%%%%%%%%%%%%%%%%%%%%%%
6555B21%%%%%%%%%%%%%%%Qq%%%%%%%QqQq%%Qq%Qq%%%%Qq%Qq%%%%%%%%%%%%%Q%q%%%%QqQqQ
6539B29qQ%%q%Q%q%Qq%%%%%%Qq%%%%%%%Qq%%Qq%%%%%%Qq%Qq%Q%q%%%%%%Q%%%%%%%%%%%%%q
6523B21Q%%%%%%%qQ%%%%%qQ%%%qQ%%%qQ%%qQ%%qQ%%%%%%%qQ%%q%%%Q%qQ%%%%%%%%qQqQq%%
6507B21Q%%%%%%%%%%%%%%%%%%%%%%%%%%%%%%%%%%%%%%%%%%%%%qQ%%%%%%%%%%%%%%%Qq%%%%
6492B29%QqqQ%%%%%Q%j6%qJ6%%%%%%%QqQq%%%%%%%%%%%%%%%%Qq%%%Qq%%Qq%%%%%%%%%%%%%
6476B29%%%%%%%Qq%QqQ%q%%%%QqQ%%%%%%%%%%qQqQq%%Qq%%%%%Qq%%Q%%%%q%%Q%%%%q%Q%%%
6461B37%%qQ%%%%qQ%%%%%%q%%%%%%%Q%%%%%qQ%%%%qQ%%%%%%%%%%%%%%%%%%%%%q%%%QqQ%qQ
6445B37qQ%%qQ%%qQ%%%%qQ%%%%%%%%%%%%%%%%%%%%%%%%%%%%%%%%%%Qq%%q%QQj6QQq%%%%%q
6429B29QQq%%%%%%%%%%%%%%%%%%%%%%%%%%%%%%%%%%%%%%%%%%%%%%%%%%%%%%%%%%%%%%%%%%
6413B37%%%%%%%%%%%%%%%%%%%Q%q%%%%%%QqQ%qQ%%%%%%%qQq%Q%q%%%Q%%qQ%%qQq%Q%%%qQ%
6398B45%%%qQq%QqQqQq%%%%%%%%%%Qq%%%Qq%%%%QqQ%%%%%%%%%%%%%%%%%qQ%%qQ%qQ%%%%%%
6382B45%%%%qQq%%Q%q%QqQ%%%%qQ%%%%%%%%%%%%%%%%%Qj6Q%%%%%QqqQ%Qq%%%%%%%%%%%%%%
6366B45%%%%%%%%%%%%%%%%%%%%%%%%%%%%%%%%%%%%%%%%%Q%q%%%%%%%%%%%%%%%%%%%%%%%%%
6350B45%%%%%%%%%%%%Qq%Q%qQ%%%qQqQ%qQ%%%q%Q%%qQ%%%%%q%%%Q%%%q%%%%%Q%%qQ%%qQ%q
6335B45Q%qQ%q%%%%Qq%%Q%%%%%%%%%%%%%%%%%%qQ%%%%%q%QqQq%QqQq%Q%%q%%%Q%%%%%qQ%%
6319B53%%%%%%%%%%%%%%%qQqQq%Q%qQ%qQqQqQ%%%%%%%%%Qq%%%%%%%%%%%%%%%%%%%%%%%%%%
6303B53%%%%%%%%%%%%%%%%%%%%%%%%%%%%%%%%%%%%%%%%%%%%%%%%%%%%%%%%%%%%%%%%%%Qq%
6287B53%%%%%Q%q%%%Qq%%%%%%%%%%%%%%%%%%%%%Q%%%%q%%%%%%%%%%%QqQq%Q%%%%%%%%%%%%
6272B61%q%Q%%%%%%%%%%%%%%%%%%%%%%%%%%%%%%%%%%%%%%%%%%%%%%%%%%%%%%%%%%%%%%%%%
6256B61%%%qQ%%%%%q%Q%%%%%%%%%%%%%%%%%%%%%%%%%%%%%%%%%%%%%%%%Qq%%Q%q%Qq%%%%%%
6240B61%Qq%%%%%%%%%%%%%%%%%%%%%%%%%%Q%q%Q%qQqQ%q%%%%%%%%%%%%Q%%%%%q%%Q%%%q%Q
6224B69%qQq%Qq%Qq%Q%%%%%%qQ%%q%Q%%%%%qQqQ%qQ%%%%qQ%%%%%%%%%%%%%%%%%%%%%%%%%%
6208B69%%%%%%%%%%%%%%%%%%%%%%%%%%%%%%%%%%qQ%%%%%%%Qj6Q%qQ%%%%%qQ%%%%%%%%%%%%
6193B69%%%%%%%QqQq%%%%%%%%%%%%%%%%%Qq%%%%%Q%%%%%%q%Q%%qQqQqQq%Q%%%%%%qQ%%%%%
6177B77q%QqQq%%Qq%%%%Q%%%qQq%%Q%q%%QqQ%q%QqQ%%qQqQ%%%%%qQ%%%%%qQqQqQ%qQqQ%%%
6161B77%%%%%%%%%%%%%%%%%%%%%%%%%qQ%%%%%%%qQ%%%%%%%%%%%%%%%%%%%%%%%%%%%%%%%%%
6145B77%QqQq%%%%%Q%%%q%%%%%%%%%%%%QqqQJ6j6%QqQqQj6Q%%%QqQ%q%%Qq%%%%%%Qq%Qq%%
6130B77Qq%%%%Q%qQ%%%%%%%%%%%q%QqQqQ%%%%%q%Q%q%%%%QqQ%%%%%%%%%%%%%%qQ%%%%%%%%
6115B85%%%%%%%%%%%%%%%%%%%%%qQ%%%%%%qQ%%%%%%%%%%%%%%%%%%%%%%%%%%%%%%%%%%%%%%
6099B85Qq%%%%%%%%%%%%%%%%Qq%Q%qQq%%%%%%Qq%%%%%%%%%%Qq%%QqQ%%q%Q%%%%%%%q%%QqQ
6083B93%%%qQ%%qQ%qQ%q%Qq%Qq%%%Q%%q%%%%%%Qq%%%%%Q%q%%%Q%%%%%%%%%%%%%%%%%%%%%%
6067B93%%%%%%%%qQ%%%%%%%%%%%%%%%%%%%%%%%%%%%%%%%%%%%%%%%%%Qq%%QqQqQq%%%Qq%Qq
6051B93QqQ%q%%%%%%%%%%%%%%%%%%%%%Qq%%%%%%%%%%%%%%%Q%%%%%q%%%Q%qQ%%q%Q%%%%q%%
6036B93Q%q%Qq%QqQqQ%%%%%qQqQq%%QqQq%Qq%%%Q%qQ%%%qQ%%%%q%Q%%%%%%qQq%%%Q%qqK4%
6020C09%qJ6q%%q%%%%%Qq%%%%%%%%%%%%%%%%%%%%%%%%%%%%%%%%%%%%%%%%%%%%%%%%%%%Qq%
6004C01Qq%%%%%Qq%%%QqQ%%%%%%%%qQ%q%%Qq%%%%%Q%qQ%qQ%%%%qQq%%%%%Q%qQqQ%%%%qQ%q
5989C01%Q%%%%%%%%%%%%qQqQ%%qQqQ%%%q%Q%%%%%%qQ%%%%%%%%%%%%%%%%%%%%%%%%%%%%%%%
5973C09%%%%Qq%%%%%%%%%%%%%%%%%%%%%%%%%Qq%%%Q%qQ%%qQq%qQQ%q%%%Q%%%qQqQq%QqQq%
5957C09%Qq%QqQq%%%%Qq%%%Qq%Q%%%%%%%%%%%%%%%%%%%qQ%%%%%%%%%%%%%%%%%%%%%%%%%%%
5941C17%%%%%%%%%%%%%%%%%%%%%%%%%%%%%%%%%qQ%%%%%%%%%%%%%%%%%%%%%%%%%%%%%%%%%%
5925C17%%%%%%%%%%%%%%%%%%%%%Qq%%%%Q%%%%%%%%%%qQ%%q%%Qq%Qq%Q%%q%%%%%%%%%%%%%%
5910C17%%QqQq%%%%Q%qQ%%qQ%%%q%Q%qJ6q%qQqQQqqQ%qQ%%%%%%%%%%%%%%%%%%%%%%%%%%%%
5894C25%%%%%%%%%%%%%%%%%%%%%Qq%%%%%%%%%%%%%%%%%%%%%%%%%%%%Q%q%%%%%%%%%%%%Q%q
5878C25%%%%%%%%%%%%QqQq%%%Q%%qQ%%%%q%%%%%%%Q%qQ%%qQq%%Q%%q%Qq%%QqQqQqQ%%qQ%%
5863C33%%%qQ%%%%%%%%%%%%%%%%%%%%%%%%%%%%%%%%%QqQq%%%%%%%%%%%%QqQqQqQq%%Q%%qQ
5847C41%%%q%Q%%%qQ%%%%%qQqQqQ%qQ%%%%%%qQ%%%%%%%%%%%%%%%%%%%%%%%%q%QqQ%%%%qQ%
5831C41%%qQ%%%%%%%%%%%%%%%%%%%%%%%%%%%%%%%%%%%%%%%%%%%%%%%%%%%%%%%%%%%%%%%%%
5815C41%%%%%%%%%%%%%Qq%%%%%%%%%%%%%%%%%Q%qQ%%%%%q%%%Q%%%%%%%%%%%%%%%qQ%%%%%%
5799C49%%%%%%%%%%%%%%%%%%%%%%%%%%%%%%%%%%%%%%%%%%%%%%%%%%%%%%%%%%%QqqQQqqQqQ
5784C49%%%%%%%%%%%%%%%%%%%%%%%%%%%%%%Q%%qQ%qQ%%%%%%%%%qQq%%%Qq%Qq%%Q%%%%%%%%
5768C57%%%%%%%%%%qQqQ%%qQ%%%%%%%%%%%%%%%%%%%%%%%%%%%%%Qq%%%%%%%%%%%%%%%%%%%%
5752C57%%%%%%%%%%%Qq%%%%%%%%%%%%%Q%q%Qq%%QqQ%qQ%%q%%Qq%%Q%qQq%Q%%%%%q%Q%%qQ%
5736C65%%%%qQ%%q%Q%%qQ%qQ%%%qQ%Q%qqQQq%%%%Qk4K4q%Q%qqJ6j6Q%%%%%%%QqQq%%%%%%Q
5721C73q%QqQ%qQqQq%%%%%%%%%Q%q%%%QqQq%%%%%Q%q%%%Q%q%%%Qq%%Qq%%%%%%%Qq%Q%%%%%
5705C73qQ%%%qQ%qQ%%%%%qQ%%qQ%%%%%%%%qQ%%%%%%%%%%%%%%%%%%%%%%%%qQ%%%%%%%%%%%%
5690C73%%%%%%%%%%%%%%%%%%%%%%%%%%%Qq%%Q%q%%%%%%%%%%%%%%%%%%%%%%%%%Q%q%%QqQqQ
5674C81%%qQ%%%qQ%qQ%q%QqQ%Qqj6QQQ%q%%%Q%q%%%qQ%%%%%%%%%%%%%%%%%%%%%%%%%%%%%%
5658C81%%%%%%%%%%%Qq%Q%%qQ%qQ%qQqQ%q%%Qq%Q%qQqQq%%%%%%%%Q%%qQ%%%%%%%%%%%%%%%
5643C89%%%%%%%%%%%%%%qQ%%%%%%%%%%%%%%%%%%%%%%%%%%%%Qq%%Qq%%%Qq%%%%%%%%%%%%%%
5627C89%%%Q%q%Qq%Q%qQq%QqQq%%Q%%%%%%qQ%%%%%%%%%%%%%%%%%%%%%%%%%%%%%%%%%%%%%%
5611C97Q%q%%%Qq%%%%%%%%%%%%%%%%%%Qq%%%%Qq%%%Qq%%Qq%%Q%%%%%%qQ%q%%Q%%%%%%qQ%%
5595D05%%%%%qQ%%%%%%%%%%%%%qQ%%%%%%%%%%%%%%%%%%%%%%%%%%%%%%%%%%Qq%%%%%%%%%%%
5579D05%%%%%%%%%%%%%%%%%%%%%%%%%%%%%%%%%%%%%%%%%%Q%qQq%%Q%qQ%%%%%qQ%%%%%%%%%
5564D13%%%%%%%%qQ%%%%%%%%%%%%%%%%%%%%%%%%%%%%%%q%Qq%Q%%%Qq%Qq%%%%%%Qq%%%%%%%
5548D13%%%Qq%%Qq%%%QqQ%%%%qQ%%%%qQqQqQ%qQ%%%%%%%%%qQ%qQ%%%%%%%%%%%%%%%%%%%%%
5532D21%%%%%%%%%%%%%%%%%%%%%Qq%%%%%Qq%%Q%qQ%qQ%%%%%q%%Q%%q%%%Q%q%%%%%%%%%%%Q
5516D29qQ%%%%%%%%%%%%%%%%%%%%%%%%%%%%%%%%%%%%%%%%%%%%%%%%%%%%%%%%%%%%%%%%%%%
5500D29%%%%%%%%%Q%%%qQ%%%%%q%QqqQQ%j6Q%Q%%%%%%%%%%qQ%qQqQ%q%%Q%%%%%%%%%%%%%%
5485D37%%%%%%%%%%%%%%%%%%%%%%%%%QqQ%q%%%%Q%q%%Q%%%q%Q%q%%%Qq%%%%%%Qq%%%%%%%%
5469D37%%Q%%%%%%%%qQ%%%%%%%%Qq%%%%%%%%%%%%%%%Qq%%%%%%%%%%%%%%%%%%%%%%%%%%%%%
5453D45%%%%%%%%%%%%%Q%%%%%%%%%%%%%%%%%%%%%%%%%%%%%%%%%%%%%%%%%%%%%%%%%%%QqQq
5437D53Q%q%%%%%Q%qQq%%%%%%Qq%%%%%Q%qQ%%qQ%%qQ%%%%%%%%%%%%qQ%%qQ%%qQ%%%qQqQ%q
5422D53Q%%%%%%%%%%%%%%%%%%%%%%%%%%%%%%%%%%%%%%%%%%%%%%%%%%%%%%%%%Qq%%QqQ%qQ%
5406D69qQ%%qQ%%%qQq%Q%%%%%%%%%%%%%%%%%%%%%%%%%%%%%%%%%%%%%%%%%%%%%%%%%%%%%%%
5390D69%%%%%%%%%%%%%%%Qq%QqQ%%%qQ%%%%%%%%%%%%%%%%%%qQ%%%%%qJ6q%%%%%Qq%%%%%%%
5375D77%%%%%%%%%%%%%%%%%%Q%%%q%Q%%%%qQ%q%%%%%Q%%%%%%%%%%%%%%%%%%%%%%%%qQ%qQ%
5359D85%%%qQ%%%%%%%%%%%%%%%%%%%%%%%%%%%%%%%%%%%%%%%Q%qQq%QqQ%%%%qQqQ%%%qQ%%%
5343D93%%%%%%%%%%%%%%%%%%%%%%%%%%%%%%%%%%%%Qq%%%%QqQ%%%%qQ%qQqQ%q%%%Qq%%%%%Q
5327E01qQ%%%%%%%%%%%%%%%%%%%%%%%%%%%%%%%%%%%%%%%%%Q%qqQ%%%%%Qq%%%Qq%%Qq%%%Qq
5311E01Qq%%%%Qq%%%%%%Q%%%%%%%%%%%%%%%%%%%%%%%%%%%%%%%%%%%%%%%%%%%%%%%%%%QqQ%
5296E17%qQqQqQ%%%%%qQ%%%%%%%%qQq%QqQ%%%%%%%%qQ%%%%%%%%%%%%%%%%%%%%%%Q%q%%%%%
5280E17%%%%%%%%%%Qq%%Q%%qQ%qQ%qQ%%qQ%%%%%%%%%%%%%%%%%%%%%%%%%%%%%%%%%%qQ%%%%
5264E25%%%%Qq%%%%%%q%%QQq%%Q%q%Qq%QqQ%%%%%%q%Q%%%%%%%%%%%qQ%qQ%%%%%%%%%%%%%%
5248E33%%%%%%%%%%%%%%%%%%%%%%%%%%%%%Qq%Qq%%%Q%%%%%q%QqQqQ%%%%%%%%%%%%%%%%%%%
5232E41%%%%%%%%%%%%%%%%%%%%%%%%%%Qq%%%%%Q%qQq%Q%%%qQ%%%%qQ%%%%%%%%%%%%%%%%%%
5217E49%%%%%%%%%%%%%%%%%%%%%%%%Qq%%%Qq%%%%%%%Qq%%%Q%qQ%%%%%%%%%%%qQ%qQ%Qj6Q%
5201E57%Qq%%%%qQQq%%%%%%%%%%%%%%%%%%%%%Qq%%%%Q%%%%%%q%Q%q%%Q%q%QqQ%qQ%qQ%%%%
5185E65%%%%%%%%%%%%%%%%%%%%%%%%%%%%%%%%%%%%Qq%%%%%%%%%QqQ%%%%%%%qQ%%%qQ%%%qQ
5169E73%%%%%%%%%%%%%%%%%%%%%%%%%%%%%Qq%Q%qQ%%%%qQ%qQ%%%%%%%%%%%%%%%%%%%%%%%%
5154E81%%%%%%%%%%%%%Q%qQqQ%%%%q%%%QqQ%%%%%%%%%qQ%%%%%%%%%q%%QqQqQ%%%qQ%%%%%%
5138E89%%%%%%%%%%%%%%%%%%%%%%%%%%%Qq%%%%%%Q%qQ%%%%%%%%%%%%%q%Q%%%%%%%%%%%%%%
5122E97%%%%%%%%%%%%%%%%%%%%%%%%%%%Q%q%Q%%%%%%%q%Q%qQ%%%%%%%%%%%%%%%%%%%%%%%%
5106F05%%%%%%%%Q%%%q%%Q%%qQ%%qQqQq%%%%%%%QqQ%%%%%%%%%%%%%%%%Qq%%%Qq%%QqQq%%%
5090F13Qq%%%Qq%Q%qQ%%%%%%%%qQ%%QqQq%%qQ%QqQ%l2QQ%J6q%qQ%qQQq%Q%q%%%%%%%Qq%%%
5075F21%%QqQqQqQ%%%%%%%%%%%%%%%%%%%%%%%%Qq%%%%%%%%%%%%%%%%%%%%Qq%QqQ%%%%%%%%
5059F37%%%%%%%%%%%%%%%%%%%%%%%%%%%%%%QqQq%%%QqQqQq%Q%%%%%%%%%%%%%%%%%%%%%%%%
5044F45%%%%%%%%%%%%%%%%%%%%%Qq%%%Q%%%%%%%%%%%%%%%%%%%%%%%%%%%%%%%%%%Qq%%%%%Q
5028F61%q%Qq%Qq%Qq%%%Q%%qQ%%%%%%%%%%%%%%%%%%%%%%%%%%QqQ%%%%%q%%%Q%%%%%%%%%%%
5012F69%%%%%%%%%%%%%%%%%%%%%%%%%%%%%%%%%%%%%%%%%%Q%%qQ%%%%%%%%q%Q%%%%%%%%%%q
4996F69%Q%%%%%Qq%%%%%%%%%%%Q%%%%%%%%%%%%%%%%%%%%%%%%%%%%%%%%%%%%%%%%%%%%%%%Q
4980F93q%%Qq%%QqQq%%QqQ%%%%%%%%%%%%%%%%%%%%%%%%%%%%%%%Qq%%%%%%%Qq%%%Q%%qQqQ%
4965G01%qQ%%%%%%%%%%%%%%%%%%%%%%%%%%%%%%%%%%%Qq%QqQ%%%%%%%%%%%%%%%%%%%%%%%%%
4949G09%%%%%%%Qq%%%%QqQq%%%Q%qQqQqQ%%%%%%%%%%%%%%%%%%%%%%%%%%%%%%Q%qQ%qQqQ%q
4933G17%Q%%%%%qQqQ%%%%%%%%%%%%%%%%%%%%%%%%Q%%qQ%%%%qQqQ%q%Q%%%%%%%%%%%%%%%%%
4917G33%%%%%%%%QqQ%%%%%%%%%%qQ%%%%%%%%%q%Q%%%%%%%%%%%Qq%%QqQ%%qQqQqQ%%%%%%%%
4901G49%%%%%%%%%%%%%%%%%%%%Q%%%%%qQ%%%%%%%%%%%%%%%%%%%%%%%%%%%%%%%Qq%%Q%qQq%
4886G57%%%%Q%%%qQ%%%%%%%%%%%%%%%%%%QqQ%q%Q%%%%%%%%%%q%Q%%%%%%%%%%%%%%%%%%%%%
4870G73%%%%%%%%%Q%q%%%%%%Q%%%qQ%%%%q%Q%%%%%%%%%%%%%%%%QqQ%q%%%%%%%%Q%%%%%%%%
4854G89%%%%%%%%%%%%%qQ%%%%%%%QqQ%%qQqQQq%%%%%%%%%%%%%%%%%%%%%%%%%Qq%%%Q%%%%%
4838H05%%%%%%%q%%%QqQq%Q%%%%%%%%%%%%%QqQq%Q%%%%%%%%%%%%%%%%%%%%%%%%%%%%%%%%%
4822H13%%Qq%%%Q%qQ%%%%qQ%Qq%%%%%%%%%%%%%%%%%%Q%%%%%%qQ%%%%%%%%%%%%%%%%%%%%%%
4807H29%%%%%%QqQ%%%qQ%%%%%%%%%%%%%%%%%%%%%%%%%Q%q%%%%%%Q%%%qQ%%%%%%%%qQj6J6q
4791H37qK4%qQQj6%%%qQQq%%%%Q%%%%qQqQqQ%%%%%q%Q%%%%%%%%%%Q%%%%%%%qQ%qQqQ%%%%%
4776H61%%%%%%%%%%%%%%%%%%QqQ%qQ%%%%%%%%%%Qq%%%QqQq%%%%%%%%Qq%%%%Qq%Qq%QqQ%%%
4760H77%%%QqQq%QqQqQqQqQ%%q%%%%%Q%qQ%%%%%%%%%%%%%%%%%%%%%%QqQq%%%QqQ%%%%qQ%%
4744H93%%%%%%%%%%%%%%%%%%%%Q%%%%qQ%%%%%%%%%%%QqQq%J6j6%qQJ6k4J6j6QQl2N6l2QQ%
4731I17Q%l2J6%QqQq%%%%%%%%%%Qq%%QqQqQ%%%%%%%%%%%QqQq%%%%%%%%%%%%%Q%%q%%%%%%Q
4715I25qQ%%%%%%%%%%%%%%%%%%%Q%%q%%QqQ%%%%%%%%%%%%%%%%%Q%%%%%%%%%%%%%%%%%%%%%
4700I41%%%Q%qQ%%%%%%%%%%%%%%%%%%%%%%%%%%%%%%%%%Qq%Q%%%%%%%%%%%%%%%%%%%%%%%%Q
4684I65%q%Qq%%Q%q%Q%%qQ%%%%%%%%%%%%%%%QqQq%Qq%%%%%%Q%%%%%%%Qq%%%%%%%%QqQ%%qQ
4668I81%%%%%%%%%%%%%Qq%%Qq%%Q%%%%%%%%%%%%%%%%%%%%QqQqQ%%%%%%%%%%%%%%%%%%%%Q%
4652A005%qQ%%%%%%%%%%%%%%%%%%%%%%%%%%QqQ%qQ%%%%%%qQ%%%%%%%%%%%%%%Qq%QqQ%%qQ%
4637A021%%%%%%%%%%%%%%%%%%Qq%%QqQqQq%Q%%%%%%%%%%%%%%%%%%QqQ%%qQ%%%%%%%%%%%%%
4621A037%%%%%%%Q%%%%%%%%%Qq%QqQq%%%J6j6%Q%%qQ%q%Q%%%Qq%%%%%Q%%%%%%%%%%%%%%%%
4606A061%%%%%%%%Q%qQq%Qq%Q%%%%%%%%%%%%%%%%Qq%Qq%Q%%%%%%%%%%%%%%%%%QqQq%Qq%%Q
4590A085q%Q%%%%%%%%%%%Q%%%%%%%%%%%%%%%%%%%%%%%%%%%%%%%%Q%qQ%%%%%%%%%%%%%%%%%
4575A101Q%%%qQ%%%%%%%%%%%%%%%%%%%%%%Q%%%%%%%%%%%%%%%%%QqQ%%%%%%%%%%%%%%%%%%%
4559A125%%%%%%Qq%%QqQqJ6q%Qj6QQ%%%%%%%%qQ%%%%%%%%%Qq%%Q%%qQ%%%%%%%%%%%%%%%%%
4544A149%%%%%%Q%%%%%%%%%%%%%%%%%%QqQ%qQqQqQ%%%%%%%%%%%%%QqQ%%%%%%%%%%%%%Qq%%
4529A173%%Q%%%%%%%%%%%Qq%%%%%%%%%%Q%%%%%%%%%%%%%%%%%%QqQ%qQ%%%%%%qQ%%%%Qq%%Q
4513A205%%qQ%%%%%%Qq%%%Qq%%%%%%Qq%Q%%%%%%%%%Qq%%%QqQ%%%%%%%%%%%%%%%%Q%q%Q%Qq
4497A229%%%%%%%Q%%%%%%%%%%%%%%%%%%%%Qq%%%Qq%Q%qQ%%qQ%%%%%%%%%QqQ%%%%%%%Qq%%%
4482A253%Q%%%%%%%%%%%%%%%%Qq%Q%%%%%%%%%%%%%%%%%Qq%Q%qQ%%%%%%%%%%%%Q%%%%qQ%%Q
4466A293q%%Q%qQ%%%%%%%%%%%%%%%%%%%%%%%%%%QqQ%%%%%%%%QqQ%%%qQ%%%%%%%%%%%%%%%%
4451A309%Q%%%%%%%%%%%%Q%q%%Q%%%%%%%%%%%Qq%Q%%qQ%%%%%%Qq%%%%Q%qQ%%%%%qQ%Qq%%Q
4435A349q%Qq%Q%%%%%%%%%%%%%%%%Q%%%%%%%%%%%%%Q%qQ%%%qQ%%%%%%%%%QqQq%Q%%%%%%%%
4420A373%%%%%%%QqQ%%%%%%%%%%%%%%%Q%%%%%%%%%%%%%%Q%%%%%%%%QqQ%%%%%%%%%%%Q%%%%
4404A413%%%%%%%%%%%%%%%QqQqQ%%%%%%%%%%%%%Q%%%%%%%%%%%%%QqQ%qQ%%%%%%%%Qq%%QqQ
4389A445%%%%%%%%%%%%Q%%%%%%%%%%%%%Qq%QqQQ%qQq%Q%%%q%%QqQ%%%%%%QqQ%%qQ%%%%%%%
4373A477%%%QqQ%%%%%%%%%%%%%%%Q%%%%%%%%%%%Q%%%%%%%%%%%%QqQ%%%%%%%%%%%%%%%Q%%%
4357A517%%%%%%%%%%%%Qq%%Q%%%Qq%%Q%%%%%%%%%%%QqQ%%%%%%%%%%%%%%%%QqQ%%%%%%%%%Q
4342A557%%%%%%%%%%Qq%%Q%%%%%%%%%%%Q%%%%%%%%%%%%Qq%%%%Q%qQ%%%%%%Q%qQ%%%%%%%%%
4326A589QqQ%q%Q%%%%%QqJ6q%qQ%%%%q%QQqQ%%%%%%%%QqQqQ%%%%%%%%%%%%%%%Q%%%%%%%%%
4311A629%Q%%%%%%%%%%%Q%%%%%%%%%%%Q%qQ%%%%%%%%%%%%Q%%%%%%%%%%Q%qQ%%%%%%%%Q%%%
4295A677%%%%%%%%%%%%QqQqQ%%%%%%%%%%Q%%%%%%%%QqQ%%%%Q%%%%%%%%%%%%%%%%%%QqQ%%%
4280A717%%%Q%%%%%%%%%%%%Q%%%%%%%Q%%%%%%%%%%%%%QqQ%%%%%%%%QqQ%%%%%QqQqQq%QqQq
4264A757QQqJ6q%%%Q%j6%QQq%%Q%%%%%%%%%%Q%qQ%%%%%%%%%%%%QqQ%%%%%%%Q%%%%%Q%qQ%%
4249A813%%%%%%Q%%%%Qq%%%%QqQ%%%%%%%%QqQ%%%%%%%%Q%%%%%%%%%Qq%Qq%Q%%%Q%%%%%%%%
4234A861%%%QqQ%%%%%%%%%%Q%%%%%%%Q%%%%%%%%%Q%%%%%%%%%QqQqQ%%%%%%%%%Q%%%%%QqQ%
4218A917%%%%%%%%%Qq%%%Q%%%%Q%%%%%%Q%%%%%%%%%%%%%Q%%%%%%%%%%%QqQ%%%%QqQqQ%Qq%
4202A965%Q%%%%%%%%%%Q%%%%%%%%%%Q%%%%%%%%Q%%%%%%Q%qQ%%%QqQ%%%%%%Q%%%%%%%Qq%Q%
4187B029%%%%%%%%%%Q%%%%%%%%%Q%%%%%Q%%%%%%%%%QqQ%%%%%%%%Q%%%Q%%%qQ%%%%%%%Q%%%
4171B085%%%%Q%%%%%%%Q%%%%%%Qq%%Q%%%%%%Q%%%%%%%Q%%%%%%Q%q%Q%%%%%Q%%%%%%%%%Q%%
4156B149%%%%%%%%%Q%%%Q%%%%%%Q%%%%%%%%Q%%%%%QqQqQqQqJ6j6Qj6K4j6J6Qj6QqQ%%%Q%%
4142B205%%%Q%%%%Q%%%%%%%%Q%%%%%%Q%%%%%%%%%%QqQ%%%%%Q%%%QqQ%%%%Q%qQ%%%%%%%QqQ
4126B277%%%%%QqQ%%%%%%%%Q%%%%Q%%%%%Q%%%%%%%%%%%Q%%%%%Q%%%%%%QqQ%%%%%%Q%%%%%Q
4111B349qQ%%%%Q%%%%%%%Q%%%%%%Q%%qQ%%%Q%%%%%%Q%%%%%%Q%%%%%%%%Q%%%%%Q%%%%%%%Qq
4095B413Q%%%%%Q%%%Qq%Q%%%%Q%%%%%Q%%%%%QqQqQ%%%J6j6%Q%%%%%%Q%%%%Q%%%%Q%%%%%Q%
4080B501qQ%%%%%Q%%%%%%Q%%%%%QqQ%%%%%Q%%%%%%%Q%%%Q%%%%%%Q%%%%%Q%%%%Q%%%%%%%Q%
4064B581qQ%%%%Q%%%%%Q%%%%%%Q%%%%%Q%%%%%%Q%Qq%Q%%%%%%Q%%%%Q%%%%%QqQ%%%%Q%%%%Q
4049B669%%%%%Q%%%%Q%%%%Q%%%%%Q%%%Qq%%Q%%%%%%Q%%%%%%Q%%%%Q%%%%Q%%%%%%Q%%%%%Q%
4033B757%%Q%%%%%%%Qq%J6q%Q%%%Q%Q%%%%%%%%%Q%%%%%%Q%%%%%Q%%%Q%%%%%%Q%%%Q%%%%%%
4018B845Q%%%Q%%%%%Q%%%%%Q%%%Q%%%%%Q%%%%%Q%%%%Q%%%%%Q%%%Q%%%Qq%Q%%%Q%%%%%%Q%%
4002B949%Q%%%%Q%%%%Q%%%%%Q%%Q%%%%%Q%%%QqQ%%QqQ%%%Q%%%%%Q%%%Q%%%%Q%%%Q%%%%%Q%
3987C061%%QqQ%%Q%%%%%Q%%%Q%qQ%%Q%%%Q%%%%Q%%%Q%%%QqQ%%%%Q%%%Q%%%%%QqQ%%Q%Q%qQ
3971C173%Qq%Q%%%QqQ%%%Q%%%Q%%Q%%%%Q%%%%%Q%%%%%Q%%Q%%QqQ%%%Q%%Q%%%Q%%Q%%%%Q%%
3956C293%%Q%%Q%%%%%%Q%%%Q%%%%Q%%Q%%%%Q%%%%Q%%%%Q%%Q%%%%Q%Q%%%Q%%%%%Q%qQQ%%%%
3940C413Q%%Q%%%Q%%%Q%%Q%%%%%Q%%%Q%%%Q%%%Q%%%Q%%%Q%%%Q%%%Q%%%Q%%%Q%%%Q%%Q%%%%
3925C549Q%%%Q%%Q%%%%Q%%Q%%%Q%%%%Q%Q%QqQ%%%Q%%%Q%%%Q%%%%Q%Q%%%%%J6qQ%%Q%qQQ%%
3909C693%%%QQ%%%%Q%%Q%QqQ%%Q%%%Q%%%Q%%%Q%%Q%%Q%%%Q%%%%Q%%Q%%Q%%%%Q%Q%QqQ%%%Q
3894C845%Q%%%%Q%%Q%%Q%%%Q%%Q%%Q%%%Q%%Q%%Q%%%Q%%Q%%%%Q%%Q%Q%%%%Q%Q%%Q%%Q%%%Q%
3878D005Q%QqQ%%Q%%Q%%%Q%%Q%%Q%%%Q%Q%%Q%%%Q%QqQ%%Q%Q%%Q%%%Q%%QqQQ%Q%%%Q%%Q%%Q
3863D181%%Q%%QqQ%Q%Q%%%Q%Q%%Q%QqQ%%Q%QqQ%QqQQ%J6%q%%J6%%%%Q%Q%%Q%Q%%%Q%%Q%%Q
3847D357%Q%Q%%%Q%%Q%%Q%Q%%Q%Q%%%%QQ%%Q%%%Q%%Q%%QQqQ%Q%Q%%%Q%Q%Q%%%Q%Q%Q%%Q%%
3832D549Q%Q%%Q%Q%%Q%%Q%%%Q%Q%%Q%Q%%Q%%QQqQ%Q%Q%Q%%%Q%%Q%Q%Q%Q%%Q%Q%%Q%Q%Q%%%
3816D757QQ%%Q%Q%Q%%Q%%Q%Q%%Q%Q%%Q%Q%%Q%Q%Q%Q%%Q%Q%%%QQ%Q%%Q%Q%%Q%Q%Q%%Q%Q%Q%
3801D989%Q%%QQ%%Q%%Q%QQ%%%Q%J6%%Q%%J6%%%J6%%%Qq%QQQ%%Q%Q%%%QQ%Q%%Q%Q%Q%Q%%%Q
3786E213Q%QQ%Q%%QQ%Q%Q%%%Q%Q%Q%%QQ%Q%Q%Q%%Q%Q%Q%Q%QQ%%Q%Q%Q%%QQ%Q%Q%Q%Q%Q%Q%
3770E477Q%%QQ%%QQ%%Q%QQ%Q%%QQ%Q%Q%%QQ%Q%QQ%Q%Q%Q%Q%QQ%%QQ%QQ%%Q%Q%%QQ%QQ%%Q%
3755E757QQ%Q%Q%Q%Q%Q%Q%QQ%Q%Q%Q%QQ%QQ%%QQ%%QQ%Q%QQ%Q%Q%Q%QQ%Q%Q%QQ%Q%Q%QQ%Q%
3739F061Q%QQ%Q%Q%Q%J6%%QQ%Q%Q%QQ%QQ%Q%QQ%Q%QQQ%Q%Q%QQ%QQ%QQ%QQ%Q%Q%QQ%QQ%QQ%
3724F389QQ%Q%Q%QQ%QQ%Q%QQ%QQ%QQ%QQ%Q%QQQ%QQ%QQQ%QQ%Q%QQ%QQ%QQ%QQ%QQ%Q%QQQ%QQ
3708F749%QQQ%QQQ%QQ%Q%Q%J6%QQQ%QQ%QQ%QQQ%QQQ%QQQ%QQQ%Q%QQQQ%Q%QQ%QQQ%QQQQ%QQ
3693G133%QQQQ%QQQQ%QQ%QQQQ%QQQ%QQQ%QQ%QQQQQ%QQ%QQQQQ%QQ%J6Q%QQQQQQ%Q%QQQQQ%Q
3678G549Q%J6%J6%%J6qL2%%QQQQ%QQQQQQ%QJ6%QQ%QQQQQQ%QQJ6%QQQQ%J6%QQQQQQ%QQQQQQ
3664G973%QQQQQQQ%QQQQQQQQQQQQQ%QQQQQQQQQQQQQ%QQQQQQQ%QJ6QQ%J6QQQQQ%QQQQQQJ6Q
3649H461Q%QQQQQQQQQQQQQQQQ%J6QQQQQQQQQQQQQQQQQQQQQQQJ6QQQQ%J6QQQQQQQQQJ6QQQQ
3634H981Q%J6QQQQQQQQQJ6QQQQQQQQQQJ6QQQQJ6%J6QQQQJ6%J6QQQQJ6QQQQQQQQQQJ6J6%J6
3621I493Q%J6QQJ6QQQJ6%J6%J6QJ6J6%QQQJ6QQQJ6QQQJ6%J6QQJ6QQQQJ6QJ6QQQQQJ6QJ6QQ
3609I997QJ6QQQQJ6QQJ6QQJ6QQJ6QQQJ6QQQQJ6QQJ6QQJ6QJ6QQJ6QQJ6QJ6QQJ6QQJ6QQJ6QJ6
3597A0549QJ6QQJ6QQJ6QJ6QQJ6QQJ6QJ6QQJ6QQJ6J6QQJ6QJ6QJ6QQJ6QJ6QJ6J6J6QQJ6QQJ6
3587A1085J6QJ6QQJ6J6QQJ6J6QJ6QJ6QJ6QJ6J6QJ6QJ6QJ6QJ6J6QQJ6J6QJ6QJ6J6QJ6QJ6QJ6
3576A1629QJ6J6J6QJ6QJ6J6J6QJ6J6QJ6QJ6J6QJ6QJ6J6QJ6J6QJ6J6QJ6J6J6J6QJ6J6J6QJ6
3567A2165J6QJ6J6QJ6J6J6QK4QJ6J6QJ6J6J6J6QJ6J6QK4QJ6J6J6J6QJ6K4QQJ6J6K4QJ6J6Q
3558A2733J6J6J6J6QK4QJ6J6J6J6J6J6J6J6QJ6J6J6J6J6J6J6J6J6J6J6J6J6J6J6J6J6J6J6
3550A3277QK4QJ6K4QK4J6J6J6J6J6J6J6J6J6J6J6J6J6J6J6J6J6J6J6J6J6J6J6K4J6J6J6J6
3542A3845J6J6J6K4J6J6J6J6J6J6J6K4J6J6J6K4J6J6J6J6K4J6J6J6J6J6K4J6J6J6K4J6J6K4
3534A4445J6J6J6J6K4J6J6K4J6J6J6K4J6K4J6J6K4J6K4J6J6K4QK4J6K4J6J6K4J6K4J6K4J6
3527A5077J6K4J6K4J6K4J6J6K4K4J6K4J6J6K4J6K4J6K4J6J6K4K4J6J6K4K4J6K4K4J6K4K4J6
3519A5757K4J6K4J6K4K4J6K4J6K4K4J6K4K4K4J6K4J6K4K4K4J6K4K4J6K4K4K4J6K4K4K4K4J6
3511A6485K4K4K4J6L2J6K4K4K4K4J6K4K4K4K4K4K4J6K4K4K4K4K4K4K4J6L2J6K4L2J6L2J6K4
3503A7269K4L2K4K4J6M0QK4L2K4K4K4K4K4K4J6L2L2J6K4L2K4K4K4K4L2K4K4K4K4K4L2K4K4
3495A8117K4L2K4K4L2K4K4K4L2K4K4L2K4K4L2K4L2K4K4L2K4K4L2K4L2K4L2K4K4L2K4K4L2K4
3488A9029L2K4L2K4L2K4L2K4L2L2K4L2K4L2L2K4L2L2K4L2L2L2K4L2L2K4L2L2K4L2L2L2K4L2
3480B0021L2L2K4M0K4L2L2L2L2K4L2L2L2L2L2L2L2L2L2L2K4L2L2M0K4L2L2M0K4M0L2K4M0L2
3472B1093L2L2L2M0L2L2L2L2L2L2M0L2L2M0L2L2M0L2L2L2M0L2L2L2M0L2M0L2M0L2L2M0M0L2
3464B2261L2L2M0L2M0M0M0L2L2M0M0L2M0M0L2M0L2M0M0M0L2M0M0L2M0M0M0L2M0M0L2M8M0L2
3456B3525M0M0M0M0M0M0M0M0M0M0M0M0M0M0M8L2M0M0M8L2M8M0M0M0M0M8M0M0M0M8M0M0M8M0
3449B4917M0M8M0M0M8M0M0M8M0M8M0M8M0M8M0M8M0M8M8M8M0M8M0M8M8M8M0M0M8N6M8M8M0M8
3441B6437M8M8M8M8M8M8M8M0N6M8M8M8M0N6M8M8M8M8M8N6M8M8M8N6M8M8N6M8M8M8N6N6M0N6
3433B8109N6M8N6M8N6M8N6M8N6N6N6M8N6M8N6N6N6N6M8N6N6N6N6N6N6N6N6N6N6N6N6N6N6N6
3425B9957N6N6O4N6N6N6O4N6O4N6N6O4N6O4N6O4N6O4N6O4N6O4N6O4O4N6O4O4O4O4N6O4O4O4
3418C2005O4O4O4O4O4N6P2O4O4O4P2O4O4O4P2O4O4P2P2N6P2O4P2P2O4O4Q0O4P2O4P2P2O4P2
3410C4277Q0O4P2P2P2P2P2P2Q0P2P2P2P2P2Q0P2P2Q0P2P2Q0P2Q0P2Q0P2Q0Q0P2Q0Q0Q0P2Q0
3402C6821Q8P2Q0Q0Q8P2Q8Q0Q0Q0Q0Q0Q8Q0Q8Q0Q8Q0Q8Q0Q8Q0Q8Q8Q8Q0Q8Q8Q8Q8Q8Q8Q8Q8
3394C9677Q8R6Q8Q8Q8R6Q8R6Q8R6Q8R6Q8R6R6Q8R6R6R6R6R6R6R6R6R6R6R6J04R6R6J04R6J04
3387D2797J04R6R6J12R6R6J04J12J12R6Q8J12J04J12J04J12R6J12J04J12J04J12J04J20J04
3381D5421J12J12J12J04J12J20J12J12J12J20J12J20J12J12J20J12J20J20J20J20J12J28J12
3376D8069J28J20J20J20J28J20J28J20J20J28J28J28J20J28J28J28J28J36J28J28J28J36J28
3370E0973J36J28J36J36J36J36J36J36J36J36J36J44J36J36J44J36J44J44J44J36J44J44J44
3365E4157J44J52J44J44J52J52J44J52J52J52J52J52J52J52J52J60J52J60J60J52J60J60J60
3360E7669J60J60J68J60J68J60J68J60J68J68J68J68J68J76J68J76J68J76J76J68J76J76J84
3355F1557J76J76J84J68J92J76J84J84J84J84J92J84J84J92J92J92J92J92J92J92K00J92K00
3349F5861K00J92K08K00K00K08K00K00K08K08K08K08K08K08K08K16K16K16K16K16K16K24K16
3344G0661K24K16K24K24K32K24K32K24K32K32K32K32K40K32K40K32K40K40K40K48K40K48K48
3339G6037K48K48K48K56K56K56K48K64K48K64K56K64K64K72K64K64K72K72K72K72K72K80K72
3334H2069K80K88K80K80K88K88K88K88K96K96K88K96L04K96L04L04L04L04L12L04L12L20L12
3328H8901L12L20L28L20L20L28L28L28L36L28L36L20L60L36L44L44L52L52L44L52L52L60L60
3323I6661L60L68L60L68L68L68L76L76L76L84L84L84L92L84L92M00L92M08M00M00M08M16M08
3318A05533M16M08M24M16M24M32M24M32M40M40M40M40M48M48M48M56M56M64M56M72M64M72
3313A15253M72M80M80M88M88M88M96M96M96N04N12N12N12N12N28N20N28N28N36N36N44N44
3308A26453N44N52N60N60N60N68N76N76N84N76N92N92N92O00O00O16O08O16O24O24O32O32
3303A39437O40O40O48O48O64O64O56O80O72O80O88O88O96P04P12P04P20P20P28P36P36P44
3298A54605P52P60P60P60P76P84P84P92P92Q08Q08Q08Q24Q24Q40Q40Q40Q56Q64Q64Q80Q80
3293A72501Q88Q96R04R04R20R28R28R36R44R60R60R76R76R84J000J000J008J024J032J032
3288A91701J048J048J064J072J080J096J096J112J120J128J136J152J160J168J176J192J200
3284B10749J208J224J232J240J256J272J272J288J304J304J328J336J352J360J368J392J392
3280B32877J416J424J440J448J464J488J488J512J520J536J560J568J576J600J616J624J648
3276B58805J664J672J696J712J728J744J760J784J800J816J832J856J872J896J912J936J944
3272B89429J976J992K016K040K056K080K096K128K144K168K200K208K248K264K296K312K336
3269C25989K376K400K416K448K472K512K528K552K600K616K664K672K720K744K776K816K840
3265C70141K872K912K944K984L016L056L088L128L168L208L248L280L328L368L416L456L496
3261D24109L544L584L632L688L728L776L832L872L928L984M032M088M144M200M256M312M376
3257D91085M432M496M552M616M688M752M816M888M960N024N104N168N248N328N408N480N568
3253E75613N648N736N816N912O000O088O184O272O376O480O576O680O792O888P008P120P232
3249F84421P360P472P600P720P856P984Q112Q264Q392Q544Q688Q840Q992R144R320R472R648
3245H27829R824J0000J0184J0360J0560J0760J0952J1160J1376J1584J1808J2040J2272J2504
3242I83213J2760J3008J3264J3536J3808J4080J4376J4664J4976J5280J5616J5936J6272J6624
3239A187413J6992J7352J7736J8128J8536J8944J9376J9816K0280K0744K1224K1720K2240
3236A440501K2760K3328K3880K4464K5072K5688K6336K7000K7688K8408K9136K9896L0696
3233A784853L1504L2352L3232L4136L5080L6064L7072L8120L9216M0360M1528M2752M4032
3230B270301M5360M6728M8176M9664N1216N2848N4536N6296N8152O0064O2080O4176O6368
3227B985965O8672P1072P3584P6240P8992Q1896Q4936Q8136R1496R5032R8744J02656J06784
3224D104205J11128J15712J20560J25664J31072J36800J42856J49280J56096J63328J71016
3221E627717J79200J87904J97184K07080K17656K28960K41072K54040K67944K82912K98976
3219H190645L16304L34992L55175L77016M00672M26352M54272M84672N17856N54112N93856
3216A3005924O37448O85441P38335P96824Q61616R33641J013856J103537J204056J317128
3214B2297806J444751J589361J753808J941688K157207K405680K693601L029030L422169L885824
3212D6620925M436471N095217N889696O856288Q043599R517374J1367809J3720769J6754560
3210A28302708K0726856K6016601L3192725M3126057N7173061P7470010J07364080J51855951
3208F45228049K17183489L05854626L96355747L99902478J82959258j82959121l99902615
3206A564621911l96355610l05854626k17183420j51855848j07364080p7469976n7172993m3126022
3204B08239336l3192673k6016532k0726831j6754543j3720709j1367758r517314q043564o856254
3202F2043158n889658n095152m436423l885791l422113l029000k693551k405633k157160j941640
3200B7087037j753776j589295j444728j317072j204009j103495j013817r33577q61584p96775
3198A5068909p38288o85400o37408n93809n54072n17807m84625m54223m26304m00633l76959
3195I199381l55136l34944l16256k98944k82848k67912k53992k41016k28920k17616k07040
3193F194757j97136j87856j79152j70968j63280j56048j49240j42808j36752j31032j25616
3190D454869j20512j15664j11088j06736j02608r8704r4984r1448q8088q4896q1848p8952
3188C279341p6184p3536p1032o8624o6328o4120o2032o0024n8096n6256n4488n2800n1176
3185B464645m9616m8128m6688m5304m3984m2704m1488m0312l9168l8072l7024l6016l5032
3182A921109l4096l3184l2304l1456l0640k9856k9088k8360k7640k6960k6288k5640k5024
3179A540573k4416k3832k3272k2720k2184k1680k1176k0696k0224j9768j9328j8904j8488
3176A263885j8080j7680j7312j6936j6576j6232j5888j5560j5232j4928j4616j4328j4032
3173A056485j3760j3488j3216j2952j2704j2464j2224j1984j1760j1544j1320j1112j0904
3170H97053j0704j0512j0312j0136r952r768r600r424r264r104q944q784q640q488q344q208
3166G46869q072p928p800p672p552p424p296p184p072o960o840o736o632o528o424o320o232
3162F26197o128o040n944n856n768n680n600n504n432n352n280n192n120n048m976m904m832
3158E33541m768m696m632m568m504m440m376m320m256m208m144m088m032l976l928l880l816
3154D60909l776l720l680l624l576l536l488l440l400l360l312l272l232l176l160l112l072
3150D02973l040l000k952k928k880k872k816k784k752k720k688k656k624k600k560k528k504
3147C56069k480k440k416k392k368k328k312k288k256k232k208k176k160k136k112k080k072
3143C17613k040k016k000j976j952j928j920j888j872j856j824j816j792j776j752j736j720
3139B85749j704j680j664j648j632j616j600j584j560j552j536j512j512j488j472j456j448
3135B59085j424j416j400j384j384j352j344j336j320j304j296j288j272j248j248j232j224
3131B36613j208j200j192j176j160j160j136j136j120j112j096j088j088j072j056j048j040
3127B17525j032j016j016j000r92r84r84r60r60r44r44r28r20r12r12q96q96q80q72q64q56
3122A97757q56q40q40q24q24q08q08q00p92p84p76p76p60p60p52p44p44p28p20p20p20p04
3117A80677p04o88o88o88o72o72o64o56o56o48o40o40o32o24o24o08o16o00o00n92n92n84
3112A66589n76n76n68n60n60n60n52n44n36n36n36n20n28n20n12n04n04m96n04m88m88m80
3107A54941m80m80m64m72m64m56m56m48m48m40m40m40m32m24m24m24m16m08m08m16m00l92
3102A45309m00l92l92l84l84l76l76l68l76l60l60l60l52l52l52l44l44l44l36l36l28l28
3097A37365l28l20l20l20l04l12l04l12k96l04k96k96k88k88k80k88k80k80k72k72k72k64
3092A30869k64k64k56k56k56k40k56k48k48k40k32k48k16k40k32k24k32k16k16k16k16k16
3087A25637k08k16k00k08k00k00k00j92j92j92j84j92j84j76j84j76j76j76j68j68j68j68
3082A21509j60j60j60j52j60j44j52j52j44j44j44j36j44j36j36j28j36j28j28j20j28j20
3077A18397j20j20j12j20j04j12j12j04j04j04r6j04q8r6r6q8r6q8q0q8q0q0q8p2q0o4p2p2
3071A15757p2o4o4o4o4n6n6n6n6m8n6m8m8m0m8m0m0m0l2m0l2l2k4l2k4k4k4k4j6k4j6j6qq
3063A14421j6qq%%qQ%%QQQJ6QJ6J6J6K4K4K4K4K4L2K4L2M0L2L2M0M0M0M8M0M8M8N6M8N6N6
3054A15317N6O4N6O4O4O4P2P2P2P2P2Q0Q0Q0Q0Q8Q8Q8Q0R6Q8J04Q8J04J04J04J04J04J04J12
3047A17821J12J12J20J20J20J20J20J28J20J28J36J28J36J36J44J36J44J44J44J52J52J52
3042A20725J52J60J60J60J60J60J68J76J68J76J68J84J76J84J84J84J92J84K00J92J92K00
3037A24605K00K08K00K16K08K08K24K16K16K24K24K32K16K40K32K40K32K48K40K56K40K56
3032A29581K48K56K64K64K56K72K72K64K80K80K80K80K88K88K88K96K96K96L04L04L04L12
3027A35773L12L20L20L20L20L28L36L28L36L44L44L44L52L52L60L60L60L60L76L68L76L76
3022A43365L84L84L92L92L92M00M08M00M16M08M16M24M24M24M32M40M40M40M48M48M56M56
3017A52589M64M64M72M80M80M80M88M88M96N04N04N12N12N12N28N20N36N36N36N52N44N52
3012A63749N60N68N68N76N76N84N92N92O00O00O16O16O16O24O40O32O48O48O48O64O64O64
3007A77245O80O80O88O96P04P04P12P20P20P36P44P36P52P60P68P68P84P84P84Q08Q08Q08
3002A93589Q24Q24Q40Q40Q48Q64Q64Q80Q80Q88Q96R12R12R28R28R36R52R52R68R76R84R92
2997B13477J000J016J024J032J032J056J056J072J080J088J104J112J112J136J144J152J160
2993B31853J184J184J200J208J224J232J248J256J272J280J296J312J320J336J344J360J368
2989B53477J392J400J416J432J448J456J472J488J504J520J536J544J568J584J600J608J632
2985B79077J648J672J680J704J720J736J760J768J800J808J832J856J872J888J912J936J952
2981C09621J976K000K016K048K064K088K112K136K160K176K208K232K264K280K312K336K360
2977C46389K392K424K440K480K504K536K560K600K624K656K688K720K752K792K816K864K888
2973C91125K928K960L000L032L080L112L144L200L232L264L320L352L408L440L488L536L584
2969D46205L632L664L728L776L824L880L928L984M032M088M152M200M264M320M384M440M504
2966E15005M568M632M704M768M840M904M976N048N128N200N272N352N440N512N600N688N768
2962F02405N864N944O040O136O232O328O432O536O632O736O856O960P064P192P304P432P552
2958G15645P680P800P944Q072Q208Q352Q504Q640Q800Q944R112R272R432R608R784R960J0136
2954H65893J0328J0520J0720J0912J1120J1336J1552J1768J2000J2232J2472J2720J2968J3232
2951A029773J3496J3776J4048J4344J4632J4944J5256J5576J5904J6248J6600J6960J7328
2948A228885J7704J8104J8512J8920J9360J9800K0248K0720K1208K1712K2216K2760K3304
2945A493453K3872K4456K5056K5688K6336K7000K7688K8408K9136K9912L0696L1520L2368
2942A855589L3248L4152L5104L6088L7104L8160L9256M0392M1576M2808M4080M5424M6792
2939B369773M8248M9736N1312N2936N4632N6408N8264O0192O2208O4328O6528O8832P1256
2936C134653P3784P6440P9216Q2136Q5200Q8416R1800R5352R9096J03032J07184J11560J16176
2933D344045J21056J26208J31656J37432J43536J50024J56888J64192J71952J80208J89008
2930F016205J98384K08384K19088K30512K42760K55888K69976K85128L01424L19000L37944
2928H884693L58447L80616M04688M30792M59216M90185N24015N61024O01601O46184O95288
2925A4436749P49495Q09489Q76047R50136J032793J125337J229264J346400J478895J629352
2923B5663957J800945J997472K223655K485321K789630L145728L564968M062080M655899N371013
2921E7760668O239986P306248Q628714J0288468J2399050J5122064J8692162K3456691K9940274
2919A89834325L8949933N1743245P0278394R7490884J37178266J91662267K51859914K75879128
2917A304876356K00071271O1447787j773503J773365o1447649k00071408k75879128k51859983
2915G77137108j91662335j37178267r7490986p0278428n1743332l8949933k9940308k3456751
2913A36436768j8692205j5122116j2399083j0288512q628765p306282o240033n371069m655937
2911D7732766m062119l565024l145763k789694k485353k223711j997528j800977j629391j478944
2909B2554262j346441j229304j125391j032833r50185q76095q09537p49535o95337o46223
2906A3093381o01649n61064n24056m90239m59264m30841m04720l80672l58487l38000l19032
2904H225357l01472k85176k70024k55936k42800k30560k19128k08432j98424j89056j80256
2901E644093j72000j64240j56928j50072j43576j37480j31704j26256j21104j16224j11600
2899D112909j07232j03080r9136r5400r1848q8456q5248q2184p9264p6488p3824p1304o8880
2896B990565o6576o4368o2264o0240n8304n6456n4680n2984n1352m9792m8288m6840m5464
2893B272957m4136m2856m1616m0440l9304l8208l7144l6136l5152l4208l3296l2408l1568
2890A786485l0744k9960k9184k8456k7736k7048k6376k5736k5112k4496k3920k3360k2792
2887A441565k2280k1752k1248k0776k0304j9840j9408j8968j8560j8152j7760j7376j7008
2884A188133j6648j6296j5952j5632j5296j4992j4688j4384j4104j3824j3544j3280j3016
2881I96477j2768j2528j2280j2048j1824j1592j1384j1176j0960j0760j0576j0376j0184j0008
2878H38013r832r656r488r320r152r008q848q688q552q400q264q128p984p864p728p600p480
2874F92021p360p240p128p008o904o784o696o576o480o376o288o184o096o000n912n824n736
2870E81429n656n568n488n400n328n256n176n104n032m960m888m816m752m688m624m560m496
2866D95637m432m376m320m256m200m144m088m040l984l928l880l824l784l728l688l632l592
2862D27741l544l496l456l416l368l336l288l240l208l176l128l096l048l024k984k944k904
2858C73085k888k840k816k784k736k728k664k656k624k608k536k528k520k464k464k424k392
2855C28413k368k336k320k288k272k240k224k192k168k152k120k104k080k056k040k016j992
2851B91445j968j960j928j912j896j872j856j840j816j800j784j760j744j728j712j696j672
2847B60501j672j640j624j616j600j584j568j544j544j520j512j496j480j464j448j440j432
2843B34317j408j400j384j376j360j352j336j320j312j304j288j280j264j256j240j232j224
2839B11981j208j208j184j176j168j160j152j136j128j120j112j104j088j080j072j064j056
2835A92765j048j032j032j016j016j000r92r92r76r76r60r52r52r36r36r20r20r12q96q96
2831A73405q88q88q72q64q64q56q48q40q32q32q16q16q08q08p92p92p84p76p76p68p60p52
2825A55373p52p44p44p28p28p28p12p12p12o96o96o96o88o80o72o72o64o64o64o48o48o48
2820A40077o32o40o24o32o16o16o16o08o00o00o00n92n84n84n84n76n68n68n60n60n60n52
2815A27005n44n52n36n44n28n36n28n20n20n20n12n12n04n04m96n04m88m88m88m88m80m80
2810A15733m72m72m72m64m64m56m56m56m48m56m40m48m40m40m32m32m32m24m24m24m16m16
2805A05949m16m16m08m00m08m00m00m00l92l92l92l92l84l76l84l76l76l76l76l68l60l68
2800I7389l60l60l68l52l60l60l36l44l60l28l60l28l44l36l36l36l28l28l36l20l28l20l20
2795H9541l20l12l12l20l12l12l04l04l12k96l04k96l04k96k96k96k88k96k80k88k88k88k80
2790H2637k80k80k80k72k80k72k72k72k64k72k64k64k64k64k64k56k56k64k56k48k56k48k56
2785G6533k48k48k48k48k40k48k40k40k40k40k32k40k32k40k24k32k32k32k24k24k24k24k24
2779G1109k24k24k16k24k16k16k16k16k08k16k08k16k08k08k08k08k00k08k08k00k00k00k00
2774F6261k00k00j92k00j92k00j92j92j92j92j92j84j92j92j84j84j84j84j84j84j76j84j76
2769F1909j76j84j68j84j76j76j76j68j76j68j68j76j68j68j68j68j68j60j68j60j68j60j60
2763E7997j68j60j60j60j60j52j60j52j60j52j60j52j52j52j52j52j52j52j44j52j44j52j44
2758E4453j44j44j52j44j44j36j44j44j36j44j44j36j44j36j36j36j44j28j44j28j36j36j36
2753E1237j28j36j28j36j28j28j36j28j28j28j28j28j20j28j28j20j28j28j20j20j28j20j20
2748D8317j20j20j28j12j20j20j20j20j12j20j20j12j12j20j12j20j12j12j12j12j12j20j04
2742D5645j12j12j12j04j12j12j04j04j12j04j04j12j04r6j20j04j12j04j04q8j04j04j04
2737D3197j04r6r6j04j04r6r6r6j04j04r6r6r6q8j04r6r6r6r6r6r6q8r6r6r6q8r6q8r6q8q8
2730D0221r6q8q8q8r6q8q8q8q8q8q8q8q8q0q8q8q8q0q8q8q0q0q8q8q0q0q8q0q8q0q0q0q8q0
2722C7301q0q0q0q0p2q8p2q8p2q0q0q0p2q0p2q0p2q0q0p2p2q0p2p2q0p2p2p2p2q0p2p2p2p2
2714C4709p2p2p2p2p2o4p2p2o4p2p2p2p2o4p2o4p2o4p2o4p2o4o4o4p2p2n6p2o4p2o4n6o4o4
2707C2397p2o4o4o4o4o4o4o4n6p2o4n6o4o4o4n6o4o4n6n6o4o4n6o4n6o4n6n6o4n6n6o4n6n6
2699C0309n6o4n6n6o4n6n6n6n6n6n6n6n6n6o4m8n6n6n6n6n6n6m8n6n6n6m8n6n6m8n6n6m8n6
2691B8421n6m8m8n6m8n6m8n6m8n6m8m8n6m8m8m8n6m0n6m8n6m8m8m8m8m8m8m8m8m8m8m8n6m0
2683B6725n6m0m8m0n6m0m8n6m0m8m0n6m8m0m8m8m0m8m0m8m8m8m0m8m8m0m0m8m0m8m8m0m8m0
2676B5173m8m0m8m0m0m0m8m0m8l2m8m0m8l2m0m8m0m0m8m0m0m0m0m0m0m0m0m0m0m0m0m0m0m8
2668B3757l2m0m0m0m0l2m8l2m0m0m0m0l2m0m0m0m0l2m0m0m0l2m0m0l2m0l2m0m0l2m0l2m0l2
2660B2477m0m0l2l2m0m0l2l2m0l2l2m0l2m0l2l2m0l2m0l2l2m0l2l2m0l2l2l2l2m0l2l2l2l2
2652B1293m0l2l2l2l2l2l2l2l2l2l2l2l2l2l2l2m0k4l2l2l2l2l2l2l2l2l2l2l2l2k4m0k4l2
2644B0205l2l2l2k4l2l2l2k4l2l2l2k4l2l2l2k4l2l2l2k4l2l2k4l2k4l2l2k4k4l2l2l2k4l2
2637A9197k4l2k4l2k4l2k4l2k4l2k4l2k4k4k4l2k4l2k4l2k4k4l2k4k4l2k4k4l2k4k4l2k4k4
2629A8277k4l2k4k4k4l2k4k4k4l2k4k4k4k4k4l2k4k4k4k4k4l2j6l2j6l2k4k4k4l2j6j6m0j6
2621A7421k4k4k4j6l2k4k4k4k4k4k4k4k4k4k4k4k4k4k4k4k4k4j6k4k4l2j6k4k4k4j6k4k4k4
2613A6621k4k4k4j6k4k4k4k4k4j6k4k4j6k4k4k4j6j6k4k4k4j6k4j6l2j6j6k4k4k4j6k4k4j6
2606A5885k4k4j6k4j6k4k4j6k4j6k4j6k4k4j6k4j6j6k4j6k4j6k4j6k4k4j6j6k4j6k4k4j6j6
2598A5197k4j6k4j6k4j6j6k4j6j6k4j6j6k4k4j6j6k4j6j6k4j6k4j6j6j6k4j6j6k4j6j6k4j6
2590A4549j6k4j6k4j6j6j6j6k4j6j6j6k4j6j6j6j6k4j6j6j6j6j6j6k4j6j6j6j6j6k4j6j6j6
2582A3949j6k4j6j6j6j6j6j6j6k4j6qk4qk4j6j6j6j6j6j6j6j6j6j6k4qj6j6k4j6qk4j6j6j6
2574A3349j6j6j6j6qk4qj6j6j6k4qk4j6qj6j6j6j6j6j6j6j6qj6j6j6j6j6j6j6j6j6j6qk4q
2565A2781j6qk4qj6j6j6k4qj6j6qk4qj6j6qj6j6j6qj6j6j6qj6j6j6j6j6qj6j6j6qj6qj6j6
2557A2221j6qk4qj6qj6j6j6j6qj6j6j6qj6j6qj6qj6j6qj6j6qj6j6qj6j6qj6j6qj6j6qj6j6
2547A1677qj6qj6qj6j6qj6j6qj6qj6j6qqj6j6qj6qj6qj6qj6qj6j6qqj6j6qj6qj6qj6qj6qj6
2537A1133j6qj6qj6qj6qqj6j6qqj6qj6qj6j6qj6qqj6qqj6qj6qj6qqj6qqj6qqj6qj6qj6qqj6
2527A0589qj6qqj6qj6qqj6qj6qqqj6qj6qqj6qj6qqj6qqj6qqqqj6qqj6qqj6qqj6qqj6qqqj6
2515A0053qqqqj6qj6qqqqj6qqj6qqqj6qqqj6qqqqj6qqj6%j6qqj6qj6%qj6qqqj6qqq%k4Qj6
2503I549j6%j6qqj6qqqqj6qqqqj6qqqqqqqj6%j6qqqqqj6q%j6qqqqqqj6qqqqqqqqqj6qqqqq
2490I029qqqj6%qj6qqqqqqqqqqqqqj6%qqj6q%j6q%j6qqqqqqqqqqqqqqqqqqqqqqqqqqqqqqq
2476H517qqqq%j6qqqqqqqqqqq%j6q%qqqqqqqqqqqqqqqq%j6%qqqqqqqqq%qqqqqqqqqqqqqq%
2461H029qqqqqqqq%qqqqqqqqq%qqqqqq%qqqqqq%j6%qqq%qqqqqq%qqqqqqq%j6%qq%j6%qj6%
2446G581Qj6qq%j6%qqqqq%qqq%qqqqq%qqqq%qqqq%qq%qqqq%qqqq%qqq%qqq%qqqqq%qqq%qq
2431G165%qqqq%qqq%qqq%qqq%qq%qqq%qqq%q%qqqq%qqq%qq%qqq%qq%qq%qqq%qq%qqq%q%qq
2416F773%qqq%qq%qq%qq%qq%q%j6%q%q%qqq%qq%q%qq%qq%qq%qqq%q%qq%qqq%q%qqq%q%qq%
2400F421qq%qq%q%qq%q%q%qqq%%q%qqq%q%%qqq%q%qqq%qq%q%qqq%%j6%q%q%q%q%j6Qqq%qq
2385F093%q%qq%q%qq%%j6%%q%qq%q%qq%q%q%%qq%qq%q%qq%q%q%q%q%qq%qq%q%%q%qq%%qq%
2370E797q%qq%%qq%q%qq%q%qq%q%%q%q%q%q%q%q%qq%%q%qq%%q%qq%q%%q%q%qq%q%q%q%q%q
2354E509%q%q%q%q%q%q%q%q%q%%qq%q%q%q%%qq%q%qq%%q%q%q%%q%qq%%q%q%q%q%%q%q%q%q
2339E245%q%q%%qq%%q%q%q%%qq%q%%q%%q%qq%%%qq%%j6%%q%%%qq%qQq%q%qq%%qq%%q%%qq%
2324E005%q%%qq%%%qq%%qq%%%q%q%q%%q%%q%%q%qq%%q%%q%q%%q%q%q%%q%q%%q%q%q%%q%%q
2308D781%%q%q%q%%q%q%%q%q%%%q%qq%%%q%q%q%%q%q%%q%%q%q%%q%%q%q%q%%qQq%q%%q%qq
2292D565%%q%%q%q%qQq%q%q%%%q%q%%q%q%%q%%%q%q%%q%q%%%q%q%%q%q%q%%%q%%q%%q%%q%
2277D373q%%q%%q%q%%%q%q%%%q%qQq%q%qJ6qk4J6qQqqq%q%%q%%q%%%%q%q%q%%%q%q%%%q%q
2262D189%%%qQq%%qqQq%q%q%%%q%q%q%%%q%%q%%%q%%%q%%%q%q%%q%%%q%q%%%q%q%%q%%%%q
2246D021%%q%%q%%q%%q%%%q%q%qQq%%q%%q%%q%%q%%%q%%%q%%q%q%%%qQq%%q%%q%%q%%%q%%
2231C861%q%q%%%q%%q%%q%%%q%%%%q%q%%q%Qq%q%%q%%%q%%q%%%%q%%q%%%q%%%q%%q%%q%%q
2215C701%%%%qq%Q%q%Qj6Qq%q%%%qqQq%qQq%qQq%%%q%%q%%q%%%q%%q%%%%q%%q%%%%q%%%q%
2200C565%%q%%q%%%q%%%%%q%qQq%%%q%q%%%q%%%%q%%%%q%%q%%q%%%%q%%q%%%%%q%%q%%%q%
2184C429%%%q%%%%q%%qQq%qQq%qQq%%q%%%%q%%q%%%%q%q%%%%%q%%q%%%%q%%%q%%%%%q%%%%
2169C309qq%%%%%q%%%qQq%%%q%%%q%%%%q%%q%%%qQq%%%qQq%%q%%%qQq%%q%%%q%%q%%%qQq%
2153C181%%%q%Q%qqQq%%q%%q%%%%%q%%%%q%%qQq%%%%%%q%%q%%%%q%%%%q%%%q%%qQq%%%q%%
2138C069%%%q%%%q%%%q%%%%%q%%%q%%%%q%%%%q%%%%%%q%%%q%%%%%%q%%q%%%%%qQqqQ%q%%%
2122B965q%%%%q%%%%%q%%%%%q%%%%q%%%q%%%%q%%%q%%%%%%q%%%qQq%%%%%q%%q%%%qQ%q%%%
2107B861qQq%%%%q%%%%%q%%%%q%%%%%%q%%%%q%%q%%%%%%%%j6Q%%%q%%%%q%Qq%q%%%%%qQq%
2091B765%%%q%%%%%q%%%%q%%%%%q%%%q%%%%%qQq%%%%q%%%%qQ%q%%%%%q%%%%q%%%q%%%%%%%
2076B677%q%%%%%qQq%%%%q%%%q%%%%q%%%%%%%q%%%q%%%%%%q%%%%%q%%%%q%%%%%%%%q%%%%%
2060B589q%%%%q%%%%%%%q%%%%%q%%%%%qQq%%%%%q%%%%q%%%%%q%%%%%q%%%%%q%%%%%%%%q%%
2045B501%%%%%%%q%%%%%%q%%qQq%%%%%q%qQ%%q%Qq%%%%q%%Qq%qQq%%%%%%%q%%%%q%%%%q%Q
2029B429q%%%%q%Qq%%%%%q%%%%%q%%%qQ%q%%%%%%q%%%%%%%%q%%%%%%q%%%%q%%%%%%%%q%%%
2013B349%%%q%%%%%%%q%%%%%%%q%%%%q%%%%%%%q%%%%%%qQ%%q%%%qQq%%%%%q%%%%%%%q%%%%
1998B277%%%%qQq%%%%q%%%%%%qQ%%q%%%%q%%%%q%%%Qq%%%%%%q%%%%%%qQq%%%%%%qQq%%q%Q
1982B213q%%%qQ%%q%%qQj6J6Qj6%qqQ%%%%%Qq%%%%%q%%%%%%%q%Qq%%%%%q%%%%%%%q%%%%%%
1967B149%%%q%%%%%%%qQq%%%%%q%Qq%%%%qQ%q%%%%%%%%q%%%%%%qQq%%%%%%q%%%%%%q%%%%%
1952B085%%%%%q%%%%qQ%%%%%q%%%qQq%%%qQ%%q%%%%%%%q%%%%%%%%q%%%%%%%%%%%q%%%%%%%
1936B029q%%%qQ%%%q%%%%%%%%q%%%%%%%%q%%%%%%%q%%%%%%%%%%q%%%%%%qQ%q%%%%%q%Qq%%
1921A965QqqQQk4J6j6K4j6Qj6Qq%Qq%%%%%%%%%%qQqQq%%%%%%%%q%%%%%q%%%%%%%%%qQq%%%
1907A917%%%%%%%q%Qq%%%qQq%%%%%%%q%%%%%%%%%q%%%%%%%%%%%q%%%%%%%%%q%%%%%%%%%qQ
1891A869q%Q%q%%%%%%%q%Qq%%%%q%%%%%%%%%%%%%q%%%%%%%q%%%%%%%%%%%q%%%%%%q%Q%%q%
1875A813%%%%%%qQq%%%%%%%q%%%%%%%%%%%q%%%%%%%%%%%%q%%%%%%%%%%q%%%%%%qJ6%j6%QQ
1860A781qqQqQ%q%%%%%%q%Qq%%%%%%%q%%Qq%%%%%%q%%%%%%qQqQq%%%%%%%%%%%%%q%%%%%%q
1845A717Q%q%%%%%%%q%QqQq%%%%%%%%%%%q%%%%%%%%%%%qQq%%%%%qQq%%%%%%%%q%%%%%%%%%
1829A677%%%%%%%qQ%q%%%%%%%qQq%%%%%%%%qQq%%%%%%%%%%%%%%%%q%%%%%%%%%%q%%%%%%%q
1814A629Q%q%%%%%%%%%%%%q%Qq%%%%%%%%%%%q%%%%%%%%%%%%%q%%qQq%%Qq%%%Qj6Q%%%%qQq
1798A589Q%%%qQq%%%%%%%%%%%%%q%%%%%%%q%%%%%%%Qq%%%%%%%%q%%%%%%%%%qQ%%%%q%%%%%
1783A557%%%%qQq%%%%%%%q%%Qq%%%%%%%%%%%q%%Qq%%%%%%%q%Qq%%%Qq%%%%%%qQ%%q%%%%%%
1767A517%%%%%%q%%Qq%%%%%%%%%%%q%%%%%%%%%%q%%%%%%%%%%%%%%%%%q%%%%%%%%%%%%%%%%
1752A485qQq%%%%%%%%qQ%%q%%%%%%%%%qQqQqQ%q%q%%%QqQ%q%%%%%%%%%%%%%q%%%%%%%%%%%
1736A445%%%%%%%q%%%%%%%%%%%%%%q%%%%%%%%%%%%%q%%%%%%%%%%%%%%qQ%%q%%%%%%%%%%%q
1720A405%%Qq%Qq%%%%%%%%%%%%q%%%%%%%%qQ%%%qQqQq%%%%%%%%%%%%q%%%%%%%%%%%%%%%%%
1705A381%q%%%%%%%%%%%%q%Qq%%%%%%%%%%%%%%%%%%%%q%%%%%%%%%%%%q%Qq%%%%%%%%%%%%%
1689A349%%%q%Qq%%%%%%%%qQ%qQ%qQqQ%j6J6q%%%%%%qQ%%q%%%%%%%%%%%%q%%%%%%Qq%%%%%
1674A317%%%%%%%qQ%q%%%%%%%%%%%%qQ%%%%qQ%q%%%%%%%%qQ%%q%%%%%%%%%%%%%%%%qQq%%%
1659A285%%%%%%qQ%%q%Q%qQq%%%%%%%%%%%%qQ%qQ%q%%%%%%%%%%%%%%qQ%%%q%%%%%%%%%%qQ
1643A261q%%%%%%%%%%%%%%%%%%%%%%%%q%%%%%%%%%%%%qQq%%%%%Qq%%%%%%%%%q%%%%%%%%%%
1628A229%%%%%%q%%Q%%%qQq%%%%%%%%%%%%%%%%%%%%%q%%%%%%%%%%%%qQq%%%%%%%%%%%%%%%
1612A205%q%Qq%%%%%%%%%%%%%qQ%qQ%%%q%%%%%%%%%%%%%%%%%%%%q%Qq%%%%%%%Qq%%%%%%%%
1596A181q%%Qq%%Qq%%%%%%%%q%Qq%%%Q%%q%%%%%%%%%%%%%%%%%%q%%Q%q%%%%%%%%%%%q%%Qq
1581A149Qq%%%%%%%%%%%%%%%%%%q%%%%%%%%%%%%%%%%%%%%%%qQ%%%%%%q%%%%%%Qj6J6qq%Qq
1566A125%%%%%%%%%%%%%%%%%%qQ%%q%%%%%Q%q%%%%%%%%%%%%%%%%%q%%Qq%%%%%%%%%%%%%%%
1550A109%%%%%%%%q%%%%%%%%%%%%%q%%QqQqQq%%%%%%%qQq%Q%qQ%%q%Q%qQqQqQq%%%%%%%%%
1535A085%q%%Qq%%%%%%%%%%%%%%%%%%%%%%qQ%q%QqQ%%q%%%%%%%%%%q%Q%qQq%%%%%%QqQq%%
1519A061%%%%%%%%%%%%q%%%%%Qq%%%%%%%%%%QqqQQj6%Q%%j6QJ6j6J6j6Q%j6Q%%qQ%%%%%%%
1505A045%%q%%%%%%%%%%%%%%%%%%%qQ%%q%%%%%%%%%%%%%%%%%%%%qQ%%%%%q%Qq%%Qq%%%%%%
1489A021%%%%%%%%%%%qQq%Qq%%Qq%%%%%%%%%%%%%%%%%%%%%q%%%Qq%%%Qq%%%%%%%%%%qQ%%%
1474A005%%%%%%qQqQq%%%%%%%%%%%%%%%%q%%%%%%%%%%%%%%%%%%%%%%%%%%%%%%%qQ%%q%%%%
1458I81%%%%%%%%%%%%q%%%%%%%%%%%%%%%%%%%%%q%QQk4QQ%q%Q%%%q%QqQ%q%%%%%QqQq%%%%
1443I65%%%%%%qQ%%%%%%q%Qq%%%%%%%%%%%%%%%%qQq%%%%%%%%%%%%%%%%%%%%%%%%%%%%q%Q%
1427I49%%%%%qQqQ%q%%%%%%%%%%qQ%%q%QqQq%%%%%%%%Qq%%%%%%%%%%%%%%qQ%q%Q%q%%%%%%
1411I25%%%%%%%%%%%%%%%%%qQ%%%%qQqQq%%Q%q%%%%%%%%%%qQ%%%%%%%%%%q%%%Q%%%q%%%%%
1395I09%%%%%%%%%%%%%qQq%%%Q%q%Q%q%%%%%%%%%%%%%%%%%%q%%%%%%Qq%%%%%%%%%%%%%%%%
1380H93%%%q%%%%%%Qq%%%%%%%%%%%%%%%%%%%%%%%%%%%%%%%%%%%qQ%%q%%%%%%%%%%%%%%qQ%
1364H77%%%%q%Q%%q%%%Q%q%%%%%%%%%%%%%%%%%%%%%%%%%q%Qq%%%%%%%%%%%%%qQ%%qQ%qQ%%
1348H61%%%qQ%qQqQq%%%Q%q%%%%%%%%%%%%%%%%%%%qQ%qQ%q%%%Qq%Q%q%QqQ%j6Q%%Qqq%%J6
1333H53j6%L2l2qJ6j6K4k4J6qJ6q%Qj6QqQqQq%%QqQq%%%qQ%%qQ%%qQqQ%%%%%%%%%q%%%%%%
1319H29%%%qQ%%%%%%%%%%%%%%qQ%%%qQqQqQ%q%%%%%%%%%%%%%%%%%%%%%%%%%%%%%qQq%%Qq%
1303H13%%%%%%%%%%%%%%%%%%%%%%%%%%%%%%%%%%%%q%%%%Qq%%%%%%%%%%%%%%%%%%%%q%%QqQ
1288H05%qQ%%%%%%%q%QqQq%%%%%%%%%%%%%%%%%%%%%%%%q%Qq%%%Q%%qQ%q%%Q%q%%%%%qQ%%%
1272G89%%%%%%q%QqQ%q%Qq%%%%%%%%%%%%%%%%%%%%%%%%%%%%%%%%%%%%%q%%%%%%%%%%%%%%%
1256G73%%%%%%qQ%qQ%%q%Q%qQ%q%%%%%%%%%%%%%%%%%%%%%%%%%%%qQ%%%%q%%%QqQ%%%%qQq%
1240G57%Q%%q%%%%%%%%%%%%%%%%%%%%%%%%%%%%%%%%%%qQ%%%q%%%%Qq%%%%%%%%%%%%%%%%%%
1224G49%%%%%%%%%%%%%%%%qQ%qQqQ%q%%%Q%qQq%%Q%j6J6qqQ%%%qQ%q%Q%qQ%%qQqQ%%q%%%%
1209G33%%%%%%%%%%%%%%%%%%%%%%%%%%%%q%Q%qQq%%%%Qq%%%%%%%%%%%%%%%%%%%%%%%%%%%%
1193G25%%qQ%q%%%%%Qq%%%%%%%%%%%%%Qq%%%%qQ%%qQ%%%%%%q%%Qq%QqQq%%%Qq%Q%qQq%%%%
1178G09%%%%%%%%%%%%%%%%%%%%%%%%%%%%qQ%%%qQ%%%%%qQ%%%%qQ%q%%%%%Qq%%%%%%%%%%qQ
1162G01%qQqQ%qQ%%%%qQ%q%%%Qq%%%%%%%%%Qq%%%Qq%%%%%%%%qQ%%%%%%%%%%%%%q%Qq%%Qq%
1146F85%%%%%%%%%%%%%%%%%%%%%%%%%%%%%%%%%%%%qQq%%%Q%%%%%%%%%%%q%%%%Qq%%%%%%%%
1130F77%%%%%%%%%%%%qQ%%%%%%%qQq%Qq%Q%q%%Q%%%q%%%%%%%%%%%%%%%%%%%%%%%%qQq%Qq%
1114F61Q%%%q%QqQq%%%%%%%%%%%%%%%%%%%%%%%%%%%%%%%%%%%%%%%%%%%%qQ%q%Q%%qQ%qQ%%
1099F61qQ%%j6Q%%Qq%%%%%%%%%%%%%%%%%%%%%%qQ%%%%%%%%%%%%qQ%%qQ%q%%%%%%%%%%Qq%%
1083F45%%%%%%%%%%%%%%%%%qQ%qQqQq%%%%Qq%%%%%%%%%%%%%%%%%Qq%%%%%%%%%%%%%%%%%%%
1067F37%%%%%%%%%%qQ%%qQq%%%%%%%%%%%%%%%%%%%%%%%%%%%%%%%%%%%%%%%%%%%%%%%%%qQq
1051F21Qq%Q%q%%%Qq%%%%Qq%%%%Q%q%%%%%%%%%Q%%%%%qj6QqQ%K4j6qQj6QQ%%%j6J6qQ%%%q
1037F13QqQ%%qQ%%%%%q%%%%%%%%%%%%Qq%%%%%%%%%%%%%%%%%%%q%%%%Q%%qQ%q%Q%q%%%%%%%
1021F05%%%%%%%%%%%%%%%%%%%%%%%%%%%%%%%%%%%%%%%qQ%%q%Qq%%Q%%%%%%qQ%qQq%Q%%%qQ
1005F05q%%%%%%%%%%%%%%%%%%%%%%%q%Q%%q%%%Q%q%QqQ%qQqQ%%qQ%%qQq%Qq%%%%%%%%%%%%
990E89%%%%%qQ%%%%%%%%%%q%QQj6Q%QqQj6K4m0M0j6k4Q8q0O4%o4%QJ6j6%QqqK4q%%q%QqQ%
977E89q%Qq%%%%%%%%%%%%%%%%%%%%%%%%%%%%%%%%%%%q%Q%%q%%%Q%%qQq%%%%%%%%%%%%%%%%
961E73%%%%%%%%%%%%%%%%%%qQqQ%%%q%%%%Q%%qQ%qQ%%%qQq%Q%q%%%%%%%%%%%%%%%%%%%%%%
945E65%%%%%%%%%%%%%%%%%%%%%%%%%%%%%%q%Qq%%%Qq%%%%%%%%%%%%%%%Qq%%%%%%%%%%%%%%
929E57%%%%%%%%%%%%%%%%qQ%%%%qQ%%%%%%%%q%%QqQ%%%%%%qQq%%%%%%%%%Qq%%%%%%%%%%%%
913E49%%%%%%%%%%%%%%%%%%%%%%%%%%%q%%%%Qq%QqQ%%q%%Qq%%%%%%%%%%%%%%%%%%%%%%%%%
897E41%%%%%%%%%%%%%%qQ%%%%%%q%Q%q%%%%%%%%%%%%%%%%%%%%%%%%%%%%%%%%%%%%%%%%%%%
881E33%%%%%%%%%%%%%%%%%%%%qQ%%%q%%%Qq%%Qq%%QqQqQq%%%%%%%Qq%%%%%%%%%%%%Qq%%%q
865E17Q%QqqJ6qQqj6J6q%%Q%qQ%%%%%%%%%%%%%%%%%q%Q%%%qQ%%q%%%%%%%%%%%Qq%%%%%%%%
849E17%Qq%%%%%%%%Qq%%%%%%%%%%%%%%%%qQ%%%%%%%%qQ%%%%%%qQ%%%qQ%%%q%QqQ%%qQq%%%
833E09Qq%%%%%%%%%%%%%%%%%%%%%%%%%%%%%%%%%%%qQ%%%%qQqQqQqQ%%%%%%%%%%qQ%%qQ%q%
817E01Q%%%%%qQ%q%%%%%%%%%%%%Qq%%%%%Q%q%%%Qq%%%%QqqQQ%%q%Qq%%%%q%%Q%qQ%q%%%%%
801D93Qq%Qq%%%%Qq%%%%%%Q%q%QqQ%%%%%%%q%%%%%%%%%%%%%%%%%%%qQ%%qQ%%%%%%%%%%%%q
785D85Q%%%qQ%%%%%%%%%%%q%%Q%%%%%q%%%Qq%QqQq%Qq%%%%%%%%%%%%%%%%%%%%%%%%%%%%%%
769D85%%%%%%qQ%%%qQ%%qQ%%qQ%%%%%%q%%%%%%%%%QqQ%%%%qQ%%%q%%%%%%Qq%%%%%%%%%%%%
753D77%%%%%%%%%%%%%%%%qQ%%%%q%QqQ%qQ%qQ%%qQ%%%q%%%Q%%q%%Q%%%qQ%%q%QqQ%%qQq%%
737D69%%%%%%%%%%%%%%%%%%%%%%%%%%%qQ%%%%%%%%%%%%%%%%%%%qQ%q%Qq%QqQ%%q%Qq%%%%%
721D61%Qq%Q%%q%%QqQq%%%%Q%%q%%%%%%%%%%%%%%%%%%%%%%%%%%%%%%%%qQ%%%%%%%%%%%%%%
705D61qQ%%%%%%%q%%Qq%%%%Qq%%%%%%%%%%%%%%%%%Q%%qQqQq%%%%%%%%%%%%%%%%%%%%Q%%qQ
689D61qQq%%%Qq%%Q%qQq%%%%%%%%%%%%%%%%%%%%%%qQ%%%%%qQq%%Q%q%%%%Q%qQq%%%%%Qq%%
673D45%Q%q%%%%%%%%%%%%%%%%%%%%%%%%%%%%%%%%%%%%%%%%%%%%%%%qQ%%%qQ%%q%Q%%q%%%%
657D37QqQ%q%%Qq%%%%%%%%%%%%%%%%%%%%%Qq%%%%%%%%%%%%%%%%%%%%%%%%%qQ%%%%%%%%%%%
641D37%%%qQ%%%%%%%qQq%Q%%%qQ%%%qQqQ%q%%%%%%%%Qq%%%%Q%%%%q%QqQqQ%%q%%QqQ%%%q%
625D29%%%%%%%%%%%%%%%%%%%%%%%%%%%%%%%%%%%%%%%%%qQ%%qQ%%%%%%%%%%qQ%%%%%qQq%%%
609D21%%%%%Qq%%%%%%%%%%%%%%%%%%%%%%%%%%%Qq%%%%Qq%Qq%%%%%%%%%%%%%%%%%%%%%%%%%
593D21%%%q%%Q%%%q%QqQ%%%%%%%%q%Q%q%%%%Qq%Q%q%%%%%%%%%%%%%%Q%%q%%%%%%%%%%%%%%
577D13%%%%%%%%%%%qQ%%%qQ%qQ%Qq%%%Q%q%%%%%%%qQ%q%Q%%%%%%%%%%%%%%Qq%%%%%%%qQ%q
561D05Qq%QqQ%%%%%%%%%%qQ%q%Qq%%QqQq%%%Qq%%%%%%%%%%%%%%%%%%%%%%%%%%%%%%%%%%%%
545D05%%%%%%%%%%%%%%%%%qQ%%%%%%%%qQ%%%%%%%%%%%%%%%%%%%%qQqQq%Qq%%%%%Qq%%%%%%
529C97%%%%%%%%%%%Qq%%%%%%%%%%Qq%%%%%%%%%%%Qq%%%%%%%%%%%%%%%%%%%%qQ%%%qQ%%qq%
513C81QJ6q%qQq%Q%%%%%qQ%q%%Qq%%Qq%%%%%%%Qq%Qq%%Qq%%%%%%%%%%%%%%%%%%%%%%%%%%%
497C89%%%%%%%%%%%%%%%%%%%%%%%%%%%%%%qQ%%%%%%q%Qq%%%QqQ%%%%%%%%%qQ%%%%%%qQqQ%
481C89%qQ%qQq%%%%%%%%%%%Qq%%%%%%%%%%%%%%%%%%%%%%%%%%%%%%%%%%%%%%%%%%%%%%%%%%
465C81%%%%%%%%%qQ%%%%%%%%%%qQ%%%%%q%Q%%%%%%%%q%Qq%Qq%Q%%%%q%%%%%%%%%%%Q%q%%%
449C73%%%%%%%%%%%%%%Qq%Qq%%%%%%%%%%%%%%%%%%%%%%%%%Qq%%%%%%%%%%%%%%%%%%%%%%%%
433C73%%%%%%%%%%%%%%%%%%%%%%%%qQqQ%%qQ%qQq%Qq%Qq%%%%QqQ%%%%q%%Q%%%q%Qq%Q%q%%
417C65QqQq%%%%QqQqQq%Q%q%%%%%%%%%%%%%%%%%%%%%%%%%%%%%%%%%%%%%%%qQ%%%%qQ%%qQ%
401C65qQq%Q%%%%%qQ%qQ%qQqQQj6QQj6%Q%QqqqQ%%%%%%%%%%%%Qq%%%%%%%%%%%%%%%Qq%qQ%
385C57%%%%%%%%%%%%%%%%%%%%Qq%%%%%%%%%%%%%%%%%%%%%%%%%%%%%%%%%%%%%%%%qQ%%%%%%
369C57%%%%%%%%%%%%%%%%qQ%%%%%%%%%%%%q%%%QqQq%%%%%%Q%q%%%%%%%%%%%QqQq%%QqQqQq
353C49QqQq%%%%%%%%%%%%%%%%%%%%%%%%%%%%%%%%%%%%%%%%%%%%%%qQ%%qQ%%%%%%q%%Q%%q%
337C41Q%qQ%%q%J6q%%%%%%%qQqQq%Qq%%%%%%%Qq%Qq%Q%qQqQ%%%%%%%%q%Qq%%%%%%%%%%%%%
322C41%%%%%%%%%%%%%%%%%%%%%%%%%%%%%%%%%%%%%%%%%%%%%%%%%%%%%%%%%%%%qQ%%%%%%qQ
305C41%%qQ%%%%%%%%%%%%%%%%%%%%%%%%%%%%%%%%%%q%%Q%q%%%%Q%q%%%%%%%%%%Qq%%%%%%%
289C33%%%%%%%%%%%%%%%%%%%%%%%%%%%%%%%%%%%%%%%%%%Qq%%%Q%qqQ%%%%%%%qQ%%%%%%%%%
273C33%%%%%%%%%%%%%%%%%%%%%%%%%qQ%%%%%%%%%%%%%%%%%%%q%Qq%%%%%%Qq%%%%%%%%%%%%
257C25%%%%%%%%%%%%%%%%%Qq%%%%%%%%%%%%%%%%%%%%%Qq%%%%%%%%%%%%%%%%%%%%%%%%%%%%
241C25%%%%%%%%%%%%%qQ%%%%qQ%%%%qQ%%%%%%qQ%qQ%q%%%Q%qQ%%%%%%%%%%qQ%q%%Q%q%%Qq
225C17QqQ%q%%%%Q%q%%%Qq%Q%%%%q%%%QqQ%q%%%%%%%%%%%%%%%%%%%%%%%%%%%%%%%%%%%%%%
209C17%%%%%QqQq%%%%%%Q%q%%%%%%%%%%%%%%%%%%%%%%%%%%%%%%%%%%%%%%qQ%%%%%%%%%qQ%
193C17%q%Q%qQq%Qq%Q%%q%QqQq%Q%%%%%%%%%%%%%q%Qq%%QqQ%qQ%%%%%qQ%%%%qQq%Q%q%Qq%
177C09%QqQq%%%%Qq%%Qq%%%%%%%%%%%%%%%%%%%%%%%%Qq%%%%%%%%%%%%%%%%%%%%%%%qQqQQq
161C09%q%J6qQq%%%%%%%qQ%%%%%%%%%%%%%%%%%%%q%Q%%%%%%%%%%%%%%qQqQ%%%%%%%%%%%%q
145C01Qq%%%%QqQ%q%%%%%%QqQ%q%Qq%%%%%Qq%QqQqQ%%%qQqQ%q%%%%%%%%%%%%%%%%%%%Qq%%
129C01%%%%%%%%%qQ%%%%%%%%%%%%%%%%%%%%%%%qQ%q%%Q%%%%%%%%%%%%%%%%%%%%%%%%%%%%%
113C01%%%%%q%Q%%%qQqQ%%qQ%%%%%qQ%%%qQ%q%Qq%Q%%qQ%%qQ%q%%Q%%%qQqQq%Qq%%%%%%%%
97B93QqQq%%%%%%Qq%%%%%%%%%%%%%%%%%%%%%%%%%%%%%%%%%%%%%%%%%%%%%%%%%%%%%%%%%%%
81B93%%%%%%%%%%%%%%%%%%%%%%%%%%%%%%%%%%%%%%%%%%%%qQ%%%%%%%%%%%qQ%%%%%%%%%%%%
65B93%%%%%%%%%%%q%%QqQ%%q%QqQqQ%q%%%%Qq%Q%%%q%Q%%qQq%%%%%%%%%%%%%%%%%%%%%%%%
49B85%%%%%%%%%%%%%%%%%%%Qj6J6q%%%%Qq%%%%%%%%%%%%%%%%%%%%%%%%%%%%%%%%%%%%%%%%
33B85%%%%%%%%%%%%%%%%%%%%%%%%%qQ%%%qQqQ%%%%%%%%%%%%%%%%%%%%%%%%%%q%Qq%QqQ%%q
17B77Q%%%qQ%%%%%%%%q%Qq%%%QqQq%%Q%%%%qQ%%qQ%q%QqQq%%%%%%%%%%%%%%%%%%%%%%%%%%
0B77%%%%%%%%%%%%%%%%%%%%%%%%%%%%%%%%%%%%%%%%%%%%%%%%%%%%%%%%%%qQ%qQ%%qQ%%%%%
-16B77%%%%%%%%%%%%%%%%%%%%%%%%%%%qQ%%%%%%%%%%%%%%%%%qQqQqQq%Qq%%%Qq%%%%QqQ%%
-32B77qQ%%qQ%%qQq%%%%%Q%%%qQqQ%qQq%%%%Qq%QqQqQ%%q%Qq%Q%%%%%qQq%%%%%%%%%%%%%%
-48B69%%%%%%%%%%%%%%%%%%%%%%%%%%%Qq%%%%%%%%%%%%%%%%%%%%%%%%%%%%%%%%%%%%%%qQ%
-64B69%%%%%q%%%%Q%qQ%%%%%%%%%qQ%%%%%%qQq%QQq%qQ%%j6QqQ%QqQq%%%Q%q%%Q%qQ%%%%%
-80B69%%%%%%%%%qQ%%%%qQ%q%%Q%q%Qq%%QqQq%%Qq%%%%%%%%%Qq%%%%%%%%%%%%%%%Qq%Qq%%
-96B61Qq%%%%%%%%%%%%%%%%%%%%%%%%%%%%%%%%%%%%%%%%%%%%%%%%%%Qq%%%%%%%%%%%%%%%%
-112B61%%%%%%%%qQ%%%%%%%%%%qQ%%%%%qQ%%%%%%q%%%Qq%%%%%%QqQ%%%q%Qq%%Q%q%Qq%Q%%
-128B61%qQ%q%%%%%QqQq%%%%Q%%%qQqQ%qQ%q%%Qq%Qq%%Qq%Q%q%%%Q%%%%%%q%Q%%%%%%q%Q%
-144B61%%q%%%%QqQq%%%Qq%%%%%%%%%%%%%%%%%%%%%%%%%%%%%%%%%%%%%%%%%%%%%%%%%%%%%
-159B53%%qQ%qQqQ%%%%qQ%%%%%%%%%%%%%%%%%qQ%%%%%%%%%%%%qQqQ%%%%%%%%%%%%%%%%%%%
-175B53%%%%%qQ%%%%qQ%qQqQqQqQqQqQ%%%%%%%%%%%%qQ%%%%%qQ%qQqQ%%qQ%q%Q%q%Q%qQqQ
-191B53qQq%%%%%%%%%%%%%%%%Qq%%%%%%%%%%%%%%%%%%%%%%%%%%%%%%%%%%%%%%%%%%%%%%%%
-207B45%%%%%%%%%%%%%%%%%%%%%%%%%%%%%qQ%%%%%%%%%%%%%%%%%%%qQ%%%%%%%%%%%%%%%%%
-223B45%%%%%%%%%%%%%%%%%%%%%%%qQ%%%%%%%%%%%qQ%%%q%QqQ%%qQ%%qQ%%%%qQ%%%%%qQ%%
-238B45%%%%%%%%qQ%%%q%Q%%%%%%qQ%%%q%Q%q%%%%Qq%%%%Q%%q%%Q%%q%%%%%Q%q%Q%q%%Q%q
-254B37%%%%%%%%Qq%%%%%%%%%%%%Qq%%%%%%Qq%%%%Qq%Qq%%%%%%%Qq%%%%%%%%%%%%%%%%%%%
-270B37%%%%%%%%%%%%%%%%%%%%%%%%%%%%%%%%%%%%%%%%%qQqQ%%%%%%%%%%%%%%%%%%%%%%%q
-286B29%%Q%%%%%%%%%%%%%%%%%%%%%%%%%%%%%qQ%%qQ%%%%qQq%Q%qQqQqQ%%%%%qQqQ%%qQqQ
-302B37%qQq%QqQqQq%%Q%%%%qQ%%q%Q%%%%qQ%%%%qQq%QqQq%%Qq%%%%%%%%Q%q%%%%%Qq%%%%
-317B29%%%%%%%%%%%%%%%%%%%%%%%%%%Qq%%%%%%%%%%%%%%%%%%%%%%%%%%%%Qq%%%%%%%%%%%
-333B29%%%%%%%%%%%%%%%Qq%%Qq%%%Qq%%%%%%%%%%%%%%%%%%%%%%%%%%%%%%Qq%%QqQ%q%Qq%
-349B29%%%%%%%%%%%%%%%%%%%%%%%%%%%%%%%%%qQqQ%%%%%%%%%qQ%%%qQ%%q%Q%qQ%%Qj6Qq%
-364B21Q%qQ%j6QJ6q%%qQ%%%%%%%%%%%%%%%%%%%%%q%%Qq%%Q%%qQqQqQ%%%qQ%%%qQqQ%qQqQ
-380B29q%%%%Q%q%%%%%%%%%%%%%%%%%%%%%%%%%%%%%%%%%%%%Qq%%%%%%%%%%%%%%%%%%%%%%%
-396B21%%%%%%%%%%qQ%%%%%%%%%%%%%%%%%%%%%%%%%%%%%%%%qQ%%%%%%%%%%%%%%%%%%%%%%q
-411B13Q%%%%%%%%%%%%%%%%%%%q%QqQ%%qQ%%%%%%%%%%%%%qQ%%%qQqQ%%%%qQQk4Q%Q%qQqQ%
-427B21%%q%Q%qQqQ%q%Q%%%%%%%%%%%qQqQ%%%%%%%%%%%%%%qQ%q%%Q%q%Q%qQ%%%%qQ%%%%%%
-443B21%%%qQq%Qq%%%%Q%q%Q%%qQq%%%%%%%%%%%%%%%%%qQ%%%%%%%Qq%%Qq%Q%%q%Qq%Qq%Qq
-459B13%%QqQq%%Qq%%Qq%%Qq%%%%%%%%%Q%%qQ%q%%Qq%%%%%%%%%%%%%%%%%%%%%%%%%%%%%%%
-474B13%%%%%%%%%%%%%%%%%%%%qQ%%%%%%%%%%%%%%%%%q%Q%%qQq%%%%Q%%%%%%%%%%%%%%%qQ
-490B13%%%%%%%%%%%%%%%%%%%%%%%%%%%%%%%%Qq%%%%%%%qQ%%%qQ%%%%%%%%%%%%%%qQ%qQqQ
-506B13%%q%Q%%%%%%%%%%%%%%%%%q%Q%%%%qQ%qQqQqQqQ%%qQqQqQqQqQq%%%%%%%%%%%%Qq%Q
-522B13q%Qq%%Q%%%%%%%%q%Qq%%Qq%%%%%%%%%Qq%%%%%%%%%%%%%Qq%%Qq%Q%%qQ%q%QqQq%%%
-537B05%%Q%qQj6J6qQq%QqQqQq%qj6N6l2J6l2%M8k4k4J6%Q%%%j6%QQqQqQq%%%%%%%%%%%%%
-551B05q%Q%%%%%%%%%Qq%%%%%%%%%%%%%%%%%qQ%%%%%%%%%%%%%%%%%%%%%%%%%%%%%%%%%%%%
-566B05%%%%%qQ%qQ%%qQqQ%%%%%%qQ%%Qq%%%%%%%%%%%%%qQq%%Q%%%%%%%%%%%%%%%%%%%%%%
-582B05qQ%%%q%%%%Qq%%%%Q%qQ%q%Q%qQ%%%%%qQ%%%%%qQ%%%%%%%%q%QqQ%%%qQ%%%%%%%%%%
-598B05qQ%%qQqJ6q%%q%%Qq%%%%%%%%%%%%%%%Q%%qQq%Qq%%%%%%%%%%%%%%%%%%%%%%%%%%%%
-613A97%%%%%%%%%Q%qQqQq%%%%%%%%%%%%%%%%%%%%%%%%%%%%%%%%%%%%%%%%%%Q%qQq%%QqQq
-629A97%%%%%%%%%%%%%%%%%%%%%%%%Qq%%%%%%%%%%%%%%%%%%Qq%%%%%%%%%%%%%%%%%%%%%%%
-645A97%%%%%%%%%%%%%%%%%%%qQ%%%%%%qQ%%%%%q%%%%%Q%qQ%qQq%%Qq%%Q%%qQ%%%%%qQq%Q
-661A97%%%%%%%qQ%%%%%%%%%%%%%%%%%qQ%%%%%%%%%qQ%%%%%q%Q%qQqQ%%qQqQ%qQ%q%%%%%%
-677A89%%%%Qq%%%%%%%%%%Q%%%q%%%%%Q%qQ%qQ%q%%%Qq%%%Q%%q%%%%%%Qq%%%%%%Q%q%%%%%
-692A89%%%%Qq%%%%%%%%%%%%%Qq%%%%%%%%%%%%%%%%%%%Qq%Qq%Q%%%%qQ%qQq%%%%%%%%%%%%
-708A89%%%%%%%%%%%%%%%%%%%%%%%%%%%%%%%%qQ%%%%%%%%%%%qQqJ6q%%%%%%%%%%%Qq%%%%%
-724A89%%%%%%%%%%%%%%%%%%qQ%%qQqQ%%%%%%%%%%%%%%%%%%%%%%%%%qQ%%%%%%%%%%%%%%%%
-740A89%%%%%qQq%Q%%%qQ%%%%%%%%%%qQ%%qQ%%%%%%%qQ%%%%%%%%%%%%%%%%qQqQ%%qQ%%qQq
-755A81%QqQq%%Q%q%Q%qQ%%%%%%%%%%%%qQ%%qQ%%qQ%%%%%qQ%%%qQ%q%Q%q%Q%q%%%%%%%%%Q
-771A89q%%%%%%%%%%%Qq%%%qQ%%%%Qj6Q%Qq%%%%QqQq%Qq%%%%%%%%QqQ%%%%%%%%%%%q%%%%%
-787A81%%%%%%%%%%%%%%%Qq%%%%%%%%%%%%%%%%%%%%%%%%%%%%%%%%%%%%%%%%%%%%%%%%%%%%
-803A81%%%%%%%%%%%%%QqQq%%%%%%%%%%%%%%%qQ%%%%%%%%%%%%%%%%%%%%%%%%%%%%%%%%%%%
-818A81%%%%%%%%%%%%%%%%%%%%%%%%%%%%%%%%%%qQq%Q%qQ%%%%%%qQ%%Qj6%%qL2j6%q%QQ%j6
-833A73%qJ6k4K4qQ%%%qQqQqQQj6%Q%%%%%%%%%%qQqQq%%Q%%q%Q%%%qQqQ%qQ%qQ%q%%Q%%%q
-848A73Qq%%QqQqQ%qQq%%%Qq%%%%%QqQqQ%qQq%Qq%Q%%%qQ%%q%QqQ%qQ%%%%qQ%qQ%%qQq%Qq
-864A73Q%q%%%%Qq%%%%Q%q%%%Qq%Q%qQqQqQ%%qQqQq%%Qq%%%%%Qq%%%%%%%%%Q%q%%%%%%Qq%
-880A73%%%Qq%%%%%%Qq%%%%%%%%%%%%%%%%%%%Qq%%%%%%%%%%%%%%%%%qQ%%%%Qj6qJ6%%%%%%
-895A73qQ%%%%%%qQ%%%%%%QqQq%%%%%%%%%%%%%%%%%%%%%%%%%%%%%%%%%%%%%%%%%%%%%%%%%
-911A73%%%%%%%%%%%%%%%%%%%%%%%%%%%%%%%qQ%%%%%%%%%%%%%%%%%%%%%%%%%%%%%%%%%%%%
-927A73%%%%%%%%%%%%%%%%%%%qQ%%%%%%%%%%%qQ%%%%%%%%%%qQ%%qQqQqQ%%%%%%%%%%%%%%q
-943A65Q%qQ%q%%%Q%%%%%%q%%QqQqQ%q%Qq%QqQ%%qQ%%qQq%%%Q%%%%%%%%%%%%%%%%%%qQq%%
-958A65QqQq%%Q%%%%%%%%%%%%%%%%%%%%qQ%%%%%q%Q%%q%QqQqQq%%%%%%%%%%%Qq%%%%%%%Q%
-974A73q%%%%%Qq%%%Qq%%%%%%%%%%%%QqQq%%%%%%%%%Qq%%%%%%%%%%%%%%%%%%QqQq%%%%%%%
-990A65%%%%%%%%%%%%%%%%%%%%%%%%%%%%%%%%%%%%%%%%%%%%%%%%%%%%%%%%%%%%%%%%%%%%%
-1006A65%%%%%%%%%%Qq%%%%%%%qQ%%%QqqJ6Qj6Qq%%%qQ%%%%%%%%%%%%%%%%%%%%%%%%%%%%%
-1021A65%%%%%qQ%%%%%%%%%%%%%%%%%%%%%%%%%%%%%%%%%%%%%%%%%%%%%%%%%%%%%%%%%%%%%
-1036A65%%%%qQqQ%qQ%qQ%%%%qQ%%%%%%%Qq%%%%%%%%%%%%%%%%%%%%%%%qQqQ%%%%%%%%%%%%
-1052A65%%%%%%qQ%qQ%%%%%%%qQ%%%%%%%%%%%%%%%%%%%q%Q%%%%%q%Q%qQ%%%%%%%%%%%%%%q
-1068A57%J6j6QqQ%%%q%Q%%%%%%qQ%qQ%qQ%%%%%%%q%QqQq%%%%Q%q%%%%%%%%%%%%%%%%%%%%
-1083A57%%%%Qq%%%Q%q%%%%%%%%%%%%%%Q%qQqQq%%%%Qq%%%%%%%%QqQ%qQ%%%q%%%%%Qq%Qq%
-1098A57%%%%%Qq%%Qq%%%%%%%%%%%%%%%%%%%%%%%%%%%%%%%%%%%%%%%%%%%%%%%%%%%%%%%%%
-1114A57%%Qq%Q%qQq%%%%%%%%%%%%%%%%%%%%%%%%%%%%%%%%%%%%%%%%%%%%%%%%Qq%%QqqQ%q
-1129A49J6q%%%%%qQ%%%%%qQ%%%%qQ%%%%%%%%%%%%%%qQ%%%%%%%%%%%%%%%%%%%%%%%qQ%%%%
-1145A57%%%%%%%%%%%%%%%%%%%%%%%%%%%%%%%%%%%%%%%%%%%%%%%%qQ%%%%%%q%%Q%%%%qQ%%
-1160A57%%%%%%%%%%%%%%%%%%%%%%%%%%%%%%%%%%%%%%%%%%%%%%qQ%%%%%%qQ%%%%%%%%%%%%
-1176A57%%%%%qQ%%qQ%%%%%%%%%%%%%%%%q%QqQqQ%%%%%%q%%%%%%%%Qq%Q%q%Q%%q%%%Q%%%%
-1191A57%%%%%%q%Q%%%%%%%%%%%%qQ%%qQ%%qQ%q%Q%%q%Qq%%%Qq%%%%%%%%%%%%%%%%QqQqQq
-1207A49%%%%%%%%%Qq%%Qq%Qq%%%%%%%Qq%%Qq%Qq%%%%Q%%%%qQ%qQ%q%Q%qQqQ%q%%%QqQ%qQ
-1223A57%qQq%%%%%%%%%QqQ%%q%%%%%%%%%%%%%%%%%%%%%%%%%%%%%%%%%%%%%%%%%%%%%%%%%
-1238A49%%%%%%%%%%%%Qq%%%Qq%%%Qq%%%Q%%qqQ%Qk4K4q%%Qq%%%%%%%%%
-1250A49
##$OBSERVED MULTIPLETS=	(I, X, Y, Hs, Vs, An, H, C, N, (J))
$$ I: Multiplet Index
$$ X: Strt Coordinate
$$ Y: End Coordinate
$$ Hs: Horizontal Chemical Shift
$$ An: Normalised Integral Area
$$ H: Hydrogens
$$ C: Category
$$ N: Name
$$ (J): Coupling Constants
(1, 127.80625180514481087, 127.92744530778760748, 127.86684855646620917, 1.2300905064393228283, 1, s, 4&comma;5)
(2, 25.596521975078136535, 25.717716341136647173, 25.657119158107391854, 1.7366221732514248721, 2, s, 3&comma;6)
(3, 23.260701501936221547, 23.405808767318394104, 23.333255134627307825, 1.5166438405447602022, 2, s, 2)
(4, 23.257039000586381405, 23.40214624416554301, 23.329592622375962208, 1.5166434797644916532, 2, s, 1)
##$OBSERVED MULTIPLETS AREAS=	
(1, 1.7167192495448402312)
(2, 2.4236368774496961365)
(3, 2.1166342331211516203)
(4, 2.116633729614760373)
##$OBSERVED MULTIPLETS PEAKS=	(I, X, Y)
$$ I: Multiplet Peak Index
$$ X: Peak x Position
$$ Y: Peak Intensity
(1, 127.86684855646620917, 0.16513881087303161621)
(2, 25.657119158107391854, 0.23313868045806884766)
(3, 23.333255134627307825, 0.17005361616611480713)
(4, 23.329592622375962208, 0.17005360126495361328)
##$PREDICTED PEAKS=	(X Y T A)
(23.324903294922876285,  , 3, <1>)
(23.33288126210697655,  , 3, <2>)
(25.65478696476919751,  , 3, <3>)
(127.85272012135182251,  , 5.2599999999999997868, <4>)
(127.85272012135182251,  , 5.2599999999999997868, <5>)
(25.65478696476919751,  , 3, <6>)
##$PREDICTEDCOUPLINGCONSTANTS=	J(A,B)	$$ (Hz)
127.1(1, 1)
4.31(1, 3)
0.97(1, 4)
5.01(1, 5)
2.98(1, 6)
127.1(2, 2)
2.98(2, 3)
5.01(2, 4)
0.97(2, 5)
4.31(2, 6)
4.31(3, 1)
2.98(3, 2)
125.92(3, 3)
5.53(3, 4)
5.93(3, 5)
0.97(4, 1)
5.01(4, 2)
5.53(4, 3)
157.15(4, 4)
5.93(4, 6)
5.01(5, 1)
0.97(5, 2)
5.93(5, 3)
157.15(5, 5)
5.53(5, 6)
2.98(6, 1)
4.31(6, 2)
5.93(6, 4)
5.53(6, 5)
125.92(6, 6)
##END=		$$ NMR SPECTRUM
##TITLE=	Predicted 13C NMR Spectrum
##JCAMP-DX=	6.0	$$ MestReNova 17.0.0-41178
##DATA TYPE=	NMR PEAK TABLE
##DATA CLASS=	PEAK TABLE
##BLOCK_ID=	4
##ORIGIN=	Mestrelab Research S.L.
##OWNER=	ctheodore
##CROSS REFERENCE=	NMR SPECTRUM: BLOCK_ID=3                                     
##.OBSERVE FREQUENCY=	125
##.OBSERVE NUCLEUS=	^13C
##NPOINTS=	4
##FIRSTX=	23.329592622375962208
##LASTX=	127.86684855646620917
##XFACTOR=	1
##YFACTOR=	1
##FIRSTY=	0.17005360126495361328
##XUNITS=	PPM
##YUNITS=	ARBITRARY UNITS
##PEAK TABLE=	(XYW..XYW)
23.329592622375962208,0.17005360126495361328,0.014510724357916263486
23.333255134627307825,0.17005361616611480713,0.014510726538217359402
25.657119158107391854,0.23313868045806884766,0.012119436605851382008
127.86684855646620917,0.16513881087303161621,0.012119350264280662546
##$MNOVA/PEAK_DATA_TABLE=	(T,F,A,ST,SP,APT,APC)
$$ Complementary to PEAK TABLE
$$ T: Type
$$ F: Flags
$$ A: Annotation
$$ ST: Shape Type
$$ SP: Shape Parameter
$$ APT: Attached Peaks Type
$$ APC: Attached Peaks Count
Compound,None,,0,0,0,0
Compound,None,,0,0,0,0
Compound,None,,0,0,0,0
Compound,None,,0,0,0,0
##END=		$$ NMR PEAK TABLE
##END=		$$ LINK
