##TITLE=	diethyl ether 1h
##JCAMP-DX=	6.0	$$ MestReNova 17.0.0-41178
##DATA TYPE=	LINK
##BLOCKS=	3    
##ORIGIN=	Mestrelab Research S.L.
##OWNER=	ctheodore
##$MNOVA/METADATA=	(DOCUMENT,BASE64)
eyJuYW1lIjoiL1VzZXJzL2N0aGVvZG9yZS9Eb2N1bWVudHMvY2xhc3Nlcy9OTVIgZXhwZXJpbWVudC9
naXRodWIgZmlsZXMvZGlldGh5bCBldGhlci9kaWV0aHlsIGV0aGVyIDFoLm1ub3ZhIiwicGFnZXMiOl
t7Iml0ZW1zIjpbIjEiLCAgICAgICAgICAgICAgICAgICAgICAgICAgICAgICAgICAgICAiMiIgICAgI
CAgICAgICAgICAgICAgICAgICAgICAgICAgICAgICAgXX1dfQ==
##TITLE=	
##JCAMP-CS=	3.7	$$ MestReNova 17.0.0-41178
##BLOCK_ID=	1
##ORIGIN=	Mestrelab Research S.L.
##OWNER=	ctheodore
##$MNOVA/METADATA=	(ITEM,BASE64)
eyJhbmdsZSI6MC4wLCJwb2ludHMiOlt7IngiOjUzMjEuMCwieSI6NTgzNS4wfSx7IngiOjU3NzAuMDE
0MDQ4MDQ3NTI3NSwieSI6NTgzNS4wfSx7IngiOjU3NzAuMDE0MDQ4MDQ3NTI3NSwieSI6NTk2Mi4wOT
Y1OTg2NDMxNzZ9LHsieCI6NTMyMS4wLCJ5Ijo1OTYyLjA5NjU5ODY0MzE3Nn0seyJ4Ijo1MzIxLjAsI
nkiOjU4MzUuMH1dLCJ6IjoxLjB9
##NAMES=	
##ATOMLIST=	
$$ AN	AS	NH
	1	C	3
	2	C	2
	3	O	 
	4	C	2
	5	C	3
##BONDLIST=	
$$ AN1	AN2	BT
	1	2	S
	2	3	S
	3	4	S
	4	5	S
##MAXRASTER=	32768
##XY_RASTER=	
$$ AN	X	Y	Z
	1	-32767	4730	0
	2	-16385	-4728	0
	3	0	4730	0
	4	16385	-4730	0
	5	32767	4728	0
##END=		$$ JCAMP-CS
##TITLE=	Predicted 1H NMR Spectrum
##JCAMP-DX=	6.0	$$ MestReNova 17.0.0-41178
##DATA TYPE=	NMR SPECTRUM
##DATA CLASS=	XYDATA
##BLOCK_ID=	2
##ORIGIN=	Mestrelab Predictor, Modgraph NMRPredict Desktop
##OWNER=	ctheodore
##NUMDIM=	1
##$MNOVA/METADATA=	(ITEM,BASE64)
eyJhbmdsZSI6MC4wLCJheGVzIjp7IngiOnsibWF4IjozLjc5NjgzMzk4MDE4NDgxMSwibWluIjowLjY
yNTAwMTMzNzcwMzAxMzJ9LCJ5Ijp7Im1heCI6MC4xNTY0NjgzNDY3MTQ5NzM0NSwibWluIjotMC4wMT
QyMjQzNzg1NDU4NTU3MTJ9fSwicG9pbnRzIjpbeyJ4Ijo1MzIxLjAsInkiOjU4MzUuMH0seyJ4Ijo4N
zIyLjAsInkiOjU4MzUuMH0seyJ4Ijo4NzIyLjAsInkiOjgyMDguMH0seyJ4Ijo1MzIxLjAsInkiOjgy
MDguMH0seyJ4Ijo1MzIxLjAsInkiOjU4MzUuMH1dLCJ6IjowLjB9
##.OBSERVE FREQUENCY=	500
##.OBSERVE NUCLEUS=	^1H
##.SOLVENT NAME=	DMSO-d6
##.PULSE SEQUENCE=	
##.ACQUISITIONMODE=	SIMULTANEOUS (DQD)
##$ORIGINAL FORMAT=	Predictor
##$MNOVA/SCALES_VERSION=	9
##$PARAMETER FILE=	(parameters, ASCII, , 0)
$$ <?xml version="1.0" encoding="utf-8"?>
$$ <PredictorParameters>
$$     <Title>Predicted 1H NMR Spectrum</Title>
$$     <Origin>Mnova: NMR Prediction</Origin>
$$     <Name>Mestrelab Predictor, Modgraph NMRPredict Desktop</Name>
$$     <Version>1.7, 1.22 (5.076)</Version>
$$     <Nucleus>1H</Nucleus>
$$     <Solvent>DMSO-d6</Solvent>
$$     <From>0</From>
$$     <To>12.5</To>
$$     <Frequency>500</Frequency>
$$     <LineWidth>0.75</LineWidth>
$$     <Size>65536</Size>
$$     <DEPT>0</DEPT>
$$     <ProtonatedCarbons>0</ProtonatedCarbons>
$$     <ExcludeLabile>true</ExcludeLabile>
$$     <FastPrediction>0</FastPrediction>
$$     <ProtonDecoupled>0</ProtonDecoupled>
$$     <Reference/>
$$     <Options>
$$         <Settings>
$$             <Predictor Name="Mestrelab Predictor">
$$                 <Settings>
$$                     <Model>/Applications/MestReNova.app/Contents/Resources/data/1H.mbst</Model>
$$                 </Settings>
$$             </Predictor>
$$             <Predictor Name="Modgraph NMRPredict Desktop">
$$                 <Settings>
$$                     <Algorithm hoption="2" hsolvent="1" usnucleus="1">Fast Increments</Algorithm>
$$                     <JsAlgorithm>Fast Increments</JsAlgorithm>
$$                     <NMRSOAPDIR>/Applications/MestReNova.app/Contents/Resources/NMRPredict</NMRSOAPDIR>
$$                     <NMRTEMPDIR>/private/var/folders/3f/5b3_td5j7k3f1lyt31390d3jfxj842/T/NMRPredict-1574477954</NMRTEMPDIR>
$$                     <NMRUSDATABASEDIR>/Users/ctheodore/Library/Application Support/Mestrelab Research S.L./MestReNova/NMRPredict/NMR1HDatabase</NMRUSDATABASEDIR>
$$                     <Databases>ABCDEFGHIJKLMNOPQRSTUVWXYZ</Databases>
$$                 </Settings>
$$             </Predictor>
$$         </Settings>
$$     </Options>
$$     <MoleculeID>{075e0fe5-7318-495c-aeb2-8a955dcccd0b}</MoleculeID>
$$ </PredictorParameters>
$$ 
##XUNITS=	HZ
##YUNITS=	ARBITRARY UNITS
##FIRSTX=	6250
##LASTX=	0.095367431640625
##DELTAX=	-0.095367431640625
##XFACTOR=	1
##YFACTOR=	5.6775001393353409821E-11
##FIRSTY=	1.0689397811347589595E-07
##MINY=	1.423718654081085333E-08
##MAXY=	0.12192338705062866211
##NPOINTS=	65536
##XYDATA=	(X++(Y..Y))
6250A883%%q%%%%%%%%%%%%%%%%qQq%%%%%%%%%%%%qQ%q%%%%%%%q%%Q%q%Q%q%%%%%%%%%%q%%
6244A843%%%%%%%q%Q%%%%%qQq%%%%%%%%%qQq%Q%q%%%%%%qQq%Qq%%%%%%%qQ%q%%Q%q%%%%%%
6237A811%%%qQq%%QqQq%%%%%%%%%%%qQ%%%q%%%q%Qq%Q%qQq%%%%%%qQ%%q%%Qq%%%%%%%%%q%
6231A771%Qq%Qq%%%%%%%%%%%qQ%q%%%%%%%%qQq%Q%q%%%qJ6j6QqQq%Qq%Q%q%%%qQ%%%%%%%q
6224A739Qq%%%%%%%%%%%%%%%%%q%%%%%Qj6Q%%%q%%%Qq%%%%Qq%qQqQqQq%%%%%%%Qq%%QqqQq
6218A707%%%QqQqQqQq%%%%%%%qQ%qQq%%%%%%qQ%%%%q%Qq%%%%%%%%%%%qQq%%Qq%%%%%%%%Qq
6211A683Qq%%qQ%qQ%q%%%Qq%%%%%%%q%%%Qq%Qq%%%%%q%%%%%%%%%%%%%%%%%qQqQqQqQqQq%%
6205A651%%%%%%%%%%%q%%%Q%qQj6Q%qQqQ%q%Q%q%%%%%%%qQ%qQ%%qQ%q%%%%%%%%%%%%%%%%%
6199A627qQ%qQq%%%%%%%%qQq%%%%%%%%%%%%%%%%%%%q%Qq%Qq%%QqqQ%%qQ%qQqQ%%qQ%q%%%%
6192A595%%%%%%%q%QqQq%%%%%%%%%%%%%%%q%%Qq%Qq%%%%%%%%qQqQq%Q%q%%%%%Qq%%%%qQ%%
6186A571%%%q%Qq%%%%%%%%%%qQq%%Q%q%%%%%%%%%%%%%q%QqQq%%%%Qq%%%%%%%%qQ%q%%Q%q%
6179A539%%%%%%%q%%QqQ%q%%Q%qQ%q%%%%%%%%%%%%qQ%q%Qq%%%%%%%%%%%%%%q%%Qq%%%%%%%
6173A515%%%%%%%qQq%%%%QqQq%%%%%%%QqqQqJ6qQqk4J6qJ6%q%%Q%q%%%qQ%%%%%q%%Qq%%%%
6166A491%%%%qQ%%%q%%%%Q%q%%%%%%%%%qQ%%qQ%q%QqQq%%%Qq%Qq%%%%%%qQ%%%%q%Qq%%%%%
6160A467%%%%%%%qQ%%%%q%%%%%%%%%%qQq%Q%%q%QqQq%%%%%%%%%%%%qQ%%%%qQ%q%%Qq%Qq%%
6153A443%%%%%%%%%%q%%%%%%%%%%%%%%%%%%qQqQqQ%%%q%%%%%Qq%%%%%%%q%%Q%q%QqQ%q%%Q
6147A427q%%%%%%qQ%qQ%%q%%%%%QqQq%%%%qQ%%%%%qQ%q%%%%%%%%%%%%%%%%%%qQ%qQqQ%%q%
6141A395%%%%%%%%%%qQ%%%%%%%q%Qq%%%Qq%%%%%%%%%%%%%qQ%qQqQq%%%Qq%%%%%%%%%%%%%%
6134A379%%qQq%%%%%%%%%%qQqQqQqQq%%Q%qQq%%%%%%%Qq%%%%%%qQqQ%%q%Qq%%%%%%%%%%%%
6128A355%%q%QqQ%q%Qq%%%Qq%%%%%qQ%%%%q%%Qq%Qq%%%%%%%%Qq%%qQ%%Qq%qQqQq%%%%%%Qq
6121A331%%%%%%qJ6j6%QQq%%qQ%qQqQqQq%%%%%%%%q%%%Q%%%q%%%Qq%%%%%%%%%%%%%%%%%%%
6115A315qQq%%%Q%q%Qq%%%%%%%%Qq%%%%%qQqQq%%%%Q%qQq%Qq%%%%%%%%%qQ%%%%qQqQ%qQ%%
6108A299%%q%%%%%%%Qq%%%%%%%%%%q%%Qq%%%%%Qq%%%%%q%%Q%qQqQ%qQ%q%Q%%qQq%%%%Q%qq
6102A267J6q%%%%%%%qQ%%q%Q%q%%%%%%%%%%%qQ%%%%qQq%%%%%Q%q%Qq%Qq%%%%%%%qQq%Q%%%
6095A259qQ%%qQq%%%%%%%%%%%%%qQ%%%%q%%Q%%qQq%%%%%%%%%%%%%%%qQ%%%%q%Qq%Q%q%Qq%
6089A235%%%%%%%%qQq%Q%qQ%qQq%Qq%%%%%%Qq%%%%%%qQ%qQqQ%%%qQ%%qQ%q%%%%Qq%qJ6q%%
6083A219%%%%qQ%qQ%%q%%%Qq%%%%%%%%%%%%%%qJ6qqQ%qQqQ%qQ%q%%qK4j6Q%q%qJ6%q%QqQ%
6076A211%q%qQ%%%%%q%QqQ%q%%Qq%Q%q%%%qQ%%%%%%%%Qq%qJ6q%q%Qq%qQ%%Qj6%Q%qJ6j6QQ
6070A195q%%%Qqq%Qq%%Q%%q%Qq%%%%%%%%%%%%%%%%%qQq%Qq%%Q%j6J6Qk4%QQk4L2j6qQ%%%q
6064A163%J6q%%%%%qQqQ%%qQq%%%%Qq%%%%%%qQ%Qq%%qQ%%q%%Q%%qQ%qQ%q%%%%%%Qq%%%%%%
6058A155%%%%%%%%%%qQ%qQ%q%%%Qq%%%QqQq%%%%%%%%%%%%q%QqQ%qQqQ%%%qQ%q%%%%%%%Qq%
6052A139%%%Qq%%%%qQ%q%%%%%%%%%%%%%%%%%%%%%%qQqQ%%%%qQqQ%qQqQq%%%Q%q%%%%%%%%%
6045A123%qQqQqQ%qQ%%q%Qq%%Qq%%%%%%%%Qq%%%%%%%%%%%%Qq%%%%%%%qQ%q%Qq%%Q%q%Qq%%
6039A107Qq%%%%%%%%%%q%QqQ%%%%%%qQq%%QqQqQq%Q%qQ%q%%%%%%%%%%%%%%qQ%%%%q%%Qj6Q
6032A091%%%%qJ6q%J6k4%QQq%%%Qq%%%%qQ%%q%Q%q%%Qq%Qq%%%%%%%%%qQ%%%%%q%Q%q%Q%qQ
6026A083%q%%%%%Qq%%QqqQ%Qq%%%Qq%%%qQqQ%Qq%%j6QQj6QQq%QqQq%%%%%%%%%%%%%%%%%q%
6020A059QqQ%%%%%q%%%%%%%%Q%%q%%%%%%%%%%%qQ%%qQ%%qQqQq%Q%qQ%%qQ%q%%%%%Qq%%%%Q
6013A059q%%Qq%%%%%%%qQ%%%%%%qQq%Q%q%%%Qq%Qq%%Qq%%%%%%%%%qQ%%qQ%%%%qQ%%%%q%%Q
6007A043q%%%%%%%%%%%%%%%%%%qQ%%q%Q%%qQ%%%%qQ%q%%%%Qq%%%%%%%%%%%%%%%%qQq%Qq%Q
6000A027%q%Q%%%%q%Q%%q%QqQq%%%%Qq%%%%%%%%%qQ%%%q%Q%%%q%%%Q%qQq%%%%%%%%%%%%%%
5994A011%Qq%%%%%%%%%%%%q%%%Q%%%q%%%%%%%Qq%%%%%%%%%%%%%%qQ%%%%%%%qQ%%%%%qQ%qQ
5987A003%%q%%%%Qq%Qq%%qJ6%q%%%%%%%%%%%%%%%%%%%%%%%qQq%%%%Qq%Qq%Qq%%%%%%%%%%%
5981I87%%qQqQ%%%qQ%%%Qj6Q%q%Q%%%%qQ%q%Qq%%%%%%%%qQ%%%%%qQ%%%%%%%%%%qQ%%qQ%%q
5974I71%QqQqQQj6%J6j6qQ%%Qq%%%%%%%%%%%%%%%qQ%%%qQ%%q%Qq%%%%%%%%%%%%%%%%%%%%Q
5968I71j6Q%%%%%%%%%%%%qQqQ%%qQqQ%%q%%%%%%Qq%%%%%%%%%%%%%%%%qQ%%%%%%%%q%Qq%Q%
5962I55%qQ%qQ%q%%%%%%%%%%%%%%%%%%%%%%%%%%%%%%%%%%%%%qQqQq%Q%qQq%%%%%%%%%%%Qq
5955I39%%%%%%%%%%%%%%%%qQ%%qQqQqQ%%%%q%Q%%%q%Qq%%%%%%%Qq%%%%%%%qQ%%q%QqQ%%%%
5948I31%%q%%Q%%q%%%%%%%%Qq%%%%%%%%%%%%%%%%%%%%%%%%%%%%qQq%%%Q%%qQ%q%%%Qq%%%%
5942I15%%%%%%%%%%%%%%%%%%%%%%%qQ%%%%%%%q%%Q%%%q%%%%%%%%%Q%q%Qq%%%%%%%%%%%%%%
5935I07%%%%%%%%%%%qQ%%%%%qQ%q%%%%%%%%%%Qq%%%%qQQq%%%%Qq%%%%%%%%%qQ%%%%%%qQ%%
5929H99%%%%%q%%%%Q%qQqQ%q%%%%%%%%%%%%%qQqQQj6QQq%q%QqQqQ%%%q%%%%Qq%%%Qq%%%%Q
5922H91q%%%%%%%%%%%%%%%%%%%%%qQ%%%%%%qQj6QQ%qQqQ%q%%Qq%Qq%%%%%%%%%%%%%%%%%%%
5916H75%%%%%%%%%%%%qQ%%qQqQqQq%%%%%%qJ6%j6Q%%%%%%%%%%%%%%%%%qQ%%%%%%%%%%%%qQ
5909H67q%%%Q%%%q%Q%%q%%%%%%%%%%%%%Qq%Q%q%%%%%%%%%%%%%%%%%%%%%qQ%%%%%qQ%qQqQq
5903H51%%Qq%%%%%%%%%%%%%%%%%%%Qq%Qq%%%%%%%%%%%%%%%%%%%q%%Q%%%q%Q%q%%Q%q%%Q%q
5896H43%%%%%%%%%%%%%qQ%%%Qq%%%%%%%qQ%%%%%%%%%qQq%Qq%%%%%Qq%%%%%%%%%%%%%%%%%%
5890H35%%%%%%%%qQqQ%%%%%qQ%%%q%Qq%Q%%%%%qQq%%%%%%%%Qq%%%%%%Qq%%%%%%%%%%%%qQ%
5883H27%%Qj6QqQ%%j6J6%%%%%%%%%%%%%%%%%q%Q%%%q%%Qq%qQ%%qJ6q%%%%%%%%%%Q%%q%%%Q
5877H27j6J6%%qj6QQqQ%%j6J6%%%%qQqQ%%%%%%qQ%q%Qq%%%%%%%%%%%Qq%%%%%%%%%%%%%%Qq
5871H11%%Q%q%Qq%qQ%qQqQ%%%%q%Q%%%%%%qQq%Qq%%%%%%%%%%%Qq%Qq%%%%%%%%%%%%%%%%%q
5864G95%Q%qQQqq%Q%%%%%%qQ%%%%qQq%%%%%%Q%q%%%%%%%Qq%%%%%%Qq%%%%%%%%%%%%%%%%%q
5858G87QqQ%%%q%Q%%qQ%%%q%Q%q%%%%Qq%%%%QqQq%%%%%%%%%%%%%%%%%%%%%%%%%%%%qQ%%%%
5851G87%q%Q%q%QqQ%q%%Qq%%%Q%q%%%%%%Qq%%%%%%%%%%%%%%%%%%%%%%qQqQ%%%%%qQ%%%%%%
5844G79qQ%q%Q%%qQ%qQ%%%q%%%%%Qq%Qq%%%%%Qq%%%%Qq%%%%qQ%%%qJ6q%%%%%%%%%%%%qQ%q
5838G63Q%%%q%%%%Q%%%qQq%%%%%%%Qq%Qq%%Q%q%Qq%%%%%%%%%%%%Qq%%%qQ%%%%%%qQ%%%%%q
5831G55Q%q%Qq%%QqQqQQk4J6q%QqQ%q%%Qq%%%%Qq%Qq%Qq%%Qq%%%QqqQ%%%%qQ%%%%%%%qQ%%
5825G55%%q%%%%QqQ%q%Q%%q%%%%Qq%%%%%%%%%%%%%%Q%%%%j6Q%%%%%%%%%%%%%%%%qQ%%%%qQ
5818G47qQ%%%%q%%Q%%q%Q%qQ%qQqQq%Q%%q%Qq%Q%q%Qq%%QqQq%%%%%%%%%%%qQ%%%%%%%%q%Q
5812G39qQ%qQ%%%%%%%%%%%%qQqQ%%%qQq%%%QqQq%%%%%%%%QqQq%%%%%%%%%%%%%%%%%%%%%%%
5805G31%%%%%%%%%qQq%%Q%%%%%%%%%q%%QqQ%q%%Qq%Q%%%q%%%%%%%%%%Qq%%%%%%Qq%%Qq%%%
5799G23%%%%%%%%%%%%%%%%%%%qQ%%%%qQqQ%qQ%%%%%%%%%%%qQ%qQq%Qq%Qq%%%%Qq%%%%%%%%
5792G15%%%%%%%%%%%%Qq%%Qq%%%%%%%%%%%%%%%%%%%%qQ%%%qQ%%%%qQ%q%%%%%%%Qq%%%%Qq%
5786G07%%%Qq%%QqQq%%qJ6q%%%%%%%%%%%%%%%%%qQ%%%%%%%%%%%qQ%%%qQq%Q%%q%Q%qQq%Qj6
5779F91QQqQQj6Q%j6Q%%%%%%%%%%Qq%%%%%Q%q%%%Qq%%%%%%%%%%%%%%%%%%%%%qQ%qQqQ%qQ%
5773F99%%qQq%Qq%%%%Q%q%Q%%%qQ%%qQq%%%Qq%%%%%Qq%%%%%%%%%%%%%%%Qq%%%%%%%%%%q%Q
5766F91%%qQ%%qQ%%%%%%%%%%q%%Q%%%%%qQq%Q%%q%Qq%%%Qq%%Qq%Qq%%Qq%%%%%%%%%%%%qQ%
5760F83%%%%%%%%%%%%%%qQ%qQ%%%%%%%%qQ%q%Q%qQq%%Qq%%%Q%%%qQq%%%%%%%Q%q%qJ6q%%%
5753F75Q%q%%%%%%%%%%%%%%%%%%%%q%Q%%%%%%%%qQ%q%Q%%%%qQ%%%%qQqQ%%qQq%QqQ%%%q%%
5746F67%%%%%%%%%%Qq%%%Qq%%%%%Qq%%%%%%%Qq%%%%%%%%%%%%%%%%%qQ%qQ%%%%%%%qQ%%%qQ
5740F67qQ%q%Q%%q%Qq%%Q%qQq%%Q%q%%%Qq%%%%%Q%q%%%%%%%%%%%%%%%%%%%%%qQ%%%%%%%%%
5733F59%%%%%qQ%QqqQq%QqQ%%qQq%Q%%%qQ%q%%%Q%q%QqQ%%q%%Qq%%Qq%%%%Qq%%%%%%%%%%%
5727F51qQ%Qq%%qQ%%%%%%%%%%%%%%%%%qQ%QqqQ%%%%%%%q%Qq%Q%%%qQ%q%QqQ%%%%qQ%qQq%Q
5720F51qQqQ%q%%%%%%%%%%%%%%%%QqQq%%%%%%%%%%%%%%%%%%qQ%qQ%%%qQ%%%%%%%qQ%qQ%%%
5714F43qQ%%%qQ%%%q%Q%q%Q%qQ%%q%%%%Qq%%%%%%%%%%%%%%%%%%%%%%%%%%%%Qq%%%%%%%%%%
5707F35%%%%%%%%%qQ%%%%%Qq%q%QQqqQ%qQ%%%q%QqQq%QqQqQ%%qQ%q%Q%q%QqQq%Qq%Qq%%Qq
5700F27%%%%%%%%Qq%%%%%%%%%%%%%%%%%%%%%%%%%%%qQ%%%%%%%%%%%%%%%%%%%q%%Q%%qQ%%q
5694F19%Q%%q%Qq%Qq%%%Qq%%Q%qQq%%%Qq%%%Qq%%Qq%%Qq%Q%q%%%%%%%%%%%%Qq%%Qq%%%Q%q
5687F19%Qj6QJ6l2QQ%%%%qQ%%%%qQ%%qQ%%%%%qQ%%%%q%J6qqQ%%q%Qq%Q%%qQqQqQj6QQ%Qqq
5681F11k4L2Qj6Qq%%J6j6Qj6J6qQq%%qQQj6QQq%Qq%%QqQq%%%%%%%%%%%%%%%%%%%%%%%%%%Q
5675F19%qJ6qj6J6q%q%Q%qQ%q%Qq%%%%QqQ%qQq%Q%%%%%q%Qq%Q%%q%%%%%QqQq%%%%%%%%%Qq
5669F03%%%%%%%%%%%%%%%%%%%%%%%%%%%%%%%%%%%%%%%%%%%%%%%%%%%%%%%%%%%%%%%%%%qQq
5662E95%Q%qQ%%%%qQqQq%%Qq%Q%qQqQ%%qQqQq%Qq%%%%%Q%%q%%%%%%%%%%%%%%%Qj6Qq%Q%%%
5656E95%%%%%q%Q%%%%%%%%%%%%%%%q%%QqQ%qQqQ%%%%q%%%Q%%%qQ%%%q%%qJ6%j6Q%%%%%%%Q
5650E95q%%%%%%Qq%%%%%%Qq%%%%%%%%qQqQ%Qq%%%%%%%%%%%%%%%%qQ%%%qQ%qQ%%%%%%qQqQ%
5643E87qQq%QqQ%%qQ%qQ%q%%QQj6J6j6QQqk4J6%Q%%%q%%%%%Q%q%Q%qQ%qQq%%%%%%Q%q%%%%
5637E79%%%%%%%qQ%%Qq%Q%qk4J6QJ6j6QqqQQq%%%q%Q%%%%%%%qJ6q%q%QqQqQ%%%%qQq%Qq%Q
5631E79%%qQqQ%%%qQ%%q%Q%q%qQQqQq%%%%%Qq%Qq%%Q%q%%%%%%%%%%%%%%Qq%%%%%%%%%%%%q
5624E63Q%%%%%%%%%%%%%%%%qQ%%%%%%%%%%%q%Q%%%q%%Qq%%Q%q%Qq%%QqQ%q%%Qq%Qq%Qq%%%
5618E63%%Qq%%QqQq%%%QqQq%QqQq%%%%%%%%%%%%%%qQ%Qq%%%%%Qq%%%%%%%%%%%%%%%%%%%%%
5611E63%%%%%q%Q%%%%%%%%%qQqQq%Q%%%qQ%%%%%%q%QQj6%QqQqQ%%%qQq%QqQq%%%%QqQq%%Q
5605E63q%%Q%q%%%%%%%%%%%%%%%%%%%%%%%%Qq%%%%%Qq%%%%%%%%%%%%%%%%%%%%%%%%%%%%%%
5598E55%%%%q%Q%%%%%%%%%%%qQq%%Q%%qQ%q%Q%q%%%%Qq%%%Qq%%Qq%%%%%%%Qq%Qq%%Qq%%%%
5591E47%%%%%%%%%%%%%%%%%%QqQqQ%j6Q%%%%%%%%%%%%%%%%%%%qQ%%qQ%q%Q%%%%%qQ%%%%qQ
5585E47%%%%qQ%%%Qqqq%J6%qj6K4qQqQ%%%qQ%qQ%q%%%%%QqQq%%%Qq%%%%Q%%q%Qq%Qq%%%%%
5579E39%%Qq%Qq%%QqqJ6q%%%Qq%%%%%%%%%%%%%%%qQ%%%%%%%%%%%%%%%%%%%%%%%%%%qQ%%%%
5572E39%%%%%%%%%qQ%%%%%qQ%q%Q%%qQ%%%%%%%%%%q%%Qq%Qq%Q%q%%%Qq%%%%%%%%%%%%%%%Q
5566E39qQq%%%%Qq%%%%%%%%%%%%%%%Qq%%%%%%%%%%%%%%%%%%%%%%%qQqQ%%%%%q%QqQ%%%%qQ
5559E31%qJ6qqQ%%qQ%%%%%%%%%%%%%%%%%%%qQqQq%Q%q%QqQ%q%%%Qq%Qq%%%%%%%Q%qQq%Q%%
5552E31q%Q%qQ%qQq%Qq%%%%%%%%QqQq%%%%%%%%%%%%%%%%%%%%%%%%%%%%%%%%%%%%%%%%%%%%
5546E23%%%%%%%%%%%%%%%%%%%%q%Q%%%%q%%Q%%%%%%qQ%qQqQ%%%%qQ%%%%q%%Q%%qQ%qQqQqQ
5539E23%%%qQqQ%qQqQqQq%%%Qq%%%Qq%%Qq%Q%q%Q%q%Qq%%Qq%Qq%%%%qQqQ%%%%%%%%%%%%%%
5533E15%%%%%%%%%%%qJ6q%%%%qQ%%%%%%%%%%%%%%%%%%%%%qQ%%%qQ%%q%%Qq%Q%%%q%Q%q%Q%
5526E15%q%%%%QqQq%Q%qQq%QqQ%%%%%%q%QqQq%%%%QqQq%%%%QqQq%Qq%%%%Qq%%%%%%%%%%%%
5520E07%%%%qQ%%%Qq%%%%Qq%%%%%%%%%%%%%%%%%%%%qQ%%%%qQ%%%%%%%%%%%qQ%%q%Q%%%%qQ
5513E07qQ%%%%%%%%%%%%%%%%%qQ%qQq%Qq%%QQj6%%%%%%%%%%Qq%Qq%%%%%%%%%%%%%%%%%%%%
5507D99%%%%%Qq%%Qq%%%%%%%%%%%Qj6Q%%%%qQqQ%%%%%%%%%%%%%%%%%%%%%%qQ%%%%q%%Q%%%
5500D99%%%%%%%%%qQqQ%%qQ%%%%q%Qq%QqQ%%%%%%%%%%%%qQqQ%qQ%%q%%Qq%Qq%%%%%%QqQq%
5494D91%%%Qq%%%%%%%%%Qq%%%%%%%%QqJ6qqQq%%%%%%%%Q%q%%%%%%%%%%qQ%%%qQQqQqQq%%%
5487D91%%%qQ%%qQqJ6j6QQk4%J6q%J6j6J6q%%%%%%%%qQ%%%%qQ%%%%qQ%%%qQ%qQqQ%%%%qQq
5481D83Qq%Qq%%%%%%%%Q%q%%QqQqQ%%q%%%QqQqQq%%%%%%%%%Qq%%%%%%Qq%%Q%q%%%%qQ%%%%
5475D83%%%%Qq%%Qq%Q%q%Qq%%%%%%%%%%%%%qQ%%qQ%%%%%%qQ%%%%%%%%%%%%%%%%%%%%%%%%%
5468D83%qQ%%%%Qq%%%%%%qQqQ%%%%%qQ%qQq%%QqQq%%Q%qQq%%%%%QqQ%qQ%%%q%Q%qQq%Qq%%
5461D75QqQ%%q%Q%q%%%%QqQq%%Qq%%%%%%%%%%%%Qq%%%%%%%Qq%%%%%%%%%%%%%%%%%Qq%%%%%
5455D75%qQ%%q%Q%%%%%%%%%%%%%%%qQ%%qQ%qQ%%%%%%%%%%%%%%q%Q%%qQ%%q%%Q%%%%%%qQ%q
5448D67QqQ%%%%%%%%q%QqQq%Q%%qqQ%%%Qq%%Qq%QqQq%%%%%%%%%%QqQqQqQqJ6j6Qq%Qq%Qq%
5442D67%Qq%%%%%%%%Qq%%Qq%%%%Qj6QQq%%%%%%%%%%%%%%%%%%%%%%QqqQ%J6j6qQqQ%%%%%%%
5436D67%%%%%%%%%%qQ%qQ%%qQqQ%%qQ%%%%%qQ%%%%%%%%%%%%%%%%%qQ%q%Q%qQ%%%%%qQ%qQ%
5429D67%qQq%%Qq%%%%%Q%%q%%Q%%%%q%Q%%%q%%%Q%%%q%%Qq%%%%Qq%Qq%%Qq%Qq%%qQ%%%Qq%
5422D59%%%%%%%%%%%%%%%%%%%%%%%%%%%%%%%%%%%%%q%QqJ6q%%Qq%%%%%%%%%%%%%%%%%%%%%
5416D59%%%%qQqQ%%%%%%q%QqQ%%%q%Q%qQq%%Q%%q%%QqQ%%%%%%%%%qQ%q%Q%%%%%qQqQq%%%%
5409D51Qq%%%%Qq%%%%%Qq%%%%Qq%%%%%%%%%Qq%%Qq%QqQq%%%%Qq%%%%Qq%%%%%%%%%%%%%%%%
5403D51%%%%%%%%%%qQ%%%%%qQ%%%%%%%qQ%%%%%%%%%%%%%%%%%%%%%%%%%%%%%%%%qQqQ%%%%%
5396D51%%%%%q%Q%%q%Q%%%%qQ%%qJ6q%%%%%%%%%q%Q%%%%%%%%%q%Q%qQ%qQqQ%%q%%Q%%%%qQ
5390D51%q%%Qq%%%Q%%%qQ%%qqJ6%%QqqQq%Qq%%%Q%%q%%%%%%%%%%%%%%%%%%%%%%%%%%%%%%%
5383D43%%%qQ%%%%%%%qQ%%qQqQ%%%%%Qq%%%%%%%%%%%%%%%%%qQ%%%%%%%%%%%%%%%%%%%%%qQ
5377D43%%%%%%%%qJ6qqQ%%%%%%%%%%qQ%%%%%%%%%%%%%%%%%qQ%%%%%%%%%%qQqQ%%%%qQ%%%q
5370D35Q%%%%%%qQqQ%qQq%%Qq%%%%%Qq%Qq%%Qq%%%Q%q%%Q%qQ%qQqQq%%%%%Qq%%%Qq%%%Qq%
5364D35%%Q%q%%%%%%%%%%%%%%%%%%%%%%%%%%%%%%Qq%%%%%%%%%%%%%%%%%%%%%%%%%%%%%%%q
5357D27Q%qQ%%%%%%%%%%%%%%%%%%%q%%Q%qQq%Q%qQqQqQ%%%%%qQ%%%%%%%%%%q%Q%%q%Q%%%q
5350D27Q%%q%%Q%%%%q%Qq%%%%Qq%%%%QqQq%%%%%Q%qQq%Q%q%Q%qQ%q%Qq%Q%q%%Qq%%%%%%%%
5344D27%%%%Q%q%%%%%%%Qq%%%%%%qQ%%%%%%%%%%%%%%%%%Q%q%%%%%%Qj6J6j6J6%q%%%Q%q%%
5338D27%%%%%%%%%%%%%%%%%%%%%%%%%%%%%%%%%%%%%%%%%%%%%q%Q%qQ%%%%%%%qQ%%%%qQ%%q
5331D19Q%%%qQ%%%%%%%%%%%%%%%%%%%%%%%%%qQq%Qq%Qq%Q%qQ%q%QqQq%%%Qq%%%%%%%%%%%%
5324D19%%QqQ%%%%%%q%%Q%%q%Q%q%%%%%%%%%%%Qq%%%%Q%%q%%%%%%%%%%%%%%%%%%%%%%Q%q%
5318D19%%%Qq%%%%%%%%%%%%Qq%%%qQ%%%%Qq%%%Qq%%%%%%%qQ%%%%%%%qQ%%%%%%%%%qQqQ%%%
5311D19q%Q%%%%%%%%%%%%%qQ%%%q%QqQ%%%%qQ%%%%qQ%%%%qQqQ%%qQ%q%QqQ%%%q%Q%%qQ%qQ
5305D19%qQ%%%%%%%%q%Q%q%Qq%Qq%QqQqQ%%%%q%%%Qq%Q%qQ%q%%Q%%q%%%%Q%qQq%Qq%%%%%Q
5298D19%%qQ%%qqJ6qqJ6q%qJ6qJ6J6m8J6qQ%Qq%J6j6%%%%QqQq%%%%%%%%%%%%%%%%%%%%%%%
5292D11%%QqQq%Q%%%j6Qj6J6%QQl2K4l2J6%M8j6L2m8K4m8K4q%J6j6J6k4Q%%q%J6%j6J6q%%
5288D11%%%%%qQ%%%qQqQ%%%%%%%%%%%%%%%QqQQl2J6L2k4j6J6q%j6QQ%Qj6Q%%q%Q%%Qj6QqQ
5282D11qQqQ%%qQ%q%%%%Q%%%%%qQ%%%%qQq%%%%Q%%qQ%qQ%%qQ%qQ%q%QqQq%QqQ%%%qQ%q%%%
5276D03%%%%%%QqQq%%%%%Q%q%%%%%%%%%%%Qq%%%%%QqqQQq%%%%%%%%%%%%%%%%%Qq%%%%%%%q
5269C95Q%%%%%%qQ%%QqqQ%%%%%%%%%Qj6Q%%%%%%%%Qq%%%qQ%%%%%%%%%%%%%%%%%%%%%%%%%%
5262D03qQ%qQ%%%%%%%%%%%%%%%%%%%qQ%qQ%%qQ%%qQ%%%%%%%%%%%%%%qQ%q%Q%q%%Q%%%%%qQ
5256D03%q%Q%%%%qQ%%%q%QqQ%qQq%%%%%%%Qq%Qq%%Qq%Q%q%Q%%qQq%QqQq%Qj6QQq%Q%q%QqQ
5249D03%q%QqQ%q%%Qq%Q%qQqQqQq%%Qq%%%%%%%%%%%%%Q%q%%%%%%Qq%%qJ6%j6QqJ6j6J6q%%
5243C95%%%qQ%%%%qQ%%%%%%%qQ%%%%%%%%%%%%%%%%%%%%%%%%%%%%%q%%Q%%q%Q%%%%%%qQ%%%
5237C95%%q%%%Q%%%%qQ%%qQ%%%qQ%%qQ%%%%%%%%%%%%%%%%q%%%Q%%%%%%qQ%%%%qQqQ%q%%%%
5230C87%%Q%%%%%%qQq%%%%%%%%Qq%QqQqQq%Q%q%%%Qq%Qq%%%%%Q%qQ%%%%%q%%%%%%%%%%Qq%
5224C87%%%%Q%q%%%%%%%%%%%Qq%Q%q%%%%%%%%%%%%%%%%%Qq%%%QqQq%%%%%%%%%%%%%%%%%qQ
5217C87%qQ%%%%%%%%%%%%%%%%%%%%%%%%%%%%%%%%%%%%%%%%Qq%%%%%%%%%%%%%q%Q%%%%%%%%
5210C87%%%%%%%%%%%%%%%%%%%%%qQ%%%%%%%%%%%%%%%%qQ%%%qQ%%%%%%%%%%qQ%%%%%q%QqQ%
5204C87%%qQ%%%%%%%%q%Q%qQqQ%q%Q%qQ%qQ%%qQq%Qq%%%%%QqQ%%qQ%%%qQQq%q%%Q%%%%%%%
5197C87qQ%qQ%q%%%Qq%%Q%q%%%%Q%qQ%qQ%q%%%%%%QqQqQ%q%%QQqq%%%%%%%QqQq%%%%%Q%q%
5191C79%%Qq%%%%%%%%qQ%%Qq%%Qq%%%QqQq%%%Qq%Q%q%%%%%%%%%qQ%qQ%%%%%%%%%%%%%qQ%%
5184C79%qQ%%%%%%%%%%%%%%%%%Qq%%%%%%%%%%%qQ%%qQQqqQqQqQ%%%qQ%qQ%%%%%%%%%%qQ%%
5177C79q%QqQ%%%%qQqQ%qQqQ%%qQ%%qQ%%%%qQ%%qQqQ%%qQ%qQq%Q%%%%qQqQ%%%q%%%Qq%Qq%
5171C71QqQqQq%%%%Qq%%%%Q%%q%Q%q%QqQ%q%qJ6qQq%Qq%%%Qq%Qq%Q%q%%%%%%%Qq%%%Qq%%%
5164C71%%QqQqQq%%%%%%%%%%%%%Q%qQ%j6Q%%Qq%%%%%%%%%%%%%%%%%%%Qq%%%QqQq%%%%Qq%%
5158C71%%Qq%%%%%%%%%%%%%%%%Qq%%Qq%%%%%%%%%%Qq%%%%%%%%%Qq%%%%%%Qq%qQ%%%%%%%%%
5151C71q%Q%%%%%%%%%qQ%%q%Q%%%qQ%%%%%%%%%%%%%%%%%%%%%%qQ%qQ%qQ%%Qq%%%%%%qQ%%q
5145C63Q%%q%%Qq%%Qq%%Qq%%Q%%%%%%qQ%%%%%%%qQ%%qQ%%%%qQ%%qQ%%q%QqQqQ%qQ%q%%%%%
5138C63%Qq%%Q%%q%Qq%Q%%qQq%%%Q%%qQ%q%QqQ%%%qQ%qQqQ%%qQ%q%%%Q%%q%Qq%%%%%%%Qq%
5132C63Q%q%%%%%%Qq%Qq%QqQ%q%Q%%qQqQqQ%%q%%%%%%J6j6Q%qQqQq%%%%%%%Qq%%%QqQq%%%
5125C63%%%%%%%%%%%%%%%%%%%%%%%%%%%%%%%%Qq%%Q%%q%%%%%%%%%%QqQq%%%%%qQ%%QqqQ%%
5119C63%%%%%%%%%%%%%%%%%%%%%%%%%%%%%%%%%%%%%%%qQ%%%%%%%%%%%%%%qQ%%%%%%%%%%%q
5112C55%%%Q%q%%Qq%Q%%qQ%%%qQqQ%%%%qQ%%qQ%qQ%qQq%QqQ%%%%qQ%qQ%%%%%q%%Q%q%%%Q%
5105C63q%%%%%Q%%%%%q%%%Q%%%qQ%%%%qQq%Qq%%%%Qq%%%qJ6q%%%%%%%%%Q%%%q%%%Qq%%%%%
5099C55%%%%%%Q%q%%%QqQq%%Q%%%%q%Qq%%%%%%%%Q%q%J6k4%Qj6J6qQj6K4q%%qQQ%qQq%%%q
5093C47Q%%%%%%Qq%%%%%%%%%%%%%%%%%Qq%%%%%%%%%QqQqqqQQ%%QqQq%%%Qq%%%%Qq%%%%%%%
5086C55%%%%qJ6q%%%%%qQ%%%%%%%%%%%%%%%%%%%%%Qq%%%%%%%%%%%%%%%%%%%%%%%%%%%%%%%
5080C55qQ%%%qQ%qQ%qQ%%qQ%%%%%%%%%%%%%%%%%%qQqQqQq%Q%%%%%%%%%%qQ%%q%QqQqQ%%%%
5073C55%%q%%Q%%qQ%%%qQ%%%qQ%%%%qQq%%%%Q%%qQ%qQqQq%Q%q%Qq%Q%q%%%Qq%Qq%Q%qQq%Q
5067C55%q%%%Q%qQ%%qQ%%%qQ%qQq%%Qq%%%%Q%q%%%%%Q%q%Qq%%%%%%%%%%%%%Qq%%Qq%%%Qq%
5060C47Qq%%%%%%QqQ%%%q%%%Q%qQ%q%%%%%%%%%Qq%%%%%Qq%Qq%%%%%%%%q%Q%Qq%%%Qq%%%Qq
5054C47%%%%%%%Q%q%%Qq%%qQ%%%%qQ%%%%%%Q%q%%Q%%q%%%%%%%%%Qq%Q%%q%%%%%%%%%q%Q%%
5047C47%%%%qQ%Qj6%J6qq%%Q%%%%%%%%%%%%%%%Qq%Qq%%%Q%j6QQq%%%%%%Qq%%%%%%%%%%%%%
5041C47qQ%%qQ%%%%%%%%%%%%%%%%%%%%qQ%%%%%%%%%%%%%%%%%%%%qQ%%%%%%%%%%%qQq%Q%%q
5034C39Q%qQ%%%%%%%%%%%q%Q%%%q%Q%qQ%q%%%%%%Q%%q%Q%%%%q%QqQqQqQ%q%%%%%%QqQ%qQq
5028C39%Q%%%%%q%Qq%%Q%q%%Qq%Qq%%%%Qq%Qq%%%%%%Qq%%%QqQqQq%%%%%Qq%QqQ%%%qQq%%%
5021C39Qq%%Qq%%%%%%%%%%%%%%%%%%%Qq%Qq%Qq%%Qq%%%%%%%%%%%%%%%Qq%%%%%%%%%%%%%%Q
5014C47q%%%%%%%%%%%%%%%%%qQ%%%%%%%%%%%%%%%%%%%%%%%%%%%%%%Q%%q%%%%%%%%%%%%%%%
5008C39%%%%%%%%%%%%%%%%%qQ%%%%%%%%qQ%%%%%Qq%%%%%%%%%Qj6QQ%q%qJ6q%qQ%%%%%%%%%
5001C39%%%%%%%%%%%%%%qQQq%%%%%%%%%%%%%%%%%%%qJ6j6Q%%qJ6qqJ6qq%%QqQqQqQ%%%qQ%
4995C39%%%%qQ%q%Qq%%Q%%%%%qQ%%%%%%qQ%%%%%%q%%Q%%qQ%%%q%%%%Qq%%%%%%QqQq%%%%%Q
4989C39%%%qQ%%%%%%qQqQq%%Q%q%%QqQ%qQq%%%Q%qQqQ%q%%%%%%%%%%%%%%Qq%%%%QqQ%%%qQ
4982C39qQq%%%%QqQqQq%%%QqQ%%%q%Q%%%q%Q%q%%%%Qq%%%%%%%%%%%Qq%Qq%%%%%%QqQ%q%Qq
4976C31%%Q%%qQqQq%%%Qq%Qq%Qq%%%Q%%%qQ%%%q%Qq%%%Qq%Qq%%%Qq%%%%%Q%qQ%q%QqQq%Q%
4969C39q%%Qq%%%%%%%%%%%%%%%%%%%Qq%%%%%%Qq%%%%%%%%%%%%%%%%Q%qQqQq%%%Qq%QqQq%%
4962C31%%%%%%%%%%%%%%%%%%%%%Qq%%%%%%%%%%%%%%%%%%%%%%%%%%%%%qQ%%%%%%%%%%%%%%%
4956C31%%%%%%%%%%%%%%qQ%%%qQ%%%%%%%%%%%%%%%%%%%%%%%%%%%%qQ%%%%%%%%%%%%%%%%%q
4949C23%%Q%%q%Q%qQqQ%q%Q%%%%%%%%%%%qQ%%%%%%%%%%qQ%%%%%qQ%%%%%%%%%%%%%%%%q%Qq
4943C23Qq%%%Qq%QqQ%%%%%%%%qQq%%%Q%%%%qQ%%%%%%%%%%%%%qQ%qQ%%%qQ%%%%qQ%%qQqQ%%
4936C31qQqQ%%%%q%%Q%qQq%%%Qq%Q%%%%qQqQ%q%%QqQ%q%%%%Q%%%qQ%q%Qq%%%QqQ%%q%QqQq
4929C23%Q%q%%Q%%%q%Q%%q%%Q%%q%Qq%%%%Qq%Qq%%%%%%%%%%%Qq%%%%%%%%%%%%%%%%%%%%%Q
4923C31qQqQq%%%%Qq%%%Qq%%Qq%%%%%%%%%%%%%%%%%%%%%%%%%%%%%%qJ6q%%%%Qq%%%Qq%%%Q
4916C31q%%%%Qq%%%%%%%%%%%%%%%%%%%%%%%%%%%%%%%%%%%%%Qq%%%%Qq%Q%q%%Qq%%%%%%%%%
4910C23%%QqQq%%%%QqQq%%%%qQ%%%%%%%%%%%%%Qq%Q%j6%QqQq%QQqqQ%qQ%%%%%%%%%%%%qQ%
4903C23%%%%%qQ%qQqQ%%%%%%%%%qQ%%Qj6qJ6qQj6J6qqQQj6%J6%qJ6k4QQ%QqqQQqqQqQ%%qQ
4897C23%%%%%%%%%%%qQ%qQ%%%%q%%%%Q%%%%%%qQ%q%%QQq%%%%%%qQqQqJ6j6QqQ%qQ%QqqQ%%
4891C23%%%%%%%%%%q%Q%%%q%%Q%%%%%%q%Q%q%%QqQq%Q%qQq%Q%qQ%%%%%%%qQ%%%%%%%%qQ%q
4885C15Qq%Q%q%Qq%Q%qQq%%%%Q%q%%QqQqQ%q%%Q%%qQq%QqQqQ%%qQq%QqQ%q%%%QqQ%q%QqQ%
4878C23q%%Q%qQq%%Qq%%%%%%Qq%Qq%Qq%Qq%%%Qq%%%%Qq%%%Q%%qQqQq%%%QqQ%%%q%Qq%%%Q%
4871C23%q%%%%%%%%%%%%%%%%%%%%%%Qq%%%%%%Qq%Q%qQqQ%q%%%Qq%%%Qq%Qq%%%qJ6q%J6%j6
4865C15%%%%Qq%%%%%%%%%Q%q%%%%%Qq%%%%%%%%%%%%qJ6q%%%%%%%%%%Ql2K4j6J6K4k4K4m0Q
4859C07K4j6j6K4k4J6qQ%%%%%%Qq%%qJ6q%%%%%%%%%%%%%%%Qq%%%%Qq%%Q%q%QqqQ%%m0M8qK4
4854C39%m8L2m0M8qj6QqJ6j6Q%%%%%%%Q%q%%%%%qQqQQq%qQ%%%%%%%%%%%%%%%%%%qQ%Qq%%K4
4848C39m8K4qQ%%qQ%%%%%%%%%%%%%qQ%%%Qq%%%%%%%%%%%%%%qQ%%%qQ%qQ%%%%%%%%%%%%%%%
4841C15%%%%%%%%%%%%%%%%%%%%%%%%%%%%qQ%%%%qQ%qQqQqQ%qQqQ%%%%%%qQ%%qQ%%%%%%%qQ
4835C15%%%%%%%%qQ%%%%%%qQ%qQ%%%qQ%%%q%QqQ%%qQ%%%qQ%%%%%%%qQ%%qQqQqQ%%q%%Q%%%
4828C15qQ%qQ%qQ%%%%%%qQ%Qq%q%QqQ%qQ%%%qQ%%%q%QqQqQ%%qQqQqQqQqQ%%qQ%%qQ%qQ%q%
4822C07%%%%%%Q%%qQqJ6qq%Q%%q%%%%%QqQ%%%q%QqQqQqQqQq%%Q%%q%QqQ%qQq%%%Qq%%%%%Q
4815C15q%%%%%%Q%qQ%%%q%%%%%%QqQ%q%%Qq%QqQqQq%QqQq%%Qq%Q%%qQ%q%%%%%%%%Qq%%%%%
4809C07%%%Qq%Q%qQq%%%%%%%%Qq%%%%%%%%%%%%%%%QqQ%q%%%Qq%%%%%%%%Q%%%q%%%Q%q%%%q
4802B99K4j6%%Qj6Q%Q%q%%%%%%%%%%%%%%Qq%%%%QqQq%%%%%%%%%%%%%%%%Qq%Qq%%%%%qQ%%Q
4796C15qQqQq%%%%Qq%%%%%%%%%%Qq%%%%%%%Qq%%%%%%%%%%%%%Qq%%QqqQ%%%%%%qQ%Qq%%%%%
4789C07qQ%%%%%%%%%%%%%%%%%%%%%%%%%qQ%%qQqQ%%%%%%%%%%qQ%%%%%%%qQ%%%%%%%%%%%%%
4782C07%%%%%%%%%%%%%%%%%%%%qQqQ%%%%%%%%%%%%%%%%%%%%%%%qQqQ%%q%QqQ%qQ%%%%%%%%
4776C07%%%%%%%%%%%qQ%%%%%%%%qQ%%%%%%%%%qQ%%%qQ%%%%%q%Q%%%qQqQ%qQ%%%q%QqQqQ%%
4769C07%%%%%%%%qQ%%%%q%%Q%%qQ%%%%%q%Q%q%Q%%%%%q%Q%%%%q%%Q%%%qQ%%q%%QqQqQ%%qQ
4763C07%q%%Q%%%%qQqQq%Q%%%%%%qQq%Qq%Q%qQ%q%Qq%%QqQq%%%QqQq%Q%%q%QqQ%qQqQq%Q%
4756C07q%%%%QqQ%q%Qq%Q%q%%%%%%%%%%Q%%%%qQ%%q%%%%Qq%QqQ%qQq%Q%%%%q%Qq%%%%QqQ%
4750C07%j6J6q%%Qq%%QqQ%qQ%q%Q%q%%QqQq%%Qq%%%%Qq%Q%qQq%%Q%q%QqQ%q%%%%%Qq%Qq%%
4743B99%%%Qq%Qq%Q%q%Q%%qQq%%%%Qq%%Qq%%%%%%%%QqQq%%Qq%%Q%q%%%%%%%%%QqQ%j6Q%%Q
4737C07q%%%%%%%%Qq%%Qq%%%Qq%%qJ6q%%Q%%%%qQqQq%%Qq%%%%%%%%%%%%%qJ6q%%%%QqQqQq
4730B99%%%%%%%%%%%%%%qQQq%%Qq%%%%%%%%%%%%%%%%%%%%%%%%%%%%%%Qq%%%%%%Qq%%%%%%%
4724B99%%%qQ%%%%%%%%%%%%%%%%%%%%%%%%%%%%%%%%%%%%%%%qQ%Qq%%%%%%%%%%%%%%%%%%%%
4717B99%%%%%q%%Q%%%%%%qQ%%%%%qQ%%%%%%%%%%%%%qQqQ%%%%%Qq%%%%%%%qQ%qQ%%%q%Q%qJ6
4711C07q%j6J6%%%%qQqQ%%%%%%%%%%%%%%%%%%%%%%qJ6q%%%%%%%%qQ%%%%%%QqqQQj6%%q%J6
4704B99%%Qj6%Q%j6QQq%%Q%qQ%q%%QqQ%%%%%%%%%%%%qQ%%qQ%%%%%%%%%%%%%qQ%qQ%qqJ6%%
4698B99Qj6Qq%Qq%%%Qq%QqJ6j6QqQqQ%%%%qQ%%q%Qq%%QqQ%%qQ%%qQqQqQ%%%%qQ%%%%q%%Q%
4692B99q%QqQ%%qQ%qQ%%%%qQqQ%%%%%%qQ%qQ%qQ%qQ%%%%qQqQqQ%%%q%%%Q%%%%qQq%QqQq%Q
4685B99%%%qQqQ%%%%%%%qQqQ%qQqQ%qQqQ%q%Q%q%QqQ%%%qQ%%q%Qq%Qq%%%%Qq%Q%q%Q%%%q%
4679B91%%Qq%%%%QqQqQ%qQ%qQqQqQq%Q%qQ%qQq%%QqQ%%%qQq%%%%Qq%Q%qQ%%q%%Qq%%%%%Q%
4672B99q%Q%q%%Q%qQq%Q%q%%%%QqQ%%qQ%qQ%qQq%%%%%%%%%%Q%%%%qQ%q%QqQq%QqQ%q%%%Qq
4666B91%Q%%qQq%%%qJ6j6Q%Qq%Qq%Qq%Qq%Qq%Q%%qQ%q%Qq%QqQq%Qq%%%%%Q%q%%%%%%Qq%%%
4659B91Qq%%qQ%%Qq%%%%Q%q%%%Q%q%Qq%%%QqQ%%qQq%Qq%%%%%%%%%%%%%QqQ%q%Qq%%%%%%%%
4653B91QqQ%q%QqQ%q%%%%%%%%%Qq%%%%Q%qQq%%%%QqQq%%%%%%%%%Qq%QqQq%%%%%%%%%%%%%%
4646B91%%%%%Qq%%%%%%Qq%%Qq%%%%%%%Qq%%%%%%%%%%%%Qq%%%Qq%%%%%%%%%%%%%%%%%%%%Qq
4639B91%%%%%%QqQq%%%%%%%%Q%q%%%%%%%%%%%%%%Qq%%%Qq%%%%%%%%%%%%%%%%Qq%%Qq%%QqQ
4633B99q%%%%%%%%%%%%%%%Q%qQq%%qJ6q%%%%Qq%%%%%%%%%%%%%%%%%Qq%%%%Qq%%%%%%%%%%%
4626B91%%%%%%%%%QqQ%q%%%Qq%%%%%%%%%%%%%%%%%%%%%qQ%%%%%%qQ%%qQqQ%%%q%Q%%%%%%%
4620B91%%%%Qq%%%%%%%%%qQ%%%%%%%%%%%%%%%qQ%%%%%%%qQq%Q%qQ%%%%%%%%qQ%q%%Q%%%%%
4613B91qQ%%qQ%%%%%qQ%%%qQ%%%%%%%%%qQ%qQ%qQ%qQ%qQ%q%Q%%%%%%q%Q%%q%%Q%qQq%J6q%
4607B91%qQ%%%%qQ%%%q%Q%qQ%%%%%q%%Q%%qQq%Q%%%%qQ%%%%%%%%%q%%%QqQ%qQ%%%%qQQq%%
4600B91%%%%%%%%%q%Q%%%%qQ%qQ%%qQ%qQ%q%%%Q%%qQ%%qQqQqQ%qQ%%%%%qQ%%%qQ%%%%%qQq
4594B83%Qq%Qq%%%Qq%Qq%Q%q%Qq%Q%q%%%Q%%qQqQqQ%%%%%qQ%q%Q%%%%q%QqQq%Q%qQ%qQ%%%
4587B91%%%%%%%%%%%%q%%%Q%%qQ%qQqQ%%%%%%%%%%%%qQqQqQ%%%%qQqQ%qQ%qQqQ%qQ%%q%Q%
4580B91q%Q%qQ%qQ%q%Q%qQqQqQqQqQ%%qQ%q%QqQ%q%Q%%q%QqQqQ%qQ%qQqQq%%%%%%Qq%%%%%
4574B83Q%qQqQ%%qQ%q%QqQq%%QqQq%%QqQq%%%%%%%%Qq%%Q%q%%%%%%%Qq%%%%Qq%%QqQ%%qQq
4567B83%%%Qq%%%%%Q%%qQq%%Qq%%%%%%QqQ%q%QqQq%%%%%%%%%%Qq%%%%Qq%%Q%q%%%Qq%%%%%
4561B83%%qQ%%%%%%%%%%%%qQ%%Q%%%qQQ%q%%%%q%Q%q%%%QqQ%q%%%%%%%%%Qq%%%Qq%%%%%%%
4554B83%%%%%%%%%%%%%Q%qQ%%%%%%%%qQq%%%%%%%%%%Q%q%%%%%%Qq%%%%%%%%%%%%%%%%%%Q%
4548B91q%%%%QqQq%%%%%%%Q%q%%Qq%%Qq%Qq%%%%%%%%%%%%%%%%%%%%%%%%%%%%%%%%%%%%Qq%
4541B83%%%%%%%%%%%%Qq%%%%%%%%%%%%%%%%%%%%%%%%%%%%%%%%%%%%%%%%%%%%%%%Qq%%Qq%%
4534B83%QqQq%%Q%q%%Qq%%%%%%Qq%%%%%%%%%QqQq%%%%%%%%%%%%Q%q%Qq%%%%%%Q%q%QqQq%%
4528B83%%%%%%%%%%%%Qq%%Qq%%%%%%%%%%%%%%%%%qQ%%%%%Qq%%Qq%%%%%%Qq%%%%%%%%qQ%%%
4521B83%Qqq%Q%%qQ%%%%%%%%%%%%%%%%%%%%%%%%%qQ%%%Qq%%qQ%%%%%Qq%QqqQJ6l2J6%Qj6%
4515B75K4j6j6K4qQ%q%%%%%%%%%%%%%%%%%%%%%%%%%%qQ%%QqQq%q%J6qQ%qQj6Qq%%J6K4l2%
4509B83%l2J6QJ6j6QqJ6k4QQqQqQqQq%%QqQ%%%Qq%%%%%%%Q%q%%%%%%%Qq%%%%%%Qq%%Qq%qQ
4503B83%qJ6q%Q%qQ%qq%J6j6Q%%qQ%%%%Q%q%%%%%%%%%Q%q%Qq%%%%%QqQq%%%Qq%%%%%%qQ%%
4497B83%q%Q%%%%%%%%%%%%%qQ%qQ%%%%%%qQ%%%%%%%%%%%%%%%%%%%%%%%%%%%%%%%%%Qq%%qQ
4490B83%%qQ%%%%%%%%%qQqQ%%%q%Q%%%%%%%%%%%%%qQ%%%%%%%%%%%%%%%%q%Q%%Qqq%%QQq%%
4484B83qQqQqQ%%q%QqQ%%qQ%%%%%%qQ%%%qQ%qQ%%q%Q%%%%%%qQ%%%%qQ%qQ%%qQ%q%Qq%%%Qq
4477B75Q%qQ%%qQ%qQ%q%Q%%%qQ%qQ%%%q%%QqQ%%%%%%%%%%%%%%%%%%qQ%%qQ%q%%Q%%qQ%q%%
4471B75Qq%%Qq%%%QqQ%%%%j6QQQqqqJ6qQ%%q%QqQqQ%%%qQq%Q%%qQ%%q%%%%%Qq%%Qq%%%Qq%
4464B75Q%qQqQ%qQ%j6QQQj6%Q%%qQqQ%%qQ%qQqQqQq%Q%j6J6q%QqQ%%%%qQqQ%qQ%qQ%q%%Q%
4458B83q%Q%%q%Q%%qQ%q%Q%%%%qQ%%%%%qQqQ%%%%qQqQ%qQq%Qq%Q%q%Q%q%Q%%qQ%%%%%qQ%q
4451B75%Q%%%q%QqQq%Q%q%Q%%%q%QqQq%%Q%q%%%%Q%qQ%q%%%%%Q%q%%Q%q%Qq%%QqQqQ%%%%%
4445B83qQq%%%%%Q%qQ%%qQqQq%%%%%QqQq%%Q%%%%q%%%Q%qQq%%Qq%Qq%%%%%Q%q%Qq%%Qq%Qq
4438B75%%Qq%%Qq%Q%q%%%%%Q%q%Qq%%QqQqQq%%%Qq%%Q%%q%%Qq%%%%%%Q%%%q%%Q%q%Qq%Qq%
4432B75%Qq%QqQqQ%%%%%%%%%q%%Q%%%q%Qq%%%%%Q%qQqQq%Q%qQqQ%qQq%Q%%q%Qq%Q%%qQq%%
4425B75QqQ%%q%Q%qQ%q%%%%QqQq%Qq%Q%qQ%%qQqQq%Q%qQqQ%qQqQqQ%q%Qq%%%%Qq%%%Qq%%%
4419B75QqQq%%%%%%%%QqQqQq%%Q%%%%qQ%qQq%Q%q%%Q%q%%%%%Qq%Qq%%%%%%%%Q%q%%%%qJ6q
4412B75Q%%q%%%%%QQq%q%%%Q%qQq%Qq%%%%%%%%%%%%%%QqQq%Q%q%%%%Qq%Q%q%Q%q%%Qq%%%Q
4405B83%q%%%Qq%%%%%%%Q%q%Qq%Qq%%%%%%%%%%Qq%Qq%%Q%qQq%Qq%Q%%qQ%q%Q%q%%QqQq%Qq
4399B75%%%%%Q%q%Q%%qQ%q%%%%%%Q%q%%%%%%%%Qq%QqQq%QqQq%Qq%Qq%%Q%q%%%%%%%%Q%%%%
4392B83%%q%%%%%Qq%%%%%%%%%%%%%Qq%%%%QqQqQq%%%Qq%%%%%%%%%%%%%Qq%qQ%%Q%q%QqQq%
4386B75%%%%Qq%%%%%%%%%%%%%%%%%%Qq%%%%%%%Qq%%%%%%%%%%%%Qq%QqQq%%Q%q%%%%%%%%%%
4379B75%%%%%%%%%%%%%%%%%%%qQ%%%%%%%%%%%%%%%%%%%%%Qq%QqQq%Q%q%%%%%Qq%Qq%Qq%%%
4373B75%%%Qq%%%%%%%q%J6qQj6Q%QqQq%%%Qq%QqQq%%%Qq%%%%%%%%%%%%%%%%%Qq%%%Qq%%%%
4366B75%%%%%%%%%%%qQ%%%%%%%%Qq%%%%%%%QqQqQqQ%%qqJ6q%%Qq%%%%%%%%%Qq%%%%Qq%%%%
4360B75%%Qq%%%%%%Qq%%%%%Qq%%%%%%%%%%Q%%q%%%%%%qQ%%%%%%%%%%%%%%%%%Qq%%%%%%Qq%
4353B75%%%%Qq%%%%%%Qq%%%%%%%%%%%%%%%%%%%%%%%%%%%%%%%Qq%%%%%%%%%%%%%%%%%%%%%%
4347B75%%%%%%%%%%%%%%%%%%%%%%%%%%%qQ%%%%%%%%%%%%%%%%%%%%%%QqQ%%q%Qq%Qq%%%%%%
4340B75%%%%%%Qq%%%%%%%%%%QqQq%Qq%Qq%%%%qQqQ%%%%Qq%%%%%%%Q%q%Qq%%%%%Qq%%%%%%%
4333B75%%%%%%%%%%%%%QqQq%%%%%%%%%%%%%%%%%%%%Qq%%%%%%%%%%%%%%%%Qq%Qq%%%%%%%%%
4327B75%%%%%%Qq%%Qq%%%%%%%%%%%%%%qQ%%%%%%%%%%%%%%%%Qq%%%%%%%%Qq%%%%%%%%%%%%%
4320B75%Qq%q%%Q%qQQ%%q%%%%%%%%%%%%%%%%%%%%Qq%Qq%%%%%%%%Qq%%%%%%QqqJ6q%Qj6J6q
4314B75qK4%q%j6QqQQq%%%%%%%Qq%%Qq%%%%%%%qQ%Qq%%%%%%%%%%%%%Qq%%Qq%%%%%Qj6Q%%%
4308B75%q%Q%%%%%%%QqQq%%%qQ%%%%%qQ%%%qQ%%%%%%QqQqQq%%%%%%%%%%%%%%%%%%%%%%%%%
4301B75Q%q%%%%%%%%%%%%%%Qq%%%%%%%%%%%%%qJ6qQq%%%qJ6q%%%%%%%%%%%%%%%Qq%%%Qq%Q
4295B83q%%%%%%%%%%%Qq%%%%%%%%%%%qQ%%%Qq%%%%%%%%%%%%%%%%%%%%q%J6q%%%Qq%%%Qq%%
4288B75%%%%%%%%Qq%%%%%%%%%%%%%%%%Qq%%%%%%%%%%%%%%%%%%%%qQ%%QqqQ%%%qQ%%%%%%qQ
4282B75%qQ%%%%%%%%%%%%%%%%%%%qQ%%%%%%%%%%Qq%%%%%%%%%qQ%%%%%%%%%qQqQ%%qQ%%%%%
4275B75%%%%%%%%%%Qj6Q%%q%%Q%qQqQqQ%%%Qq%%%%%%%%%%%%%%%%%%qQ%%qQ%%%%%%%%%%%%%
4269B75%qQ%%qQqQ%q%QqQ%%%%%%%Qq%%%%%%%%qQ%Qq%%Qq%%%%%%q%Q%qQ%%%%%%%%%%%%%%%%
4262B75%%%%%%%%%%%%%%%%%%%%%%%%%%%%%%%qQ%%%%q%Q%qQ%%%%%%%%%%%%%%%%%%%%%%%%%%
4255B75qQ%%%%%%%%%%%%%%%%%%%%%%%%qJ6%q%%%%%%qQ%%%%%%%%%%%%%%%%%%%%%%%%%%%%%%
4249B75%%%%%%%%%%%%%%%%%%%%%%%QqQq%%%%%%%%%%%%%%%%%%%%%%%%%%%%%%%q%%Q%%q%Q%%
4242B75%%%%%%%%%%%%%%%%Qq%q%QqQ%%%%%qQ%%%%%%%%%%%%%%%%%%%%%%%%qQ%%%%%%%%%%%%
4236B75%%%%%%%%%%%qQ%%%%Qq%%%%%%%%%%%%%%%%%%%%%%%%%%%%%%%qQ%%%%%%%%%%%%%%%%%
4229B75%%%%%%%%qQ%%%%%%qQ%qQ%%%%%%%%%%%%%%%%%%%q%QqQ%%%%qQ%%%%qQ%%%%%%%%%%%%
4223B75%%%qQ%qQ%%%%%%%%%%%%%%%%%%%%%%%%%%%%%%%%%qQQq%%%%%%%%%%%%Qq%%%%%%%q%Q
4216B75%%J6qj6Qq%Q%%%%%%%%%%%%%%%%%%%%%%%%%%%%%%%%%%%%%%%%%%%%%%%%%QqQqqQ%%%
4210B75%%%%%%%%%%%%%%%%Qq%%%%%%%%%%%%%%%%%%%%%%%%%%%%%%%%%%%%%%%%%%%qQ%%%%%%
4203B75%%%%%%qQ%%%%%%%%%%%%%%%%%%%qQ%%%%%%%%%%%%%qQ%%%qQ%%%%%%q%Q%%%%%%%%%%%
4196B75%%%%%%%%%qQ%%%%%%%qQ%%%%%%%%%%%%%%%%%%%%%%qQ%%%%%%%Qq%%%%%%%%%%%%%%%%
4190B75%%%%%%%%%%%%%%%%%%qQ%qQ%%%%%%%%%%%%%%%%%%%%qQ%%%%%%%%%%%%%%%%%%qQ%%%%
4183B75%%%%%%%%%qQ%%%%%%%%%%%%%%%%%%%%%%%qQ%qQ%%qQ%%%%%%%qQ%%%%%%qQ%%%%%%%%%
4177B75%qQ%%qQQq%%%%%%%%%%%%qQ%%%%%%%q%Qq%Qq%Q%%%q%%Q%%%%%Qq%%%%%%%%%%%Qq%%q
4170B67Q%%qQqQ%%%%%%%%%%%%%q%Q%qQ%qQqQ%%%%qQq%Q%%%%%%%%%%%%%%%%%%%%%qQ%%qQqQ
4164B75%%%%qQ%%%%%%%%%q%Q%qQ%%q%Q%%qQqQ%%%%%%%%%%%%%%%%%%%%%%%%qQ%%%qQqQ%%%%
4157B75%%%%%%%%%%%%%%%%%%q%Q%%qQ%%%%%%%qQ%%%%%%%%%%%%%%%%%%%%%%%%%%%%%%%%%%%
4150B75%%%%%%%%%%%%%%%%%Qq%%%%%%%%%%%%qQ%%qQ%%%%%%%%%%qQ%%%%%%%%%%%%%%%%%%%%
4144B75%%%%%%%%qQqJ6qQq%%%%%%%qQq%%Q%Qq%%%%%%%%%%%%%%%%%qQ%%%%%%%%%%%%%%%%%%
4137B75%%%%%%q%QQj6Q%qQqQ%qQ%%%%%%%%%%%%qQ%%%%%%%%%%%qQ%%%%%%%%qQ%%%%%%%Qq%%
4131B75%%Qj6Q%qQ%qQ%%%%%Qq%%%%%%%%%%%%%%%%%%%q%Qq%Q%%%%%qQ%%%%%%%%%%QqqQq%Qq
4124B67QqQ%%%%%%%%%%%%%%%%%%%%%%%qQqQ%%%%%%%qQ%%%qJ6j6QqQ%%%%QqQqqqK4%j6q%QK4
4118B91j6qK4qq%%QqqQ%%Qq%%%%%%qQ%%%%%%%%%%%%%%%%%%%%%%%%%%%%Qq%%%j6QJ6j6J6j6
4112B67Q%%%qQ%qQq%%Q%q%Q%Qj6Q%%%%%%%%%%%%%%%%%%%%%%%%%qQ%%%qQ%%%%%%%%%%qQqQ%
4106B75%Qq%%%%%%%%%%%%%%qQ%%%%%%%%%%%qQ%%%%%%%%%%%%%%%%%%%%%%%%%%%%Qq%%qQqQ%
4099B75%%%%%%%%%%%%%%%%%qQ%%%%%qQ%%%%%%%%%%%%%%%%%%%%Qq%Q%qqQqQ%%%%%%%qQ%%%%
4093B75%%%%%%%%%%%%%%%%%%%%%%%%%%%%%%%%%%Qq%Qq%%%%%%QqqQ%%%%%%%%%qJ6q%%%%%%%
4086B75%%%%%%%%%%%Qq%Q%qqQ%Qq%%%%%%%%%%%Qq%%%%%%%%%%%%%Qq%%QqQ%q%%%Qq%%%%%%%
4080B75%qJ6qqQQ%qQk4J6qQ%%j6L2j6%%%%Qq%QqQq%Qq%%%%%%QqQqQq%%%%Qq%%%%%%%%%%%%
4074B75%Qq%%%qJ6qQj6Q%j6J6Qqq%QQq%qQ%Qq%Qq%%%%%Q%%%%j6Q%%%%%%%%%%%%%%%%%%%%%
4067B75%%%%%%%%%Qj6qK4qQqQqQ%q%%%%%%%%%%Qq%%%qQ%Q%qqQ%Q%%q%Qq%%%Qq%%%%%%%%%Q
4061B83q%%%%%%%%Q%q%%%Q%q%%%%%%%%%%%%%%%%qQ%%Qqq%Q%%%%Qq%%%%QqQq%%%%%%Qq%%%%
4054B75%%%QqQqQq%%%%%%%Qq%%%%%%Qq%%%qQ%%%%%%%%%%%%%%%%%%%Qq%%%%%%Qq%Qq%%%%%%
4048B75QqQq%%%Qq%%Qq%%%Qq%Qq%%%%%qQQ%q%%%%%%%%%%%%%Q%q%%%%%%%%%%%%%Qq%%%%%%%
4041B75%%%%%%%%Qq%Qq%%%Qq%%%%%Q%%q%%%%%%%%%%%%%%Qq%%%%%%%%%%QqQq%Qq%QqQ%%%q%
4035B75%%%Q%qQ%q%%%%%%%%%QqQq%%Q%%q%%%%%QqQq%Qq%%%%%%Qq%%QqQq%%%%Q%%qQq%Qq%Q
4028B83qQ%q%Q%%q%%%%Q%q%%Qq%%%%%%%%Q%q%%%%%%%%%%%%%%%%%Qq%qQQq%%QqQq%%%%%%%%
4022B75Q%q%QqQ%qQj6Q%%Qq%%%Qq%%%%%%%%%%%%Q%qQq%%Qq%%%%%%Qq%%%%QqQqQq%Qq%Q%%q
4015B75%%QqQ%q%Q%%qQ%qQq%%%%%%%%%%%%%QqQqQq%%QqQ%q%Q%q%%%Qq%%QqQ%q%Q%q%Q%q%Q
4008B83q%%Q%%qQ%%q%%%%%%Qq%%%%%%Qq%%%%%%%QqQq%Q%qQ%qQ%q%%%Q%q%%%%%%Qq%%%QqQq
4002B75Q%%%%qQqQq%%Q%q%%Qq%%%%Qq%%%%QqQ%%qQ%%%q%%%%%Qq%Q%q%%Q%q%%%%%%%%%%Q%q
3995B75%%%Q%%qQ%q%%Qq%%%%Qq%QqQ%%qQq%Qq%Q%q%%%%%%%%%%%%%%%%%%Q%q%%%%%Qq%%Q%q
3989B75%%%%%%%Q%%%qQqQq%Qq%Q%%%q%%%%%%%%%Qq%%%%Qq%%%Q%qQ%qQqQq%%QqQq%%%%%%%%
3982B75%%%QqQ%qQq%%%Q%%q%%%%%%%%%%%%%%%%%%Q%q%Qq%%%Qq%%%%%%Qq%%%%%%%%Qq%%%Qq
3976B75QqQ%q%%Q%%%%q%%%%%%%%%%%%%%%%%Qq%%%%Qq%%%Q%q%%%Qq%%%%QqQqQ%q%%%%%%Qq%
3969B75Qq%%%QqQqQ%q%%Qq%%%%%%%%%%%%%%%%%%%%%Qq%Qq%Q%%qQq%Q%qQ%qQ%q%%QqQ%qQq%
3962B75%Qq%%%%%%Qq%Qq%%Q%q%%%%Q%q%%%%QqQ%qQq%Q%%%%qQ%q%Q%%q%Q%%%%%%qQq%%%%Q%
3956B83%qQ%%%qQqQ%%%qQqQ%%%%q%%Q%%%q%%%Q%%%%%qQ%%%%%%q%Q%%%%%q%Q%%qQq%Q%%%%%
3949B83%qQ%%%%%qQqQ%%%q%Qq%Qq%%%%Qq%%%Q%qQ%%%qQqQq%Q%%qQq%Q%%q%Q%%%q%QqQ%q%Q
3943B83%q%%Qq%%Qq%Q%%%q%Qq%%QqQ%%%qQ%%%%q%%%%Q%qQqQ%%%q%Q%%%%%%qQ%%%%qQ%q%Q%
3936B83q%Q%%%%qQ%q%Q%%%%%%%qQqQ%%%%qQqQ%qQq%QqQ%%qQqQqQq%%Q%q%Qq%%Q%%qQqQ%%Q
3930B91j6qJ6%qQq%Q%%%%%%qQ%%%%%%%%%%%%%%%%qQ%%%%%%%%qQq%%QqQq%QqQ%%Qq%%QqqQq
3923B75J6%Qj6%Qj6Qq%%QqQqQ%%%%qQ%%%%%qQ%%%%%%%%%%%%%%%qQqQqQ%qQ%%%%%%%Qj6%Q%
3917B83qJ6j6%Q%%qQ%%%Qq%%qQq%Q%%%qQq%Q%%%%Qq%%%%%%%qQ%%%qQ%qQ%%%Qq%%%%%%%%%%
3911B83%qQ%%%%%%%qQ%%%qQqQqQ%%qQqQ%qQ%%%%%%%%%%%%%%%%%qQ%%%%%%q%%Q%%%%%%%%%%
3904B83%%%%%%%%%%%%qQqQ%%%%%%%%%%%%%%%%%%%%%%%%%%qQ%%%%%%%%%%q%Q%%%qQ%%%%%%%
3897B83%%%%%%Qq%%%%%%%%%%%%Qq%%qQ%%%%%%%%%%%%%%%%%%%%%%%qQ%%%%%%qQ%%%%%%%%%%
3891B83%%%%%%%%%%%%%%%%%q%Q%%%%%%%%%%%%%%%%%%%%%%%q%Q%%%%%%%%%%%%%%%%%%%%%%%
3884B83%%%%%q%J6q%%%qQ%qQ%qQ%%qQ%%%%%%%%%%%%%%%%%%%%QqqQ%%%%%Qq%%%%%Qq%%%%%%
3878B83%%%%Qq%qQqJ6%qq%Q%Qq%%%%%%%%%qQ%%Qq%%%%Qq%Qj6Q%Qq%%Qq%%%%%%%%%%%%%%%%
3871B83%%q%QqQ%%%%%%%%%%%%%%%%%%%%%%%%Qq%QqQ%%q%%%%%%Qq%%Qq%%%%%%%%%%%%%%%%%
3865B83%%%%%%%%%%Qq%Qq%%%%%%%%%%%QqQ%%%%%qQ%%q%%%%%%Qq%%%%%%%%%%%%%%%%QqQq%%
3858B83%%%Qq%%%%%%Qq%%%%%%%Qq%%QqQ%qQ%%q%%%%%%Qq%%Qq%%%%%%%%%%%%%%Qq%%%%Qq%Q
3852B91%q%%%%%%%%%%%%Q%%%q%%%%Q%q%%%%Q%q%Qq%%%%%%Q%q%Qq%%%Qq%%%%%QqQqQ%%%qQq
3845B83%%%%%%QqQ%q%Qq%%%QqQ%qQq%Q%q%Qq%%Q%q%Q%%qQq%Q%%%qQ%%qQqQ%%qQ%qQ%%q%Qq
3838B83%Qq%Q%q%Q%%qQ%%q%%%%Q%q%Qq%%%%QqQ%%qQq%Qq%Q%q%Q%%%%%%qQq%QqQ%%%q%%%%Q
3832B91qQq%Qq%%%%%%%%%QqQq%%%%%%%%%Qq%%%%Qq%Q%q%Q%q%%%Q%qQq%%%Q%%q%%QqQqJ6%j6
3825B83%qJ6q%%Q%q%Q%qQ%q%%%%%%%%%%%%Qq%%%%%%%Qq%Qq%Qq%QqQq%QqQ%%%%%qQq%%%%Qq
3819B83Q%%qQ%%q%%%%%%%%%%Qq%%QqQq%%QqQ%qQ%%%q%Q%%%%%qQ%%%%%Qq%%%%%%%%%%%%%%q
3812B83Q%%q%%Q%q%Q%%%%qQ%qQ%qQ%%%%qQqQ%%%%%%%qQq%Q%%%%%%%%%%%%%%%qQ%%q%Q%%qQ
3806B91%%%qQ%%%%qQqQ%qQ%%%%%%%%%%%%%%qQ%qQqQ%%%%%%%%%qQq%Q%%qQ%q%Q%qQqQ%%%%q
3799B83Q%%%q%%Q%%%%%%%%qQ%qQ%%%%qQ%%q%Q%%%%%%%%%%%qQ%qQ%%%%%%q%Q%%qQ%q%%Qq%Q
3793B91%%%%%%%%%qQ%%%%%qQ%%%%%%%%%%%%qQ%%q%QqQ%qQ%%%%%%%%%%%%%%%%%%%%%%%%%%%
3786B91Qq%%%%%%Q%q%%Qq%%%%%%%%%%%%%%%%%%%%%%%qQ%%%%%%%%%%%%%%%%%%%%%%%%%%%%%
3779B91%%QqQ%q%Qq%%%qQ%%%%%%%%%q%Q%%QqqQ%%%%%%%%%%%%%%%%%%%%%%%%%%%%%%Q%%q%%
3773B91%%%%qQ%%%%%%%%%%%%%%%%%%%%%%%%%%%%%%%%%%%%%%%%%%%%%%Qq%%%%%%%%%%%%%%%
3766B91%%%%%%%%%%%%%%%%%%%%%%%%%%%%%%%%%%%%%%%%%%%%%%%Qq%%%Qq%%%%%%%%Qq%%%%%
3760B91%%%%%%%%%%QqQq%%Qq%%%%%%%%%%%%%%%%%%%%%%%Qq%%%Qq%%%%%Qq%%%%%%%%%%%Qq%
3753B91%Qq%QqQ%%q%Qq%%%%%%Qq%%%%%%%%%%Qq%%%%Qq%%%%%Qq%%Qq%%%%Qq%%%%%Qq%%%%%%
3747B91%Q%q%%%%%QqQ%%%q%QqQ%q%%QqQ%%%qQ%q%Qq%%Q%qQ%%%%%%q%%%%%%%%Qq%qQ%%%%%%
3740B91Q%%%q%Q%qQqQq%Qq%Q%%%%%q%%%Qq%%QqQqQ%j6J6%%%%q%%Q%%qQ%qQ%%%qqqJ6%K4j6
3734B99j6qL2k4L2k4qK4l2K4j6J6%q%Q%qQqQ%%q%%Qq%%%%Q%qqJ6q%Qq%%Q%QqQk4J6qQj6J6
3729B99qJ6j6%M0o4M0j6N6k4O4q0k4k4O4k4Qj6QQq%%qQ%%%%%q%%Qq%J6q%qQq%Qq%QqQ%%%q
3724B91Q%q%%Qq%%Q%qJ6l2M8l2qj6Qk4N6Qq%m0L2j6Q%Qq%%Q%qQqQ%%q%%Q%qQ%%q%%%%%%%Q
3718B99%%%%qQ%qQ%qQq%%%Qq%%Q%%%qQ%%qQq%%%%Q%%%qQ%%%%%qQ%%%q%Qq%Q%qQqQ%qQ%q%%
3711B91Qq%Q%q%%Q%%%%q%Qq%%%QqQq%Q%q%QqQ%%%%%%qQ%%%%qQ%%q%Q%%qQ%%%qQ%q%Q%%%%%
3705B99%qQqQ%q%Qq%%%%Q%%%qQ%%q%%Q%%%%%qQ%%%%%%%%%%%%%%%%%%%%%%%%%%%%%%%%%%%%
3698B99%%%%%%%%%%%%%%q%Q%q%Q%%%%Qq%%%%%%%%%%%%%%%%%%%Qq%%%qQ%qQ%%%%%%%qQ%%%%
3692B99qQ%%%%%%%%%Qq%qQ%%%%%%%%%%%%%%%%%Qq%%%%q%QQqq%J6j6Q%%%%%%%%%%%%%%%%%%
3685B99%%%qQqQ%%%%%%%%%%%%%%%%%%%%%%Qq%%%Q%q%%%qJ6qqJ6%qQq%%%Qq%%%%%%QqQq%%%
3679B99Q%j6QQq%%%%%%%%%%%%%%%%%%%QqQq%%QqQ%%q%%%%Qq%%Qq%%%%%%%%%%%%%%%%%%Qq%
3672B99%%%%%Qq%Qq%%%Q%q%%Qq%Q%q%Qq%%Q%q%%%%%%%%%%%%%%%%%%%%%%%%%%%%%%%%Qq%%%
3666B99%QqQq%QqQqQ%qQ%q%Qq%QqQq%%%%%Qq%%%%Qq%%%%%%Qq%Q%q%%QqQ%q%Qq%%%%%Q%%%q
3659B99Q%qQqQq%%%Q%q%%%%Qq%%%%Q%q%Qq%Qq%%%Qq%%Q%%qQq%%%%%Qq%%%%%%Q%%%qQq%Qq%
3653B99%%Qq%%Qq%%%%%%%%Qq%%%%Q%%%%%%%q%Q%%%qQq%%Q%q%%Qq%%Qq%Q%qQ%%q%Qq%%%Qq%
3646B99Q%q%%QqQqQ%%q%QqQ%%%%%%%%%qQ%%%%q%%Q%qQq%Qq%%Q%%%%qQ%q%%%Q%%%q%%Q%qQ%
3640C07%%%%qQ%qQq%QqQ%%%%%%%%%%%%%%q%Q%qQ%qQ%%%qQ%%qQ%%qQ%%%%%%q%%Q%%%%q%Q%%
3633C07%%q%QqQ%%%%q%Q%%%qQ%Qq%qQq%J6q%qQqQ%qQ%%%%%%%%qQ%%%qQ%qQ%%%q%Q%%%%%%q
3626B99QqQ%%%%%%%%%qQ%%%%%%%%%%%%%%qQ%%%%%%%Qq%%%%%%%%%%%%%%%%%%%%%%%%%%%%%%
3620C07%%%%%%%%%%%%Qq%%%%%%%%%%%%%%%%%%%%%%%%%%%%%%%%%%%%%%%%%%%%%%%%%%%%%%%
3613C07%%%%%%%%%%%%%%%%%%%%%%%%%%%%%%%%%%%%Qq%%%%%%%qJ6q%%%Qq%%%%%Qq%%%%%%%%
3607C07%%%%Qq%%%%%%%%%%%%%%%%%%%%%%%%%%%%%%%%%%%%%%%%Qq%%%%%%Qq%%%%%%%%%%%%%
3600C07%%%%%%%%%%%%%%%%%%%%%%%%%%%%%%%%%%%%%%%%Qq%%%%%%%%%%%%%%%%%%%%%%%%%%Q
3594C15q%QqQq%%%Qq%%%%%%%%%%%%%%%%%%%%%%%%%%%QqQ%qQq%%%%%%QqQ%%%qQ%%qQq%Qq%%
3587C07%Qq%%%Qq%Qq%%%%%Qq%%%%%%%Qq%Qq%%%%%%%%Qq%Q%q%%%%%Q%%%q%QqQqQq%%%%%%%%
3580C07%Q%q%%Q%q%%Q%q%Qq%%%Q%%%%q%%%%%%%%%Q%q%%Qq%Q%%%%%q%QqQ%q%Qq%%%%%Q%qQ%
3574C15%%%%%q%%Q%qQq%Q%qQqQq%%Qq%%%%%%Q%%qQ%q%%Q%%%%q%Q%q%Q%q%%Q%%%%%%qQ%%%%
3567C15%%%%%%qQ%%%qQ%%%%%%qQ%%%qQ%%%%%%%%%%%%%%%%%%%%%%qQ%%%%%%%%%%%%%%%%%%%
3561C15%%%%%qQ%%%%%%%%%%%%qQ%%%%%%%%%%%%%%Qq%%%%%%%%%%%%%%%%%%%%%%%%%%%%%%%%
3554C15%%%qQ%%%%%%%qQ%%%%Qq%%%%%%%%%%%%%%qQ%%%%%%Qq%%%%%%%%%%%%%%Qq%%%%%%%qQ
3548C15qQ%%%%%qQ%%%%%%%Qq%%%%%%QqQq%Qq%Q%q%%Qq%%%%%%Q%q%%%%%%%%%%qQ%%%%%%%%%
3541C15%%%%%%%%%%%Qq%Qq%%%%%%QqQqQQj6%%Qq%%Qq%Qq%%%%%%Qq%%%%%%%%%%Qq%%%%%%%%
3535C15%Qq%%%QqQq%%Q%qQk4J6qL2j6%%%%j6J6q%%Qq%Q%q%%%%%%Qq%%Qq%%Q%qQ%q%%Qq%%Q
3528C23q%%Q%q%Qq%%Q%q%%Q%q%%%%QqQq%%Q%%qQ%q%%%QqQqQ%qQ%q%%Q%%%qQq%Q%%qQ%qQ%%
3522C23%q%%%%%%%Qq%%%%Q%q%Q%qQqQ%q%%Q%%q%Q%q%Q%%%qQ%%%%%%%%%%q%Qq%QqQ%%%%%%q
3515C15Q%qQ%%%%q%%QqQ%%qQqQ%%%%%%%%%%%%%%%%%%qQ%%%%%%%%%%qQqQ%%%%%%qQ%%%%qQ%
3509C23%qQqQqQqQqQ%%%%%%%%%%%%%%%%%%%%%%%%%%%%%Qq%%%%%qQ%%%%%%%%%%%q%QqQ%%%%
3502C23%%%%%%%%%Q%%q%%%%%%%%%%%%%%%%%%Qq%%%%%Qq%%qQ%%%%%%%%%%%q%Q%%%%%%%%%%%
3496C23%Qq%%%%%%%%%%%%%%%%%%%%%%%%%%%Qq%%%qQ%Qq%%%%%%Qq%%%%%%%%%%%%%%%%%%%%%
3489C23%%%%%%%%%%%%%%%%%Qq%%%qQqQ%%QqqQ%%Qq%QqQq%Qq%%Qq%%%Qq%Qq%%Q%q%qQ%%%%%
3482C23%%%%%%%%%%%%%Qq%%%QqQ%%%qQqQq%%%%%%%Qq%%%Qq%QqQ%q%%%Q%qQq%%Qq%%%%%%%%
3476C23%%%%%%Q%%%%%%%qQ%q%Q%%%%qQqQ%q%Qq%%%%QqQ%qQqQq%Qq%%%%%%%%%%%%%%%Q%qQ%
3469C31qQ%%%%%qQ%%%qQ%%%%q%Qq%Qq%Q%%%%%%q%Qq%%Q%%%%q%Q%%qQ%%%%%%%%%%qQ%qQ%%q
3463C23Q%%%qQqQ%%%%%%qQqQ%qQ%%%%%%%%%%qQ%%qQ%%qQqQ%%%%%%%%%%%%%%%%%qQ%%%%%%q
3456C23Q%%%%%%%%%%%%%%%%%%%%%%%%%qQ%%%%%%%%%%%%%%%%%%%%%%%%%%%%%%%%%%qQ%%%%%
3450C31%qQ%%%%%%%%%%%%%%%%%%%%%%%%%%%%%%%%%%%%%%%%%%%%%%%%%%%%%%qQ%%%%%qQ%%%
3443C31%%%%qQ%%%%%%%%%%%%%%%QqqQ%%QqQq%%%%%%%%Qq%%%Qq%%%Qq%%%%%%Qq%%%%Qq%%Qq
3436C31%%%%%Q%q%qQQ%qQ%%%qQqqQ%%%%%Qq%%%Q%q%Q%%%qQq%%%%%qQ%%Q%qQq%%%%%%%%%%%
3430C31%%QqQq%%Q%q%%%Qq%%%%%%%%Q%qQ%%q%Qq%Q%%%q%QqQqQq%%QqQq%%%%%%%Q%q%%QqQ%
3423C39%q%%%%Qq%Qq%%%%%%Q%%%qQ%%q%%Qq%%Qq%Q%qQqQ%%qQ%%%qQq%QqQ%qQ%qQqQ%%q%%Q
3417C39qJ6j6%Q%%%qQ%%%qQ%%%%%%%qQqQ%%%qQ%qQ%%%q%Q%%%%%%%%%%%qQ%qQ%%%%%%qQ%Qj6
3410C31%QQj6QqQ%%%%%%%%%%%%%%qQ%%%qQ%%%%%%%%%qQ%%%%%%%%%%%%%%%%%%%%%%%%%%%%%
3404C39%%%%Qq%%%%%%%%%%%%%%%%%%%%%%%%Qq%%%%%%Qq%%%%%%%%%%%%%%%%%%%%%Qq%%%%%Q
3397C47q%%%%%%%%%Qq%%%%%%%%%%%%%Q%q%%%%%Qq%%%%%%%%%%%Q%q%%%%%%%QqQq%%Qq%%%Qq
3391C39%%%%Qq%%Qq%%%%%%%Qq%%%%%Qq%%%%%QqQ%qQ%q%Q%q%%Q%%q%Q%qQ%%%qQqQqQq%Q%qQ
3384C47q%Q%%%qQq%QqQq%Q%q%Q%%q%%%Q%%qQ%%qQ%%qQ%%%%%%%%%qQ%%%%qQ%%%%%%%%%%%%%
3377C47%qQ%qQ%%%%%%q%Q%%qQ%%%%%%%%%%%%%%%qQ%%qQ%%%%%%%%%%%%%%%%%%%%%%%%%qQ%%
3371C47%%%%%%%%q%Q%%%qQ%%%%%%%%%%%%%%qQ%%%%%%%%%%%%%%%%%%%%%qQ%%%%qQ%%%%%qQ%
3364C47%%%%%%%%%%%%%%%%%Qq%%%QqQq%%%%%%QqQq%%%%%%%%%%%qQ%%%%%%%%%%%%%%%Q%q%%
3358C47%%%%%%%%%%%%%%%%%%%%%%Qq%qQQq%Qq%%%%%%%Qq%%Qq%%%%%%%%%%%Qq%%%%%%%%%%%
3351C47%%%%%%%%Qq%%%%Qq%Qq%%%Qq%Qq%%Q%%q%Qq%Q%q%%%%%%Q%%q%QqQ%qQqQq%QqQ%qQq%
3345C47%%%Q%q%%Q%Qq%qqK4q%q%Qq%%QqQqQq%Q%q%%%%%Q%%%%%%qQ%q%QqQqQ%q%Q%%qQ%q%%
3338C47J6%j6%%Qq%q%k4N6Ql2%%Q%Q%q%Qq%%q%QqQ%qQ%%%qQ%%%qQ%%qQ%qQ%%%%%qQ%%%%qQ
3332C55%%qQqQqJ6q%%qQ%%%%%%%%%%%%%%%%%qQ%q%Q%%%%Qq%%%%%%%%%%%%%%%%%%%%%%%%%%
3325C55%%%%%Qq%%%%%%%%%%%%%%%%%%%%%%%%%Qq%Qq%%%%%qQ%%%Qq%%%%%%%%%%%%%%%%%%%%
3319C55qQ%%%Q%q%%%%%%%%%%%%%%Qq%Qq%%%%Qq%%%%%%%Q%%%q%%%Qq%%%%%Qq%%%%QqQq%%%Q
3312C63%%q%%%%QqQq%Q%q%Qq%Q%%qQ%qQ%%q%Q%qQ%%%%q%Q%q%%QqQ%%%qQ%qQ%qQ%%q%Qq%Q%
3306C63%%%%qQ%%%%%%q%%Q%%%q%Q%%%qQqJ6q%%%%%%%%%qQq%Q%%%%%%qQ%%%%%%%%%%%%%%%%
3299C63%%%%%%%q%QqQq%J6qQj6q%K4%qQqQ%j6Qj6QQqQqQ%%qJ6qqQ%%%%%%qQ%Qq%%%%%%%%%
3293C63%%%%%%%%%qQ%%qQqQqqQK4k4QK4qj6%k4Q%J6%%%Qj6QQ%j6QQqqQ%%%%%%J6qq%%Qj6Q
3288C63QqQq%%%%%%%%%%%%%Qq%%%%%%QqqQ%Qq%%%Qq%%%%%%%%Qq%%%%%%Qq%Qq%%%QqQq%QqQ
3281C71q%%Qq%%%%%%%%%%%Qq%%Qq%%%%Qq%%%%Qq%%%%%%%%%%%%Q%qQq%Q%q%QqQqQ%q%%%Q%%
3274C71q%%%%Qq%Qq%%%QqQ%%qQ%%%q%%%Qq%Q%qQq%QqQqQ%q%%QqQ%qQ%qQ%%%%%%%%qQqQ%%%
3268C71%q%%Qq%Q%%%%%qQ%%%qQ%qQ%%%%%%qQ%%%%%%%%Qj6%Q%qQ%%%%%%%%%%%%%%%%%%%%%%
3261C71%%%%%qQ%%qQ%%%%%%%%%%%%%%%%%%%%%%%%%Qq%%%%%%%Qq%%%%%%%%%%%%%Qq%%%%%%Q
3255C79j6Q%%%%%%%%%%%%%%%%%%Qq%%%%%Qq%%%%Qq%%%%Qq%%%%%%Qq%%%%%%Qq%%%Qq%Qq%%Q
3248C79qQqQqQq%Q%q%%Qq%Qq%%QqQ%q%%%%Qq%%%%%Qq%%%%%Qq%Q%%q%Q%%qQ%%%%qQ%%%qQ%%
3242C79qQ%%%%%%%qQ%%qQ%%qQ%%j6J6q%Q%q%%Qq%Q%qQ%%%qQ%%qQ%%%%%%%%%%%%%%%%%%%%%
3235C79%%%%%%%%qQ%%%%%%%%%qQqQ%q%%Q%%%%%%qQ%%%%qQ%%%%%%%%%%%%%%qQ%%%%%%%%%%%
3229C79%%%%%%qQ%%%%%%%%%%%%%qQ%qQ%%%%%%%%%qQ%%%%%%%%%%%Qq%%%qQ%%Qq%%%%%%%%%%
3222C79%%%%%%%%%%%%%Qq%%%Qq%Qq%%%%%%Qq%%%Qq%Q%%q%%%%QqQq%QqQqQ%%qQq%Qq%QqQ%q
3216C79Q%%qQq%%Qq%QqQ%%%q%%Qq%%Q%q%%%%%%%%%%Qq%Q%qQ%%%qQ%%%q%%Q%qQ%qQ%%%qQqQ
3209C87%%%%%%%%%%qQqQqQ%%qQq%Q%%%qQ%%%%%%%%%%%%%%%%%%%%q%Q%%%%%%%%%%%%%%%%Qq
3202C87%%%%%%%%%%%%%%%%%%%%%%%%%%%%Qj6Q%%%%%%%%%%%%%%%%%%%%%%%%Qq%%Qq%Q%q%%%
3196C87%%%%%%%%%%%%Q%%q%%%Q%q%%Qq%%%%%%Qq%%%Qq%%%%%%%%%QqQ%%%qQ%qQ%%q%Q%%qQ%
3189C95%%qQ%q%%%Qq%%%%%%Q%%q%%Q%%q%%QqQq%%%%%%%%%%QqQ%q%%%%Q%%qQ%%%%qQ%%%q%Q
3183C95%qQ%%q%%%Q%qQ%%%%qQ%%q%%QqQ%q%%%%%QqQqQqQ%q%Q%q%%QqQ%%%%%%%%%%%%%%%%%
3176C95%%%%%%%%%%%%%%%%%%qQ%%%%%%%%%%%%%%%%%%qQQj6%Q%qQQq%%%%%%%%%%%%%%%%%%%
3170C95%%%%%%%Qq%%%%%%%%%%%Qq%%%%Qq%%%Qq%QqQqQq%QqQ%q%QqQ%q%%Q%%q%%%Qq%%%QqQ
3163D03q%Q%qQ%qQq%%%Q%%q%Q%%%%%qQ%%qQ%qQ%%qQ%%%%%%qQ%q%Q%%%qQ%%q%Qq%QqQ%%qQ%
3157D03%%%%%%%%%%%%%%%%%%qQ%%qQ%%%QqqQ%%q%Q%%%%%%%%%%%%%%%%%%qQ%%qQ%%%%%%%%%
3150D03%%%%%%Qq%%%%%%%%%%%qQQq%Qj6Q%%Qq%%%%%%%%%%%%%%%%%%%%%%%%%Q%%q%%Qq%%%%
3144D03%%%%%%%%%qQ%Qq%qJ6qQ%k4J6Qq%%%%%%%%%Q%q%%Qq%Qq%%Qq%Qq%%QqQq%%%Qq%%%%%
3137D03%%%%QqQqQ%%qQqQq%Q%qQqQqQq%%%%%QqQq%QqQ%%%%%%%qQ%%%qQq%%Q%%%qQ%%q%Q%%
3131D11qQqQ%%%%%%qQ%%%%%%%%%%%%%%%%%%%%%%%%%%%%%%%%%%%%QqqQ%%%%%%%%%%%%%Qq%%
3124D11%Qq%%%Q%q%%Qq%%%%%%%%%%%%%%%%%%%%%QqQq%%Qq%%%%%%%%%%%%%%%Q%qQ%qQ%%%qQ
3117D19%q%Q%qQ%q%%%%Qq%%%%%%%%Q%q%%%Q%%qQ%%qQq%%%%Q%%q%Q%qQ%%qQ%%%%%%qQ%qQ%q
3111D11QqQqQ%qQ%qQ%qQ%qQqQ%qQ%qQ%%%%%%%%qQQq%%%%%%%%%%%%%%%%%%%%%%%qQ%%%qQ%%
3104D19%%%%%%%%%%%%%%%%%%%%%Q%q%Q%j6%QQq%Q%q%%%%%%%%%%%%%%%%%%%%Qq%Qq%%%%%%%
3098D19%%%%%%%%%%%Q%%q%%qJ6q%Qq%%qQ%%Qq%%%%%%%%%Qq%%%Q%q%J6qq%%Qq%%%%%Q%%qQ%
3091D27%%qQ%q%Q%%%%%q%%Q%q%QqQqQ%q%Q%%%%%qQqQqQ%%%q%Q%%%qQqQ%%%%%%%%%qQ%%%%%
3085D27%%%%%%%%%q%Q%%%%%%qQ%%%%%%%%%%%%%%%%%%%%%%%%%%%%%%%%%%%%%%%%Qq%%%%%%%
3078D27%%%%%%%%%%Qq%%%%%%%%%%%%%Q%%qQq%%%Q%q%QqQqQq%%%Qq%Q%q%Q%q%Q%q%%%%%Q%q
3072D27%%QqQ%q%Qq%%%Q%qQ%%%%%%qQ%%qQ%qQqQ%qQqQq%Qq%%Q%qQ%%%%%%%qQ%%%%qQ%%%%%
3065D35q%%Q%%qQ%%%%%%%%%%qQ%%%%%%%%%%%%%%qQ%q%Q%%%%%%%%%%%%%%%%%%%%%Qq%%qQ%%
3059D35%%%%%%Qq%%%%%%%%Qq%%%%%%Qq%%%%%%%%%%%%%%%%%%Q%%q%%%QqQq%%Q%q%%Qq%%Q%q
3052D35%QqQq%%Q%%qQ%%q%Qq%%QqQq%%%Qq%Q%qQqQ%qQ%%%qQq%Q%%%qQ%%q%Q%%q%QqQqQ%%%
3045D43%%%%%%%Qq%Qq%qQqQq%%QqQ%%%%%%%%%qQ%%%%%%%%%%%qJ6q%%%%%%%%%%%%%%%%%%%%
3039D43%Q%qQq%%%%%%%%%%%%%%%Qq%%%Qq%%%%%%%%%%%%%%%%%%%%%%Qq%%Q%q%%Qq%%%%%%%%
3032D43Q%q%%%Qq%%Qq%QqQ%%qQqQ%q%%Qq%%Qq%%%QqQ%%%%%%qQ%qQ%%%qQ%q%Qq%Qq%Q%%%%%
3026D51%%%%%%%%%%%%%%%%%%%qQ%%%%%qQ%%%%%qQ%%%%%%%%%%%%%%%%%%%%%%%%%%%%Qq%%%%
3019D51Qq%%%%%%%%%%%%%%%%%%%%%%%%%%Q%q%%%Qq%%%%%qQ%%%%%%%%%Qq%QqQq%Qq%%%%Qq%
3013D51Qq%QqQ%q%Qq%%Q%%%q%Q%q%Q%%q%Q%%%%%%%qQ%%%%%%%qQ%qQq%%Q%%%%qQ%%%qQ%%%%
3006D59%%%qQqQ%%%%%%%%%%%%Q%q%%%%%%%%%%Qj6Q%Qq%%%%%%%qQ%%QqqJ6q%%Qq%%%%%%%%%
3000D59%%%%%%%%%%%%%%%Q%%%q%Qq%%Q%q%%%%%%%%%%%%%%%%%Q%%q%Qq%Qq%%%%Qq%%%%%%%Q
2993D67q%Qq%Q%qQ%%%%%%%%%%%%%%qQ%%%%%q%Q%QqqQ%%%%q%Q%%%%qQ%%qQqQ%%qQ%%%qQ%%%
2986D67%%%%%%%%%%%%%%%%%%%%%%%%%%%%%%%%%QqQq%%%%%%%%%%%%%%%%%%%%%%%%%%%%%%Qq
2980D67%%Q%%q%%%QqQ%qQ%q%%%%%%%%Q%%qQ%q%%%%%%%%QqQqQq%Q%qQ%%%qQqQqQ%%%qQ%qQq
2973D67Q%%%%%%%%qQqQ%%%%%%qQ%qQ%%q%Qq%Q%%%%%%%%qQ%%%%%%%%%%%%%%%%%%%Q%q%%%%%
2967D75%%%%%%%%%%%%%%qJ6%qQqQq%%%%%Qq%%%%%%%QqQqQqQq%Qq%%%Qq%QqQ%qQqQ%%%%%%q
2960D75%%Qq%%QqQq%Q%%qQ%%%%q%Q%%%%%%%%%%qQ%%%%qQ%Qq%%%qQ%%%%Qq%%%%%%%qQ%%%%%
2954D83%q%J6q%Qj6%%J6%j6Qj6Q%J6%q%Q%j6Q%%%%Qq%%%%%%Q%q%Qq%Q%q%QqqQ%%QqQq%%Q%
2948D91qQj6qK4%%qM0n6%QQJ6Qj6%j6J6qQqQ%%%qQqQ%q%Q%q%%%Q%%q%%Q%%%qQ%%%%%%qQ%q
2942D83%Qq%Q%qJ6q%Qj6QQj6%K4l2J6q%%QQqqQQj6Q%%%%%QqqQ%%%%Qq%qQ%%%Qq%%%%%%%%%
2936D91%%%%%%%%%%%Q%q%%%Qq%%%%%%Q%q%%%%%%%%%%Q%q%%QqQqQqQq%%%Qq%Qq%Qq%%%Q%qQ
2929D99%%qQ%%%q%%Q%%q%Q%%%%%qQ%%%%%%q%Q%%%%%qQ%%%%%%q%Q%Qq%%%%%%%%%%%qQ%%%%Q
2923E07q%%%%Qq%qQ%Qq%%Qq%%%%%%%%%%%%%Qq%%%%Qq%%Qq%%%%%%%%%%Qq%Qq%%%Q%%%%qQ%q
2916D99QqQqQ%%%%%q%Q%q%%QqQ%%%%%%%%qQ%q%%QqQ%%%%Qq%q%%Q%%%%%%%%%%%%%%%%%%%%%
2910E07%%%%%%%%%%%%%%%%%Q%%%q%%Qq%%%%%%qJ6%j6Q%%Qj6Q%%QqQ%%q%%%%Qq%%Q%%%q%Q%
2903E15q%Qq%%QqQ%%qQ%%%%%%%qQ%qQj6J6q%Q%q%%Q%qQqQ%%%%%%%%%%%%Qq%qQ%%%%q%Q%%%
2897E15%%%%%%%%%%%%%%%%%%%%%%Qq%%%%%%%%%%%%%%%%%%%%%Qq%%%Qq%Qq%%%%Q%q%Qq%%%Q
2890E23qQqQq%%%%%%%QqQ%q%%Q%%qQq%%%Q%q%QqQqQ%%%%%%%%%%%qQqQqQqQ%qQ%%%%%%%%%%
2884E23%%%%%%%%%%%%%%%%Qq%Qq%%%%%%%%%%%%%%%%%%%%%%%%%%qQ%%%Qq%Q%qQqQq%%%%%%%
2877E23%%%%%%%%%%%Qq%%QqQq%%%%Qq%%%Qq%Qq%%Q%qQ%%%qQ%%%%%%%%%%%%%%%%%%%%%%qQ%
2871E31%%%%%%%%%%%%qQ%%%%%%%%%%%%%%%%%%%%Qq%%%%%%%%%%%%%%Qq%%%%%%%%%%%%%%%%%
2864E31%%Qq%%%%%Qq%%Qq%%%%Q%%q%QqQq%Qq%Q%%%%%qQ%%%q%Q%%%%%%%%%%q%%Q%%%%%%%%%
2857E39%%q%Q%%%%q%Q%%%%%%%%%%%%%%%%Qq%%%%Qq%Qq%Qq%%%%%%%%%%%%%%%%%%Qq%Qq%%Q%
2851E47%q%%%%%%%%%Qq%%Q%qJ6%k4J6%%qQj6J6%q%Q%%%%%qQ%%%%%%%%%%%%%q%Q%%%%%%%%%
2845E47%%%%%%%%%%%%%%%%%%%%qQ%Qq%%qQ%%%Qq%%%%%%%%%%%Qq%%%%%%%%Q%q%%%%Qq%%Qq%
2838E47%Q%%%%%qQ%%%%qQ%%j6J6%%%qQ%q%QqQqQ%q%%Q%qQ%qQ%%%qQ%%%%qQqQ%%%%%%%%%%%
2832E55%%%%%%%%%%%%%Qq%%%%%%%%%%%%%%%%%%%Qq%%%Q%%q%Qq%Q%%%q%%QqQ%qQq%%%Q%%q%
2825E55%Qq%%Q%%qQ%%%%%%%qQ%%%%%%%%%%%%%%%%%%%%%%%qQ%%%qQ%%%%%%%%%%%%%%%%%%%%
2819E63%%Qq%%%%%%%Qq%%%%%%Q%q%%%%Qq%Q%q%%%%%qJ6%qQ%%%%%%%%%q%%%Qq%QqQ%%%%qQ%
2812E71%qQqQ%%%%%%%%%%%%%%%%%%%%%%%%%%%%%%%%%%Qq%%%%%%%%%%Qq%%%%%%%%%%%%%%%Q
2806E79q%%QqQq%%%%Q%%%%%%q%Q%%q%Qq%Q%%%%%%qQ%qQ%%%%%qQ%qQqQ%%q%Q%%qJ6q%%%%%%
2799E79%%%%qQ%%%%%%%%%%%%%%%%%%%Qq%%%QqQq%%%%Qq%Qq%%%%%Qq%QqQqQq%%Q%%qQ%%%%q
2793E79Q%qQqQ%%qQ%%%%%%%%%QqqQ%%%%%%qQ%%%%%%%%%%%%%%%%%Qj6J6q%qQ%%%%%%%%%%%%
2786E87Qq%%%%%%%%Qq%%%%%Qq%%%Q%q%%%%%Qq%%%%%Q%%%%q%Q%qQqQ%%qQ%%%%%%%%%%qQ%%%
2780E95%%%%%%%%%%%%%%%%%%%%%%qQ%%%%%%%%%%%%%Qq%%%%%%Qq%%%%%%QqQ%qQq%Qq%QqQ%q
2773E95%Q%qQ%%%qQqQ%%%%%%qQ%%%%%%%%%%%qQ%%%qQ%%%%%%%%%%%%%%%Qq%%%%%%%Qq%%%%Q
2766F11q%Qq%%%QqQq%%%Q%qQq%%%%%Qq%Qq%%%Q%%%%qQ%%%%%%%%%%%%%%%%%%%%%%%%Qj6Q%q
2760F03Qq%Q%%%%%%%%%%%%%%%%%%%Qq%%%Qq%Qq%Q%q%%%%%%%%%%Q%q%%%%%%Q%%%qQqQ%qQ%%
2753F19q%Q%%%q%QqQq%%%QQj6J6%qQ%qqQ%q%Q%%%%%%%%%%Q%qQq%%%%%Qq%%%%%%%%%%%%%Qq
2747F19Qq%%%%%QqQqQqQ%q%%%Q%%qQq%%QqQ%%%%%%%%%%%qQ%%%%%qQ%qQ%%%%%%%%%%%%%%%%
2740F27%%%%%qQ%%%qQ%%%%%%%%%%%Qq%%%Qq%%%%%%%%%%%Q%%%q%Q%%%%%q%Q%qQ%%qQ%q%Q%%
2734F35%%%%%%%%qQ%%%%%%%qQqQ%%%%%%%%%%%%%%%%Q%%q%QqQ%q%%%%%Qq%%%Qq%%%Q%q%Q%q
2727F35%%%%QqQq%%Qq%Q%%%qQ%%%%%%%%%%%%%%%%%%%qQ%%%%%%%%%%%%%%%%%%%%%%%%%qQ%%
2721F43%%%%%Qq%%%Q%q%%%QqQ%qQ%%%%%%%%qQ%%%%%%%qQ%%%%%%%%%%%%%%%%%%%%%qQ%%%%%
2714F51%%%%%%%%%%%%%%%%%%%Qq%%Qq%Q%%%%qQ%qQqQ%qQ%%%%%%%%%%%qQ%%%%q%Qq%%Q%%%%
2707F59%%%%%%%%%%%%qQ%%%%%%%%Qq%q%QQqQq%QqQqQq%%%%%%Qq%%%%Q%qQ%%q%%%%%QqQq%%
2701F59Q%qQ%%%%%%%%%%%%qQq%Q%%%%%%%%qQ%%%%qQ%%%%%%q%QqQ%%%%%%%%%%%%%%%Q%%q%Q
2694F75qQ%%%q%%QqQ%q%Qq%%QqQ%%%qQ%%%q%Q%qQqQ%qQ%qQQq%%%%qQ%%%%%%%QqQq%%%%%%%
2688F75%%%%%%QqQ%q%%%%%%Qq%%%Q%q%%Q%%%%%%qQqQ%%%%%%%%%%%%%Qq%%%%%%Qq%%%%%%%%
2681F83%%%%%%%%%%%%%%%%Qq%%%%Qq%Qq%%Q%q%J6qqQqQ%%%%%%%%%%%%qQ%%%%%%%%%%%%%%%
2675F91%%%%%%%%%%%%%%%%%%%%%%%%QqQq%%Qq%%%Qq%%%%%QqQ%%q%%Qq%%Q%%%%%qQ%q%%Qq%
2668F91Q%%qQqQ%%%%%%%%%%%%%%%qQ%%%%%%%%%%%%%%%%Q%q%%%%%%%%%Q%%qQqQqQ%qQ%%%qQ
2662G07qQ%%%%%%%q%Q%%qQ%%%%%%%%%%%%%%%%%%%%%%%%%%%%%%QqQ%qQ%qQ%%qQ%%q%%%%%%Q
2655G15q%Qq%Qq%%Q%qQj6J6QQj6qQQqQq%%%%%%%%%%qJ6q%Qq%%%QqQqQqQqQ%%qQ%q%%%Qq%%
2649G15%%%%Q%qQ%%%%%qQ%%qQ%%%%%%qQ%%%%%%%%%%%%%%%%%%%Qq%%%%Q%%q%%%%%%%%%Q%%q
2642G23Q%%%qQqQqQ%q%%Q%%%%%%qQ%%%%%%%%%%%%%%%%%%Q%q%%%Qq%%%Qq%Qq%%%Qq%%Qq%Qq
2636G31QqQ%%%%%%%%%%%%%%qQ%%%%qQ%%%%%%%%%%%%Qq%%%%%%%%Qq%%%%%%Qq%%%Qq%Q%qQ%q
2629G39Qq%%%Q%%q%%QqQ%%%%%%%%qQ%%%%%%%%%%%%%%%%%%Qq%%%%%%Q%qQ%qQ%%%q%Q%%%qQ%
2622G55%q%%Q%%%%%qQ%%%%%%%%%%%%%%%%%%Qq%Qq%%Qq%%%Qq%%Qq%Qq%Q%%%%qQ%q%Q%q%%%Q
2616G63%%%%%%qQ%%%%%%%%%%%%%%%%%%qJ6q%%%%%Qq%Qq%Q%q%Q%q%Qq%%%Q%%qQ%q%QqQq%Q%
2609G71qQqQ%%%%%%%%qQ%%%%%%Qq%%%%Qq%%%%%QqQ%%q%%QqQ%%q%%%QqqJ6%qQq%Q%%%qQ%%%
2603G79%%%%%%%%%%%%%%%%%%%%%%%%%%%%%%%Qq%Q%q%%Qq%%%%%%Q%%%qQ%qQ%%%%%%%%%%%%%
2596G87%%%%%%%%%%%%%%%%%%%%%%%%%%%%QqQq%%Qq%%%%Q%%%%%qQqQ%%%%%%q%QqQ%%%%qQ%%
2590G95%%%%%%%%%%%%%%Qq%%%%%Qq%%Qq%%%%%%%%%%QqQ%q%%Q%%%%%%q%QqQ%%%%%%%%%%qQ%
2583H03%%%%%%%%%Qq%%Q%%%q%%%%%%Q%%q%QqQq%QqQq%Q%%%%%%%%%%%%%%%%%%%%%%%%Qq%%%
2577H11%%%%QqQ%%%%%%qQ%q%%Q%%q%Q%%%%%%%%%%%%%%%%%%%%%%%%%%%%%%%%%Qq%%%%%%Q%%
2570H27%qQ%%%%%%%%%%%qQ%%%%%%%%%%%%%%%%Qq%Qq%Qq%%%%%%%Q%q%Qj6Q%%Q%%q%Q%%q%Qq
2563H27Q%%Qq%%%%%%J6qj6qK4qj6J6%qQ%%%Q%%%%%%q%Qq%%Q%q%%QqQqQ%q%%QqQ%qQ%%qQ%%
2557H43Qq%Q%q%qQq%qJ6Qq%Q%q%%%%QqJ6qqQ%%qQq%%%QqQqQ%%%%%%%%%%%%%%%%%%Q%qQqQq
2551H51%%%Qq%J6k4J6q%%Q%%%%qQ%%%%qQ%%qQ%%qQ%%%%%%%%%%%%%QqQ%qQq%%%Q%q%QqQqQq
2545H59QqQqQqQ%q%QqQ%qQqQ%%%%%%%%%%%%%%%%%%%%%Qq%Qq%%Q%%%%%q%Q%%qQqQ%%%%%%%%
2538H75%%%%qJ6q%qQqQ%%%%%%%%%%%%%%Q%qQq%%%QqQ%qQ%qQ%qQ%%%%%%%%%%%%%%%%%%%%Qq
2532H83%%Qq%%%%QqQq%%Qq%Q%%%%%%%%%%%%%%%%%%%Qq%%%%%QqQq%%Qq%%Qq%%Qq%Q%q%%Q%q
2525H91Q%%q%Q%%%%%%%%%%%%%%%%%%%Q%q%Q%%%qQ%qQ%qQ%%%qQq%%%Qq%%QqQ%q%%Q%qQ%%%%
2518I07%%%%Qq%Q%qQq%QqQqQ%qQQj6%J6q%%%q%QqJ6qQqqQ%%%%%%%%%%%%%Qq%%%%Q%qQqQ%q
2512I15%Q%%%%%%%qQ%%%%qQQQk4Q%Q%%j6%QqQqJ6q%QqQq%Qq%QqqJ6%q%J6qqQ%qQQ%j6Q%%%
2506I31qQ%%%%%%%%%%%%%%%%%Qq%Qq%%QqQ%%%%%%%q%Q%%%%%%%%%%%QqqQ%%%Qq%%%%%%%QqQ
2500I47%q%%%Q%%%%%%%%%%%%%%qQ%%%%%%%%%%%%Qq%%%%%%Q%qQ%%%q%Q%%%%%%%%%%%%%%%%%
2493I55%%%Qq%%Qq%%Qq%QqQ%%qQ%%%%%%%%%%%%%%%%%%%%%%%qQQqQ%%qQq%QqQ%q%Q%%qQ%%%
2486I71%%%%%qQ%%%%%%%%%%%%%Qq%%Q%%%%q%%%QqQ%q%Q%qQ%%%%%%%%%%%%%%%Qq%%%Q%qQqQ
2480I87q%Qq%%Q%qQ%%%%%%%%%%%%%%%%%%%Qq%%%Qq%%Q%qQqQ%%%%%%qQ%%%%%%%%%%%%%%%%%
2473I95%%%%Q%%%%qQq%Q%qQqQ%q%Q%%%%qQQq%%%%%%%%%%%%%Qq%Q%%qQ%q%%Q%%%%%%%%%%%q
2467A003Q%%%%%%%%%%%%Qq%%%%%%%QqQqQ%%%qQ%qQ%Qq%%%%%%QqQq%%%Q%%qQqqQ%Qq%%Q%%%
2460A027%%%%%qQ%%%%%%QqQqQ%%qqJ6qQq%Q%qQ%%%%%%%qQ%%%%%%%%%%%Qq%%%%%%%%%%%%Q%
2454A043%%qQ%%%%%%%%Qq%%%%%%%%%%Qq%%%Q%q%Q%qQqQ%%%%%%%qQ%%%qQ%%%%%%%Q%q%QqQ%
2447A059qQ%%qQ%%%qQ%%%%%%%%%%%%%%%%%%Qq%%%%%%%%Q%%%%q%QqQ%qQ%%%%%%%%%%Qq%%%%
2441A067%Q%q%Qq%Q%%%qQ%%%%%%%%%%%%Qq%%%%%%Q%qQ%%q%Qq%QqQ%%qQ%%%%%%%%%%Qq%%%%
2434A083QqQ%%qQqQ%%qQ%%%%%%%%%Qq%Q%qQ%%qQqQ%q%Q%%%%%%%qQ%%%%%%%%%%Qq%%QqQqQ%
2428A107q%Q%%%qQ%qQ%%%%%%%%%%%QqQq%Q%%%qQq%Q%%%%%%%%%%%%%%%%%%%%%%Qq%%%%QqQ%
2421A123qQ%qQqQ%%%%%%%%%QqQq%%%%QqQqQ%qQ%%qQqQ%%%%%%%%%%%%%%%%%%%%QqQq%%QqQq
2415A131Q%%%%%%%%%%%%%Q%%q%%Q%%%%q%QQq%%%%%qQqQQq%Qq%%%%Qq%%QqQqQqJ6qqQqQ%%q
2409A147%Q%%%%%%%%QqQ%q%QqQ%%%%%%%%Qq%%%%%%%Q%%%q%%%Qq%%%Qq%Q%qQ%%qQQq%%%%%%
2402A171%%%%%%Q%%%q%%%Qq%Q%%qQ%%%%%%%%%%Qq%Qq%%%Q%%%%%qQ%Qq%%%%Qq%%%%%QqQq%%
2396A187%Q%%%%q%%Q%%%%%%%%%%%%Q%qQqQ%q%Q%%qQ%%%%%%%%Q%%qQj6Q%Qq%%Q%%%%qQ%%%%
2389A211%%%%%%%%%%%%QqQ%%%%%%%%%%%%%%%%%%QqQq%%%%%Q%qQqQqQ%%%%%%%%%%%%%%%%%%
2383A227%%%QqQ%qQ%%%%%%%Qq%%%%%%%%%%%Q%%%%%qQ%Qq%%%Qq%QqQq%%%%%%Qq%Q%qQqQ%%%
2376A251%%%%%%%Qq%QqQ%q%%%Q%%%%%%%%%%%%%%%%%Q%qQ%%%%%%%%qQ%%%%%%%%%%%QqQqQ%%
2370A275%%qQ%%%%Qq%%%%%%%qJ6q%%Q%qQ%qQ%%qQ%%%%%%%Qq%%%Q%%%qQq%Q%%%%%%%%%QqQq
2363A291%%%%%%%%%%QqQ%%%qQ%%%%Qj6J6j6Qj6J6Q%J6k4Q%%%%qQq%J6qQ%q%%%%%Q%%qQ%%q
2358A307Q%%%%%qQ%%%%%%%%Q%%qQ%qQ%%%qJ6q%%qQ%%%%%%%%%Qq%Q%%%%%qQ%%%Q%qQqQq%Qq
2351A331Q%%qQ%%%%%%%%Qq%%%%%%Q%%qQ%%qQQqqQ%%%%%%%%%QqQ%%%%%%%%%%%%%%%%%%%Q%q
2345A355Q%%%%%%%%%%%%%%%%Q%qQq%Q%qQ%qQ%%%%%%%%%Qq%Q%qQ%%%%%%%%%%%%Qj6J6qQq%%
2338A379%Q%qQqQ%%qQ%qQ%%%%%%%%%%%Q%%%qQ%%%%Qq%QqQ%qQ%%%%%%%%%%%%%%Qq%%%%%%Q%
2332A411q%Q%%%%%%%%%%%Q%qQq%%%Q%%%%%%%%%%%%%%%%%QqQ%%%%%%%qQ%%%%%%%%QqQ%qQ%%
2325A435%%%%%%%%%%%%%Qq%QqQ%%qQ%%%%%%%Qq%%%QqQ%%%%%%%%%qJ6q%qJ6q%%Q%%%qQ%%Qq
2319A459%%Q%q%Qq%Q%%q%QqQqQ%%%%%%Q%qQ%%%%%%%%%%%%%%%%%Q%%Qqq%Q%%%%%%Qq%%%Qq%
2313A483Q%%%%qJ6qQ%q%%%Qq%Qq%%QqQ%%%%%%%%%Q%%%%%%%qQ%%%%%%%%%%%QqQ%%%qQ%%%%%
2306A515%%%QqQ%q%%%QqQ%%%%%%%%%%Qq%%QqQ%%%%%Qq%%%%%%QqQ%%%%%%%%%%%%%Qq%%%Q%%
2300A547%%qQ%%%%%%%%%%%Q%%%qQ%%%%%%Qq%Q%%%qQ%%%%%%%%Qq%Q%%%%%%qQ%%%%%%%%%%%%
2293A571QqQ%%%qQ%%%%%%%%QqQ%%%%%%%%%%%%%QqQqQqQ%%%%%Qq%%%%%%QqQq%Q%qQ%Qj6Q%Q
2287A611qQq%%Q%qQ%%%%%%%%QqQqQqQ%%%%%Qq%%%%%%QqQ%%%%%%%%%%%Qq%%Q%%q%Q%%%%%Qq
2280A635Q%%qQ%%%%%%%%%%QqQqQ%%%%%%%%%%%%%%%%Q%%%%%%%%%%Qq%%Q%%%%%%%%%%%%%Q%%
2274A675%%%%%%Qq%%QqQ%qQ%%%%%%%%Qq%%%%%%Q%qQ%%%%%%%%%QqQ%qQ%%%%%%%%%%%%%Q%%%
2267A707%%%%Q%%%%%%%%%%%%Qq%%Qq%QqQ%%%%%%%%%QqQqQ%%%%%%%%%Qq%%Q%%%qQ%%%%%%Qq
2261A739Q%%%%%%Qq%%%%%%%Qq%%Q%%%%%%%%Q%%%qQ%%%%%%qQ%Q%qQ%%%%%QqQqQ%%%%%%%%%%
2254A779%%%QqQ%qQ%%%%%%%Qq%%Q%%%%%%Qq%%%%Qq%%QQqQq%%%%%%Q%qQ%%%%%Q%%%qQ%%%%%
2248A819%%%%QqQqQ%%%%%%%%%Q%%%%%%%%%%%%%%%Qq%Q%%%%%%%%%%%Q%%%%%%%%%%%Q%q%Q%q
2242A851QqQ%%Q%q%Q%%%%%%%QqQ%%%%%%%%%%%%Q%%%q%Q%%%%%%%QqQqQ%%%%%%Qq%Q%%%qQ%%
2235A899%%%%%Q%%%%%%%%%QqQ%qQ%%q%QQq%Q%%%%%%%%Qq%%%%Q%%%%%%%%%%QqQ%%%%%%%%Qq
2229A939QqQ%%%%%Q%qQ%%%%%%%%%%%%QqQ%%%%%%%Q%%%%%%%%%%%%%QqQ%%%%%%Qq%%%%QQ%%q
2222A987%QqQ%%%%%%%%%%%QqQ%%%qQ%QqQq%Q%%%%%%%%Q%%qQ%%qQQ%qQ%qQ%%%%%Q%%%%%q%Q
2216B035%%QqQqQ%qQ%qQqJ6q%Q%%%qJ6q%Q%q%Q%%%%%Qq%QqQ%%%Qq%%%Q%%%%%%%%%Q%qQ%%q
2209B075Q%%%%QqQ%%%%Q%q%%Q%%%%%%QqQqQ%%%%%%%%%Q%%%Qq%%%%%Q%qQ%%%%Q%qQ%%%%%%Q
2203B139%%%%%%%%%%%QqQ%%%%%%Q%%qQ%%%%%%%%%Q%%%%%Qq%%Q%%%qQQqQqQ%%%%%%Q%qQ%%%
2196B187%%Q%q%%Q%%%%%%%%Q%%%qQ%%QqQ%%%%%%%%%%%%%Q%%QqQ%%qQ%%%%%%%Q%%%QqQq%Q%
2190B243%Qq%%%%QqQq%Q%%%%%%Q%%%%%%Q%q%Q%qQ%%%QqQqQ%%%%Q%qQ%%%%%%%Q%Qq%qQQ%qQ
2183B299%%%Q%qQqQ%qQ%%%%%Q%%%%%QqQ%%%%%%Q%qQ%%%%%%%%Q%%%%%%%%Q%%%%%QqQqQ%%Q%
2177B363qQ%%%%%%QqQ%qQ%%%%%%%Q%%%%%QqQqQ%qJ6q%%qQQ%%%%%QqQqJ6%j6QJ6k4QJ6j6%q
2171B395QJ6qQ%qQQqQqQqQ%qQ%Q%%qQ%%Q%qQ%%%%%%%%QQqqQ%%QqQq%K4%Qj6qJ6%Q%k4L2%j6
2165B475%J6m8L2Q%qJ6j6q%J6Qq%J6j6%%QqJ6qQ%%%%%%QqQ%%%%%%%Q%%%%QqQ%%%Qj6J6q%Q
2160B531q%K4k4%qL2qqQK4l2Q%%Q%qJ6qQ%qQ%%%Qq%%%Q%%%%Q%%Qj6QQq%%QQq%%%%Q%%%%%%
2154B587Q%%%%%%qJ6%%%%QqQ%%%%qJ6%%%%%%%%%Q%%Q%q%%Q%%Qq%Q%qQ%%%%%%QqQQ%qQ%%%%
2148B659Q%%q%Q%%%Q%%%Q%qQ%%%QqQ%%%%%%Q%%%%%%%%Q%%%%%%%%Q%%Q%%%%%%Q%%%%%%%%Qq
2141B731Q%%Q%%qQ%%%Q%%%%%%QqQ%%%%%%Q%%%%%%Q%%%%Q%%%%%%Q%%%%%%%%Q%%%%%Q%%%%%Q
2135B819%%%%%%%Q%%%%Q%%%Q%qQ%%%QqQ%%%%%Q%%qQ%Q%qQ%QqQ%qQ%%%%Q%%%%Qq%Q%qQQ%qQ
2128B899%Qq%Q%%Qq%Q%%Q%%%%%Q%%%%qJ6qQ%%%Qq%Q%qQ%%%Q%%%%%%Q%QqQ%q%QQq%Q%%%%Q%
2122B987%%%%Q%%%Q%%%Qq%Q%%%%Q%%%qQQ%%qQ%Qq%%Q%%QqQ%%Q%%%%%Q%%%%Qq%QqJ6%qQ%%Q
2115C083q%Q%%%%QqQ%%%QqQ%%%Q%%%QqQqQ%%%Q%%QqQ%Qq%%Q%%Q%%%%%%J6%q%%Q%%%%Q%qQ%
2109C171%%%%Q%%%%%Q%Q%%%%%Q%%%%%%Q%%%QqQ%Q%%%%%%%Q%%Q%%qQQ%%%%Qj6QQ%%Q%%%%%%
2103C267Q%%%%%Q%%%Q%%%Q%%%Qq%Q%%%Q%%%%Q%%%%Q%%%%%Q%%%%Q%%Q%%%%QqQQ%qQ%%%%%%Q
2096C379%%%Q%%%%%QQ%qJ6q%%%Q%%QqQ%%%Q%%%%Q%%%QqQ%%%QqQQ%%%%Q%%%QqQ%%%%Q%%%%Q
2090C491%%QqQ%%%QqJ6qQ%%%%%Q%%Q%%%%Q%%%%%Q%%Q%%Q%qQ%%%Q%%%%Q%%%%Q%%Q%%%%%Q%%
2083C603Q%QqQ%%%%Q%%%Q%%%%%Q%QqQ%%Q%%%%%QQq%Q%%Q%%%%%Q%%QqQ%%%Q%%%Q%%%Q%%Q%%
2077C731QqQ%%%Q%%%Q%%%Q%%Q%%%%Q%%QqQ%%%Q%%%Q%%%%%Q%%Q%%%Q%%Q%%%Q%%%%Q%%Q%%%Q
2070C867%Qq%QqQ%QQqQ%%%QqQ%Q%%%%Q%Q%qQ%QqJ6q%Q%Q%%%%%Q%%Q%QqQ%%Q%%%QQqQ%%Q%%
2064D003%%%Q%Q%%Q%qQ%%Q%Q%%%QqQ%Q%Q%qQ%QqQ%QqQ%QqJ6qQ%%QqQ%%Q%QqQ%Q%%%Q%%%%%
2058D139Q%Q%%Q%%Q%%%Q%%Q%%%%Q%Q%%Q%%%Q%%%Q%%%Q%Q%%%Q%%Q%%Q%%%Q%%%Q%%QqQ%%QQ%
2051D307%Q%%QqQ%%Q%QqQQqQQ%%%QqQ%Q%%%Q%Q%%%Q%%%Q%Q%%%Q%%%Q%QqQQqQQ%%%Q%%Q%Q%
2045D475%%Q%Q%%QqQ%Q%qQQQqQ%Q%%QqQ%Q%%Q%%Q%%Q%%%Q%%Q%%Q%%Q%%Q%Q%%%Q%%Q%Q%QqQ
2038D651%Q%QqQ%Q%%Q%%QqQQ%%Q%%%Q%Q%%%Q%Q%%Q%%QqJ6%%Q%%Q%%Q%Q%%Q%%Q%Q%%Q%%%Q%
2032D835Q%%Q%%QqQ%Q%QQ%qQQ%%Q%Q%%%%Q%Q%Q%%Q%Q%%%J6qQ%Q%%QQqQ%Q%%Q%Q%%Q%%Q%%Q
2025E035%Q%Q%qJ6%%Q%%QQ%%%Q%%Q%Q%%Q%Q%Q%%Q%%Q%Q%%%Q%Q%Q%Q%Q%%Q%%Q%Q%Q%%Q%%QQ
2019E251%%Q%QqQQ%Q%%%QQ%%Q%Q%Q%%Q%Q%%Q%%%J6%%Q%QqQQQ%%%Q%Q%Q%Q%Q%%Q%Q%Q%%QQ%
2013E475%Q%Q%%Q%Q%%Q%Q%%QQ%Q%%QQ%%Q%Q%%Q%QQ%%Q%Q%%Q%Q%Q%Q%%Q%Q%%Q%QQ%%Q%QQ%%
2006E715Q%Q%Q%Q%Q%%QQ%Q%%Q%QQ%%QQ%%%QQ%Q%QqJ6%%QQ%%Q%QQqJ6qQQ%Q%%J6qJ6%%Q%Q%
2000E963QQ%%Q%Q%Q%%QQQ%%QQ%%Q%QQ%Q%Q%%QQ%Q%%QQ%Q%Q%Q%Q%Q%QQ%Q%%QQ%Q%Q%%Q%QQ%
1993F243QQ%Q%Q%Q%QQ%%J6%%Q%QQ%Q%QQ%%QQ%%Q%Q%QQ%Q%QQ%Q%QQ%Q%Q%QQ%Q%Q%Q%QQ%Q%Q
1987F547Q%Q%Q%QQ%%QQQ%%QQ%J6%Q%%QQ%Q%QQ%QQ%Q%Q%QQ%Q%QQ%%J6%%QQQ%QQ%%QQ%QQQQq
1981F859QQ%QQQ%%QQ%QQ%QQ%Q%QQQQqQQQ%QQQ%%QQ%QQ%Q%QQQ%Q%QQJ6qQ%J6%%J6%QQ%Q%QQ
1975G203%QQ%QQ%QQ%QQ%QQ%QQ%QQ%J6%%J6%Q%J6%QQ%Q%QQQ%QQqJ6%%K4qK4qJ6qJ6%Q%QQQ%
1969G531J6%%QQQQ%QQ%QQ%QQQ%QQQ%QQQ%QQQ%QQQQ%QQ%J6%QQ%J6%%J6Q%J6%QqJ6Q%QQQqJ6
1963G899QQ%Q%J6%QQQQ%QQQQ%QQ%QQQQQQ%QQQQQ%QQQQ%QQQQQ%QQQQ%QQQQQ%%K4%%QJ6%%QJ6
1957H323Q%QQQ%J6Q%QQQQ%QQQQQQQ%J6%QQQQQQQ%J6%QQQQ%QQQQQQQ%QJ6%QQQQ%J6%QQQQ%J6
1951H763QQQQQQ%QQQQQQQQQQQQ%J6QQ%QJ6%QQQQJ6%QQ%J6QQQQQQQ%J6Q%J6%QQQQQJ6%QQJ6
1945I227%QQQQJ6%QQQQQQQQQQJ6%QQQQQJ6Q%QQQJ6Q%J6QQQ%J6%J6QQQQQQJ6%QJ6%J6%QJ6Q
1940I691%J6QQQQJ6%%J6QQJ6QQQQQQQQJ6QQQQQQJ6%J6QQQ%J6QQJ6%QJ6%J6QQJ6QQQQJ6%QJ6
1934A0179QQQQJ6QQQQQJ6QQQQQQQJ6QQJ6%J6QQJ6QQQJ6QQQQJ6%J6QQQJ6Q%J6J6QJ6%QJ6Q%
1929A0675J6J6QQQQJ6QQQJ6QQJ6QQJ6QQJ6%J6QJ6QJ6%J6QQQJ6QQJ6QQQJ6QJ6QQJ6QQJ6QQJ6
1925A1203QQJ6J6%QJ6J6%K4%J6QJ6%J6J6J6%J6J6QQQJ6QQJ6J6QQJ6QJ6Q%J6J6%K4J6QQQJ6
1920A1699QJ6QQJ6J6QQJ6J6QQQJ6J6QJ6QQJ6QQJ6J6QJ6QJ6J6%J6QJ6J6QJ6J6QQJ6J6QQJ6Q
1916A2227J6J6J6QQJ6QJ6J6%J6J6J6J6QJ6QQJ6J6QJ6J6QJ6QQJ6J6QJ6J6QJ6J6J6QQJ6J6QJ6
1912A2763J6QJ6J6J6QJ6J6QJ6J6QJ6J6QJ6J6QJ6QJ6J6J6QJ6J6J6QJ6J6J6QJ6J6QJ6J6J6QJ6
1908A3307QJ6J6QK4QJ6J6J6QK4QJ6J6QJ6J6J6QJ6J6J6QJ6J6J6J6J6QK4QK4QJ6J6QJ6K4QJ6
1904A3883J6QJ6J6J6J6J6J6J6J6QJ6J6K4QJ6J6J6QK4J6J6J6QJ6J6J6J6J6J6J6J6J6J6J6J6
1901A4435J6J6J6J6J6J6J6J6J6J6J6J6J6J6J6J6J6J6K4J6QJ6J6J6J6K4J6J6J6J6J6J6J6K4
1898A4995J6QJ6J6K4J6J6K4J6J6QK4J6J6J6K4J6J6J6J6J6K4J6J6J6J6J6J6K4J6J6J6K4J6J6
1894A5595J6J6K4J6J6J6J6K4K4QK4J6J6K4J6J6K4QK4J6K4J6J6K4J6J6J6K4K4J6J6J6K4J6J6
1891A6235K4K4J6K4QK4J6K4J6K4J6J6K4J6J6K4J6K4J6K4J6K4J6K4J6K4J6J6K4K4J6K4J6J6
1888A6899K4K4J6K4J6K4K4J6K4J6J6K4K4J6K4K4J6K4K4J6K4J6K4K4K4J6K4J6K4K4J6K4K4J6
1885A7611K4K4J6K4J6L2J6J6L2K4J6K4J6K4K4K4K4J6K4K4K4K4J6K4K4K4K4J6K4K4K4K4K4K4
1881A8371K4J6L2J6J6K4L2K4J6K4K4K4K4K4K4K4K4K4K4K4K4K4K4K4J6M0J6J6L2K4L2J6K4K4
1878A9171K4K4K4K4L2K4J6L2K4K4K4K4K4L2K4K4K4K4K4L2K4K4K4L2K4K4K4L2J6L2K4K4L2K4
1875B0035K4K4L2K4K4K4L2K4K4K4L2K4L2K4L2K4K4L2K4L2K4L2K4K4L2K4J6M0J6L2K4M0L2J6
1872B0947L2L2L2L2J6L2L2K4K4L2L2L2K4L2K4L2K4L2L2L2K4L2K4L2K4M0K4L2L2K4L2L2K4M0
1868B1947K4L2K4M0K4L2L2L2K4L2L2L2L2L2L2K4L2L2L2L2K4M0M0K4L2L2L2L2L2L2L2L2K4M0
1865B3003L2L2L2L2L2L2L2M0L2L2L2L2L2L2L2M0L2L2L2M0K4M0L2L2M0L2M0K4M0L2L2M0L2L2
1862B4139M0L2M0L2L2M0M0K4M0M0L2L2M0L2M0L2M0L2M0M0L2L2M0M0L2M0M0M0L2L2M0M0M0L2
1859B5371M0M0L2M0M0M0M0M0L2M0M0M0M0L2M0M0M0M0M0L2M0M0M0M0M0M0M0M0M0M0M0M8L2M0
1855B6699M0M8M0M0M0M0M0M0M8M0M8L2M0M8M8L2M0M8M0M0M8M0M0M8M0M8M0M0M8M0M8M0M8M0
1852B8139M8M0M8M8M0M8M0M8M0M8M8M8M0M8M0M8M0N6M0M8M8M8M0N6M0M8M8M8M8M0M8N6M0M8
1849B9699M8M8M8M8M8N6M0M8N6M8M8M8M8M8N6M8M0N6M8N6M8M8M8N6M8M8M8N6N6M8M8N6M8N6
1846C1395M8N6N6M8M8N6M8O4M8N6M8N6N6M8N6N6N6N6M8N6N6N6N6N6N6N6N6N6N6N6N6M8O4N6
1842C3243N6N6N6O4M8O4N6N6O4M8O4N6O4N6N6O4N6N6O4N6O4N6O4N6O4O4N6O4N6O4N6P2N6O4
1839C5259N6O4O4O4O4N6O4P2N6O4O4O4O4P2O4N6O4P2O4O4O4P2O4O4O4P2O4O4P2O4O4P2O4Q0
1836C7475O4P2N6P2O4Q0O4P2O4P2P2P2O4P2P2P2P2Q0O4P2P2P2P2P2P2Q0O4Q0P2P2P2P2Q0P2
1833C9891Q0P2P2Q0Q0Q0O4Q0P2Q0Q0P2Q0Q0Q0Q0Q0P2Q0Q0P2Q8Q0Q0P2Q8Q0Q0Q0Q8Q0Q8Q0P2
1829D2563Q0R6Q0Q0Q0Q8Q8Q0Q8Q8Q0Q0R6Q0Q8Q8Q8Q8Q8Q8Q8Q0R6Q8Q8Q8Q8Q8Q8Q8R6R6Q8R6
1826D5531Q0R6R6Q8R6Q8R6R6Q8R6R6R6R6R6Q8J04R6R6R6R6R6R6J04R6J04R6Q8J04R6J20Q8
1823D8499R6J12R6J12Q0J20J04J04R6J04J04J12R6J12J04J04J04J04J12J04J12J04J12J04
1821E1011J12J04J12J12J04J20J12J12J12J04J20J04J20J12J12J20J12J12J20J12J20J20J12
1819E3611J20J12J20J20J20J20J20J12J28J20J28J20J12J28J20J28J20J20J28J28J28J20J28
1817E6411J28J28J28J28J28J28J36J20J36J28J36J28J36J28J36J36J36J36J28J36J36J36J36
1814E9443J44J36J36J36J44J36J44J44J44J36J44J36J52J36J44J44J52J44J44J44J52J52J44
1812F2731J52J52J44J52J52J52J52J52J60J52J44J60J60J52J52J68J52J60J60J60J60J60J60
1810F6299J68J60J60J68J60J68J60J76J60J68J76J60J76J68J68J76J68J76J76J68J76J76J76
1808G0187J84J68J84J84J76J76J84J84J76J84J84J92J76J84J92J84J92J92J84J92J84K00J92
1806G4435J92J92J92J92K00K00K00K00K00K00J92K08K00K08K00K08K00K08K08K08K16K08K08
1803G9075K08K16K16K16K16K16K16K24K16K16K24K16K24K24K24K32K24K24K32K24K32K32K32
1801H4179K32K32K32K40K40K32K48K32K40K40K48K40K48K48K48K48K48K48K48K56K48K64K48
1799H9787K56K64K64K56K56K64K72K56K72K64K72K64K72K72K72K80K72K80K80K80K80K80K80
1797I5995K88K80K88K88K96K80L04K88K96K96K96L04K96K96L04L04L12L04L12L12L04L12L20
1795A02875L20L12L20L20L20L20L28L28L28L28L28L36L28L44L36L36L44L44L44L36L52L44
1793A10171L60L44L60L52L60L52L68L60L68L60L76L68L68L76L76L76L76L84L84L84L84L84
1790A18291M00L84L92M00M00M00M00M00M16M08M08M16M16M16M16M16M32M24M32M24M32M32
1788A27355M40M40M40M48M48M40M56M48M56M56M64M64M64M64M72M72M80M72M80M80M96M88
1786A37523M88M88M96N04N04N04N04N12N12N12N20N20N20N36N28N36N28N44N36N52N44N52
1784A48963N52N60N60N68N60N68N84N68N84N84N84N92O00N92O00O00O16O08O16O16O24O24
1782A61923O32O32O40O32O48O48O48O64O56O56O72O64O80O72P04O96O88O80O96P28O96P20
1780A76675P12P28P28P28P36P44P52P44P52P60P68P68P76P84P84P84Q00Q00Q08Q00Q16Q24
1778A93571Q24Q32Q32Q48Q56Q40Q72Q56Q64Q88Q80Q80Q96R04R04R12R20R12R44R36R28R52
1776B13051R52R76R76R68R84R84R92J000J016J024J000J064J040J032J056J064J056J088J064
1774B32387J104J088J120J120J120J136J136J152J160J168J160J192J184J200J216J216J224
1772B52083J240J240J256J264J272J288J288J312J304J328J336J336J360J360J376J384J400
1771B74427J408J416J432J440J456J464J480J488J496J512J520J544J544J568J568J592J600
1769B99955J608J624J640J664J664J672J704J712J720J736J752J768J792J800J816J832J840
1767C29299J856J888J896J904J928J944J968J984J984K024K032K056K064K096K104K128K144
1766C63299K168K184K208K232K240K272K288K312K336K344K392K392K424K440K480K488K520
1764D03019K536K576K592K616K640K672K696K720K752K784K800K840K856K896K920K952K984
1763D49851L016L040L088L104L144L168L216L240L280L304L352L392L416L456L496L544L568
1761E05675L616L656L696L736L776L824L864L912L952M000M048M096M136M200M232M288M344
1759E73051M392M440M496M552M624M648M736M776M840M896M968N024N088N152N216N288N352
1758F55539N424N488N568N640N712N784N880N936O032O104O192O280O368O440O552O632O728
1756G58299O824O920P024P112P224P328P448P552P656P776P888Q016Q128Q264Q384Q520Q648
1754H89011Q784Q928R064R216R360R512R672R832R984J0168J0320J0504J0688J0864J1056
1753A036963J1248J1448J1648J1848J2072J2288J2512J2736J2968J3224J3472J3720J3984
1752A200131J4256J4528J4816J5104J5408J5720J6040J6368J6704J7048J7408J7776J8168
1751A409475J8552J8960J9384J9792K0256K0712K1184K1680K2184K2712K3256K3808K4400
1749A686355K5000K5624K6272K6944K7640K8360K9112K9896L0712L1544L2424L3344L4295
1748B067522L5281L6320L7399L8537L9704M0935M2224M3576M4984M6472M8016M9656N1360
1747B621986N3160N5064N7064N9160O1376O3736O6200O8832P1608P4560P7680Q1008Q4544
1746C495978Q8312R2336R6624J01224J06136J11416J17088J23192J29760J36864J44536J52872
1744D896338J61896J71728J82456J94168K07000K21088K36600K53728K72680K93728L17160
1743G408570L43359L72737M05784M43136M85512N33808N89088O52712P26280Q11864R12047
1742A3684897J030032J170000J337271J538823J783809K084432K457127K924359L517225M279310
1741C5807285N272705O586800Q351679J0757374J4078833J8698849K5092028L3647211M3997942
1741B02290706N3318105N4053321L6223895J63841l5896542n3725952n2989194m3665896l3310779
1740A26461505k4750125j8350384j3722765j0392510p976788o200553m873672l865952l087822
1739C3240934k477119j990033j595264j270135r97937p66167n65329l88022k28457q1943N5447
1738B2935975J86992L15633M44086N74865P10584Q53897J007671J175103J359864J566256
1737C1130926J799432K065639K372609K730005L150040L648385M245297M967390N849903O940297
1736F8899923Q303091J0027469J2238063J5111981J8903667K3982839L0889512M0407260N3637077
1735B82400882P1983958R6746853J27457482J57392544J66589401J24314919K1645461r4307354
1734I54224146j60141023j64902833j38356852j06335793p9249012n8849661m4080091l3467689
1733A68841192k5793230k0173341j5996061j2842368j0424703q543693p059441n872466m910838
1733E7225051m122023l466952k916241k447480k043312j690135j377078j095376q37690n97888
1732C6630876l70573j50931O5570K83273N06637P40281R89330J259541J557642J891663K271439
1731D5674748K709185L220334L824754M548205N424792O500036P835790R516943J1662111
1730A00916898J4439051J8088228K2958483K9559152L8631620N1228761O8735984R2587585
1729D37145762J22959675J54920696J71265583J40453054M3427271q0439170j58857135j70720782
1728F60154954j45614229j12603171q4066529o2425152m6732003l5465140k7333132k1392991
1727A24522607j6990284j3676769j1145327r183406p642148o415996n428848m625216l964047
1727D5450566l414595k953543k562958k228953j940591j689192j467719j270505j092783r30545
1726B5899182p80367o39184n04159l72714k42238j10040K6703J71169L26984M98534O91113
1725B4964983R11375J167865J471647J837425K284976K841313L543926M445677N622034P182232
1724E6273453R285639J2165069J6155137K1711003K9356853L9370593N0718423N8603868N2238772
1723C45878810K1823770k2151452n2567404n8934436n1051780l9707870k9698978k2059058
1722I1531602j6510220j2528372r658360p565685o017632m854944l968463l282919k745584
1721B4399423k319168j976856j699135j471591j283464j126616r94832q83303p88288p06841
1720A1149329o36591n75688n22616m76160m35280l99177l67151l38664l13184k90368k69832
1719F524618k51320k34568k19376k05552j92952j81440j70888j61200j52296j44072j36488
1718D474466j29472j22968j16920j11304j06080j01192r6632r2368q8368q4624q1112p7792
1717C265634p4672p1744o8976o6360o3880o1544n9336n7216n5240n3336n1536m9824m8192
1716B483778m6640m5160m3744m2400m1104l9864l8695l7560l6488l5440l4448l3496l2576
1715A976163l1688l0856l0032k9256k8496k7776k7072k6408k5744k5128k4520k3928k3376
1713A621883k2824k2304k1784k1296k0816k0352j9912j9480j9056j8648j8248j7880j7496
1712A361787j7144j6792j6448j6120j5800j5488j5192j4888j4608j4328j4056j3800j3528
1711A163595j3288j3040j2800j2584j2344j2136j1920j1696j1512j1304j1112j0920j0744
1710A008195j0552j0384j0208j0040r880r720r560r408r256r112q968q832q696q560q424q296
1708H58299q176q048p928p816p704p584p472p360p264p160p056o952o856o752o672o568o480
1706G34451o400o304o216o144o048n976n888n824n736n664n592n520n448n376n312n240n176
1705F36587n112n040m992m920m856m808m744m688m624m576m512m464m416m360m312m248m208
1703E57707m168m104m064m016l968l928l880l840l792l752l712l672l624l592l552l512l472
1702D93059l432l408l360l320l288l264l216l184l160l120l088l056l024l000k960k936k904
1700D39339k880k840k816k792k760k728k712k680k648k632k600k576k552k528k504k480k456
1698C94155k424k416k384k368k336k320k304k272k256k232k216k192k176k160k128k120k096
1697C55755k072k056k048k016k008j984j976j944j944j912j904j880j872j848j840j816j808
1695C22827j792j768j768j744j728j720j696j688j672j664j640j640j616j608j584j576j576
1693B94347j552j536j536j512j504j496j480j472j456j440j440j424j408j408j384j376j376
1692B69547j360j344j336j328j320j304j296j288j280j264j264j248j240j224j224j216j200
1690B47811j200j176j184j168j160j144j144j136j128j128j104j104j096j080j080j080j056
1689B28643j056j056j040j032j024j024j016j008r92j000r84r76r68r68r52r60r44r44r28
1687B09771r20r28r12r04r12q96q88q80q80q64q72q64q56q48q40q40q40q24q24q16q08q16
1685A90739q00p92p92p92p76p76p68p76p60p52p60p44p44p44p28p28p20p20p28o96p12p04
1683A74227o96p04o88o80o80o80o72o72o64o64o56o56o48o40o48o40o32o32o24o24o16o16
1680A59795o16o08o08o00o00n92n92n84n84n84n76n76n76n68n60n68n60n52n52n52n44n44
1678A47099n44n36n28n28n28n28n20n28n12n04n28n04n12m80n20m96m88m96m72n04m80m80
1676A35883m80m80m64m72m72m64m64m64m56m56m56m48m48m56m40m40m48m32m32m40m24m32
1674A25915m24m24m24m16m16m24m08m16m08m08m00m08m00m00m00l92l92l92l84l92l84l84
1672A17019l84l76l76l84l68l68l76l68l68l60l60l68l68l52l52l52l52l52l52l44l52l44
1670A09043l44l44l36l36l36l36l36l28l28l28l28l28l20l28l20l12l20l20l12l20l04l12
1668A01867l12l04l04l12l04k96k96l12k88l04k96k96k88k88k88k88k88k88k88k80k80k88
1666I5379k72k80k80k72k80k72k72k72k64k72k72k56k72k64k64k56k64k56k64k56k56k56k48
1664H9259k56k56k48k48k48k48k48k48k40k48k40k40k40k40k40k32k40k32k40k32k32k32k32
1661H3699k32k16k32k24k24k32k24k24k24k16k16k24k16k16k16k16k16k16k08k16k16k00k16
1659G8659k08k08k00k08k08k08k00k08j92k08k00k00j92k08j92k00j92j92k00k00j84j92j92
1657G4067j92j92j84j92j92j84j84j84j84j84j84j84j84j76j76j84j84j76j76j76j76j76j76
1655F9867j76j76j68j76j68j68j76j68j68j68j68j68j68j60j68j68j60j68j60j60j68j52j60
1653F6027j68j60j52j60j60j60j52j52j60j52j52j52j60j52j52j52j52j44j52j52j44j52j52
1650F2483j44j44j44j44j52j36j52j44j44j36j44j44j44j36j36j44j36j36j44j36j36j36j36
1648E9235j36j36j36j28j44j28j28j36j28j36j28j28j28j36j36j20j28j28j28j28j20j28j28
1646E6235j28j20j20j28j28j20j20j20j28j20j20j20j20j20j20j20j20j20j20j12j20j12j20
1644E3459j12j20j20j12j12j12j20j12j12j04j20j12j04j12j12j12j12j04j12j12j04j12j12
1642E0883j04j12j04j04j04j12j04r6j12j04j04j04j04r6j12r6j04j04j04j04r6r6j04r6j04
1639D8299r6r6j04r6r6r6j04r6r6r6r6r6r6r6r6r6r6q8r6q8r6r6q8r6q8r6j04q0q8r6q8q8
1636D5275r6q0r6q8q8q8q8q8q8q8q8q8q8q0q8r6q0q8q0q8p2q8q8q0r6q0q8q0q0q0q0q8q0q0
1633D2363q8p2q0q0q8q0q0q0q0p2q8p2q0p2q8p2q0p2q0p2q0q0q0p2p2q0p2q0p2p2q0p2p2p2
1630C9731p2q0o4q0p2p2p2p2p2p2p2p2p2p2o4p2p2p2p2o4p2o4q0o4o4p2p2p2o4p2o4o4p2o4
1626C7339p2o4o4p2o4o4o4o4p2o4o4p2o4o4n6o4o4o4p2n6o4o4o4o4n6p2n6o4o4n6o4o4o4n6
1623C5163o4n6o4o4n6o4n6o4n6o4m8p2n6n6o4n6n6n6o4n6n6n6n6o4n6n6n6n6n6n6o4n6n6n6
1620C3171n6m8n6o4m8n6n6n6m8n6n6n6n6n6m8n6n6m8n6n6m8n6n6m8m8n6n6m8n6m8n6m8n6m8
1617C1355m8m8n6m8m8n6m8n6m8n6m0n6m8m8m8n6m0n6m8m8m8m8m8m8m8n6m0m8m8m8m8m8m8m8
1614B9683m8m0m8m8m8m8m8m8m8m0m8m0m8m8m8m0m8m8m0m0m8m8m0m8m0m8m8m0m8m0m0m8m0m8
1610B8147m0m8m0m0m8m0m0m0m8m0m0m8m0m0m8m0m0m0m0m8m0m0m0m0m8m0m0m0m0m0m0m0m0m0
1607B6731m0m0m0m0m0m0m0l2m8l2m0m0m0m0l2m0m0m0m0m0l2m0m0m0m0l2l2m0m0m0m0l2m0m0
1604B5419l2m0l2l2m8l2m0m0l2l2m0m0l2l2l2m0l2m0m0l2m0l2l2m0l2l2l2m0l2m0l2m0l2l2
1601B4211l2m0l2l2m0k4m0l2l2l2m0l2l2l2l2l2m0k4m0l2l2m0k4l2l2l2l2m0k4m0l2l2l2l2
1597B3083l2l2k4l2m0k4l2l2l2l2k4l2l2m0k4l2l2l2l2l2k4l2l2l2k4l2l2l2k4l2m0k4k4l2
1594B2043l2l2k4l2l2k4l2l2k4l2k4l2k4l2l2k4l2l2k4l2k4l2k4l2k4l2k4l2k4l2l2k4k4l2
1591B1067k4l2k4k4l2l2k4k4l2k4k4l2k4l2k4k4k4l2k4k4l2k4k4l2k4k4l2k4k4l2k4k4k4k4
1588B0163l2k4k4k4k4k4k4l2k4k4l2j6l2j6l2j6l2l2j6k4k4k4k4k4k4l2k4k4k4k4k4k4k4k4
1584A9315k4k4k4k4k4k4k4k4k4k4j6l2k4k4k4j6k4l2j6k4k4j6m0j6k4k4k4j6k4k4k4j6l2j6
1581A8523k4k4k4j6l2j6l2j6j6k4l2j6j6m0j6%k4l2l2qk4j6l2k4qk4j6m0j6j6j6l2j6k4k4
1578A7755j6k4j6k4j6k4k4j6k4k4j6k4k4j6k4k4ql2qk4k4j6k4j6k4j6k4j6k4j6k4j6k4j6k4
1574A7043j6j6k4k4j6j6k4k4j6j6j6k4k4j6k4qk4j6l2j6qk4k4k4qj6k4j6k4k4j6j6j6k4j6
1571A6371j6j6k4j6j6k4j6j6j6j6j6l2j6j6j6j6j6k4j6j6k4j6j6j6j6j6k4j6j6j6k4j6j6j6
1568A5763j6k4j6qk4j6j6j6k4j6j6j6j6j6j6j6k4j6j6j6k4qj6j6k4j6j6j6j6j6j6j6j6j6j6
1565A5171j6j6j6j6j6j6k4qk4qk4qj6k4j6j6j6j6j6j6qk4j6qj6j6j6j6j6j6j6j6j6j6j6j6
1561A4595qj6j6j6j6j6j6j6j6j6j6j6j6j6qj6j6j6j6j6qj6j6j6j6j6j6qj6j6j6qk4qk4qj6
1558A4043j6j6qk4qj6j6qj6j6j6j6qj6j6qj6j6j6qj6j6j6qj6j6j6qj6j6j6qj6j6qk4qj6qj6
1554A3483j6qj6j6qj6j6qj6j6qj6qk4qj6qj6j6j6qj6qj6j6j6%k4qj6qj6qj6j6qj6qj6qj6j6
1550A2931qj6j6qqj6qk4qqj6j6qj6j6qqj6j6qj6qj6qj6qqj6j6qj6j6qqj6qj6qqj6j6qqj6j6
1545A2379qj6qj6qqj6j6qqj6qqj6qj6qj6qqj6j6qqj6qj6j6%j6j6qqj6qqj6qqj6qj6qj6qqq
1541A1851j6j6qj6qqqj6qqj6%qj6j6qqj6qk4%j6%k4%j6%j6qj6qj6qqj6qqqqj6qj6qqj6%qk4
1536A1331qqqqj6qqqj6qqqj6qqj6qqqqqj6qqqj6qj6qqqqqj6q%j6qqj6qqqj6qqqqqj6qqj6q
1531A0803%j6qqqqqqj6qj6%qj6qqqqj6qqqqqqj6qq%j6qqqqj6%qj6%j6qqqqqj6%j6qqqqqqj6
1526A0307q%j6qqqqqqqqqj6qqqq%j6qqqqqqj6%j6%qj6%j6qqqqqqqqqqqqqq%j6qqj6%qqqqq
1520I827qqqqqqqqqqqqqqqqqqqqqqqqqqqq%qj6%qj6%qqqqqqqqqqqqqqq%qqqj6%qqqq%qj6%
1514I339j6%qqqqqqq%j6%qqqqqqqqqqq%qqqqqqqq%qqqqqq%qqqqq%qqqqqq%qqqqqq%qqqqq%
1508H875qqqqqq%qqqq%j6%qq%j6q%j6%qqq%qqqq%qq%j6%qqq%qqqqq%qq%qqq%qqqq%qqqqq%
1502H459qqq%qqqq%q%j6q%qq%qqqq%j6%%qq%j6%q%qqq%qq%qqq%qj6%%qqq%qq%j6%qq%qqq%
1496H083q%qq%qqqq%qq%qq%qq%qq%qj6Qj6%q%qq%q%j6%qq%qq%q%qqq%qq%j6%%qq%qq%qq%q
1490G731q%qq%qq%q%qq%qq%qq%qq%%qqqq%q%qq%%j6%qq%qq%%qq%qq%q%j6Qqqqq%%q%qqq%q
1484G395%%j6q%%j6%%qq%q%q%%j6q%Qj6Qj6qq%q%qq%q%q%q%q%q%j6%q%%j6%q%q%q%%qq%qq
1478G107%q%%qqq%q%%qq%qq%q%q%q%qq%%j6%%qq%%%qqqq%%q%qq%q%q%q%%qq%qqQqqq%q%%q
1471F819%q%qqq%%qq%q%q%%q%qq%q%%qq%%q%q%qq%q%q%q%q%%qq%q%%q%q%q%q%qqQqq%q%%q
1465F547qq%%q%q%q%q%%qq%q%%%q%q%qq%%qq%%q%q%q%q%q%q%q%%%qq%%q%q%q%q%q%%qq%%q
1458F291%qq%%q%qQqqq%%%q%%q%qq%%qq%%q%%q%q%%j6%%%q%%qq%%q%q%q%%q%q%%q%q%%qq%
1452F059%q%%q%q%q%%q%q%%qq%%%qq%%%q%q%q%%q%q%%q%%q%q%%q%q%%q%q%%q%q%%%qq%%q%
1445E843%%qq%%q%q%%q%q%%q%%q%%q%q%qQq%q%%qq%Qqq%%%j6QqqQqq%%%q%%qq%%q%%q%%%j6
1439E635%%q%%%q%q%%%q%q%%q%%q%%q%%%q%%qqQ%qqq%%%%q%%q%%q%%q%%%qq%%q%%%%qj6Qq
1433E451%%%q%%q%%%q%q%%%q%%q%%q%%q%%%q%q%%q%q%%qQq%%q%%q%q%%%%q%q%%q%%q%%%q%
1426E283%q%%%q%%q%%q%%q%%q%%%q%q%%%q%%%q%q%%qQqq%%%%q%%q%%%q%qQ%q%qqQq%%q%%q
1420E115Qq%%q%%q%%q%%%q%q%%q%%%%q%%q%%%q%%%q%%qQqq%%%%%q%q%%%%qq%%%%%q%%q%%q
1413D963%%%q%%q%%%%q%%%q%qQqq%%%%q%%%q%%%q%%%q%%%q%q%%%%q%Qj6QqqQ%%q%q%%%q%%
1407D827%qQq%q%%%q%%%q%%%%q%%q%%%%q%Qqq%%%q%%qQq%q%%%%q%%%q%%%q%%q%%%%%qQq%q
1400D691%%%%q%q%%Qj6%QqqQq%q%%%%%%q%%%%q%%q%%Qq%qQqq%%%q%%%%q%%%qQq%%%q%%qQq
1394D571%%qqQ%q%%Qj6%%%q%Q%%j6%%qQqQ%j6%Q%%q%%%%q%qqJ6%%q%q%%q%q%Qq%%q%%%%%q
1388D459%%q%%%%q%Qj6Qq%%%%%%%qq%%qQ%q%%QqQ%qj6QK4qk4Qj6j6K4q%L2l2qQ%%q%j6Q%q
1382D363Q%q%%%q%%qQ%q%%%qQq%%q%%%qQq%%%%q%%%%q%%%%j6J6l2K4Qqq%%qQq%%%%qQq%%%
1376D275q%%%%q%%%%%%qQq%%%q%%qQqqQ%%%q%%%qQ%q%qQq%%qQ%q%Qq%q%%%%qQ%q%q%%%%%%
1370D179%%q%%q%%%%%%%%q%%q%%%%qQ%q%%%%%q%%%qQqQq%%qQ%q%%q%%%%qQ%q%%qQ%q%%%qQ
1363D091%q%%%%qQq%q%%%%%%%q%%%%%qQq%%%q%%%%%%%qQ%j6Q%%%q%%%%%q%%%%%%q%%qQq%%
1357D003%%%qQqQq%%qQ%%q%%%q%%%%%q%%%%%%q%%%%%q%%%%%%%q%%%%%%%q%%%q%%%%%%%%%q
1350C923QqQ%j6%Qq%%%%qQ%q%%%%q%%%%%%%qQ%q%%%%%%q%%%qQq%%%%%qQq%%%%qQq%%%%%qQ
1344C859qq%J6q%%%%qQ%%j6Q%%q%%%%%%q%%%qJ6j6%%%%%qQ%%q%%%%q%%%%%%%qQq%%Qq%q%Q
1338C795q%%%%q%Q%q%%%%qQq%%%%qQ%q%%qQqQqQq%%%%%%q%%%%%%%qQ%q%%%qQ%q%%%%%%qQq
1331C723Qq%%%qQ%%q%%%%qQq%%%%%%qQqQq%%%%%%q%%%%%%%%%q%Qq%%%%%q%%%%%%%qQq%%%%
1325C667%%%%%q%%%%%%%%%qQq%%%%qQ%qQq%%%%%%q%%%%%%%%q%Qq%%%%qQ%q%%%%%%%q%%%Qq
1318C611%%%%%%%%q%%%%qQ%q%%Q%q%%%%%%%q%%%%%%%%%q%%%%%%%qQ%q%%%%%%%%%%qQq%%%%
1312C563%%%%%q%%%%%%%%%%%%%q%%%%%qQqQq%%%%%qQ%qQq%%%%%%%q%%%%Qq%%%%q%Q%qQq%%
1305C515%%%%qQ%qQq%%%%%qQq%%%%%%%%%%%%%q%%%%%%%%%%%qQ%%%%q%%%%%%qQq%%%%%%%%%
1299C475qQ%q%%%%%Qq%%qQq%Qq%%%%%%%%%q%%Qq%%%%Qq%%%%%q%%Q%q%%%%%%%%%q%%%%%%%%
1293C435qQ%%qQ%qQq%%%%%%q%%%%%%%qQ%%%%%q%Q%q%%%%%%%%%%qQqQq%QqqQ%%%j6J6%qQ%q
1286C395Qq%%QqqQ%%%%%%%q%%%%%%qQ%q%Q%q%%Qq%%%%%%%%%%q%%%%%%%%%%%%%qQ%%%%%q%Q
1280C371%%q%%%%%%%%%qQq%%%%%%%qQ%%qQ%q%%QqQq%%%%%%%%%%%q%%%%%%qQ%%%%%%%%%qQq
1273C331Q%%q%Qq%%%%%%%%q%%%%%Qq%%%%%%%%%%%%%%%%q%Qq%%%%%%%%%%%%%%%%%%q%%%Qq%
1267C307%%%%%%qQ%%%q%Q%%q%Q%q%%qQ%%%qQ%q%Q%%%%qQq%%%%Qq%%Qj6QqQ%%%%qQ%%qQq%Q
1260C291q%%%%%%%%%%%qQ%%%q%%%%Qq%Qq%%%%%%%%%%%%%%qQq%%%%%Q%j6Q%%%%Qq%%%%%qQq
1254C259%%%Q%%%%%q%QqQq%%%%%Qq%%%qQ%%%q%Q%%q%%%%qQ%%%%%%%%%%%%%%qQq%%%%Qq%Qq
1248C243%%%Qq%%%%%%%%qQ%%%%%%qQ%q%Qq%Qq%%%%%%%%%%Qq%qQ%%%%%%%%%qQ%%%%%%qQq%%
1241C227Qq%Q%%%%q%Qq%%%%%%%Qq%%%%%%%%%%%%%q%%Q%q%%%%%Qq%%Qq%%%%%%%%%%%%%%%%%
1235C219%Qq%%%%%%%%%%qQ%%%qQq%Q%qQq%%%qQQq%Qq%%%%%%%%%%%%%%%%%%q%Q%%%%%%qQqQ
1228C211%%q%%%%%%%%Qq%%%%%%Qq%%%%%%%Qq%%Qq%%%%%%%%%%%%%%%%%%qQ%%%%qQqQqQ%%qQ
1222C203q%%Qq%%%%QqQ%q%QqQq%%%%%%Q%qQ%q%Q%q%%%%%%%%%Qq%%%Qq%%%%Qq%%%%%%%qQ%%
1215C195%%%%%%%%%%%%qQ%%%%%qQQq%%%%%%%%qQ%%%%%%%%%%%%%%%%%%%qQq%Q%%%%%%%%%%%
1209C195%%%%%%%qQ%%%%%%qQ%Qq%%qQq%Q%%%qQ%%%%%%%%%%%%%%%qQ%%qQ%%%%%%%%%qQ%%%q
1202C187Q%%%%%%%%%%%%%%%%%%%qQ%%q%Q%qQ%qQ%%%%%%%%%%qQ%%qQ%%%%%%%%%%%%%%%%Qq%
1196C195%%%%%%q%Q%%%%Qj6Q%%%%%%%%%%%%%%%%%%%%%Qq%%Q%qQq%Qq%Q%%%qQqQq%Q%%%%%q
1189C195QQl2L2q%QqQq%%%%%%qQqQ%%%%qQ%%%%%%%%%%%%%%%%Qq%Qq%%Qq%QqQ%%%%%qQ%%%Q
1183C219j6J6qqJ6j6QqQ%%qQ%%%%%qQ%%%%%%%%%%%%%%%%Qq%%Qq%Q%%q%Q%%%%%%%%%qQ%%%%
1177C219%%%%%%%%%%%%%%%%%%%%%%%%%%%%%%%%%%%%Q%%%%%%%%%q%Q%%qQ%%%%%%%%%%%%%%%
1170C227%%%%%%%%%%%QqQ%%qQq%Qq%Q%%qQ%%%qQ%%%%%%%%Qq%%Qq%%%%Q%q%%%QqQ%%qQqQqQ
1164C243%q%Q%%%%%%%Qq%%%Qq%%%%%QqQq%Q%%%%%%%qQ%%%%%%%%%%%%%%%Qq%Q%qQ%%%%%%%%
1157C259%%%%%%%Qq%%Qq%%%%QqQqQqQ%%%%Qq%%%%%%%%%%%Q%%%qQ%%%%%%%qJ6%q%%%%%Qq%%
1151C275Q%%qQ%%%%%q%Q%%%%Qq%%%Q%%%q%Q%%qQqQqQ%%%%%%%Qq%%Q%%qQQq%%%%%%%%%%%%%
1145C299%Qq%%%%%Q%%%qQq%Q%qQ%qQ%%Q%%q%%%QqQqQ%%%%%%%%Q%qQ%%q%%Q%qQ%%qQ%%%%%%
1138C323%%%%QqQq%Q%%%%%%%%Qq%%Qq%Qq%Q%%%%%%Qq%%%%Q%q%%%%Q%%%%%%%%%Qq%%%%%%%Q
1132C355q%Q%qQ%%%%%QqQq%%Q%%%%%%%%%%%QqQq%Q%%%qQqQ%%%%%Qq%QqQ%%%%%%%%%%%%%%%
1125C379%Q%%%%%%%Qq%%%Q%qQq%%Q%%%%%%%QqQ%%q%%Qq%Q%%%%%%%Qq%%Q%%%%%%%%%%%%%Qq
1119C411Q%qQ%%%%Qq%%%%%%%Q%%%%%%qJ6qQqQ%q%%QqQ%%%%%%%%%Q%%%%%%%%%%Q%q%Q%%%%%
1112C451%%%%Qq%%%%%%QqQ%%%%%QqQ%%qQ%%%%Qq%%%Qq%Q%%%%%%%%%%%%QqQ%%%%%%%QqQq%Q
1106C491%qQ%%%%%Qq%%Q%%%%%%%%%Q%qQ%%%%%%%%%%%Q%qQ%%%%%%%%%QqQ%%%%%%%Qq%Q%%%%
1099C531%%%Q%q%Q%%%%%%%%%QqQqQ%%qQ%%%%%Q%%%%%%%%%%%%%%Q%%%%%%%%%Qq%Q%%%%Qq%Q
1093C579%%%%%%%%%%Q%qQ%Qqj6K4J6j6%%%%Qq%%%Qq%%Q%q%Q%%%%%%%Q%%%%qQ%%%QqQ%%%%%
1087C619%%%%Q%%%%%%Q%q%Q%%%%%%%QqQ%%%%%%%%%%%%Q%%%%%%%Q%%%%%%%%%%Q%%%%%%%%%Q
1080C675%%%%%%%Q%qQqQqQ%%Qq%Q%%%%%%%%%Q%%%%%%%Q%%%%%%%QqQq%%Q%%%Q%%%%%%%%%%%
1074C723%%Q%%%%%QqQqQ%%%%%%%Q%%%%%%%Q%qQ%%%%%%%Q%%%%Qq%QqQ%%%%%%%Q%%%%%%%%%Q
1067C787%%%QqQq%%Q%%%%%%%%Q%%%%%Qq%Q%%%%%QqQqQ%%%%%QqQ%%%%%%Q%%%%%Q%q%Q%%qQQ
1061C851qQqQ%%%%%QqQ%%%%%Q%%%%%%%Q%%%%%Qq%%Q%%%Qq%%Q%%%%%%%QqQ%%%%%QqQ%%%qJ6
1054C915%%%%%%%Q%%%%%%%%Q%%%%Q%%%%%%Qq%Q%%qQQq%%Q%%%QqQqQqQ%%%QqQ%%%%%Q%%%%%
1048C979Qq%Q%%%%%%Q%%%%Q%%%%QqQ%%%qJ6%q%Q%%%%%%Q%%%%%%%Q%qQ%%Q%%Qj6J6%qJ6qQq
1042D051%%Q%%%%%%%Q%%%%Q%qQ%%QqQ%%%%%%%Q%%%%Qq%Q%%Q%%qQ%%%Q%qQ%QqQ%%%%%%QqQ%
1035D131QqQ%%%%%%Q%%%%%%Q%%%%%%Q%%%QqQ%%%%%%Q%%%%%Q%%%%%%Q%%Qq%Q%%%%%%%Q%%%%
1029D211Q%%%Qq%Q%%%%Q%qQ%QqQ%%%%Q%%%%%%%Q%%%%Q%%%%%QqQ%%%%%Q%%Q%%%%%%%Q%%%%%
1022D299Q%%%%Q%%%%%Q%%%%%QQq%%QqQ%%%Q%%%%QqQ%%%%%Q%%%%%QqQQqQ%%%Q%%%%%%%Q%%Q
1016D403qQ%%%%Q%%%%%%Q%%%%%%%Q%%Q%%%%Q%%%%Qq%Q%%%%Q%%%%Q%%Q%%%%%Q%%%%%Q%%%%%
1009D491Q%%%Q%%%%Q%%%%Q%%%%%Q%%%%QqQ%Q%qQ%%%QQqQqQ%%%Q%%%QqQ%%%%Q%%%%Qq%QQq%
1003D595Q%%%Q%%%Q%q%QQ%%QqQq%Q%Q%%%%J6q%qQQqQ%qQqJ6Q%%%Qq%Q%%%%Q%%%%Q%%Q%%%Q
996D715q%Q%Q%%%%QqQQqQqQ%Q%%QqQ%%QQqJ6m0L2qK4j6q%%QQQ%qQ%qJ6%%%%%Q%%Q%%%Q%%%
990D819QqQ%%Q%%%%%Q%%%Q%%Qq%QQ%%%%Qq%QQqQ%%qQQ%%%QQ%qQ%Qq%QqJ6%%%%%Q%%Q%%%Q%
984D947%%%Q%Qq%Q%%Q%%%%Q%%Q%%Q%qQ%%%Q%%%Q%%%%Q%%Q%%%Q%%%Q%%%Q%Q%%Q%%%%%Q%%%%
977E075Q%%QqQ%%%Q%Q%%%Q%%%Q%%%%Q%%Q%%%Q%%%%Q%%%Q%%Q%%%Q%QqQ%Q%qQ%Q%%%%%Q%Q%%
971E219%%Q%%Q%%Q%%%QqJ6qQ%%Q%%Q%%%QqQ%%Q%%%%Q%Q%%Q%%QqJ6q%Q%%Q%%%Q%%%Q%Q%%%Q
964E371%%%%%Q%Q%%%Q%Q%%%Q%Qq%QQqQ%Q%%Qq%Q%Q%Q%%%Q%%%Q%%Q%%%Q%Q%%%Q%Qq%Q%Q%%%
958E523Q%QqJ6qQ%%QqQJ6qQ%%%%Q%QqQ%%QqQQ%%Q%Q%QqQq%J6%%qqK4K4qj6Q%K4l2K4%Q%%q
952E667J6%%%Q%QqQ%QQqQqJ6%%%%Q%%Q%Q%%%Q%%%QQ%qJ6%%%QqQ%QqJ6%%J6j6%QJ6%%qQQ%%
946E835Q%Qq%Q%Q%%QQ%%%%Q%QQ%qQQ%%%Q%%Q%%Q%Q%%%Q%%Q%%QQ%%%Q%%QQqQQqQ%%Q%%Q%Q%
940F027%Q%%Q%%Q%QQqQ%Q%%%Q%Q%QqQ%Q%%QQ%%%Q%Q%%Q%%Q%Q%%Q%%Q%%QQqQ%Q%%Q%%QQ%%Q
933F235%%Q%QqQQ%%%%J6%%%Q%Q%%Q%Q%Q%%Q%%Q%Q%%%QQ%Q%%%Q%Q%%Q%Q%%Q%QQqQQ%%Q%%Q%
927F443Q%%%Q%Q%Q%%Q%Q%%Q%Q%Q%Q%%Q%%Q%Q%Q%%QQ%Q%%Q%%%QQ%Q%%Q%Q%%Q%QqQQQ%%%%J6
920F675%%%QQ%%Q%Q%%%QQ%QQ%%%Q%QQ%Q%%%J6%%%Q%Q%Q%Q%Q%%QQ%%%QQ%Q%%%QQ%%Q%Q%QQ%
914F915%%QQ%%Q%Q%Q%QQ%%Q%Q%Q%Q%Q%%Q%QQ%%Q%Q%Q%Q%%QQ%%Q%%QQ%Q%Q%%J6%%Q%Q%Q%QQ
907G179%%Q%Q%Q%Q%Q%Q%Q%Q%%Q%Q%Q%Q%J6%%Q%%Q%QQ%%Q%QQ%Q%Q%Q%Q%Q%Q%Q%QQ%%Q%QQ%Q
901G451Q%%Q%Q%Q%%QQ%QQ%%QQ%%QQQqQQQ%Q%%QQQ%%QQ%%%K4qQQ%%QJ6qQQ%%QQQ%%Q%Q%Q%Q
894G739%QQQ%QqJ6%QQ%%QQ%%QQQ%%QQ%QQ%Q%QQ%QQ%Q%Q%QQ%Q%Q%Q%%J6%Q%QQ%%QQQQqQQQ%
888H051J6qQ%J6%%Q%J6%%Q%J6%Q%QQ%QQ%Q%QQ%%QQQ%Q%QQ%QQ%Q%Q%Q%QQ%QQQ%QQ%Q%QQQ%Q
882H379%QQQ%Q%QQQ%Q%Q%QQQ%QQ%QQ%Q%QQ%QQQ%QQ%QQ%QQ%Q%QQQQ%Q%Q%QQQQ%Q%QQQ%QQQ%
875H747QQ%QQ%QQ%QQQ%QQQ%QQQ%Q%Q%QQQQ%QQ%%J6Q%J6%Q%QQ%J6%Q%Q%J6%QQ%QQQ%QQQQ%Q
869I123%J6%Q%J6%Q%J6%QQ%QQQ%J6%%J6%%QJ6Q%QQQ%QQ%J6Q%%QQQQQ%QQ%QJ6%QQQ%QQQQ%Q
863I499Q%QQQQ%QQQQ%J6Q%%QJ6%QQQ%QJ6%Q%J6Q%QQQQQ%QJ6%QQ%QQQQ%QQQQQ%QQQQQQQQ%Q
857I923QQQ%QQQJ6%QQ%J6QQqJ6QQ%QJ6%%J6QQQQQ%QQQQQQ%J6%J6%QQQQ%QQQJ6%QQQQQQQQQ
851A0363%QQQQQQQQQQ%QJ6QQ%QJ6%QQQQQQQQ%J6%J6Q%QQQQJ6%J6qJ6J6Q%J6%QQQQQQQQQQQ
846A0811QQQQQQQQQQQQQQQQ%J6QQQQQQQQQQQQQQQQQQQJ6%J6%QJ6QQQQQQQQQJ6%QJ6QQ%J6Q
840A1315QQQQQQQJ6%J6QQ%J6QQQQQQJ6QQQQQJ6%QJ6%QQQJ6QQQQQJ6QQQQQQQJ6%J6%J6QQJ6
834A1811QQQQJ6QQQQQQQJ6QQQQQQJ6QQQJ6QQQQQJ6QQQQJ6QQQQQJ6%J6QQJ6QQQQQJ6J6%QJ6
829A2339QQQQK4Q%QJ6J6Q%J6QJ6QQQQJ6QQQJ6QQQJ6QQQJ6QQQJ6QJ6QQQQJ6QQJ6QJ6QQQJ6Q
824A2875J6QQQQJ6QJ6QQJ6J6%J6QJ6QQQJ6QJ6%J6J6QQQJ6J6QQQJ6QJ6QQJ6QJ6QQQJ6QQJ6Q
819A3403J6QQJ6J6QQJ6QJ6QQJ6QJ6QJ6J6QQJ6QJ6QJ6QQQJ6J6QJ6QJ6QQJ6QJ6J6QQJ6QJ6QQ
815A3947J6QJ6J6QJ6QJ6QJ6QJ6QQJ6J6J6QQJ6QJ6QJ6J6QJ6J6QQJ6QJ6QK4QQJ6J6QJ6QJ6J6
811A4499QQK4QJ6QQK4QQJ6J6QJ6J6QJ6QJ6J6QJ6QJ6J6QJ6J6QJ6J6J6QJ6QK4QJ6QJ6J6QJ6Q
806A5067J6J6J6J6QJ6QJ6QJ6K4QJ6QJ6J6J6QJ6J6J6J6J6%J6K4QJ6J6QJ6J6J6QJ6J6J6QJ6J6
803A5627J6QJ6J6J6QK4J6QJ6J6J6J6J6QJ6J6QK4QJ6J6QK4J6J6QJ6J6J6J6QJ6K4J6QJ6J6QK4
799A6219J6QK4QK4QJ6L2%J6QQM0%J6K4QJ6K4QJ6J6J6J6J6J6K4QJ6QK4J6J6J6J6J6J6QK4J6
795A6843J6J6J6J6J6J6QK4J6J6J6J6K4QJ6J6J6J6J6K4J6J6J6J6J6J6QK4K4%L2J6J6J6K4QJ6
791A7451J6K4J6J6J6J6J6J6K4J6J6J6J6J6K4J6QK4J6K4J6J6J6K4QJ6K4J6J6K4J6K4QJ6K4J6
788A8083J6K4J6J6K4J6J6J6K4J6J6J6K4J6J6K4J6J6K4J6J6K4J6J6J6K4J6K4J6J6K4J6J6J6
785A8707K4K4J6J6K4J6K4QL2J6J6J6K4J6K4J6K4J6J6K4K4QK4J6K4K4J6J6K4K4J6J6K4J6K4
781A9395K4J6K4J6K4K4J6J6K4K4J6K4J6K4J6K4K4J6J6K4K4J6K4K4J6K4K4J6J6K4K4J6K4K4
778B0099K4J6K4K4J6K4J6K4K4K4J6K4K4K4J6K4K4K4K4J6K4J6K4K4K4J6K4K4K4K4J6K4K4K4
775B0843K4J6K4K4K4K4J6K4J6M0J6J6M0J6K4J6K4K4K4K4K4J6L2J6L2K4J6K4K4K4K4K4K4K4
772B1627K4K4K4K4K4K4K4K4K4K4K4K4K4K4K4K4K4K4K4K4K4K4L2K4K4K4K4K4K4K4L2K4J6L2
768B2459K4K4L2J6L2L2K4J6L2J6M0J6L2K4K4K4K4L2K4K4K4L2K4K4L2K4K4K4K4L2K4L2K4K4
765B3339L2K4L2K4K4K4L2K4L2K4K4M0K4K4K4L2K4K4L2L2K4L2K4K4L2K4L2L2K4L2K4K4L2K4
762B4275L2M0J6L2L2K4L2K4K4M0K4L2K4L2K4L2L2L2K4L2L2K4L2L2K4L2L2L2K4L2L2L2L2K4
759B5275L2L2L2L2L2K4L2L2L2L2L2K4L2L2L2L2L2L2L2L2K4L2L2L2L2L2L2M0K4L2L2L2L2M0
756B6347K4L2M0K4M0L2K4M0K4M0K4M0L2L2L2M0L2L2L2L2M0L2L2L2L2M0L2L2L2L2M0M0K4M0
752B7475M0K4L2L2L2M8L2L2M8K4M0L2L2L2M0L2M0M0L2L2M0M0L2L2M0L2M0M0L2M0L2L2M8L2
749B8683L2M0M0M0K4M0L2M8M0L2M0M0L2M0M0M0M0L2M0L2M0M0M0M0M0L2M0M8L2M0L2M0M8L2
746B9971M0M0M0M0M0M0M0M0M0M0L2M8M0M0M0M0M0M0M8M0M0L2M8M8L2M8M0M0M0M0M8M0M0M8
743C1363M0M0M0M0M8M0M8M0M0M8M0M8M0M0M8M0M8M8L2M8M0M8M0M8M8M0M0M8M8M0M8M0M8M8
739C2843M8M0M8M8M0M8M0N6M0M8M8M8M0M8M8M0N6M0M8M8M8M8M8M8M8M0O4M0M8M8M8M8M8M8
736C4435M8N6M0N6M8M8M8N6M8M8M8M8N6M8M8M8M8N6M8N6M8M8N6M8M8N6M8N6M8N6M8M8N6N6
733C6155M8N6M8N6N6M8N6M8N6N6M8N6N6M8O4N6M8N6N6N6M8O4M8N6N6N6N6N6N6N6N6N6N6N6
730C8003N6N6N6N6O4N6N6N6N6O4M8O4N6O4N6N6O4N6O4M8O4O4N6N6O4N6O4N6O4N6O4O4N6O4
726D0003N6O4O4N6O4O4O4O4O4N6O4N6P2O4O4N6O4O4P2N6O4O4O4O4O4P2O4O4O4O4P2O4O4O4
723D2163O4P2O4P2O4P2O4O4P2O4P2O4O4P2P2O4P2P2O4P2P2O4P2P2P2O4P2P2P2P2P2O4Q0O4
720D4507Q0O4Q0P2P2P2P2P2Q0O4Q0P2P2Q0P2Q0P2P2P2Q0P2Q0Q0P2P2Q0Q0Q0P2Q0Q0P2Q0Q0
717D7067Q0Q0P2Q0Q0Q0Q0Q0Q0Q0P2Q8P2Q8Q0Q0Q0Q8Q0Q0Q8Q0Q0Q8Q0Q0Q8Q0Q8Q0Q8Q8Q8Q0
713D9843Q8Q0Q8Q8Q8Q8Q8Q0Q8Q8Q8R6Q0Q8Q8R6Q8Q8Q8R6Q8Q8R6Q8Q8Q8R6R6Q8R6Q8R6R6Q8
710E2883R6R6Q8R6Q8J04Q8R6J04Q8J04Q8R6J04R6R6R6J04Q8J04J04Q8J04J04R6J04R6J04J04
707E5707R6J04R6J04J04R6J12R6J12R6J12R6J12R6J04J12J04J04J12J04J12J04J04J12J12
705E8323J04J12J04J12J04J20J04J12J12J12J12J12J12J12J12J20J04J12J28J12J12J12J12
703F0891J20J20J12J20J20J12J20J20J20J20J20J20J12J20J20J28J20J20J28J12J28J20J20
701F3643J28J20J28J20J36J28J20J28J28J28J20J28J36J28J28J28J36J28J28J28J36J28J28
698F6587J44J28J36J36J28J44J36J28J36J36J44J28J44J36J36J44J36J44J36J44J44J36J44
696F9755J44J36J44J52J44J36J52J44J44J44J44J52J52J44J52J44J60J44J52J52J52J52J52
694G3147J52J52J52J60J52J52J52J68J52J60J52J68J52J60J60J60J60J60J68J60J68J60J68
692G6795J60J60J76J60J68J68J68J68J68J68J76J60J84J68J76J68J76J76J76J68J76J84J76
690H0723J68J84J76J84J76J84J84J76J84J84J84J84J84J84J92J84J92J84J84J92J92J92J92
687H4963J92J92J92J92J92K00J92K00K00J92J92K08K00K00K08K00K00K08K00K00K16K00K08
685H9547K08K08K08K08K16K08K16K16K08K16K16K08K24K16K16K24K16K24K24K16K24K32K16
683I4515K32K24K24K32K24K32K32K32K32K32K32K32K40K40K32K40K40K48K40K40K40K40K48
681I9923K40K56K40K56K40K48K56K48K56K56K56K56K56K56K56K64K56K64K56K72K64K64K64
679A05803K72K64K72K72K72K72K72K80K72K72K80K80K80K80K80K88K88K80K88K96K88K88K88
676A12227K96K88K96K96L04K96K96K96L12K96L04L12L12L04L04L12L12L12L12L20L12L20L20
674A19259L20L20L20L28L28L28L28L36L20L36L36L36L36L36L44L36L44L44L44L44L52L52L52
672A26979L52L44L68L52L60L60L60L68L60L68L68L68L76L68L76L76L76L76L84L84L84L84L84
670A35475L92L92L92L92L92M00M00M00M08M00M08M08M08M08M16M16M16M24M16M24M24M24M32
668A44867M24M40M32M32M40M40M40M48M48M48M48M56M48M56M56M64M64M64M72M64M72M72M80
665A55275M80M72M88M80M88M96M88M96M96M96M96N12N04N04N12N12N12N28N20N20N20N28N28
663A66851N36N36N36N44N44N44N52N44N60N60N52N68N68N60N76N68N76N84N76N84N92N84O00
661A79795N92O08O00O08O08O08O16O24O16O16O32O32O32O40O40O48O40O56O48O64O56O64O64
659A94307O72O80O80O72O88O88O96O96O96P04P12P04P20P20P20P28P28P28P52P36P44P52P60
657B10683P52P60P68P76P76P76P84P92P84Q00Q00Q08Q08Q16Q16Q24Q24Q32Q40Q48Q48Q56Q56
655B29227Q56Q64Q72Q80Q80Q96Q80Q96R04R12R04R20R20R36R28R44R44R44R68R52R76R68R84
652B50355R84R92R92J008J000J016J016J040J024J040J048J048J064J056J080J080J080J088
651B69011J096J112J112J112J128J136J136J152J152J160J168J176J184J192J200J208J208
649B88643J224J232J232J248J256J264J264J280J280J296J304J312J328J328J336J344J360
647C10531J368J368J384J392J408J408J424J424J440J448J464J472J472J496J504J504J520
646C35027J528J544J552J568J560J608J592J608J616J632J640J656J664J680J696J696J720
644C62587J728J736J752J768J776J792J800J816J832J848J856J872J880J896J920J928J944
642C93731J960J968J984K008K016K032K040K072K072K096K112K136K136K168K184K192K216
641D29123K224K256K264K280K304K320K344K360K376K400K416K432K456K472K496K528K528
639D69579K552K592K600K624K640K672K688K720K728K760K784K808K832K856K880K904K928
638E16147K952K984L008L032L056L088L120L144L168L200L232L248L296L312L344L376L408
636E70115L440L472L504L536L568L600L640L672L704L744L768L816L848L880L928L960L992
634F33187M040M080M112M160M200M240M280M328M368M408M464M504M544M592M648M680M744
633G07579M784M840M888M936M984N040N096N152N200N264N312N376N432N488N552N616N672
631G96211N736N800N864N928N992O072O128O200O280O336O424O488O568O640O736O792O872
630I03067O968P048P128P208P304P392P472P576P664P760P848P960Q048Q152Q256Q360Q464
628A033675Q568Q696Q792Q912R024R144R264R384R520R640R768R896J0040J0176J0312J0448
626A185259J0600J0744J0896J1048J1208J1360J1520J1696J1856J2032J2200J2392J2568J2752
625A348131J2944J3136J3336J3536J3744J3960J4176J4384J4616J4848J5072J5320J5568J5808
624A548579J6080J6320J6600J6872J7160J7432J7736J8032J8336J8648J8976J9304J9640J9984
622A799699K0344K0696K1080K1456K1840K2248K2656K3088K3504K3952K4416K4872K5360K5848
621B121059K6360K6879K7408K7960K8528K9120K9696L0328L0952L1608L2272L2968L3680L4416
620B543234L5168L5944L6752L7584L8432L9320M0224M1168M2144M3152M4184M5256M6376M7520
618C116458M8712M9944N1208N2552N3904N5336N6808N8336N9936O1576O3304O5072O6936O8872
617C928954P0880P2968P5160P7432P9808Q2280Q4864Q7584R0400R3360R6456R9704J03104
616E042954J06664J10416J14336J18472J22816J27392J32216J37296J42648J48320J54312
615F457842J60624J67344J74448J81992J90000J98520K07584K17247K27561K38575K50345
614H672082K62976K76504K91032L06664L23495L41673L61304L82551M05609M30648M57920
613A2512458M87656N20167N55792N94896O37960O85488P38056P96430Q61361R33887J015113
612B0339264J106400J209415J326073J458744J610296J784214J984808K217385K488599K806775
611C8331973L182503L629361M164800M811693N600218O570581P777261R294812J1226723J3718795
610A08308720J6978908K1307479K7142422L5123516M6173126O1559494Q2795535J10894032
609E10283232J43748139J69850071J61472155Q8630543l2504937j33403578j70351435j57458158
608E80266032j26183273r5312050p0737241n2608151l9544063l0135153k3292956j8246712
607A24206433j4466175j1587998r361871p613396o219323n091427m165489l394127k741865
607E9564762k181686j692698j258471q65822n03935j63673J62856M82816Q02840J129464J469238
605E6945691J829255K217130K641630L112906L643009M246732M942161N752080O705424P839324
605I9875342R202279J0858138J2892318J5420331J8600713K2654145K7891826L4759058M3900256
604B96054406N6256541P3202724R6714997J29481835J74599349K33709715L00704310L47248621
603A707972498L09610558J29900591j29913582l09623682l47262006l00717630k33723231
602H26243516j74613456j29496009r6729728p3217913n6272354m3916759l4776281k7909904
601A89311112k2673222j8620890j5441754j2915119j0882539r228434p867474o735820n785010
601G9160850m977945m285765l685754l159840k693368k274391j892849j540176j208862q92154
600E2549746n83711k77400L3025L54079O93001J057927J458497J906271K415591L004465L696071
599F6307562M520621N518097O742348Q266897J0193450J2665109J5885902K0150269K5887437
598A76137692L3724243M4564396N9650377Q0464103J07998016J40188199J65762258J57559796
597I66049080Q6209810l2448508j31285395j67481370j54856787j24228701r3997980o9937000
596B78023149n2192054l9410848l0212530k3530875j8611368j4934558j2144848r997393q321603
595F8667072o997156n938049n081880m382789l806698l327881k926764k588265k300680k054792
594B9262118j843328j660446j501497j362640j240839j133480j038521r54200q79039q11831
593A6836297p51535o97289o48328o04024n63824n27263m93928m63472m35568m09976l86432
592A0854658l64752l44736l26232l09096k93191k78432k64681k51888k39929k28775k18328
591G734618k08536j99368j90752j82656j75032j67848j61088j54696j48664j42952j37552
590E865474j32424j27576j22968j18600j14440j10480j06728j03144r9720r6464r3352r0376
589D549202q7552q4832q2232p9752p7360p5088p2904p0792o8784o6848o4992o3200o1480n9832
588C533554n8240n6712n5232n3808n2440n1112m9832m8616m7408m6264m5152m4080m3048m2040
587B839570m1064m0128l9208l8336l7480l6656l5848l5072l4320l3584l2872l2184l1520l0856
585B340442l0232k9616k9024k8440k7880k7328k6791k6281k5775k5272k4800k4336k3880k3432
584A967355k3008k2576k2184k1776k1384k1008k0632k0272j9920j9576j9240j8904j8600j8272
583A680003j7976j7664j7384j7096j6816j6536j6280j6016j5760j5512j5272j5024j4792j4568
581A453307j4344j4128j3904j3704j3488j3288j3096j2904j2712j2520j2344j2160j2000j1808
580A270907j1656j1488j1328j1168j1008j0856j0704j0568j0416j0280j0136r992r880r736
578A121691r608r480r352r240r112r000q872q776q656q544q432q344q224q120q024p936p824
577I74147p736p632p552p448p368p280p192p104p024o944o856o768o704o624o552o464o400
575H54499o320o256o184o112o048n976n912n840n792n712n656n592n536n472n416n360n296
574G56019n240n192n136n080n024m976m920m872m824m768m720m680m624m576m544m488m448
572F73907m392m360m304m280m224m184m144m112m056m032l984l952l912l872l840l792l768
570F04699l728l696l664l624l592l552l528l496l464l424l400l368l344l296l280l256l216
569E45771l184l168l128l112l080l056l024k992k976k944k920k904k872k848k816k808k768
567D95171k752k728k712k680k664k632k616k600k568k552k536k512k488k464k456k424k408
566D51379k392k368k360k336k312k296k272k272k240k224k208k192k168k160k144k120k104
564D13211k096k072k056k048k024k016j992j976j976j952j944j912j912j888j904j856j848
562C79739j832j848j792j800j800j768j760j752j736j720j712j696j680j680j664j648j640
561C50211j624j616j608j592j584j568j560j552j544j520j520j504j504j480j472j472j456
559C24035j448j440j424j416j408j400j392j384j368j360j352j344j336j328j312j312j304
557C00707j288j280j280j272j256j256j232j248j224j208j232j184j192j200j176j176j160
556B79843j168j152j144j136j128j128j112j104j104j096j096j088j072j056j072j064j048
554B61075j040j040j024j040j008j008j008j008r84r92r76r84r76r60r60r52r52r44r36r28
552B41355r28r28r12r12q96r04q96q88q88q88q64q72q64q56q64q56q32q48q32q24q32q32q08
550B21331q16q16q00p92q00p92p84p84p76p76p68p68p60p52p60p44p44p44p36p28p36p28p20
548B03707p12p20p12p04p04o96o88o96o88o80o80o80o80o64o64o64o56o56o56o48o48o40o40
546A88131o40o24o40o16o32o16o16o16o08o08o08o00n92o08n84n92n92n76n84n76n76n76n68
543A74283n68n60n68n52n60n52n52n44n52n36n36n44n36n36n20n28n28n28n12n20n12n12n04
541A61923n12n04n04m96n04m88m96m96m88m80m88m80m80m72m80m72m72m72m64m64m56m64m56
539A50835m56m56m56m48m40m48m48m40m40m32m40m32m32m32m32m24m24m16m24m16m16m16m16
537A40851m08m08m08m08m08l92m08l92m00m00l92l92l92l84l92l84l76l84l76l84l76l76l76
535A31835l68l76l68l68l60l68l60l60l60l60l52l60l52l52l52l44l52l52l44l36l44l44l36
533A23667l36l36l36l36l28l36l28l28l28l20l36l20l20l20l20l12l20l20l12l12l12l04l12
530A16235l04l12l04l04l04l04l04k96k96k96k96k96k88k96k88k88k88k88k88k88k88k80k80
528A09459k80k80k80k80k80k72k72k72k72k72k72k72k64k72k64k64k64k64k64k56k64k64k56
526A03259k56k56k56k56k48k56k56k48k48k48k48k48k48k48k40k40k48k40k40k40k40k40k32
524I7579k48k24k40k32k32k32k32k32k24k32k24k24k32k24k32k16k24k24k16k24k24k16k16
522I2355k24k16k16k16k08k16k08k16k16k08k08k08k08k08k08k08k00k08k08k00k08k00k00
519H7539k00k00k00k00k00j92j92k00k00j92j92j92j92j92j92j84k00j84j92j92j84j84j92
517H3091j76j92j92j76j84j84j76j84j76j84j84j68j84j76j76j84j68j76j76j76j76j68j68
515G8987j76j68j68j76j68j68j68j68j76j60j68j60j68j60j68j68j68j52j68j60j60j60j60
513G5171j60j60j60j52j60j52j60j60j52j52j52j60j52j44j68j44j52j60j36j60j52j44j52
511G1627j44j52j44j52j44j44j44j44j44j44j52j36j44j44j44j44j36j44j36j36j44j44j36
508F8331j36j36j44j36j36j28j44j36j28j36j36j28j36j36j28j36j28j36j28j28j36j28j28
506F5259j28j28j28j20j44j12j28j28j20j28j36j20j36j12j20j28j20j28j20j12j28j20j20
504F2395j28j12j20j20j12j28j12j20j20j20j20j12j20j12j12j20j12j20j12j12j12j20j12
502E9707j12j12j12j12j12j12j04j20j04j12j04j12j12j04j04j12j04j12j12j04j04j12j04
500E7195j04j04j12q8j12j04r6j20r6j04j04r6j04j04r6j04j04r6j04j04r6r6j04r6r6j04
497E4547r6r6j04r6r6r6r6r6r6j04q8r6r6r6r6r6q8j04q8r6q8q8r6r6r6q0r6r6q8q8q8r6q8
494E1443r6q8q8q8q8q8q8q8q8q8q8q8r6q8q0q0q8q8q8q8q0q8q0q8q0q8q0r6q0q0q0q8q0q0
491D8515q8p2q8q8q0q0q0q0q0q0q8p2q0q0q0q0q0p2q0q8p2q0p2q0q0p2q0q0p2q0q0p2p2q0
488D5827p2p2q0p2q0p2p2p2q0q0p2p2p2p2p2p2p2p2p2p2p2p2p2p2p2p2p2o4q0o4p2o4q0o4
484D3363p2o4p2p2o4p2o4p2o4p2p2n6p2p2o4p2o4o4p2o4o4o4p2o4o4o4p2o4o4o4o4o4o4o4
481D1091o4o4n6q0n6n6p2o4o4o4n6o4n6p2n6o4o4n6o4n6p2n6n6o4o4n6o4n6o4n6o4n6n6o4
478C8995n6n6o4o4n6n6o4m8o4n6n6n6o4n6n6n6o4n6n6n6n6n6n6n6n6n6n6n6n6n6n6m8n6n6
475C7059n6n6m8o4m8n6n6m8n6n6n6m8n6m8n6n6n6m8m8n6n6n6m8m8n6m8n6m8m8n6m8n6m8m8
471C5267n6n6m8m8n6m8m8m8n6m0n6m8m8m8n6m0m8n6m8m8m8m8m8m8m8m8m8m8n6m0m8n6m0n6
468C3587m0m8m8m0m8m8m8m8m8m8m0m8m8m0m8m8m8m0m8m8m8m0m8m0m8m0m8m0n6m0m8m8l2m8
465C2043m0m8m0m0n6m0m0m0m8m0m8m0m0m8m0m0m8m0m0m0m0m8m8m0m0m0m0m8l2n6l2m0m0m0
462C0603m8m0m0m0m0m0m0m0m0m0m0m0m0m0m0m0m0m8l2m0m0m0l2m8l2m8l2m0l2m8m0m0l2m0
458B9251l2m8l2m0l2m0m0m0m0m0l2m0l2m0m0k4m8m0m0l2l2m8k4m0m0m8j6m8l2m0l2l2m0l2
455B7995m0l2m0l2m0l2m0l2l2m0l2m0l2m0l2l2l2m0l2l2m0l2l2m0l2l2l2l2m0l2l2m0l2l2
452B6811l2l2m0l2l2l2l2l2m0k4m0l2k4m0l2l2m0k4l2m0k4l2l2l2l2l2l2l2l2l2l2l2l2l2
449B5707l2l2l2l2l2l2l2l2k4l2l2l2l2l2l2k4l2l2l2l2k4l2l2l2k4l2l2k4l2l2l2k4l2l2
445B4667l2k4l2l2l2k4l2k4l2l2k4k4m0k4j6m0l2k4l2k4l2l2k4l2k4l2k4l2k4l2l2k4l2k4
442B3691l2k4k4l2k4l2k4k4l2k4l2l2k4k4k4l2k4l2k4l2k4k4k4l2j6l2k4l2k4k4l2k4k4l2
439B2771k4k4k4k4l2k4k4k4l2l2j6l2k4k4k4l2k4k4k4k4l2k4k4k4k4k4k4l2k4k4k4k4k4k4
436B1907k4k4k4k4k4k4k4l2k4k4k4k4k4k4k4k4k4k4k4k4j6k4k4k4l2j6k4k4k4k4k4k4k4k4
432B1091k4j6l2j6k4k4k4l2j6k4k4k4j6l2j6k4k4k4k4j6k4k4k4k4k4j6k4k4k4k4j6k4k4j6
429B0323k4k4j6l2j6k4k4j6k4k4j6k4k4j6k4k4k4j6k4j6k4j6k4k4k4j6k4j6k4k4k4j6k4j6
426A9595j6l2j6j6k4k4j6k4k4j6k4j6k4k4j6k4j6k4j6k4j6k4j6k4k4j6j6k4j6k4j6k4j6k4
423A8899j6k4j6k4j6k4j6k4j6j6k4j6j6j6k4j6k4j6k4j6k4j6k4qk4j6k4j6j6j6k4j6k4k4q
419A8235k4k4qk4j6k4j6k4j6j6k4qk4j6k4j6j6j6k4j6j6j6j6k4j6j6k4j6j6j6j6k4j6j6k4
416A7587j6qk4j6k4j6qk4j6j6j6k4j6j6j6j6j6j6k4j6j6j6k4qj6k4qj6l2%l2%k4j6k4j6j6
412A6955j6j6j6j6j6j6j6j6j6k4j6j6j6j6j6j6j6j6j6k4qj6j6k4j6j6j6qk4qj6k4qj6j6j6
409A6371j6j6j6j6j6j6j6j6j6ql2qk4qqk4j6%l2k4%j6j6j6k4qj6qk4qk4qj6qj6k4qk4qk4q
405A5739j6j6j6j6qj6j6j6j6qk4qj6k4qj6j6qj6j6j6j6qj6j6j6j6qj6j6j6j6qqk4qj6j6j6
401A5171j6qk4qj6qj6j6j6qj6j6qj6j6j6j6qqj6j6j6j6j6j6qj6j6qqj6j6j6j6qj6j6j6qj6
398A4619j6qqk4qj6qqj6j6j6qj6j6qj6j6qj6qj6j6j6qj6qj6j6qj6qj6qj6qj6qj6j6j6qj6q
393A4067j6qj6qj6j6qj6qqj6j6qj6j6qj6qj6qj6j6qqj6qj6qj6j6qqj6j6qqqj6j6j6qqqk4q
389A3515qqj6j6qj6qj6qj6qqj6qj6j6qqj6qj6j6%qj6j6qj6qj6qqj6qqj6qj6qj6qqqj6qj6q
385A2979j6qj6qqj6qqj6qqj6qj6qqj6qqj6qj6qqqj6qj6qqqj6qqj6j6%j6j6%j6qqj6qj6qqq
380A2451j6qqj6qqqj6qqqj6qqj6qqj6qqqj6qj6%qj6qj6qqj6%j6qj6qqqqj6qqqqqj6qqj6qq
375A1923qqqj6qqj6qqqqqj6qqqj6qqqj6%qj6qqj6qqqqqqj6qqqqj6qqqqqqj6j6%%j6qqj6qq
370A1403qqqj6qqqqqqqj6qqqqqj6%qj6%j6%j6qj6%%qj6j6qq%j6qqqqj6qqqqqqqqqqk4Qqj6
365A0915qq%j6qqqqqqqqj6%qj6qqqqqqqqqq%j6qqqqqqqqqqj6%qqqqqqqqqqqj6qq%qj6q%j6
359A0419qq%q%k4Qk4%qj6%qqqqqqqqq%j6qqqqq%qqj6q%qqqj6%qqqqqqq%j6qq%j6%j6%qqj6
353I971%j6%%j6qq%qj6%qqqj6%q%j6%qqqqqqq%j6qq%qqqqqqqq%qqqqqq%qj6%qqqqq%j6%qq
348I539qqq%qq%j6%qj6q%qqq%qqqqqq%qqqqqq%qqqqqqq%qqqq%qqq%qqqqqqq%qqq%qqqq%qq
341I091q%j6%qq%qqqqq%j6%%j6qq%%j6%qqq%qqqq%qqqq%qqq%qqq%qqqq%qqqq%qqq%%j6%qq
335H691%j6%q%qqqqq%%qj6%%qqqq%qqqq%qq%qq%qqq%q%qqqqq%qq%qqq%q%qqqq%qq%qq%qqq
329H299%q%qq%j6%%qqq%qq%qqq%qqq%q%qq%qq%qq%qq%j6%q%qq%qq%q%qq%qqq%q%qqqq%%j6
322G939%q%qq%qq%q%qq%qq%q%qq%qq%qq%%qqq%qq%q%qq%qq%qqq%%qq%qq%q%qq%j6Qqqq%%q
316G603qqq%q%%qq%qq%qq%%qq%qq%q%q%qq%q%qqq%%qq%qq%%qq%q%q%q%qq%qq%%j6%%%qqj6
309G275%Qk4Qq%q%qqq%%qq%q%q%%qq%qq%%qqq%q%%qq%q%q%q%q%q%qq%qq%qQqq%qq%q%q%j6
303F979%%%qqq%%q%q%qq%q%%qq%q%q%qqQqq%qq%%q%q%q%q%q%q%qq%q%q%q%q%%qq%q%q%q%q
296F699%qq%q%q%%q%q%q%q%q%%qq%q%q%%qq%%q%q%q%%qq%qq%%q%%qqqQj6%%q%%j6%%q%%qq
290F435%%q%q%q%q%q%%qq%%%qq%%qq%%q%q%qq%%q%q%%q%q%q%q%%j6Qqq%%%qq%%qq%%q%q%q
284F187%%q%q%qq%%%qq%%q%q%q%%q%%qq%%%j6Qqq%%q%q%q%%qq%%%q%q%q%%qq%%%q%q%q%%q
277E955q%%q%q%q%%q%%q%%qq%q%%%q%%q%q%%q%q%%qq%q%Qj6%%q%q%%q%q%%qqQq%qq%%q%%q
271E731%q%%q%qQq%q%%q%qqQq%q%qQj6%%%q%q%q%%%q%q%%j6%%q%%%q%%%qq%%%qq%%q%%qq%
264E523%%q%%q%%q%%q%q%%%q%q%q%%%q%q%qQ%j6%%q%%q%q%%qQqq%%q%%q%q%%%q%q%q%%q%%
258E331%q%q%%q%%%q%%qq%%q%%%%qq%%%qq%%%%q%q%%%q%%q%q%q%%%q%%q%qQq%q%%%q%%q%%
251E147qq%%%q%%q%qQq%%q%q%%q%%%qqQqQqq%%%qqQj6Qqq%%%%q%%q%qQq%qQq%q%%%qq%qQq
245D963%%q%%%q%%q%q%%qQqq%QqqQqq%%q%%%q%q%%q%%%q%%%q%%%q%q%%%q%%q%%q%%%q%%q%
238D795%q%%q%%%q%%q%%qQq%q%%%q%%q%%q%%q%%qQqq%Qq%%%q%q%%%qQj6Qq%%q%%q%qQq%%%
232D643q%q%qQq%q%%%%%q%%q%%q%%%q%%%q%%%q%q%%%%q%%%q%%qQj6%%%%q%%q%%%q%%%q%q%
225D483%%%q%%q%%%q%%%%q%%q%%%%q%q%Qq%%q%qQq%%%q%%q%%%q%%q%%q%q%%Qq%q%%qQq%%q
219D339%q%%QqqqQ%%j6Qq%%%%%q%%%q%%q%%%%q%q%%%%%q%%%qqQq%%%%%qq%%%%qQqqqJ6%l2
212D187K4qJ6%n6L2J6j6%qQ%%j6%%%%q%%q%%qQq%%qQq%%%q%%%q%q%%%%%%q%%q%%%qQq%q%%
206D091%%%q%%Qj6Qq%%q%qQq%qQ%q%q%%qQq%%%qQqqQ%%q%q%%q%%%%%q%%%q%%%q%%%%qQq%%
200C971%q%%q%%%%%q%%q%%q%Qq%qQq%qQq%Qj6%Qq%qQq%%q%%%qQ%q%%%%q%q%%%%%q%%q%%%%
193C851%q%%%%%q%%qQq%%q%%%%q%%%qQ%q%qQq%%q%%%qQ%qQq%q%%%%q%%qQq%q%%%%%q%%%qQ
187C739%q%%%%%q%%q%%%%q%%q%%Qq%%qQq%%%q%%%q%%%%%q%%%%qQq%qQq%%%%q%%%%q%%%q%Q
180C635q%%%q%%%%q%qQqQq%%q%%qJ6qj6J6q%%q%%%qQ%q%%%q%%%%%%q%qQq%qQ%%qQj6Qq%%%
174C531%%%q%%qQq%%Qq%q%%qJ6j6Qj6%K4qk4QQqq%%%%q%Qq%%qQq%q%%Qq%q%qQ%%q%%%qQq%
168C435%%%q%Qq%%%qQqQj6J6l2J6Qk4K4j6qQ%qQq%Qj6%J6j6%%q%Qq%%%q%%%%%qQq%q%%%%%
162C355q%Qq%%%%q%%%%%%q%%%qQq%q%%Qq%%%%q%%%%%%%q%qQq%%%%qQqqQqQq%%qQq%%%%%q%
156C259%%%%qQq%%%%%q%%%%qQq%q%Q%%q%%%q%%%%%q%%%%qQq%%%%q%%%q%Qq%%%%%q%%%%%%q
149C171%%%%%q%%qQq%%%%%%q%Qq%%qQq%%%%q%%%%%%%q%%%%qQq%%%%%q%%%%%q%%%%%q%%%%%
143C091%%q%%qQq%Qq%%%%%q%%%%%q%%%%%%qQq%%q%%%%%q%Qq%%%%%%%q%%%%%%q%%%%%q%%%%
136C011%%q%%%qQ%qQq%%%%qQq%%%%%%%q%%qQ%q%%q%Q%q%%%%%q%%%%%q%%%%%%q%%%%qQ%%q%
129B931%%%qQq%%%%%%q%%%%%%%%q%%%%qQq%qQqQq%%%q%%%%%%%%%q%%%%qQq%%qJ6qq%%QqQj6
123B851QqQq%%%%%%q%%Qq%%%q%%Qq%Qqq%%qQq%%%%%%qQ%q%%%%q%Qq%%%%qJ6q%%qqQ%%%q%%
116B787%%qQ%%q%Qq%%%%%%q%qJ6j6%Qqj6J6q%%%%qQq%Q%q%%%%qQ%qQq%%%%%q%%%%%q%Qq%%
110B723%%%qQq%%%%%qQ%%q%%qQq%QqQq%qQq%Qq%%%%%qQq%%qQ%%q%%%%%%qQq%%%%qQq%%%%%
104B659%%q%Qq%%qQq%%%Qq%%%%%%q%%%%%%q%%%%%%%%qQq%%%%%q%%%%qQq%QqQq%%%q%%%%%%
97B595%q%%%%%%qQ%%q%Qq%qQq%%%%%%%qQq%%%%%%q%%Q%q%%%q%%QqQq%%%qQq%Qq%qQq%%%Qq
90B531%%%qQq%%%%q%Q%qQqQq%%%q%%%%%%%%%%%%q%%%%%q%%%%%%%%%q%%%Qq%%%%%%q%%%qQ%
84B475%%q%%%%%%%q%%%%%%%%qQq%%%%%%%%%q%%%%%%%%%q%%%%%%%%%q%%%%q%%Q%q%%%%%%%%
77B419q%%%%%%q%Q%%%q%%%%%qQ%q%%%qQqQ%q%%%%%qQ%q%%%%%qQ%%%q%%%%%%qQqQq%%%%%%%
70B363%q%%%%%%%%%%q%Qq%%Qj6%%QqQqQq%%%%q%%%%%%qQ%qQq%%%qQqQqQ%q%%%%%%%%q%%%%
64B307%%%qQ%qQq%%%%%q%%%%%%%%%qQ%q%%%%%%q%Qq%%%Qq%%%q%%%%%%%%qQ%%qQ%q%%%%%%%
57B259%q%%%%%%%%q%%%%%%q%Q%q%%%%%%%%%q%%%Qq%%%qQ%%%qQq%%%%%%%q%Qq%%%%%%%%%q%
50B203%%%%%%%q%%%%%%%qQ%%q%Qq%%%%%%Qqq%%%%%%%%%%q%%%%%%%%%%%%qQq%%%%%%qQ%q%%
44B155%%%q%%Q%qQ%q%%%%%%%%q%%Q%%qqQ%%q%%%%%%%%%%q%QqQq%%%%%qQ%q%%%%%%%%%%q%%
37B107Qq%%%%%%%%%%%q%%%%%%%%qQ%q%Qq%%%%%%%q%%%%%%%%%%qQq%%%%%%%%%q%%%%%%%%%%
30B067%%%q%%%%%%%%%%qQqQ%%q%%QqqQ%%%q%%%%%%qQ%%qQq%%Qq%%%q%Q%%q%%%%Qq%%%%qQq
24B019%%%%%%%Qj6J6q%%%j6Q%%%%%%%qQq%%%%%%%%%%%qQq%Qq%%%%%%%%qQq%Qq%%%%%q%%Q%
17A987qqJ6%q%J6qq%%%j6Q%Qq%Qq%%q%Q%%q%Qq%%%%%%qQq%Q%q%%%%%%%%%%%qQq%%qQ%%%q%
11A939QQq%%%%%qqQ%%%qQqQq%%%%%%%%%q%Q%q%%%%%%%%%%qQq%%Qq%%%%%%%%%%%q%Qq%%%%%
4A907%%%qQqQq%Qq%%%%qQ%%%q%%%%%%%qQ%q%Qq%%%%%%%%%
0A883
##$OBSERVED MULTIPLETS=	(I, X, Y, Hs, Vs, An, H, C, N, (J))
$$ I: Multiplet Index
$$ X: Strt Coordinate
$$ Y: End Coordinate
$$ Hs: Horizontal Chemical Shift
$$ An: Normalised Integral Area
$$ H: Hydrogens
$$ C: Category
$$ N: Name
$$ (J): Coupling Constants
(1, 3.427455991912449651, 3.4985516511040697374, 3.462908453480568749, 4.0179909535485611727, 4, q, A, 5.81744 5.81744 5.81738)
(2, 1.1758168581327070878, 1.2350868818906681756, 1.2054518700116876317, 6, 6, t, B, 5.82 5.82)
##$OBSERVED MULTIPLETS AREAS=	
(1, 2.0469221823554102357)
(2, 3.0566353274851962851)
##$OBSERVED MULTIPLETS PEAKS=	(I, X, Y)
$$ I: Multiplet Peak Index
$$ X: Peak x Position
$$ Y: Peak Intensity
(1, 3.4803608025479846333, 0.019646981731057167053)
(1, 3.4687259031697075251, 0.059530377388000488281)
(1, 3.4570910037914299728, 0.06075901910662651062)
(1, 3.4454561044131528647, 0.020876314491033554077)
(2, 1.217086769389964962, 0.060975451022386550903)
(2, 1.2054518700116876317, 0.12192338705062866211)
(2, 1.1938169706334103015, 0.059741999953985214233)
##$PREDICTED PEAKS=	(X Y T A)
(1.205411601447040848,  , 0.10000000000000000555, <1-a>)
(1.205411601447040848,  , 0.10000000000000000555, <1-b>)
(1.205411601447040848,  , 0.10000000000000000555, <1-c>)
(3.4628980228564292254,  , 0.10000000000000000555, <2-a>)
(3.4628980228564292254,  , 0.10000000000000000555, <2-b>)
(3.4628980228564292254,  , 0.10000000000000000555, <4-a>)
(3.4628980228564292254,  , 0.10000000000000000555, <4-b>)
(1.205411601447040848,  , 0.10000000000000000555, <5-a>)
(1.205411601447040848,  , 0.10000000000000000555, <5-b>)
(1.205411601447040848,  , 0.10000000000000000555, <5-c>)
##$PREDICTEDCOUPLINGCONSTANTS=	J(A,B)	$$ (Hz)
7.16(1-a, 1-b)
7.16(1-a, 1-c)
5.83(1-a, 2-a)
5.83(1-a, 2-b)
7.16(1-b, 1-a)
7.16(1-b, 1-c)
5.83(1-b, 2-a)
5.83(1-b, 2-b)
7.16(1-c, 1-a)
7.16(1-c, 1-b)
5.83(1-c, 2-a)
5.83(1-c, 2-b)
5.83(2-a, 1-a)
5.83(2-a, 1-b)
5.83(2-a, 1-c)
11.21(2-a, 2-b)
5.83(2-b, 1-a)
5.83(2-b, 1-b)
5.83(2-b, 1-c)
11.21(2-b, 2-a)
11.21(4-a, 4-b)
5.83(4-a, 5-a)
5.83(4-a, 5-b)
5.83(4-a, 5-c)
11.21(4-b, 4-a)
5.83(4-b, 5-a)
5.83(4-b, 5-b)
5.83(4-b, 5-c)
5.83(5-a, 4-a)
5.83(5-a, 4-b)
7.16(5-a, 5-b)
7.16(5-a, 5-c)
5.83(5-b, 4-a)
5.83(5-b, 4-b)
7.16(5-b, 5-a)
7.16(5-b, 5-c)
5.83(5-c, 4-a)
5.83(5-c, 4-b)
7.16(5-c, 5-a)
7.16(5-c, 5-b)
##END=		$$ NMR SPECTRUM
##TITLE=	Predicted 1H NMR Spectrum
##JCAMP-DX=	6.0	$$ MestReNova 17.0.0-41178
##DATA TYPE=	NMR PEAK TABLE
##DATA CLASS=	PEAK TABLE
##BLOCK_ID=	3
##ORIGIN=	Mestrelab Research S.L.
##OWNER=	ctheodore
##CROSS REFERENCE=	NMR SPECTRUM: BLOCK_ID=2                                     
##.OBSERVE FREQUENCY=	500
##.OBSERVE NUCLEUS=	^1H
##NPOINTS=	7
##FIRSTX=	1.1938169706334103015
##LASTX=	3.4803608025479846333
##XFACTOR=	1
##YFACTOR=	1
##FIRSTY=	0.059741999953985214233
##XUNITS=	PPM
##YUNITS=	ARBITRARY UNITS
##PEAK TABLE=	(XYW..XYW)
1.1938169706334103015,0.059741999953985214233,0.0015508856240624010418
1.2054518700116876317,0.12192338705062866211,0.0015084473345253616213
1.217086769389964962,0.060975451022386550903,0.0015512478311285567752
3.4454561044131528647,0.020876314491033554077,0.0015249571054634738533
3.4570910037914299728,0.06075901910662651062,0.0015358094490182537441
3.4687259031697075251,0.059530377388000488281,0.0015528968369439898143
3.4803608025479846333,0.019646981731057167053,0.0015756101004139229111
##$MNOVA/PEAK_DATA_TABLE=	(T,F,A,ST,SP,APT,APC)
$$ Complementary to PEAK TABLE
$$ T: Type
$$ F: Flags
$$ A: Annotation
$$ ST: Shape Type
$$ SP: Shape Parameter
$$ APT: Attached Peaks Type
$$ APC: Attached Peaks Count
Compound,None,,0,0,0,0
Compound,None,,0,0,0,0
Compound,None,,0,0,0,0
Compound,None,,0,0,0,0
Compound,None,,0,0,0,0
Compound,None,,0,0,0,0
Compound,None,,0,0,0,0
##END=		$$ NMR PEAK TABLE
##END=		$$ LINK
