##TITLE=	cyclohexane 1h
##JCAMP-DX=	6.0	$$ MestReNova 17.0.0-41178
##DATA TYPE=	LINK
##BLOCKS=	4    
##ORIGIN=	Mestrelab Research S.L.
##OWNER=	ctheodore
##$MNOVA/METADATA=	(DOCUMENT,BASE64)
eyJuYW1lIjoiL1VzZXJzL2N0aGVvZG9yZS9Eb2N1bWVudHMvY2xhc3Nlcy9OTVIgZXhwZXJpbWVudC9
naXRodWIgZmlsZXMvY3ljbG9oZXhhbmUvY3ljbG9oZXhhbmUgMWgubW5vdmEiLCJwYWdlcyI6W3siaX
RlbXMiOlsiMSIsICAgICAgICAgICAgICAgICAgICAgICAgICAgICAgICAgICAgICIzIiAgICAgICAgI
CAgICAgICAgICAgICAgICAgICAgICAgICAgICBdfV19
##TITLE=	
##JCAMP-CS=	3.7	$$ MestReNova 17.0.0-41178
##BLOCK_ID=	1
##ORIGIN=	Mestrelab Research S.L.
##OWNER=	ctheodore
##$MNOVA/METADATA=	(ITEM,BASE64)
eyJhbmdsZSI6MC4wLCJwb2ludHMiOlt7IngiOjUzMjEuMCwieSI6NTgzNS4wfSx7IngiOjU2NDIuOTE
4MTMyMDI5MjQyLCJ5Ijo1ODM1LjB9LHsieCI6NTY0Mi45MTgxMzIwMjkyNDIsInkiOjYxMjIuMjk4OD
g4MjU4MzM4fSx7IngiOjUzMjEuMCwieSI6NjEyMi4yOTg4ODgyNTgzMzh9LHsieCI6NTMyMS4wLCJ5I
jo1ODM1LjB9XSwieiI6MS4wfQ==
##NAMES=	
##ATOMLIST=	
$$ AN	AS	NH
	1	C	2
	2	C	2
	3	C	2
	4	C	2
	5	C	 
	6	C	2
	7	H	 
	8	H	 
##BONDLIST=	
$$ AN1	AN2	BT
	1	2	S
	2	3	S
	3	4	S
	4	5	S
	5	6	S
	6	1	S
	5	7	S
	5	8	S
##MAXRASTER=	32768
##XY_RASTER=	
$$ AN	X	Y	Z
	1	-32768	-7603	0
	2	-32768	16384	0
	3	-11993	28377	0
	4	8780	16384	0
	5	8780	-7603	0
	6	-11993	-19596	0
	7	32768	-7603	0
	8	20774	-28377	0
##END=		$$ JCAMP-CS
##TITLE=	Predicted 1H NMR Spectrum
##JCAMP-DX=	6.0	$$ MestReNova 17.0.0-41178
##DATA TYPE=	NMR PEAK ASSIGNMENTS
##DATA CLASS=	ASSIGNMENTS
##BLOCK_ID=	2
##ORIGIN=	Mestrelab Research S.L.
##OWNER=	ctheodore
##CROSS REFERENCE=	STRUCTURE: BLOCK_ID=1                                     
NMR SPECTRUM: BLOCK_ID=3                                     
##.OBSERVE FREQUENCY=	500
##.OBSERVE NUCLEUS=	^1H
##NPOINTS=	12
##XUNITS=	PPM
##YUNITS=	ARBITRARY UNITS
##PEAKASSIGNMENTS=	(XYWA)
(1.4278501105866285847, 0.49189701676368713379, 0.00075134550867517191364, <1>)
(1.4278501105866285847, 0.49189701676368713379, 0.00075134550867517191364, <1>)
(1.4278501105866285847, 0.49189701676368713379, 0.00075134550867517191364, <2>)
(1.4278501105866285847, 0.49189701676368713379, 0.00075134550867517191364, <2>)
(1.4278501105866285847, 0.49189701676368713379, 0.00075134550867517191364, <3>)
(1.4278501105866285847, 0.49189701676368713379, 0.00075134550867517191364, <3>)
(1.4278501105866285847, 0.49189701676368713379, 0.00075134550867517191364, <4>)
(1.4278501105866285847, 0.49189701676368713379, 0.00075134550867517191364, <4>)
(1.4278501105866285847, 0.49189701676368713379, 0.00075134550867517191364, <6>)
(1.4278501105866285847, 0.49189701676368713379, 0.00075134550867517191364, <6>)
(1.4278501105866285847, 0.49189701676368713379, 0.00075134550867517191364, <7>)
(1.4278501105866285847, 0.49189701676368713379, 0.00075134550867517191364, <8>)
##END=		$$ NMR PEAK ASSIGNMENTS
##TITLE=	Predicted 1H NMR Spectrum
##JCAMP-DX=	6.0	$$ MestReNova 17.0.0-41178
##DATA TYPE=	NMR SPECTRUM
##DATA CLASS=	XYDATA
##BLOCK_ID=	3
##ORIGIN=	Mestrelab Predictor, Modgraph NMRPredict Desktop
##OWNER=	ctheodore
##NUMDIM=	1
##$MNOVA/METADATA=	(ITEM,BASE64)
eyJhbmdsZSI6MC4wLCJheGVzIjp7IngiOnsibWF4IjoxMi41MDAwNzgxMjU0ODgyODUsIm1pbiI6MC4
wMDAxOTA3MzYwNTUzODE1OTYxNH0sInkiOnsibWF4IjowLjU0MTA4NjcxODQ0MDA1NTgsIm1pbiI6LT
AuMDQ5MTg5Njk0Njg3NDg5MDE2fX0sInBvaW50cyI6W3sieCI6NTMyMS4wLCJ5Ijo1ODM1LjB9LHsie
CI6ODcyMi4wLCJ5Ijo1ODM1LjB9LHsieCI6ODcyMi4wLCJ5Ijo4MjA4LjB9LHsieCI6NTMyMS4wLCJ5
Ijo4MjA4LjB9LHsieCI6NTMyMS4wLCJ5Ijo1ODM1LjB9XSwieiI6MC4wfQ==
##.OBSERVE FREQUENCY=	500
##.OBSERVE NUCLEUS=	^1H
##.SOLVENT NAME=	Methanol-d4
##.PULSE SEQUENCE=	
##.ACQUISITIONMODE=	SIMULTANEOUS (DQD)
##$ORIGINAL FORMAT=	Predictor
##$MNOVA/SCALES_VERSION=	9
##$PARAMETER FILE=	(parameters, ASCII, , 0)
$$ <?xml version="1.0" encoding="utf-8"?>
$$ <PredictorParameters>
$$     <Title>Predicted 1H NMR Spectrum</Title>
$$     <Origin>Mnova: NMR Prediction</Origin>
$$     <Name>Mestrelab Predictor, Modgraph NMRPredict Desktop</Name>
$$     <Version>1.7, 1.22 (5.076)</Version>
$$     <Nucleus>1H</Nucleus>
$$     <Solvent>Methanol-d4</Solvent>
$$     <From>0</From>
$$     <To>12.5</To>
$$     <Frequency>500</Frequency>
$$     <LineWidth>0.75</LineWidth>
$$     <Size>65536</Size>
$$     <DEPT>0</DEPT>
$$     <ProtonatedCarbons>0</ProtonatedCarbons>
$$     <ExcludeLabile>true</ExcludeLabile>
$$     <FastPrediction>0</FastPrediction>
$$     <ProtonDecoupled>0</ProtonDecoupled>
$$     <Reference/>
$$     <Options>
$$         <Settings>
$$             <Predictor Name="Mestrelab Predictor">
$$                 <Settings>
$$                     <Model>/Applications/MestReNova.app/Contents/Resources/data/1H.mbst</Model>
$$                 </Settings>
$$             </Predictor>
$$             <Predictor Name="Modgraph NMRPredict Desktop">
$$                 <Settings>
$$                     <Algorithm hoption="2" hsolvent="1" usnucleus="1">Fast Increments</Algorithm>
$$                     <JsAlgorithm>Fast Increments</JsAlgorithm>
$$                     <NMRSOAPDIR>/Applications/MestReNova.app/Contents/Resources/NMRPredict</NMRSOAPDIR>
$$                     <NMRTEMPDIR>/private/var/folders/3f/5b3_td5j7k3f1lyt31390d3jfxj842/T/NMRPredict-1574477954</NMRTEMPDIR>
$$                     <NMRUSDATABASEDIR>/Users/ctheodore/Library/Application Support/Mestrelab Research S.L./MestReNova/NMRPredict/NMR1HDatabase</NMRUSDATABASEDIR>
$$                     <Databases>ABCDEFGHIJKLMNOPQRSTUVWXYZ</Databases>
$$                 </Settings>
$$             </Predictor>
$$         </Settings>
$$     </Options>
$$     <MoleculeID>{c4add0dd-ca94-4a79-ab9c-975bfbf441f1}</MoleculeID>
$$ </PredictorParameters>
$$ 
##XUNITS=	HZ
##YUNITS=	ARBITRARY UNITS
##FIRSTX=	6250
##LASTX=	0.095367431640625
##DELTAX=	-0.095367431640625
##XFACTOR=	1
##YFACTOR=	2.2905739815567830483E-10
##FIRSTY=	1.4075840226723812521E-07
##MINY=	6.9888796971895317256E-09
##MAXY=	0.49189701676368713379
##NPOINTS=	65536
##XYDATA=	(X++(Y..Y))
6250F15%%%%%%%%%%%%%%%%%%%%%%%%%%%%%%%%%%%%%%%%%%%%%qQ%%%%%%%%%qQqQ%q%Qq%%%%
6243F07%%%%%%%%%%%%%%%%%%%%%%%%%%%%%%%qQqQ%%qQq%%%Qq%%%%%%%%%%%%%%%%%%%%%%%%
6237E99%%%%%%qQ%%%%%%%%qQ%%%%q%%%%%%%%%%%%%%%Qq%%%%%%%%%qQ%q%Qq%%J6j6Q%%%%%q
6230E83Qq%%Q%q%Qq%%Qq%%%QqQq%%%%%%%%%%%%%%%%%%%%%%%%%%%%%qQ%%%q%Q%%qQq%%QqQ%
6224E83q%Qq%%Qq%%%%%Qq%%%%%%%%%%%%%%%%%%%%%%%%qQqQ%q%Q%q%%Qq%%%Qq%%%%%%%%%Qq
6217E67%%%%%%%%%%%%%%%%%%%%%%%%%%%%%%%%%%qQ%%qQqQq%%QqQ%q%%%%%%%%%%%%%%%%%%%
6211E59%%%%%%%%%%%%%%%%%%%%%qQqQ%%q%%Q%qQ%%q%QqQq%%%%%%%%%%%%%%%%%%%%%%%%%%%
6204E51%%%%%%%%qQ%%qQqQ%%%%q%%%%Qq%Qq%%%%%%%%%%%%%%%%%%%%%%%%%%%%%%%%%qQ%%%%
6198E43%%%%%qQqQ%qQ%qQq%QqQ%q%Qq%%%%Q%%q%%%%%%%%%%%%%%%%%%%%%%%%q%Q%qQ%%%%qQ
6191E35%q%Q%%%%%qQ%qQq%%%%Qq%%%%%%Qq%%%%%%%%%%%%%%%%%%%%%%%%%%%%%%%%%%%qQ%%%
6184E27%%%%qQQk4K4k4J6Q%j6%J6k4j6QL2k4QqQQq%J6qq%Qj6QQqQqQq%%qQ%%%%%%%%%%%q%
6179E11%Q%%%%%%%qQ%%qQ%q%%%Qq%Qq%%%%%%%%%%%%%%%%%%%%%%%%%%%%%%%%%%%%%%qQ%%%%
6172E11q%Q%%q%%%%%Q%%%%qQ%qQq%%%%%%Qq%%%%%%%%%%%%%%%%%%%%%%%%%%%%%%%%%%%%%%%
6166E03%qQ%%%%qQqQ%%%%q%%%%Qq%QqQq%%%%%%%%%%%%%%%%%%%%%%%%%%%%%%%%%%%%%%%%%%
6159D95%%%%%%%%q%%Qq%Q%%q%Q%%q%%%%%%%%%%%%%%%%%%%%%%%%%%%%%%%%%%%%%%%%%%%%%%
6153D87%%%%%%%%%%%%%%%%%%qQ%%qQ%%q%Q%%q%%%%%%%%%Qq%%%%%%%%%%%%%%%%%%%%%%%qQq
6146D71Q%%%%%%%%%%%%%%%%%%%%%%%%%%%%qQ%%qQ%%%%qQq%%%%%%%%%Q%q%%Qq%%%%%%%%%%%
6139D71%%%%%%%%%%%%%%%%%%%%qQ%%qQ%%%%%%%%%%q%Q%q%QqQqQ%qQq%QqQ%%%q%%qJ6q%%%%
6133D63%%%%%%%%%%%%%%%%%%%%%%%%%%%%%%%%%%%%%%%%%%%%qQqQ%q%QqQ%qQqQ%%qQqQq%%%
6126D55%%%%%%%%%%%%%%%%%%%%%%%%%%%%%%%%%%%%%%%%%%%%%%%%%%%%%qQ%%%%%%%%%%qQ%q
6120D47%%%%%%%%%%%%%%%%%%%%%%%%%%%%%%%%%%%%%%%%%%%%%%%%%%%%%%%%%%%%%%%%%%%%%
6113D47%%%%%%%qQqQ%%%qQq%%%Qq%%%%%%%%%%%%%Q%q%Qq%%%%%%%%%%%%%%%%%%%%%%%%%%%%
6107D39%%%%%%%%%%%%%%%%%%%%%%%%%%q%%QqQ%%q%%Q%q%%Qq%QqQq%%%Qq%%%%%%%%%%%%%%%
6100D31%%%%%%%%%%%%%%%%%%%%%%%%%%%%%%%qQ%%%%%qQ%qQqQq%%QqQq%%%%Qq%%Qq%Qq%%%%
6094D23%%%%%%%Qq%%%%%%%%%%%%%%%%%%%%%%%%%%%%%%%%%%%%%%%%%%%%%%%%%%qQ%q%Qq%%%
6087D15QqQ%qQ%q%Q%qQqQqQqqQQqqQ%%Qq%%QqQq%%%%%%%%%%%%%%%%%%%%%%%%%%%%%%%%%%%
6080D15%%%%%%%%%%%%qQ%%%%%%%%%%qQ%%q%Qq%%Qq%%%Qq%%%QqQqQq%%%%%%%%%%%%%%%%%%%
6074D07%%%%%%%%Qq%%%%%%%%%%%%%%%%%%%%%%%%%%%%qQ%%%%%%%%%%%%%%%%%%%q%%%%Qq%Qq
6067C99%%%%%%%%Qq%Q%q%%Q%q%%%%%%%%%%%%%%%%%%%%%%%%%%%%%%%%%%%%%%%%%%%%%%%%%%
6061C99%%%qQ%%q%%%QqQ%q%%%Q%%%%qQ%%%%%%%%qQ%%q%%%%Qq%%%%%%%%%%%%%%%%Qq%%%%%%
6054C91%%%%%%%%%%%%%%%%%%%%%%%%%%%%%%%%%%%%%%%%%qQqQ%q%QqQ%%qQ%qQqQq%QqQ%qQ%
6047C91%q%%%%%%%%%%%%%%%%%%%%%%%%%%%%%%%%%%%%%%%%%%%%%%%%%%%%%%%%%%%%%%%%%%%
6041C83%%%%%%%%%qQ%%%%%%%qQ%qQ%%%q%%Q%%%qQq%%%%%%QqQqQqQq%%J6j6%%%%%%Qq%%Q%q
6034C75%%%%%%%%%%%%%%%%%%%%%%%%%%%%%%%%%%%%%%%%%%%%%Qq%%%%%%%%%%%%%%%%%%%%%%
6028C75%%%%%qQqQ%q%QqQ%%q%Q%qQq%%%%%%%%%%%%%%%%%%%%%%%%%%%%%%%%%%%%%%%%%%%%%
6021C67%%%%%%%%%%%%%%%%%%%%%%%%%%%%%%%%%%q%Q%%q%%Q%%%%%q%Q%%%%qQ%%qQqQ%q%QqQ
6015C67%q%%Qq%%Qq%%%%%%Qq%QqQq%Qq%%%%%%%%%%%%%%%Qq%%%%%%%%%%%%%%%%%%%%%%%%%%
6008C59%%%%%%%%%%%%%%%%%%%qQ%%%%%%q%QqQ%%qQ%%%%%%%%%%%%%%q%Qq%%%Qq%%%%%%%%%%
6002C51%%%%%%%%%%%%%%%%%%%%%%%%%%%%%%%%%%%%%%%%%%%%%%%%%%%%%%%%%%%%%%%%%%%%%
5995C51%%%%qQqQqQqQqQ%%%%q%Q%%%%%%%q%Q%q%%%Q%q%QqQq%QqQq%%Q%q%%%%%Qq%%%%Q%q%
5988C43Q%%qqJ6q%Qj6Q%qJ6q%%Qj6Q%q%%QqQ%%%%%%%%%%%%%%qQ%%%%%%%%%%%%%%%%%%%%%%
5982C43%%qQqQ%%%%%%%%q%%QqQq%%Q%%q%QqQqQ%%%%q%%Qq%%%Qq%%Qq%%Q%q%%%%%%%%%%%%%
5976C35%Qq%Qq%QqQq%%%%%%%%%%%%%%%%%%%%%%%%%%%%%%%%%%%%%%%%%%%%%%%%%%%%%%%%%%
5969C35qQ%%%%%%q%%Q%qQqQqQqQqQq%%Q%q%QqQq%%%%%Qq%%%%%%%%Qq%%%%%%%%%%%qQQqQq%
5962C27%%%%%%%%%%%%%%%%%%%%%%%%%%%%%%%%%%%%%%%%%%%%%%%%%%%%%%%%%%qQ%%%%%qQ%q
5956C19QqQ%%%%%qQqQq%Qq%%%%%%%Qq%%Qq%%Q%q%%QqQq%%%%%%Qq%QqQq%Qq%Q%%q%%%%%%%%
5949C19%%%%%%%%%%%%%%%%%%%%%%%%%%%%%%%%%%%%%%%%%%%%qQ%%%%%%%%%%%%qQ%%%%%%%%%
5943C19%%%%%%%%%%%%%%%%qQ%qQ%%%%qQ%%q%Q%q%%QqQ%%%%%qQqQ%%qQq%%Qq%%%%%%%%%%Qq
5936C11%%%%%%%%%%%%%Qq%%%%%%%%%%%%%%%%%%%%%%%%%%%%%%%%%%%%%%%%%%%%%%%%%%%%%%
5930C11%%%%%%%%%%%%%%%%%%%qQ%%%%%%qQ%%q%Q%qQ%%%%%qQqQq%Qq%Qq%%Qq%%Qq%%%Q%q%%
5923C03%%Q%q%%%%%%%%%%%%%%%%%Qq%%%Qq%%%%%%%%%%%%%%%%%%%%%%%%%%%%%%%%%%%%%%%%
5916C03%%%%%%%%%%%%%%%%%%%%%qQ%%q%QqQ%%%%%%%%%%%qQ%%%%%%%%%qQqQq%%%Q%%%qQqQ%
5910C03%%q%%%%%%%%Q%q%%QqQq%%%%%%%%Q%%q%%%%%Qq%%%%%%%%%%%%%%%%%%%%%%%%%%%%%%
5903B95%%%%%%%%%%%%%%%%%%%%%%%%%%%%%%%%%%%%%%%%%%%%%%%%%%%%%%%%%%%%%%%%%%%qQ
5897B95%%%%%%%%%%qQq%%Q%q%Q%%%%%%%%qQ%q%Qq%QqQ%q%Qq%%Q%q%Qq%%%%Qq%%%%%Qq%%%%
5890B87Q%q%%qJ6%q%%Q%%q%%%%%%%%%%%%%%%%%%%%%%%%%%%%%%%%%%%%%%%%%%%%%%%%%%%%%
5884B87%%%%%%%%%%%qQ%%%%%%%%%%%%%%%%%%%%%%%%%%%%%%%%%%%%%%%%%%%qQ%%%%q%Q%qQq
5877B79%QqQ%%%qQqQ%qQ%q%%Q%%qQq%%QqQ%%%q%Qq%%%Q%q%%%%%%Qq%%%%%%%%%%%%%%%%%%%
5870B79%%%%%%%%%%%%%%%%%%%%%%%%%%%%%%%%%%%%%%%%%%%%%%%%%%qQ%qQ%%%%%%%%%%qQ%%
5864B79%%%%qQ%%%%%%%%qQ%%%%%%q%Q%qQ%%qQ%qQqQ%%%%q%Q%qQqQqQ%%q%QqQ%qQ%%q%%%%Q
5857B79qQq%%Qq%%Qq%%%%%%Qq%%Qq%%Qq%%%%%%%%%%%%%%Qq%%%%%%%%%%%%%%%%%%%%%%%%%%
5851B71%%%%%%%%%%%%%%%%%%%%%%%%%%%%%%%%%%%%%%%%%%%%%%%%%%%%%%%%%%%%%%%%%%%%%
5844B71%%%%%qQ%%q%%%%%%Qq%%QqQ%%%qQq%Qj6%Q%%Q%%qQq%%QqQ%%qQ%q%Q%%q%Q%qQ%%%%q
5838B63%%%Qq%%%Qq%Q%q%%%%%Q%q%%%%%%%%%%%%%%%%%%%%%%%%%%%%%%%%%%%%%%%%%%%%%%%
5831B63%%%%%%%%%%%%%%%%%%%%%%%Qq%%%%%%%%%%%%%%%%%%%%%%%%%%%%%%%%%%%%%%%%%%%%
5824B63%%%%%%%%%%%qQ%qQqQ%%%%qQqQ%%%q%Qq%%%Qq%Qq%%%%%%%%%%%%%%%%%%%%%%%%%%%%
5818B55%%%%%%%%%Qq%%Q%qQ%q%%%%%%%%%%%%%%%%%%%%%%%%%%%%%%%%%%%%%%%%%%%%%%%%%%
5811B55%%%%%%%%%%%%%%%%%%%%%%%%%%%%%%%%%%%%%%%%%%%%%%%q%Q%%%%%%%%%%%%%%%%%%%
5805B55%%%%%%%%%%%%%%%%%%%%%%%%q%Q%qQqQqQqQ%%%%q%Q%q%%QqQqQqQqQqQq%Qq%%%%Qq%
5798B47%%Qq%%%QqQ%q%%Qq%%%%%%%%Qq%%%%%%%%%%%%%%%Qq%%Qq%%qQQj6Q%%qJ6%q%qqK4qq
5792B39J6Qk4Q%%Qqq%%J6%q%%%%%%%%%Qq%%%%%%%%%%%%%%%%%%%%%%%%%qQ%qQ%%%%%q%QqQ%
5786B47qQ%%%%%%%qQ%%qQ%qQqQ%%%%qQ%%%%%%qQq%Q%qQ%%%qQ%%%%%%%%qQ%qQ%q%Q%%%q%%%
5779B39%QqQq%%%%%%%%%%%%%%%%%%%Q%q%Qq%%%%%%%%%%%%%%%Qq%Qq%Qq%%Qq%%%%Qq%%%%%%
5772B39%%%%%%%%%%%%%%%%%%%%%%%%%%%%%%%%%%%%%%%%%%%%%%%%%%%%Qq%%%%%%%%%%%%%%%
5766B39%%%%%%%%%%%%%%%%%%%%%%%%%%%%qQ%%%qQ%q%Q%qQq%Q%%%%q%%%Q%qQq%Q%%qQ%%%%%
5759B39q%%Qq%%%%%Q%%%%qQq%QqQq%QqQqQq%%Q%q%Q%%q%%%%%Qq%Qq%%%%Qq%%%%%%%%%%%%%
5753B31%Qq%Qq%%%%%%%%%%%%%Qq%%%%%%%%%%%%Qq%%%%%%Qq%%%%%%%%%%%%%%%%%%%%%%%%%%
5746B31%%%%%%%%%%%%%%%%%%%%%%%%%Qqq%Q%Qj6Q%%%qQ%%%%%%%%%%%%%%%%%%%%%%%%%%%%%
5740B31%%%%%%%%%%%%%%%%%%%%%%q%%Q%%%%%%%qQq%Q%%qQ%%qQq%%Q%q%Q%qQqQqQ%%qQ%%qQ
5733B31qQqQ%%qQ%%qQ%qQqQ%q%QqQq%QqQq%Qq%Qq%%%%%%%%%%%%%%Qq%%%%%%%%%%%%%%%%%%
5726B23%%%%%%%Qq%QqQq%Qq%%%%%%Qq%%%%%%%%%%%%%%%%%%%%Qq%%%%%%%%%%%%%%%%%%%%%%
5720B23%%%%%%%%%%%%%%%%%%%%%%%%%%%%qQ%%%%%%%qQ%%%%%qQ%%%%%%%%%%%%%%qQ%qQ%%%q
5713B15Q%qQ%%%%%%%%qQ%%%%%%%%%%qQ%q%Q%%%%%%%%%qQ%%%%%%qQqQ%%%%qQ%%qQq%%%QqQ%
5707B23q%Q%%%%%qQqQ%%%%%%qQ%%%qQ%q%Q%%qQ%q%Q%q%Qq%Qq%%%%Qq%%%%Qq%%%%%%%%%Qq%
5700B15%%%%%Qq%%%%%%%%%%%%%%%%%%Qq%%%%Qq%%%%%%%%Qq%%%%%%%%%%%qQ%Qq%%Qj6J6%j6
5694B07J6q%Qq%%%%%%%%%%%%%%%%%%%%%%%%%%%%%%%%%%%%%%%%%%%%%%%%%%%%%%%%%qQ%%%%
5687B15%%%%%%%%%%%%%%%%%%%%%%%%%%%%%%%%%%%%%%%%%%%%%%%%%q%%Q%%%%%%%%%%%qQ%%%
5681B15%%%%%%%%%%%%%%%%%%%%%qQ%%%%qQqQ%q%Qq%QqQq%%%Q%%q%Q%%q%Q%q%%%%%%%%%%%Q
5674B15%q%%%%%%%Qq%Qq%Q%q%%%%%%%%%%%%%%%%%%%%%%%%Qq%%%%%%%%%%%%%%%%%%%%%%%%%
5668B07%%%%%%%%%%%%%%%%%%%%%%%%%%%%%%%%%%%%%Qq%%%%%%%%%%%%%%%%%%%%%%%%qQ%%%%
5661B07%%qQ%%%%%%%%%%%%%%%%%%%%%%%%qQqQ%q%QqQ%%%%%%%%%%%%%%%%%%%%%%%%%%%%%%%
5654B07%%%qQ%%%qQq%Q%%%qQ%%%%%%%%%q%Qq%%QqQ%%qQqQq%%Qq%%Qq%%QqQqQ%%qQq%Q%qQq
5648A99QqQ%%%%%%%%q%%Qq%%Q%qQq%Q%qQ%q%Qq%Qq%%%Q%%q%%Qq%QqQq%%QqQq%%%%QqQq%%%
5641A99%%%%%%%%%Qq%%%%%%%%%%%%%%%%%%%%%%%%%%%%%%%%%%%%%%%%%%%%%%%%%%%%%%%%%%
5635A99%%%%%%%%%%%%%%Qj6Q%%%%%%%%%%%%%%%%%%%%%%%%%%%%%%%%%%%%%%%%%%%%%%%%%%%
5628A99%%%%qQ%%%%%%%%%%%%%%%qQ%%qQ%%%%%%qQ%%%%%%%%q%Q%%%%%%%%%%%%qQ%%%%qQ%%%
5622A99%%qQqQqQ%q%Qq%Q%%q%QqQqQ%%qQqQqQqQ%%qQ%%%%qQqQq%QqQq%Q%q%QqQqQqQqQq%%
5615A91%Qq%%%%%%%%%%%%%%%%%%%%%%%%%%Qq%%%%%%%%%%%%%%Q%%q%%%%%%QqQq%%%Qq%%Qq%
5608A91%%%%%%%%%%%%%%%%%%%%%%%%%%%%%%%%%%%%%%%%%%%%%%%%%%%%%%%%%%%%%%%%%%%%%
5602A91%%%%%%%%%%%%%%%%%%%%%%%%%%%%%%%%qQ%%%%%%qQ%%qQ%%%j6J6qQQ%qqQqQqQq%J6q
5596A91%Qq%%%%%%%%%%%%%%%%%%%%%%%%%%%%%%%%%%%%%%%%qQ%q%Q%%%%%%%%%%%%%%%%%q%Q
5589A91%%%qQ%%%%%qQ%%q%Q%q%Q%%qQ%qQ%qQqQq%QqQ%qQq%Q%qQ%%%qQ%qQ%%%%%q%Qq%%%%%
5582A83Qq%%%%%%%QqQq%%%Qq%%%%%Q%qQ%q%%%%QqQq%%%%%%%%%%%%Qq%%%%%%%%%%%%%%%%%%
5576A83%%%%%%%%%%%%%%%%%%%%%%%Qq%%%%%%Qq%%%Q%q%%%%%%%%%%%%%%%%%%%%%%%%%%%%%%
5569A83%%%%%%%%%%%%%%%%%%%%%%%%%%%%%%%%%%%%%%%%%%%%%%%%%%%%%%%%%%%%%%%%%%%%%
5563A83%%%%%%%%%%%%%%%%%%%%%%%%%%%%%%%%%%%%%%%%%%%%%%%%%%%%%%%%%%%%%%%%%%%%%
5556A83%%%%%%%%%%%%%%qQ%qQ%%%qQ%%%%%qQqQ%%qQ%qQ%qQqQ%%%q%Q%%%qQ%qQqQq%QqQq%Q
5550A83%%%q%%%QqQq%%%%Q%qQ%%%q%%%Qq%%%Qq%%Q%q%%%%QqQ%qQq%%%%%%%%%%%Q%%q%%%Qq
5543A75%%%%%%%Qq%%Q%q%%%%%%%%%QqQ%q%%QqQqQq%%Qq%%%%%%Qq%%%%%%%%%%%%%%Qq%%Qq%
5536A75%%%%%%%%%%%%%%%%%%%%%%%%%%%%%%%%%%%%%%%%%%%%%Qq%%%%%%%%%%%%%%%%%%%%%%
5530A75Qq%%%%%%%%%%%%%%%%%%%%%%%%%%%%%%%%%%%%%%%%%%%%%%%%%%%%%%%%%%%qQ%%%%qQ
5523A75%%%%%%%%%%%%%%%%%%%%%%%%qQ%%%%%%%%%%%%%%%%%%%%%%%%%%%%%%%%%%qQ%%%%%qQ
5517A75%%%%%%%%%%%%%%%%%%qQ%%%%%%%%%%%%%%%%%%%%%%%%qQ%%q%%%Q%q%%Q%%%qQ%%%%q%
5510A67Q%q%%%QqQ%qQ%%q%%Q%%%%%%qQ%%%%%%%%%%q%Qq%Q%%%%qQ%qQq%Qq%Q%%%%%qQ%qQq%
5503A67Q%q%%Qq%%QqQq%Q%q%%%QqQ%qQqQ%%%%%qQ%qQq%%%%Q%qqQQq%%%%%%qQ%%%%%QqQq%%
5497A67%%%%%%%%%Qq%%%%%%%%%%%%%%%%%%%%%%%%%%%%%%%%%%%%%%%%%%%%%%%%%%%%%%%%%%
5490A67%%%%%%%%%%%%%%%%%%%%%%%%%%%%%%%%%%%%%%Qq%%%%%%%%%%%%%%%%%%%%%%%%%%%%%
5484A67%%%%%%%%%%%%%%%%%%%%%%%%%%%%%%%%%%%%%%%%%%%%%%%%%%%%%%%%%%%%%%%%%%%%%
5477A67%%%%%%%%%%%%%%%%%%%%%%%%%%%%%%%%%%%%%%%%%%qQ%%%%%%%%%%%%%%%%%%%%%%%%%
5471A67%%%%qQ%%%%%qQ%qQ%q%Q%%%qQqQ%qQqQq%%Qq%Q%%%qQqQ%qQq%%%%QqQqQ%%%%%qQqQq
5464A59%Q%%%q%%Q%%%qQ%q%%Q%%%qQq%Qq%QqQ%%q%%%%%%%%%%Q%%qQqQq%%%%Qq%%%%%%Qq%%
5457A59%%%%%QqQ%qQ%q%%%%Qq%%%%%%Qq%Qq%%%%%Qq%%Q%%q%%%%%%%%%%%%%%%%%%%%%%%%Qq
5451A59QqQ%q%Q%q%Q%q%%%%%%%%%%%%%%%%%%%%%%%%%%%%%%%%%%%%%%%%%%%%%%%%%%%%%%%%
5444A59%%%%%%%%%%%%%%%%%%%%%%%%%%%%%%%%%%%%%%%%%%%%%%qQ%%%%%%%%%%%%%%%%%%%%%
5438A59%%%%%%%%%%%%%%%%%%%%%%qQ%%qQ%%qQ%%%%%%qQ%%%%%%%%%%%%%%%%%%%%%%%%%%%%%
5431A59%%%%%%%%%%%%%%%%%%%%%%%%%%%%%%%%%%%%qQ%%%%%%%%%%%%%%qQ%%%%%q%Q%%%%%%%
5424A59%qQ%%%%%%%%%%%%%%%%qQ%%%%qQ%q%Q%%qQ%%%%%qQ%qQqQ%%qQ%%qQ%qQ%%%qQq%Q%%%
5418A59qQ%qQ%%qQ%%q%Q%%%%%%%q%Q%%qQ%%%%qQ%%q%%%QqQq%%Q%qQ%%q%Q%%%%%%qQ%%%q%Q
5411A59qQq%%%%%%%%Qq%%Qq%%%%%%Q%q%%Qq%Q%q%%%Qq%Qq%%Q%%q%Qq%%%Q%%q%Q%%qQ%qQq%
5405A51%%%Qq%Qq%%QqQ%%q%%Q%qQj6QQqqqJ6j6J6QQQk4%K4qk4%J6j6QQ%j6L2j6%j6QQq%qJ6
5399A59%%%%q%%%Qq%%%%Q%%%%q%%%%%%qJ6%q%%%%%%Q%%qQq%%Qq%%%%%%%%%%%%%%%%%%%%%%
5393A51%%%%%%%%%%%%%%%%%%%%%%%%%%%%%%%%%%%%%%%%%%%%%%%%%%%%%%%%%%%%%%%%%%%%%
5386A51%%%%%%%%%%%%%%%%%%%%%%%%%%%%%%%%qQ%%%%%%%%%%%%%%%%%%%%%%%%%%%%%%%%%%%
5380A51%%%%%%%%%%%%%%%%%%%%%%%%qQ%%%%%%%%%%%%%%qQ%%%%%%%%%%%%%%%%%%qQ%%%%%%%
5373A51%%%qQqQqQ%%%%qQq%Q%%qQqQ%%qQq%Q%%%%%%%%%%%%%%%%%%%%%%%q%QqQ%%%%%%%%%%
5367A51%%%%%%%%%%%%qQ%%qQ%qQ%%q%Q%%%%qQ%%%q%Q%%q%%Q%%%%q%%Q%q%Q%q%Q%%%qQqQq%
5360A43Qq%%%%%%Qq%%%QqQq%%%QqQ%q%Qq%%QqQ%%q%%%%%Qq%%%Qq%Qq%QqQq%%%%%%%%%%Qq%
5353A43%%%Q%qQ%%qQq%%%Qq%Q%q%%Q%%%q%%%%%%%%%%%%Q%qQqQq%%Qq%%Q%qQq%%QqQqQq%Qq
5347A43Q%q%%%%%%%%%%%%%%%%%%%%%%%%%%%%%Qq%%%%%%%%%%%%%%%%%%%Qq%Qq%%%%%%%%Q%q
5340A43Qq%%%%%%%%%%%%%%%%%%%%%%%%%%%%%%%%%%%%%%%%%%%%%%%%%%%%%%%%%%%%%%Qq%%%
5334A43%%%%%%%%%%%%%%%%%%%%%%%%%%%%%%%%%%%%%%%%%%%%%%%%%%%%%qQ%%%qQq%Q%%%%%%
5327A43%%%%%%%%%%%%%%%%%%%%%%%%%%%%%%%%%%%%%%%%%%%%%%%%%%%%%%%%%%%%%%%%%%%%%
5321A43%q%Q%%%%%%%%%%%%%%%%%%%%%%%%%%%%%%qQ%%%%%%%%%%q%Q%%%%%%%%%%%qQ%%%%%%%
5314A43%%%%%%%%%qQ%%%%%%%%%%%%%q%Q%%%%%%%%qQ%%%%qQ%%%%%%%qQ%%%%%%%%%%%%%%q%Q
5307A43%%%%%%%%qQ%%%%%q%%Qq%Q%%%%qQqQq%QqQ%QqQqqqJ6%%%qQ%q%%QqQq%Q%%%%%qQ%%%
5301A43%q%QqQqQ%qQ%qQqQq%Qq%QqQ%%%%%qQ%qQ%qQ%%qQq%%%Qq%%QqQqQ%%q%%%%%%%%%%%%
5294A35Qq%%%%%%%%%%%%%Qq%Q%%q%%%%Q%q%%Q%%qQ%qQq%%%%%%%Qq%%%%%%%%%Qq%%%%Qq%%%
5288A35%%%Qq%Qq%%%%%%%%%%%%%%%%%%%%%%%%%%%%%%%%%%%%%%%%%%%%%%%%%%%%%%%%%%%%%
5281A35%%%%%%%%%%%%%%%%Qq%Qq%%%%%%%%%%%%%%%%%%%%%%%%%%%%%%%%%%%%%%%%%%%%%%%%
5275A35%%%%%%%%%%%%%%QqQq%%%%%%%%%%%%%%%%%%%%%%%%%%%%%%%%%%%%%%%%%%%%%%%%%%%
5268A35%%%%%%%%%%%%%%%%%%%%%%%%%%%%%%%%%%%%%%%%%%%%%%%qQ%%%%%%%%%%%%%%%%%%%%
5261A35%%%%%%%%%%%%%%%%%%%%%%%%%%%%%%%%%%%%%%%qQ%%%%%%%%%%%%%%%%qQ%%Qq%qQ%qQ
5255A35q%Q%%%%%%%%%%qQ%%%%%%%%%%%%%%%qQ%%%%%%%%%%%%%%%%%%%%%%%%%%%%%%%%%%%%%
5248A35%%%%%%%%%%%%%%%%%%%%%%%%%%%%%%%%%%%%%%%%%%%%%%%%%%%%%%%qQ%%%%%%q%Q%%%
5242A35%%%%%%%%%%%%%%%%q%%Qq%%%%QqQ%%%%%%%%%%qQq%%QqQ%qQq%Q%qQ%%q%Qq%Q%%q%Q%
5235A35q%Q%%%%q%Q%q%Q%%%%q%QqQq%%Qq%%Qq%%%%%QqQ%q%%%%Qq%%Qq%Qq%%%%%%%%Qq%%%Q
5229A35q%%%Qq%QqQq%%%QqQq%Qq%%%%%%%%%%%%%%%%%Qq%%%%Qq%%%%%%%%%%%%%%Qq%%%%Q%%
5222A35%qQq%%%%%%%%%%%%%%Qq%%%%%%%%%%%QqQq%%Qq%Q%qQq%%QqQq%%%%%%%%%%Qq%%%%Qq
5215A27%%%%%%%%%%%%%Qq%%%%%%%%%%%%%%%%%%%Qq%%%%%%%%%%%%%%%%%%%%%%%%%%%%%Qq%%
5209A27%%%%%%%%%%%%%%%%%%Q%%j6Q%Q%qQ%k4K4qQqQj6%Q%%Qq%%%%%%%%%%%%%%%%%%%%%%%
5203A27%%%%%%%Qq%%%%%%%%%%%%%%%%%%%%%%%%%%%%%%%%%%%%%%%%%%%%%%%%%%%qQ%%%%%%%
5196A27%%%%%%%%%%%%%%%%Qq%%%%%%%%%%%%%%%%%%%%%%%%%%%%%%%%%%%%%%%%%%%%%%%%%%%
5189A27%%%%%%%%%%%%%%qQ%%%%%%%%%%%%%%%%%%%%%%%%%%%%%%%%%%%%%%%%%%%%%%%%%%%%%
5183A27%%%%%%%%%qQq%%Q%qQqQ%%%%%%%%%%%%%%%%%%%%%%%%%%%%%%%%%%%%%%%%%%%%%%%%%
5176A27%%%%%%%%%%%%%%%%%%%%%%%%%%%%%%%%%%%%qQ%%%%%%%qQ%%%%%%%%%%%%%%%%%%%qQq
5170A19Q%%q%%%%Q%%qQ%%%%qQ%%%%%q%Q%%%%%%%%qQ%%%qQ%%%%%%qQ%%%%%%%%qQ%%%%qQqQ%
5163A27%%qQ%%%%%%%%%%%%%%%%qQ%%%%%qQq%QqQ%q%QqQ%%%%%%qQ%%%%qQqQqQqQq%%Q%%qQq
5157A19QqQqQqQ%q%%%%%%%%%%Qq%QqQq%%%%%%%Qq%%%%%%%%%%%%%Q%%qQqQqQqQq%%Qq%%Qq%
5150A19%QqQq%%%%%%%%%%%%Qq%%%%%%%%%%%%%%%%Q%q%%%%Qq%%%%Qq%Qq%%Q%qQq%%%%%%%Qq
5143A19Qq%%%Q%q%%Qq%%%%%%%%%%%%%Qq%%%%%%%%%%%%%%%%%%%%%%%%%%%%%%%%%QqQq%%%%%
5137A19Qq%%%%%%%%%%%%%%Qq%%%%%%%%%%%%%%%%%%%%%%QqQq%%Qj6Q%%%%%%%%%%%%%%%%%%%
5130A19%%%%%%%%%%%%%%%%%%Qq%%%%%%%%%%%%%%%Qq%%%Qq%%%%%%%%%%%%%%%%%%%%%%%%%%%
5124A19%%%%%%%%%%%%%%%%%%%%%%%%%%%%%%%%Qq%Qq%%%%%%%%%%%%%%%%%%%%%%%%%%%%%%%%
5117A19%%%%%%%%%%%%%%%%%%%%%%%%%%%%%%%%%%%%%%%%%%%%%%%%%%%%%%%%%%%%%%%%%%%%%
5111A19%%%qQ%%%%%Qq%%%%%qqJ6qJ6%%qQ%%q%%%%%%%%%%%%%%%%%%%%%%%%%%%%%%%%qQ%%%%
5104A19%%%%%%%%%%%%%%%%%%%%%%%%%%%%%%%%%%%%%%%%%%%%%%%%%%%%%%%%%%%%%%%%%%%%%
5098A19%%%%%%%%%%%%%%qQ%%%%%%%%%%%%%%%%%%%%%%%%%%%%%%%%%%%%%%%%%%%%%%%%%%%%%
5091A19%%%%%%%%%%%%%%%%%%%%%%%%%%%%%%%%%%%%%%%%%%%%%%%%%%%%%%qQ%%qQ%%%%%qQ%%
5084A19%%%qQ%Qq%qQ%qQ%%%%%%qQ%%%%%%qQ%%%%%%qQ%%%%%%qQ%%%%%%%%qQ%%%%qQ%qQqQ%%
5078A19%qQq%%Q%q%%%QqQ%q%QqQ%%%%%%%%%%%%%%%%%%%%%%%%%%%%%%%%%qQ%%qQ%qQq%Q%%%
5071A19q%Q%%%%%%%%%qQ%%%%q%Q%%%%%qQ%%%%%%qQ%%%%%%qQ%q%Qq%%%%%QqQ%qQ%%%%%qQqQ
5065A19%%%%qQ%%%%qQqQqQ%%qQqQ%qQq%QqQ%%q%Q%%%%%qQq%Q%q%Qq%Q%%%%%%q%Q%qQq%Qq%
5058A11%%Q%%%qQ%%q%%%%%Qq%Q%%qQ%%q%Q%q%%%%Q%%qQqQq%Q%q%QqQq%%%%Qq%%%%%%%%%%%
5052A11%%%%%%%%%%%%%%%%%%%%%%%Qq%%%%%%%%%%%Qq%Qq%%%%%%Qq%%%%%%%%%%Qq%%%%%%Qq
5045A11%%%%Qq%Q%q%%%%%%%%%%%%%%%%%%%%%%%%%%%%%%%%%%%%%%%%%%%%%%%%%%%%%%%%%%%
5038A11%%%%%%%%%%%%%%%%%%%%%%%Q%q%%%%%%Qq%%Qq%%%%%%%%%%%%%QqQq%%%%%%%%%%%%%%
5032A11%%%%%%%%%%%%%%%%%%%%%%%%%%%Qq%%%%%%%%%%%%%%%%%%%%%%%%%%%%%Qq%%%%%%%%%
5025A11%%%%%%%%%%%%%Qq%%%%%%%%%%%%%%%%%%%%%%%%%%%%%%%%%%%%%%%%%%%%%%%%%%%%%%
5019A11%%%%%%%%%%%%%%%%%%%%%%%%%%%%%%%%%%%%%%%%qQqQ%%%%%%%%%%%%%qQQq%qQ%%%%%
5012A11%%qQ%%Q%Qk4J6k4%K4qQqqJ6qq%%%QqQ%%qQ%%%%%%%qQ%qQ%%qQ%%%%%%%%%%%%%%%%%
5006A11%%%%%%%%%%%%%%%%%%%%%%%%%%qQ%%%%%%%%%%%%%%%%%%%%%%%%%%%%%%%%%%%%%%%%%
4999A11%%qQ%%%%%%%%%%%%%%%%%%%%%%%%%%%%%%%%%%%%%%%%%%%%%%%%%%%%%%%%%%%%%%%%%
4993A11%%%%%%%%%%%%%%%%%qQ%%%%%%%%%%%%%%qQ%%qQqQ%qQ%%qQ%qQqQ%%%%%%qQ%%%%%%%Q
4986A19j6%%%QqQqQqQ%%qQ%%%%%%%%%qQ%qQ%%%%%%%%%%%%%%%%%%%%%%%%%%%%%%%%%qQ%%%%
4980A11%%%%%%%%%%%%%%qQ%%%%%%%qQ%qQ%%%%%%%%%qQqQ%%%%qQ%%%%%%%qQ%%%%%%qQ%%%%%
4973A11%%%%%%qQ%qQ%%%%%%%%%%%%%%%%%%%%%%%%%%%qQ%%%qQ%%%%q%%Q%qQ%%q%Q%%%%%q%%
4967A03%Q%%q%Q%%%qQ%qQqQqQq%QqQ%qQ%qQq%Q%qQ%%qQ%q%Qq%Qq%%QqQ%q%%Qq%%%%%Q%q%Q
4960A11%q%Q%q%Q%%%%%qQqQ%%%%%%qQ%%%%%%qQ%%%%%%%%qQ%q%%Q%q%%%%%%%%%Qq%%%%Q%%q
4953A03%%Qq%%%%%Q%qQqQq%%%%Qq%Q%q%%%QqQqQq%%%Qq%%Qq%Qq%%Qq%%%Q%qQq%%Q%q%%%%%
4947A03QqQq%%%%%%QqQqQqQ%%qQ%qQq%%%%%%Q%qQqQq%Qq%%%%%%%%%Q%q%%%%%%%%%%%%%%%%
4940A03%%%%%%Qq%%%%%Qq%%Q%%q%%Qq%%%Qq%%Qq%%%%Q%qQq%%%Q%q%Qq%%%%Qq%%%%%%QqQq%
4934A03%%%%%%%Qq%%%%%%%%%%%%%%Qq%QqQq%%%%%%Qq%Q%q%%%%%%%%%%%%%Qq%%%%%%%%%%%%
4927A03%Qq%%%%Qq%%%%%%%%%%%%%%QqQq%%Qq%%%%%%%%%%%%%%%%%%%Qq%%%%%Q%%%q%%%%%%Q
4920A11q%%%%%%%%%%%%%%%%%%%%%%%%%%%%%%%%%%%%Qq%%%Qq%%Qq%%%%%%%%%%%%%%Qq%%%%%
4914A03%%%%%Qq%%%%%q%Q%%%%%%%%%%%%%%%%%%%%%%%%%%%%%Qq%%%%%%%%%%%%%%%Qq%%%%%%
4907A03%%%%%%%%%%%%%%%%%%%%%%%%%%%%%%%%%%%%%%%%%%%%%%%%%%%%%%%%%%%%%%%%%%%Qq
4901A03%%%%%%%%%%%%%%%%%%%%%%%%%%%%%%%%%%%%%%%%%%%%%%%%%%%%%%%%%%%%%%%%%%%%%
4894A03%%%%%%%%%%%%%%%%%%%%%%%%%%%%%%%%%%%%%%%%%%%%%%qQ%%%%%%Qq%%%%%qQ%%%%%%
4888A03%%%%%%%%%%%%%%%%%%%%%%%%%%%%%%%%%%%%%%%%%%%%%%qQ%%%%%qQ%%%%%%%%%%%%%%
4881A03%%%%%%%%%%%%%%%%%%%%%%%%%%%%%%%%%%%%%%%%%%%%q%Q%%%%%%%%%%%%%%qQ%%%%%%
4874A03%%%%%%%%%%%%%%%%%%%%%%%%%%%%%%%%%%%%%%%%%%%%%%%%%%%%%%%%%%%%%%%%%%%%%
4868A03%%%%%%%%%%%%%%%%%%qQ%qQqQ%%%qQ%%%qQ%qQ%qQqQqQ%%%%%%%%%%%%%%%%%%%%%%%%
4861A03%%%%%%%%%%%%%%%%%%%%%%%%%%%qQ%%%%qQ%qQ%%qQ%%%%%%%%%%%%%%%%qQ%%%%qQ%%%
4855A03%%%qQ%%%%%%%%%%qQ%%%qQ%%qQ%%%%q%Qq%Q%%%%%qQ%%%%%%%%%%%%%%%%%%%%%%%%%%
4848A03%%%%%%%%%%%%%%%%%%%%%%%%%%qQ%q%QqQ%qQ%%%%%%qQ%qQ%%qQ%qQqQ%qQqQqQ%%%%%
4842A03%qQqQ%%%%%%%%%qQq%QqQq%Q%q%QqQqQ%%qQqQqQ%qQqQ%q%Qq%Q%q%%%%Q%%qQq%Q%%%
4835A03%%qQ%%qQ%q%%Q%q%%QqQqQ%qQ%%%%%%%%qQ%q%%%Q%q%Q%q%%QqQq%QqQ%%%%%qQq%Q%%
4828A03%qQqQ%qQ%%%%q%Q%q%%Q%%%qQqQq%%%%Qq%Q%qQq%Q%%qQq%%%QqQ%%%q%%%%Qq%%%Q%q
4822I5%%Q%q%%%Qq%%%%Q%%qQ%qQq%%QqQq%Q%%qQqQqQqQq%%Qq%QqQqQqQqQq%%qQ%QqQk4K4%
4815A03qJ6j6%%%%Q%%q%%Qq%%%Qq%%QqQq%Qq%Qq%%%%%%%%QqQqQ%q%%%QqQq%%%%Qq%Qq%%%Q
4809A03q%%%%%%Q%%%%q%%%%QqQq%Q%q%%%Q%%%%%q%%%%%%%%%%%%%%%%%%%QqQ%q%%%%%%%%%%
4802I5%%%%%%%%%%%Qq%%%%%%%%%%%%Qq%%%%%%%%%%Qq%%%%%%Qq%%%%%%%%%%%%%%%%%%%%%%%
4796I5%%%%%%%%%%%%%%%%Qq%%%%%%%%%%%%%%%%%%%%%Q%qQqQ%%%qQq%%%Qq%%%%%Qq%%%%%%%
4789I5%%%%%%%%%%%%%%%%%%%%%%%%%%%%%%%%%%%%%Qq%%%%%%%%%%%%%%%%%%%%%%%%%%%%%%%
4782I5%Qq%%%%%%%%%%%%%%%%%%%%%%%%%%%%%%Qq%%%%%%%%%%%%%%%%%%%%%%%%%%%%%%%%%%%
4776I5%%%%%%%%%%%%%%%%%%%%%%%%%%%%%%%%%%%%%%%%%%%%%%%%%%%%%%%%%%%%%%%%%%%%%%
4769I5%%%%%%%%%%%%%%%%%%%%%Q%q%%%%%%%%%%%%%%%%%%%%%%%%%%%%%%%%%%%%%%%%%%%%%%
4762I5%%%%%%%%%%%%%%%%%Qq%%%%%%%%%%%%%%%%%%%%%%%%%%%%%%%%Qq%%%%%%%%%%%%%%%%%
4756I5%%%%%%%qQ%%%%%%%%%%%%%%%%%%%%%%%%%%%%%%%%%%%%%%%%%%%%%%%%%%%%%%%%%%%%%
4749I5%%%%%%%%%%%%%%%%%%%%%Qq%%%%%%%%%%%%%%%%%%%%%%%%%%%%%%Qq%%%%%%%%%%%%%Qq
4742I5%Qq%%qQ%%%%%%%%%%%%%%%%%%%%%%%%%%%%%%%%%%%%%%%%%%%%%%%%%%%%%%%%%%%%%%%
4736I5%%%%%%%%%%%%%%%%%%%%%%%%%qQ%%%%%%%%%%%%%%%%%%%%%%%%%%%%%%%%%%%%%%%%%%%
4729I5%%%%%%%%%%%%%%%%%%%%%%%%%%%%%%%%%%%%%%%%%%%%%%%%%%%%qQ%%%%%%%%%%%%%%%%
4722I5%%%%%%%%%%%%%%%%%%%%%%%%%%%%%%%%%Qq%%%%%%q%%QqQ%qQ%%%%qQ%%%%%%%%%%%%%%
4716I5qQ%%%%%%%%%%%%%%%%%%%%%%%%%%%%%%%%%%%%%%%%%%%%%%%%%%%%%%%%%%%%%%%%%%%%
4709I5%%%qQ%%%%%%%%%%%%%%qQ%%qQ%%%%%%%%%%%%%%%%%%%%%%qQ%%%%%%%%%%%%qQqQ%%%%%
4702I5%%%%%%%%%%%%%%%%%%%%%%%%%%%%qQqQ%%%%%%%%%%%%%%%%%%%%%%qQ%%%%%%%%%%%%%%
4696I5%%%%%%%%%%%qQ%%qQ%%qQq%Q%%%%%%%%%%%%%qQ%%%%%%%%%qQ%%qQqQ%%%qQq%Q%%%%%%
4689I5%%%%qQ%%%%%q%QqQ%qQ%%q%Q%%q%%%Q%qQ%%qQ%%%%qQ%%%%qQ%%%%qQ%%qQ%%%%%%%%%q
4682H7Q%%qQ%%qQqQ%qQ%%q%%%Q%q%Q%%qQ%%%%%%%%%%%%%%%%%%qQ%%%%%%%%%%%%%%%%%qQ%%
4675I5qQ%q%%Q%%q%%Q%%qQ%%qQq%Qq%QqQ%%%q%%%Q%%qQ%%qQq%Q%%%%%%%%%%%%q%%%QqQqQq
4669H7%Q%%qQqQ%%q%%Q%%%%qQ%%%%%%q%%%%%QqQqQqQqQqQq%Qq%QqQ%%%%qQqQ%%qQqQqQ%%q
4662H7Q%%%%%%%qQ%%%%%%qQ%%%%%%qQ%qQ%qQ%%%%qQq%QqQq%QqQqQqQ%q%Q%%%%q%%%%Q%%q%
4655H7%Q%qQq%Qq%%Q%q%Qq%%%%%%%Q%q%%%Q%%%%q%%Q%qQ%q%%%Q%%%%%q%Qq%%Q%%%%%q%%Qq
4649H7Qq%%QqQqQ%%qQ%%q%%%%QqQqQq%%QqQq%%Q%%%q%Qq%%Q%qQqQqQ%qQq%Q%%%%qQ%%%%%%
4642I5%%%q%QqQq%%%%QqQqQ%qQqQq%%%QqQqQqQq%%%Q%%q%%%Q%%%qQq%Q%%%%qQ%qQ%%qQ%%%
4635I5qQ%qQ%%%qQq%%%Qq%%%%%%%%%%%%%%Q%qQq%%Q%q%%%%%%%Q%q%%Q%qQq%%%%%Q%q%%%Q%
4629I5q%%%%%%%%%%%%QqQ%q%Q%%qQqQq%%QqQq%Q%%q%%%%%%%QqQ%q%%Qq%%%%%%%%%%%Qq%%J6
4622A03j6Qq%Qq%%Qj6Q%%j6K4k4%J6qqQ%%J6Qj6%%%Qq%qQ%%%Q%%q%%%%QqQ%q%Q%qQq%%%Qq
4616H7%%Q%%q%Q%qQqQ%q%%%%%%%%%%%%%%%%%Qq%%%QqQq%%%%%%%%%%%%%%%%%%%%%%%%%%%%%
4610H7%%%%Qq%%%%%%%Qq%%%%%%%%%Qq%%%%Qq%%%%%%Qq%%%%%%%%%%Qq%%%%%%%%%%%%%%%%%%
4603H7%%%%Q%%q%%Q%%qQ%q%%%%%%%%%%%%%%%%%%%%%%%%%%%%%%%%%%%%%%%%%%%%Qq%%%Qq%%
4596H7%%%%%%%%%%%%%%%%%%%%%%%%%%%%%Qq%%%%%%%%%%%%%%%%%%%%%%%%%%%%%Q%%qQq%Qq%
4590H7%%%%%%%%%%%%%%%%%%%%%%%%%%%%%%%Qq%%%%%%%%%Qq%%%%%%%%%%%%%%%%%%Qq%%%%%%
4583H7%%%%Qq%%%%%%%%%%%%%%%%%%%%%%%%%%%%%%%%%%%%%%%%%%%%%%%%%%%%%%%%%%%%%%%%
4576H7%%%%%%%%%%%%%%%%%%%%%%%%%%%%%%Qq%%%%%%%%%%%%%%%%Q%%q%%Qq%%Q%q%Qq%%%%%%
4570H7%%%%%%%%%%%%%%%%%%%%%%%%%%%%%%%%%%%%%%%%%%%%%%%%%%%%%%%%%%%%%%%%%%%%%%
4563H7%%%%%%%%%%%%%%%%%%%%%%%%%%%%%%%%%%%%%%%%%%%%%%%%%%%%%%%%%%%%%%%%%%%%%%
4556H7%%%%%%%%%%%%%%%%%%%%%%%%%%%%%%%%%%%%%%%%%%%%%%%%%%%%%%%%%%%%%%%%%%%%%%
4550H7%%%%%%%%%%%%%%%qQqQ%%%%%%%q%Q%%qQ%%%%%%%%%%%%%%%%%%%%%%%%%%%%%%%%%%%%%
4543H7%%%%%%%%%%%%%%%%%%%%%Qq%%%%%%%%%%%%%%%%%%%%%%%%%%%%%%%%%%%%%%%%%%%%%%%
4536H7%%%%%%%%%%%%%%qQ%%%%%%%%%%%%%%%%%%%%%%%%%%%%%%%%%%%%%%%%%%%%%%%%%%%%%%
4529H7%%%%%%%%%%%%%%%%%%%%%%%%%%%%%%%%%%%%%%%%%%%%%%%%%%%%%%%%%%%%%%qQ%%%%Q%
4523I5q%Qj6QqQq%%%Q%%%%%%%%%%%%%%%%%%%%%%%%%%%%%%%%%%%%%%%%%%%%%%%%%%%%%%%%%
4516H7%%%%%%%%%%%%%%%%%%%%%%%%%%%%%%%%%%%%%%%%%%%%%%%%%%%%qQ%%%%%%%%%%%%%%%%
4510H7%%%%%%%%%%%%%%%%%%%%%%%%%%%%%%%%%%%%%%%%%%%%%%%%%%%%%%%%%%%%%%%%%%%%%%
4503H7%%%%%%%%%%%%%%%%%%%%%%%%%%%%%%%%%%%%%%%%%%%%%%qQ%%%%%%%%%%%%%%qQ%%%%%%
4496H7%%%%%%%%%%%%%%%%%%%%%%%%%%%%%%%%%%%%%%%%%%%%%%%%%%%%%%%%%%%%%%%%%%qQ%%
4490H7%%%%%%q%Q%%%%%%%%%%%%%%%%qQ%%%%%%qQ%%qQ%q%Q%%%%%%%%%%%%%%%%%%%%%%%%%%q
4483G9Q%qQ%%qQ%%%%%%%%%%%%%%%%%%%%qQ%%%q%Q%qQ%%%%%%%%%%%%%%%%%%%%%%%%%%%qQ%%
4476H7qQ%%%%%%%%%%qQ%%qQ%qQ%%qQqQ%%%qQ%%%%%%%%%%%%%%qQ%%%%%%%%%%qQ%%%%%%%%%%
4469H7%%%%%%qQ%%%%%%%%%%%%%%%qQ%%%%%%%%%%%%%%%%%%%%%%%%%%%%%%%%%%%q%Q%%qQ%%%
4463H7%%%%%%%%%%%%%%%%%%%%%%%%%%%%%%%%%%%%%%%qQ%%%qQ%%%%%%%%%qQqQ%q%Q%%%%%%%
4456H7%%%%%%%qQ%%qQ%%%%%%%%%%%%%%%%%%%%%qQ%%%%%%%%q%Q%%%%%%q%Q%%q%%%QqQqQ%qQ
4449H7q%%%%Q%%q%Q%qQ%%%q%Q%%%%%q%Qq%Q%%%%%qQ%%qQ%%%%qQ%%%qQ%%%%%%%%%%%%%%qQ%
4443H7%%%%%%%%%%%%%%%%%%%qQ%%%%q%QqQq%Q%%%%%%qQ%%%%%%%qQqQqQq%QqQ%%q%%%Q%qQq
4436G9%Q%%%%%%qQ%%qQ%%%%%%%%%%%q%Q%%%%%%qQ%%%%q%%Q%%%%%%%%qQ%%%%%q%Q%qQ%%q%%
4429G9Q%%%%q%%Q%q%Q%%%%%%%%q%Q%qQ%%%%%q%QqQ%%qQ%qqK4j6QqqJ6%qQ%qQ%%qQ%%%qQ%q
4423G9Q%%%%%qQ%%%%q%Q%%%%%%%%%q%%%Q%%%%%%q%Qq%%%Q%%%%%%%%%%%qQ%%q%Qq%QqQ%%%q
4416G9Q%qQ%qQqQ%%%%%q%Q%qQqQqQ%qQ%qQqQ%%%qQ%qQ%qQ%%qQ%%%%%%%%%%%%q%QqQq%%Q%%
4410H7q%Q%%%%qQqQ%qQ%%%%%qQqQqQ%%%%qQ%qQq%Q%%%%%%q%Q%%%%%qQ%%%%%%%%q%QqQ%q%Q
4403H7%%qQ%qQ%%%%%qQ%qQqQ%q%Q%%%%%%q%%QqQq%%Q%%qQ%qQq%Q%q%Q%%%qQ%%%%qQq%%Q%%
4396H7%qQ%qQ%qQq%Q%qQ%%%%q%%%%Q%%%%qQqQqQ%q%%Q%qQ%q%%Qq%Q%q%%Q%%qQq%%Q%%%q%%
4390G9%Q%%q%%%Q%qQqQqQq%%Q%q%%%%Qq%%Qq%Qq%Q%%%q%Q%%q%Qq%%QqQqQ%%%%qQ%%%qQq%Q
4383H7%%q%Q%qQ%%qQ%q%%%%%%Q%qQ%%qQq%%%%%%QqQ%q%QqQq%%%%%%%QqQ%q%Q%qQ%q%%Qq%%
4376G9Q%qQqQqQ%qQqQq%%QqQq%%%Q%qQqQqQ%q%%%%Q%qQq%%%%Qq%%%%%%Q%%qQq%Qq%%QqQqQ
4370H7qQq%%Qq%Qq%%%QqQq%%%%%%Qq%%%%%%%%Q%q%%%%%%%%%%%Q%%%qQq%%QqQ%%q%Qq%%%%Q
4363H7qQ%qQqQqQq%%Q%q%%%QqQ%%%%q%%Q%q%Qq%%%%Q%q%QqQqQ%%q%Q%qQ%%q%%%%%%%%%%%%
4356G9%%%Qq%%%%%%Qq%Qq%QqQq%%%%%%%%%%Qq%QqQ%q%%%QqQqQ%%%q%%%%%%%%Qq%Qq%%%%Qq
4350G9%%%Q%%q%Q%%%%q%%Qq%%%%%%%%%Qq%%%%%%%%%%%%Qq%%%QqQq%%%%%%%%%%%%Qq%%%%%%
4343G9%%%%%%Q%q%%%%%%%%%%%Qq%%%%Qq%%%%%%Qq%%%%%%QqQq%Qq%%%Q%qQq%%%%%%%%%%%%Q
4336H7%q%%%%%Q%q%%%%Q%%q%%%%%Qq%%%%%%%Qq%%Q%%%%%%%%%%qQqQ%%q%Qq%%Qq%QqQq%%%%
4330G9%%%%%%%%%%%%%%QqQqQ%j6QqQQ%q%%Qq%%QqQq%%%%%%%Qq%%%QqQ%%q%%%%%Qq%%%%%%%
4323G9%%%%%%%%Qq%%%%%%Qq%%%%%%%%Qq%%%%%%%%%%%%%%%%%%%%%%%%%Qq%%%%%Qq%%%%%%%%
4316G9%%%%%%%%%%%Qq%%%%Qq%%%%%%%%%%%%%%%%%%%%%%%%%%%%%%%%%%%%%%%%%%%%%%%%%%%
4310G9%%%%%%%%%%%%%%%%%%%%%%%%%%%%%%%%%%%%%%%%%%%%%%%%%%%%%%%%%%%%%%%QqQq%%%
4303G9%%%Qq%%%%Qq%%%%%%Qq%%%%%%%%%QqQq%%Qq%Qq%Q%%q%%%%%%%%%%%%%%%%Q%q%%Qq%%%
4296G9%%%%%%%%%Q%q%%%%%%%%%%%%%%%%%%%%%%%%%%%%%Qq%%%%%%%%%%%%%%%%%%%%%%%%%%%
4290G9Qq%%%%%%%%%%%Qq%%%%%%%%%%%%%%%%%%%%%%%%%%%%%%%%%%%%%%%%%%%%%%%%Qq%%%%%
4283G9Qq%%Qq%%Qq%%%%%%%%%%%%%%%%%%%%%Qq%%%%QqQqQq%%q%Q%Qj6Q%Qq%%%%%%%%%%%%%%
4276G9%%%%%%%%%%Qq%%QqQq%%%%%%%%%%%%%%%%%%%%%%%%%%%%%%%%%%%%%%%%%%%%%%%%%%%%
4270G9%%%%%%%%%%%%%%%%%%%%%%%%%Qq%%QqQq%qQ%Qq%%%%%%%%%%%%%%%%%%%%%%%%%%%%%%%
4263G9%%%%%%%%%%%%%%%%%%%%%%%%%%%%%%%%%%%%%%%%%%%%%%%%%%%%%%%%%%%%%%%%%%%%%%
4256G9%%%%%%%%%%%%%%%%%%Qq%Qq%%%%Qq%%%%%%%%%%%%%%%%%%%%%%%%%%%%%%%%%%%%%%%%%
4250G9%%%%%%%%%%%%%%%%%%%Qq%%%Qq%%%%%%%%%%%%%%%%%%%%%%%%%%%%%%%%%%%%%%%%%%%%
4243G9%%%%%%%%%%Qq%%%%%%%%%%%%%%%%%%%%%%%%%%%%%%%%%%%%%%%%%%%%%%%%%%%%%%%%%%
4236G9%%%%%%%%Qq%%%Qq%%%%%%%%%%%%%Qq%%%Qq%%%%Qq%%%%%%%%%%qQ%qQqQ%%%%qK4j6%%J6
4230I5j6Qk4L2l2J6%qqK4qqJ6q%%%%%%Qq%%%Qq%%%%%%%%%%%%%%Qq%%%%%%%%%%%%%%%%%%%%
4224G9%%%%%%%%%%%%%%%%%%%%%%%%%%%%%%%%%%%%%%%%%%%%%%%%%%%%%%%%%%%%%%%%%%%%Qq
4217G9%%%%%%%%%%%%%%%%%%%%%%%%%%%Qq%%%%%%%%%%%%%%%%%%%%%%%%%%%%%%%%%%%%%%%%%
4210G9%%%%%%%%%%%%%%%%%%%%%%%%%%%%%%%%%%%%%%%%%%%%%%%%%%Qq%%%%%%%%%%%%%%%%%%
4204G9%%%%%%%%%%%%%%%%%%%%%%%%%%%%%%%%%%%%%%%%%%%%%%%%%%%%%%%%%%%%%%%%%%%%%%
4197G9%%%%%%%%%%%%%%%%%%%%%%%%%%%%%%%%%%%%%%%%%%%%%%%%%%%%%%%%%%%%%%%%%%%%%%
4190G9%%%%%%%%%%%%%%%%%%%%%%%%%%%%%%%%%%%%%qJ6q%%%%%%%%%%%%%%%%%%%%%%%%%%%%%
4184G9%%%%%%%%%%%%%%%%%%%%%%%%%%%%qJ6%j6Q%%%qQ%%%%%%%%%%%%%%%%%%%%%%%%%%%%%%
4177G9%%%%%%%%%%%%%%%%%%%%%%%%%%%Qq%%%%%%%%%%%%%%%%%%%%%%%%%%%%%%qQ%%%%%%%%%
4171G9%%%%%%%%%%%%%%%%%qQ%%%%%%%%%%%%%%%%%%%%%%%%%%%%%%%%%%%%%%%%%%%%%%%%%%%
4164G9%%%%%%%%%%%%%%%%%%%%%%%%%%%%%%%%%%%%%%%%%%%%%%%%%%%%%%%%%%%%%%%%%%%%%%
4157G9%%%%%%%%Qj6Q%%%%%%%%%%%%%%%%%%%%%%%%%%%%%%%%%%%%%%%%%%%%%%%%%%%%%%%%%%
4151G9%%%%%%%%%%%%%%%%%%%%%%%%%%%%%%%%%%%%%%%%%%%%%%%%%%%%%%%%%%%%%%%%%qQqQ%
4144G9%%%%%%%%%%%%%%%%%%%%%%%%%%%%%%%%%%%%%%%%%%%%%%%%%%%%%%%%%%%%%qQ%%%%%%%
4137G9%%%%%%%%%%%%%%%%%%%%%%%%%%%%%%%%%%%%%%%%%%%%%%%Q%q%%%QqqJ6j6%J6q%q%Q%%
4131G9%%%%%%%%%%%%%%%%%%%%%%%%%%%%%%%%%%%%%%%%%%%%%%%%%%%%%%%%%%%%%%%%%%%%%%
4124G9%%%%%%%%%%%%%%%%%%%%%%%%%%%%%%%%%%%%%%%%%%%%%%%%%%%%%%%%%%%%%%%%%%%%%%
4118G9%%%%%%%%%%%%%%%%%%%%%%%%%%%%%%%%%%%%%%%%%%%%%%%%%%%%%%%%%%%%qQ%%%%%%%%
4111G9%%%%%%%%%%%%%%%%%%%%%%%%%%%%%%%%%%%%%%%%%%Qq%%%%%%%%%%%%%%%%%%%%%%%%%%
4104G9%%%%%%%%%%%%%%%%%%%%%%%%%%%%%%%%%%%%%%%%%%%%%%%%%%%%%%%%%%%%%%%%%%%%%%
4098G9%%%%%%%%%%%%%%%%%%%%%%%%%%qQ%%%%%%%%%%%%%%%%%%%%%%%%%%%%%%%%%%%%%%%%%%
4091G9%%%%%%%%%%%%%%%%%%%%%%%%%%%%%%%%%%%%%%%%%%%%%%%%%%%%%%%qQ%%%qQ%%%%%%%q
4084G1%Q%%%%%%%%Qq%%%%qQqQ%%%%%%%%%%%%%%%%%%%%%%%%%%%%%%%%%%%%%%%%%%%%%%%%%%
4078G9%%%%%qQ%%%%%%%%%%%%%%%%%%%%%%%%%%%%%%%%%%%%%%%%%%%%%%%%%%%%%%%%%%%%%%%
4071G9%%%%%%%%%%%%%%%%%%%%%%%%%%%%%%%%%%qQ%%%qQ%%%%%%%%%%%%%%%%%%%%%%%%%%%%%
4064G9%%%%%%%%%%%%%%%%%%%%%%%%%%%%%%%%%%%%%%%%%%%%%%%%%%%%%%%%%%%%%%%qQ%%%qQ
4058G9%%%%%%%%%%%%%%%qQ%%%%%qQ%%%%%%%%%%%%%%%%%%%%%%%qQ%%qQ%%%%qQ%%%%%%%%%%%
4051G9%%%%%%%%%%%%%%%%%%%%%%%%%%%%%%%%%%%%%%%%%%%qQ%qQ%%%q%QqQqQ%%%%%%%%%%%%
4044G9%qQ%%qQ%%%%%%%%%%%%%%%%%%%%%%%%%%%%%%%%%%qQ%%%%%%%%%%%%%%%%%%%%%%%%%%%
4038G9%%%%%%%%%%qQqQqQ%%qQ%%%%qJ6qq%QQq%%J6k4QQj6Q%%%q%QqQ%%%%%%%%%%%%%%%%%q
4031G1Q%%%%%%%%%%%%%%%%%%%%%%%%%%%%%%%%%%%%%%%%%%%%%%%%%%%%%%%%%%%%%%%%%%%%%
4025G9%%%qQ%%%%%%%%%%%%%%%qQ%%%%%%%%%%%%%%%%%%%%%%%%%%%%%%%%%%%%%%%%%%%%%%%%
4018G9%%%%%%%%%%%%%%%%%%qQq%Q%%%%%%qQ%%%%%qQ%%%%%%%%%%%%%%qQ%%%%qQqQ%%%%%%%%
4011G9%%%%qQ%%%%%%%%%%%%%%%%%%%%%%%%%%%%%%%%%%%%%%%%%%%%%%%%%%%%%%%qQ%%%%%%%
4005G9qQ%%qQ%%qQ%%%%%%%%%%%%%%%%%%%%%%%%%%%%qQ%%%%%%%%%%%%%%%%%%%%%%%%%%%%%%
3998G9%qQ%%%qQ%%%%%%qQ%%%%%%qQqQ%%%%%%%%%%%%%%%%%%%%%%%%%%%%%%%%%%%%%%%%%%%%
3991G9%%%%qQ%%%%%%%%%%%%%%%%%%%%%%qQ%%%%%%%%%%%%%%%%qQ%%qQ%qQq%Q%q%Q%%%%%%qQ
3985G9%%qQ%%%%%%%%%%%%%%%%%%%%%%%%%%%%%%%%%%%%%%%%%%%%%%%%%%%%%%qQ%%%%qQ%%%%
3978G9%%%%%%%%%%%%%%%qQ%%%%%%%%qQ%%%%%%%%%%%%%%%%%%%%%%%%%%%%%%%%%%%%%%%%%%%
3971G9%qQ%%%%%%%%%%%%%%%%%%%%%%%%%%%%%%%%%%%%%%%%%%%%%%%%%%%%%%%%%%%%qQ%%%%%
3965G9%%%%%%%%%%%%%%%%%%%%%%%%%qQ%%%%%%%q%Q%%%%%%%%%%%%%%%%%%%%%%%%%%%%%%%%%
3958G9%%%%%%%%%%%%%%%%%%%%%%%%%%%%%%%qQ%%%%%%%%%%%%q%Q%%%%qQ%%%%%%%%%%%%%%%%
3951G9%%%%qQ%%qQ%%%%%%%%%q%%Q%q%Q%qQ%%%%%qQ%%%%%%%%%%%%%%%%%%%%%qQ%%%%%%%%%%
3944G9%%%%%%%%%%%%%%%%qQqQ%%%%%%%%%%%%%%%%%%%%%%%%%%%qQ%%qQ%%%%%%%%%%%%%qQ%%
3938G9%qQqQ%%%qQqQj6QQq%Qq%Q%qQ%qQ%%%%%%%%%%%%%%%%%%%%%%%%%%%%%%%%%%%%%%%%%%
3931G9%%%%%%%%%%%%%%%%%%%%%%qQ%%%qQ%%%%%%qQ%%%%%%%%%%%%%%%%%%%%%%%%%qQ%%%%qQ
3925G9%%%%qQ%%%%qQ%%%%%%%%%%%%%%%%%%%%%qQ%%%%%%%%%%%%%%%%%%%qQ%%%%%%%%%qQ%%%
3918G9%%%%%%%%%%%%%%%%%%qQ%%%%%%%qQ%%%%%%%%%%%qQ%qQ%%%%%qQqQqQ%%%%%q%%Q%%%%%
3911G9qQqQ%%%%%%%%%%%%%%%%%%qQ%%%%%%%%%qQ%qQqQ%%%%%%%%%%%%%%%%%%%%%%%%%%%%%%
3905G9%%%%%%%%%%%%%%%%%%%%%%%%%%%%%%%%%%%%%%%%%%%%qQ%%%%%%%qQ%%%qQ%%qQ%qQ%%%
3898G9%%%%%%%%%%%%%%%%%%%%%%%%%%%%%qQ%%qQq%%QqQqQ%qQ%%%%%qQ%%%%%%%%%%qQ%%%%%
3891G9%%%%%%%%%%%%%%%%%%%%%%%%%%%%%%Qq%%qQ%%qQ%%%%%%%%%qQ%%%%qQ%%%%%%%%%%%%%
3885G9%%%%%qQ%%%%%%%%%%%%%%%%%%%%qQqQ%%%%%%%qQqQ%%%%%%%%%%%%%%%%%%%%%%%qQ%%%
3878G9%%%%%%%%%%%%%qQ%%%%%qQ%%%qQ%%%qQ%%%%%%%%%%%%%qQ%%q%Q%%qQ%%%%%%%%%%%%%q
3871G1%QqQ%%%%%%%%qQ%%%%qQ%%qQ%qQ%%%%%%%%%%%%%%%%%%%%%%%qQ%%%%%%%%%%%%%%%%%%
3864G9q%Q%%%%%%%%%qQ%q%Q%%%%%qQ%%%%%%%qQ%%%%%%%%%%%%%%%%%%%%%%%%%%%%%%%%%qQ%
3858G9%%%%%%%%%%%%%qQ%%%%%%qQqQ%%%%%%qQ%%%%%%%%%%%%%%%%%%%%%%%%%%%%%%%%qQ%%%
3851G9%%%%%qQ%%%qQ%%qQ%%%%%%%%q%Q%%%%%%%%%%%%%%%%%%%%%%%%%qQ%%%qQ%%%%%qQ%%%%
3844G9%%%%%qQqQ%qQ%qQ%qQ%%qQ%qQ%qQq%%%%Qq%Q%Qq%%%%%q%qK4k4Q%m0P2o4J6M8%o4K4P2
3839A35p2QK4k4QqJ6%q%qQ%%%Qj6Qj6QQ%%%q%%Q%%Qq%%q%QqQ%%%%%%qQ%%%%qQ%%%%q%Q%%q
3833G1Q%%q%Q%qQ%%%%%%%%%%%%%%%qQ%%%%%qQ%qQqQ%%%qQ%%qQqQ%%%%%%%%%qQ%%%%%%%%%%
3826G9%%%%%%%%%%%%%%%%%%%%%qQ%%%%%%%%%%%%q%Q%%%qQ%%%%%%qQ%%%%qQqQqQ%%%%%%%%%
3819G9%%%%%%%%%%%%%%qQ%%%%%qQ%%%%%%%%%%%%qQ%%%%%%%%%%%%%%%qQ%qQqQ%%qQqQ%%qQ%
3813G9%%%%%%%%%%%%%%%%%%%%%%%%%%%%%%%%%qQ%%%%qQ%%%%%%qQ%%%%%%%%%%qQ%%%%%%%%%
3806G9%%%%%%qQqQ%%%%%%%%%%qQ%%qQqQqQq%%QqQ%%%%qQ%%%%%%%%%%%%%%%%%%%%%%%%%%%%
3799G9%%%%%%%%%%%%%%%%%%%%%%%%%%%%q%Qq%Q%%%%%qQ%%qQ%%%%%%%qQ%%%%%%%%%%%%%%%%
3793G9%%%%%qQ%%%%%%%%%qQ%%%%%%qQQq%qQ%%%%%%%%%%%%%%%%%%%%%%%%%%%%%%%%qQ%%%%%
3786G9%qQ%%%%%%%%%%%%%%%%q%QqQqQ%%%%%%%%%%%%qQ%%%%%qQ%%%%%%%%%qQ%%%%%%%%%%%q
3779G1Q%%%%%%qQqQqQ%q%Q%qQ%%%%%%%%%%%%%%%%%%%%%%%%%%%qQ%%%%%%%%%%%%%%%%qQ%%%
3773G9%%%%%%%%%%qQ%%%%%%%%%%%%%%%%%%%%%%%%%%%%%%%%%%%%%%%%%%qQ%qQ%%qQ%qQ%%%%
3766G9qQ%qQq%Q%qQ%%%%%%%%%%%%%%%%%%%%%%%%%%%%%%%%%%%%%%%qQ%%%%qQ%%%%qQ%qQ%%%
3759G9%%%%%%qQ%%%%%%%%%%%%%%%%%%%%%%%%%%%%%%%%%%%%%%%%%qQ%%%%%%%%%qQ%%q%Q%%q
3753G1%Q%qQ%%%%%%qQ%%%%%qQ%%%%%qQ%%%%%%qQ%%%qQ%%%%%%%%%%qQ%%%%%%%%%%%qQ%%%%%
3746G9%%%%%%%%%%%%%%%%%%%%%%%%%%%%%%%%%%%%%%%qQ%%%%qQq%QqQqQqJ6j6Q%%%%%%%%%%
3739G9%%qQ%%%%%qQ%%%%%%%%%%%%%%qQ%%%%%%%%%%%%%%%%qQ%%%%%%%%%%%%qQ%%%%%%qQq%Q
3733G9%%%%%%%%%%%%%%%%%%%%%%%qQ%%%%%%%%qQ%%q%%Q%q%Q%qQ%%qQ%%%qQ%%%%%%qQ%%%%q
3726G1Q%%%%%%%%%%%%qQqQ%%%%%%%%%%%%qQ%%%qQ%qQ%%%%%%%%%%%%%%%%qQ%%%%%%%%%%%%%
3719G9%%%%%%%%%%%%%%%qQ%%%qQ%%%%%%%%%%qQq%Q%q%Q%%%%%%%%%%%%%%%%%%%%%%%%%%%%%
3713G9%%%%%%%%%%%%%%%%%%%%%%%%%%%%%%%%%%%%%%%%%%%%%%%%%%%%%%%%%%%%%%%%%%%%%%
3706G9%%%%%%%%%%%%%%%qQ%%%%%%%%%%%%%%%%%%%%%qQ%%%%%%%%%%%%%%%%%%%%%%%%%%%%%%
3699G9%%%%%%%%%qQ%%%%%%%%%%%%%%%%%%%%%%%%%%%%%%%%%%qQ%%%%%%%%%%%%%qQ%qQ%%%%Q
3693H7qqJ6q%%qQqQ%qQ%%%%%%%%%%%%%%%%%%%%%%%%%%%%%%%%%%%%%%%%%%%%%%%%%%%%%%%%
3686G9%%%%%%%%%%%%%qQ%%%%%%%%%%%%%%%%%qQ%%%%%%%%%%%%qQ%%%%%%%%%%qQqQ%%qQ%%%%
3679G9%%%%%%%%%%%%%%%%%%%%%%%%%%%%%%%%%%%%%%%%%%%%%qQ%%%%%%%%%%%%%%%%%%%%%%%
3673G9%%%%%%%%%%%%%%%%%%%%%%%%%%%%%%%%%%%%%%%%%%%%%%%qQ%%qQ%%%%%%%%%%%%%%%%%
3666G9%%qQ%%%%%%qQ%%%%%%%%%%%%%%qQ%%%%%%%%%%%%%%%%%%%%%%%%%%%%%%%%%%%%%%%%%%
3659G9%qQqQ%%qQ%%%%%%%%%%%%%%%%%qQ%%%%%%qQ%%%%qQ%%%%%%%%%%%%%%%%%%%%%%%%%%%%
3653G9%%%%%%%%%%%%%%%%%%%%%%%%%%%%%%%%q%Q%%%%%%%%%%%%%%%%%%%%%%%%%qQ%%%%%%%%
3646G9%%%%%%%%%%%%%qQqJ6q%%qQq%J6j6QQqqQ%%Qq%%q%Q%%%%%%%%%%%%%%%%%qQ%%%%%%%%
3640G9%%%%%%%%%%%%%%%%%%%%%Qj6Q%%qQ%%%%%%%%%%%%%%%%%%%%%%%qQ%%%%%q%Q%%%%%%%%
3633G9%%%%%%%%%%%%%%%%%%%%%%%%%%%%%%%%%%%%%%%%qQ%%%%%%%%%%%%%%%%%%%%%%%%%%%%
3626G9%%%%qQ%%%%%%%%%%%%%%%%%%%%%qQ%%%%%%%%%%%%%%q%Q%%%%%%qQ%%qQqQ%%%%%%%%%%
3620G9%%qQQj6Q%%%%%%%%%%%%%%%%%%%%%%%%%%%%%%%%%%%%%%%%%%%%%%%%%%%%%%%%%%%%%%
3613G9%%%%%%%%%%%%%%%%%%%%%%%%%%%%%%%%%%%%%%%%%%%%%%%%%%%%%%%%%Qq%%%%%%%%%%%
3606G9%%%%%%%%%%%%%%%%%%%%%%%%%%%%%%%%%%%%%%%%%%%%%%%%%%%%%%%%%%%%%%%%%%%%%%
3600G9%%%%%%%%%%%%%%%%%%%%%%%%%%%%%%%%%qQ%%%%%%%%%%%%q%%Q%%%q%Q%%%%%%%%qQ%%%
3593G9%%%%%%%%%%%%%%%%%%%%%%%%%%%%%%%%%%%%%%%%%%%%%%%%%%%%%%%%%%%%%%%%%%%qQ%
3586G9%%%%%%%%%%%%%qQ%%%%%%%%%%%%%%%%%%%%qQ%%%%%%%%%%%%%%%%%%%%%%%%%%%%%%%%%
3580G9%%%q%Q%%%%%%%%%%%%%%%%%%%%%%%%%%%%%%%%%%%%%%%%%%%%%%%%%%%%%%%%%%%%%%%%
3573G9%%%%%%%%%%%%%%%%%%%%%%qQ%%%qQ%%%qQ%%%%%%%%%%%%%%%%%%%%%%%%%%%%%%%%%%%%
3566G9%%%%%%%%%%%%%%%%%%%%%%%%%%%%%%%%%%%%%%%%%%%%%%%%%%%%%%%%%%%%%%%%%%%%%%
3560G9%%%%%%%%%%%%%%Qq%%%%%%%%%%%%%%%%%%%%%%%%%%%%%%%%%%%%%%%%%%%%%%%%%%%%%%
3553G9%%%%%%%%%%%%%%%%%%%%%%%%%qQ%%%%%%%%%%%%%%%%%%%%%%%%%%%%%%%%%%%%%%%%%%Q
3546H7q%qQ%Q%%j6QQq%%%%%%%%%%%%%%%%%%%%%%%%%%%%%%%%%%%%%%%%%%%%%%%%%%%%%%%%%
3540G9%%%%%%%%%%%%%%%%%%%%%%%%%%%%%%%%%%%%%%%%%%%%%%%%%%%%%%%%%%%%%%%%%%%%%%
3533G9%%%%%%%%%%%%%%%%%%%%%%%%%%%%%%%%%%%%%%%%%%%%%%%%%%%%%%%%%%%%%%%%%%%%%%
3526G9%%%%%%%%%%%%%%%%%%qQ%%%%%%%%%%%%%%%%%%%%%%%%%%%Qq%%%Q%q%%%%%%%%%%%%%%%
3520G9%%%%%%%%%%%%%%%%%%%%%%%%%%%%%%%%%%%%%%%%%%%%%%%%%%%%%%%%%%%%%%%%%%%%%%
3513G9%%%%%%%%%%%%%%%%%%%%%%%%%%%%%%%%%%%%%%%%%%%%%%%%%%%%%%%%%%%%%%%%%%%%%q
3506G1Q%%%%%%%%%%%%%%%%%%%%%%%%%%%%%%%%%%%%%%%%%%%%%%%%%%%%%%%%%%%%%%%%%%%%%
3500G9%%%%%%%%%%%%%%%%%%%%%%%%%qQ%%Qq%%%%%%%%%%%%%%%%%%%%%%%%%%%%%%%%%%%%%%%
3493G9%%%%%%%%%%%%%%%%%%%%%%%%%%%%%%%%%%%%%%%%%%%%%%%%%%%%%%%%%%%%%%%%%%%%%%
3486G9%%%%%%%%%%%%%%%%%%%%%%%%%%%%%%%%%%%%%%%%%%%%%%%%%%%%%%%%%%%%%%%%%%%%%%
3480G9%%%%%%%%%%%%%%%%%%%%%%%%%%%%%%%%%%%%%%%%%%%%%%%%%%%%%%%%%%%%%%%%%%%%%%
3473G9%%%%%%%%%%%%%%%%%%%%%%%%%%%%%%%%%%%%%%%%%%%%%%%%%%%%%%%%%%%%%qQ%%%%%%%
3466G9%%%%%%%%%%%%%%%%%%%%%%%%%%%%%%%%%%%%%%%%%%%%%%%%%%%%%%%%%%%%%%qQ%%%%%%
3460G9%%%%%%%%%%%%%%%%%%%%%%%%%%%%%%%%%%%%%%%%%%%%%%%%%%%%%%%%%%%%%%%%%%%%%%
3453G9%%%%%%%%%%%%%%%%%%%%%%Qq%%%%%Q%j6QQ%%q%qK4j6q%QJ6%l2K4Qj6qJ6j6J6Qj6%%q
3447G1QqQ%%%%%%qQ%%%Qq%%%%%%%%%%%%%%%%%%%%%%%%%%%%%%%%%%%%%%%Qq%%%%%%%%%%%%%
3441G9%%%%%%%%%%%%%%%%%%%%%%%%%%%%%%%%%%%%%%%%%%%%%%%%%qQ%%%%%%%%%%%%%%%%%%%
3434G9%%%%%%%%%%%%%%%%%%%%%%%%%%%%%%%%%%%%%%%%%%%%%%%%%%%%%%%%%%%%%%%%%%%%%%
3427G9%%%%%%%%%%%%%%%%%%%%%%%%%%%%%%QqQq%Qq%%%Qq%%%%%%%%%%%%%%%%%%%%%%%%%%%%
3421G9%%%%%%%%%%%%%%%%%%%%%%%%%%%%%%%%%%%%%%%%%%%%%%%%%%%%%%%%%%%%%%%%%%%%%%
3414G9%Qq%%%%%%Qq%%%%%%%%%%%%%%%%%%%%%%%%%%%%%%%%%%%%%%%%%%%%%%%%%%%%%%%%%%%
3407G9%%%%%%%%%%%%%%%%%%Qq%%%%%%%%%%%%%%%%%%%%%%%%%%%%%%%%%%%%%%%%%%%%%%%%%%
3401G9%%%%%%%%%%%%%%Qqq%Q%%QqQq%Qq%%%%%%%%%%%%%%%%%%%%%%%%%%%%%Qq%%%%%%Qq%%%
3394G9%%%%%%%%%%%%%%%%%%%%%%%%%%%%%%%%%%%%%%%%%%%%%%%%%%%%%%%%%%%%%%%%%%%%%%
3387G9%%%Qq%Q%q%%%%%Qq%%%%%%%%%%Qq%%%%%%%%%%%%%%%%%Qq%%%%%%%%%%%%%%%%Qq%%Qq%
3381G9%%%%%Qq%%%%%%%%%%%%%%%%%%%Qq%Q%q%%Qq%QqQqQq%%%Q%%qQq%%%Qq%%%%%Qq%%%%%%
3374G9%%%%%%%%Qq%%Qq%%%%%%%%%%%%%%%%%%%%%%%%%%%%Qq%%Qq%%Qq%%Qq%%Qq%%%%%%%%%%
3367G9%%%%%%%%Qq%%%%Qq%%%%%%%%%%%%%%%%%%%%%%%%%%%%%%Qq%%%Qq%%%%%%%Qq%%%%%Qq%
3361G9%%Qq%%%%%%%%%%Qq%%%%%%%%%%%%%%%%%%%%%%%%%%Qq%%%%%%%%%%%%%Qq%%Qq%%%%%%%
3354G9%%%%%%%%%%%%%%%Qq%%Qq%%%Q%q%%%%%Q%qQqQq%%Qq%%%%%Qq%%%%%%Qq%Qq%Q%qQq%%%
3347G9Q%q%Qq%%Q%q%Qq%Q%%qQ%q%Qq%QqQq%%%%%%QqQq%%%%Qq%%Qq%%%%%%%%%Qq%Qq%%%Qq%
3341G9QqQq%%%%Q%q%%QqQ%%q%%QqQq%%%%%%QqQq%%Qq%%%%%%%%%%%Qq%%%Q%q%%%%%Qq%%%%%
3334G9%Qq%Qq%%%%%Qq%Q%%q%%Qq%%Q%%q%Q%q%%%%%%%%%%Qq%%%%%%%%%%Qq%%%%%%%%%%%%%%
3327G9%%%%%%%%%%%%Q%%q%%%Qq%QqQqQ%q%%%%QqQ%%%%q%Qq%Qq%Qq%%%%%%%%%%%%Qq%Qq%Qq
3321G9%Q%q%%%%%QqQq%%%%%%%%Qq%%%%%%%%%%%%%Q%%%%%q%QqQqQq%%Qq%%%%%%QqQ%%qQq%%
3314G9QqQ%%qQ%q%%%Qq%Q%qQqQq%%%%%%%%%Q%qQqQ%%%q%%%Q%%%%%q%%%Qq%%%%Qq%Qq%Qq%%
3307G9Q%qQq%%%%%%%%Q%qQq%%%Q%%q%Q%qQq%%Q%q%QqQ%%%q%Qq%%Q%q%J6j6Q%%j6QQq%Q%%q
3301G9Q%qQ%qQ%%qQ%q%%Qq%%%%%%%%%%%%%%Qq%%%%%%%Qq%%Qq%%%Qq%Qq%Q%q%%%%QqQq%Q%q
3294G9Q%q%%%%%Qq%Qq%%%Q%q%QqQ%q%%%%%QqQq%%%%%Q%qQ%%%q%%%Q%%qQ%q%%Q%q%%Qq%QqQ
3287H7q%%Qq%Q%q%%Qq%Q%%q%%%%%Q%q%%Qq%%Q%%%q%Qq%%Qq%%%%%Qq%%Q%%qQ%qQq%%%Qq%Qq
3281G9%%%QqQ%%%qQ%%%%%qQ%%%%%%%%%%qQ%qQ%%%%%q%Q%%%%%qQ%%%%%%%%qQ%%%q%QqQqQ%%
3274H7qQ%%%%%qQ%qQ%%%%%%%%%%%q%%Q%qQ%qQq%%QqQ%%qQqQqQ%q%QqQ%%%q%QqQ%qQqQq%Qq
3267G9%%QqQ%%%%qQ%q%Q%%q%%Q%%%%%qQ%%%%%%%qQ%%%%%%%qQq%Q%%%%%qQ%%qQ%qQqQ%%qQ%
3261H7%q%Q%%%qQq%QqQ%%%qQ%%q%Q%%%q%Q%%%%qQq%Q%%qQ%%q%Q%qQqQ%%%q%QqQ%%qQqQ%qQ
3254H7%qQ%j6J6qJ6%j6%J6qqj6K4%qQ%qQ%qQ%%qQq%QqQ%%%%q%%Q%qQqQqQ%%qQ%%%%%%qQ%%
3248H7qQ%qQ%%%q%%QqQ%%%%%%qQ%%%%%%qQ%qQqQ%%%%%q%Q%%%q%%%%Q%q%%%Q%q%%%%Q%%%%%
3241H7%%qQ%%%q%%Q%%%%%qQqQqQ%qQ%%%%%%%%%%qQ%%qQ%%%qQ%%%%%qQ%%%%%%%%%%%%%%qQ%
3235H7q%Q%%%qQ%%%%%%%%%%%%%q%%Q%qQ%qQ%%%%%%%%%%%%%%%%%%%%%%%%%%%qQ%q%%Q%%qQ%
3228H7%%q%Q%%%%qQ%qQ%%qQ%%%%%%%%%%%%%%%%%%%%%%%%%%%%%%%%%%%qQ%%%%%%%%%%%%qQ%
3221H7qQ%%%%%%%%%%%%%%qQ%%%%%%%%qQ%%%%%%%%%%%%%%%%%%%%%%%%qQ%%%%%%%%%%%%%%%%
3215H7%%%%%%%%%%qQ%%%%%%%%%%%%%%%%%%%%%%%%%%%%%qQ%%%%%%%%%%%%%%%%%%%%%%%%%%%
3208H7%%qQ%%%%qQ%%%qQq%Q%q%Q%%%%qQ%%%%%%%%qQ%qQqQqQqQqQ%%%%%qQ%%%%%%%%%%%%qQ
3201H7%%%%%%%%%%%%%%qQ%%%%%%%qQ%%%%%%%%%%qQ%%qQ%%%%%%%%%%%%%%%%%%%q%Q%%qQ%%%
3195H7%%%%%%%%%%%%%%%%%%%%%%qQ%%qQqQ%qQ%%%%%%%%%%%%%%%%%%%%%qQ%%%%qQqQ%%%%%%
3188H7%%%%%%%%%%%%%%%%%%%%%%%%%%%%%%%%%%%%%%%%%%%%%%%%%%%qQ%%%%%%%%%qQ%%%%%%
3181H7%%%%%%%%%%%%qQ%Qq%%%qQ%%%%%%%%%%%%%%%%%%%%%%%%%%%%%%%%%%%%%%%%%%%%%%%%
3175H7%%%%%%%%%%%%%%%%%%%%%%%%%%%%%%%%%%%%%%%%%%%%%%%%%%%%%%%%%%%%%%%%%%%%%%
3168H7%%Q%q%%%%%%%%%%%%%%%%%%%%%%%%%%%%%%%%qQ%%%%%%%%%%%%%%%%%%%%%%%%%%%%%%%
3161H7%%%%%%%%%%%%%%%%%%%%%%%%%%%%%%%%%%%%%%%%%%%%%%%%%%%Qq%%%qQ%%%%%%qQqJ6q
3155H7%%%%%qJ6q%%%%%%%%%%%%%%%%%%%%%%%%%%%%%%%%%%%%%%%%%%%%%%%%%%%%%%%%%%%%%
3148H7%%%%%%%%%%%%%%%%%%qQ%%%%%%%%%%%%%%%%%%%%%%%%%%%%%%%%%%%%%%%%%%%%%%%%%%
3141H7%%%%%%%%%%%%%%%%%%%%%%%%%%%%%%%%%%%%%%%%%%%%%%Qq%%%%%%%%%%%%%%%%%%%%%%
3135H7%%%%%%%%%%%%%%%%%%%%%%%%%%%%%%%%%%%qQ%%q%Q%%%%%%%%%%%%%%%%%%%%%%%%%%%%
3128H7%%%%%%%%%%%%%%%%%%%%%%%%%%%%%%%%%%%%%%%%%%%%%%%%%%%%%%%%%%%%%%%%%%%%%%
3121H7%%%%%%%%%%%%%%%%%%%%%%%%%Qq%%%%%%%%%%%%%%%%%%%%%%%%%%%%%%%%%%%%%%%%%%%
3115H7%%%%%%%%%%%%%%%%%%%%%%%%%%%%%%%%%%%%%%%%%%%%%%%%%%%%%%%%%%%%%%%%%%%%%%
3108H7%%%%%%%%QqqQ%Qq%%%Qq%%Qq%%%%%%%%%Qq%%%%%%%%Qq%%%%%%%%%%%%%%%%%%%%%%%%%
3101H7%%%%QqQq%%Qq%%%%%%%%%%%%%%%%%%%%%%%%%%%%%%%%%%%%%%%%%%%%%%%%%%%%%%%%Q%
3095I5q%%%%%%Qq%%%%%%%%%%%%%%%%%%%%%%%%%%%%%%%%%%%%%%%%%%%%%%%%%%%%%%%%%%%%%
3088H7%%%%Qq%%%%%%QqQq%%%Qq%%%%%%%%%%%%%%%%%%%%%%%%QqQqQ%q%%Q%%qQq%%Qq%%%%Qq
3081H7%%%%%%Qq%%%%%%%%%%%%%%%%%%%Qq%%%%Qq%%%%%%QqQq%%%Qq%Qq%Q%%%qQ%q%%Qq%Qq%
3075H7%%Qq%Qq%%%%%%%%%%%%%%%%%%%%%%%%%%%%%%%%%%%%%%%%%%%%%Qq%%%%%%%%%%%%%%%%
3068H7%%%%Qq%%%%%%Qq%%%%%%%%%Qq%%%%%%%%%%%Qq%%%%%%%Qq%Qq%%Q%q%Q%%%%qQq%%%Qq%
3061H7%%%%Q%qQq%%%%%Q%%q%%%%%%J6%j6J6j6J6j6J6k4J6q%J6%q%%qqQ%Q%%qJ6%j6qQ%%%%
3056H7%qQ%Qq%%%Q%q%%%Qq%%%Q%q%%%Q%q%%%QqQ%q%%%%%%%Qq%%Qq%QqQ%qQq%%Q%%qQ%q%Q%
3049I5%%%%%q%%%Q%%qQ%%%%%qQ%%q%%%%Q%%q%QqQqQqQq%%Q%q%%%%QqQq%%%%%Qq%%%Qq%Q%%
3042I5%qQ%%%%%%%qQ%q%Q%q%Q%q%%Q%%%%%q%Qq%QqQq%Qq%Q%%q%%%%Q%%%qQ%%q%QqQ%%qQ%%
3036I5%%%%%%qQ%%qQqQqQ%%qQq%Q%%qQqQ%%qQ%%qQ%%q%Qq%Qq%Qq%Q%%qQ%q%QqQq%Qq%%%Q%
3029I5%%%q%%Q%%q%%%%%Q%%%qQ%%%qQqQq%QqQ%%%q%%%Qq%QqQ%q%%Q%q%QqQq%Qq%%%%%%%%%
3022H7Qq%%%%%%%%%QqQq%Q%%%%%%qQq%Q%qQqQ%%%%%q%Q%%%q%Qq%QqQq%Q%%q%Q%qQ%q%Q%%q
3016H7%Q%%qQ%qQ%%%%%%%%qQ%%%qQq%Q%%qQqQ%%%%q%QqQ%%%%%%qQqQ%qQq%Q%qQqQ%%%%%%%
3009I5Qj6Qq%Q%qQqQ%qQ%qQ%%%%qQq%%Qq%Q%%q%%QqQ%%%qQ%%%%qQ%qQ%%%%%%%%%%%%%%%%q
3002H7Q%%%%%%%%%%%%%%%%%%%%%%qQ%%%qQ%%qQ%%%%%%%%%%%qQ%%%%%%%%%%%qQ%%%%%%%%%%
2996I5%%%%%%q%Q%%%%%%%%qQ%%%%qQqQ%%%%%%%%%qQ%%qQ%%%%%%%q%%Q%qQqQ%qQ%qQ%%%%%%
2989I5%%%%%%%%%%%qQ%%qQ%%%%%%%%%%%%%%%%%%%%%%%qQ%%%%%qQ%%%%%%%%%qQ%%%%%%%%%%
2982I5%%%%%%%%%%%%%%%%%qQqQ%%%%%%%%%%%%%qQ%%%%qQ%%qQ%%%%qQ%%%%%%%%%%%%%%%%%%
2976I5%%%%%qQ%%%%%%%%%%%%%%%%%%%%%%%%%%%%%%%qQ%%%%%%%%%%%%%%%%%%%%%%%%%%%%%%
2969I5%%%%%qQ%%%%%%%%%%%%%%%%%%%%%%%%%qQ%%qQ%%%%%%%qQ%%%%%%%%%%%%%%%qQ%%%%%%
2962I5%qQ%%%%%qQ%%%%%%%%%%%q%QqJ6%j6%%%QqQ%%%%%%%%%%%%%%%%%%%%%%%%%%%%%%%%%%
2956I5%%%%%%%%%%%%%%%%%%%%%%%%%%%%%%%%%%%%%%%%%%%%%%%%%%%%%%%%%%%%%%%%%%%%%%
2949I5%%%%%%%%%%%qQ%%%%%%%%%%%%%%%%%%%%%%%%%%%%%%%%%%%%%%%%%%%%%%%%%%%%%%%%%
2943I5%%%%%%%%%%%%%%%%%%%%%%%%%%%%%%%%%%%%%%%%%%%%%%%%%%%%%%%%%%%%%qQ%%%%%%%
2936I5%%%%%%qQ%%%%%%%%%%%%%%%%%%%%%%%%%%%%%%%%%%%%%%%%%%%%%%%%%%%%%%%%%%%%%%
2929I5%%%%%%%%%%%%%%%%%%%%%%%%%%%%%%%%%%%%%%%%%%%%%%%%%%%%%%%%%%%Qq%%%%%%%%%
2923I5%%%%%%%%%%%%%%%%%%%%%%%%%%%%%%%%%%%%%%%%%%%%%%%%%%%%%%%%%%%%%%%%%%%%%%
2916I5%%%%%%%%%%%%%%%%%%%%%%%%%%%%%%%%%%%%%Qq%%%%%Qq%QqQj6Q%Qq%%%%%%%%%%%%%%
2909I5%%%%%%%%%%%%%%%%%QqQq%%%%%%%%%%%%%%%%%%%%%%%%%%%%%%%%%%%%%%%%%%%%%%%%%
2903I5%%%%%%%%%%%%%%%%%%%%%%%%%Qq%%%%%%%%%%%Qq%%%%%%Qq%%%%%%%%%%%%%%%%%%%%%%
2896I5Qq%%%%%%%%%%%%%%%%%%%%%%%%%%%%%%%%%%%%%%%%%%%%%%%%%%%%%%%%%%%Qq%%%Qq%%
2889I5%%%%%%%Qq%QqQq%%%%Q%q%Q%%q%Qq%%%Qq%%%%%%%%%%%%%%%%%%%%Qq%Qq%%%%%%%%%%%
2883I5%Qq%%%%%%%%%%%%Qq%%%%%%%%%Q%q%%%%%%%Qq%%%%%%%%%%%%%%%%%Qq%%%%%%%%%%%%Q
2876A03qQq%%%%%%%%Q%q%Q%%q%%%%%%%%QqQq%%%Q%qQ%%qQqQq%%Qq%%%%%Qq%%%%%Q%%q%%%Q
2869A03q%Qq%%%%Qq%%%Qq%%QqQq%%%%%Q%qQq%%%%%%Qq%%%%%%%%%%Q%%q%%Q%%q%%Qq%Q%%%q
2863I5%Q%q%%QQqqQqQqQq%Q%q%Q%%qQ%%%qQqQqQ%%qQ%qQq%%%%Q%%q%%%Qq%%%%QqQ%q%QqQq
2856I5Qq%Q%qQqQ%%qQq%Q%%%%q%Qq%%Q%qQq%Qq%%%QqQq%Qq%Q%%q%%Q%qQq%Q%%%qQ%%q%%Q%
2849A03qQq%%QqQ%qQ%qQqQq%Qq%QqQ%%%%qQqQqQq%Qq%%%%QqQq%Qq%Qq%%QqQq%%Q%q%Qq%%%
2843I5%%%QqQ%q%%%%%%%%QqQ%%%%q%Q%%qQ%%q%%%Q%%%%%%%%qQ%qQq%QqQq%%QqQ%%%%qQ%%%
2836A03%%%%q%Q%%qQq%Q%qQ%%%%%%%%%%%%%%%%qQ%%qQ%qQ%%%%qQqQ%%%%qQ%%%%%qQ%%%%%%
2830A03%%%%%%%%qQ%%%%%%%%%%%%%%%%%qQqQ%%%%%%%%%%%qQ%%%%%%%%qQ%qQ%%%qQ%%%qQ%%
2823A03%%%%%%%%%%%%%%%%%%%%qQ%qQ%%%%qQ%%%%%qQ%%%%%%%%%%%%%%%%%%%%%%%%%%%%%%%
2816A03%%%%%%%%%%%%%%%qQqQqQ%%%%%%qQ%%%q%Q%%q%J6j6Q%%%%%%%%%%%%%%%%%%%%%%%%%
2810A03%%%%%%%%%%%%%%%%%%%%%%%%%%%%%qQ%%%%%%%%%%%%%%%%%%%%%%%%%%%%%%%%%%%%%%
2803A03%%%%%%%%%%%%%%%%%%%%qQ%%%%%%%%%%%%%%%%%%%%%%%%%%%%%%qQ%%%%%%%%%%%%%%%
2797A03%%%%%%%%%%%%%%%qQ%%%%%%%%%%%%%%%%%%%%%%%%%%%%%%%%%%%%%%%%%%%%%%%%%%%%
2790A03%%%%%%%%%%%%%%%%%%%%%%%%%%%%%%%%%%%%%%%%%%%%%%%%%%%%%%%%%%%%%%%%%%%%%
2784A03%%%%%%%%%%%%%%%%%%%%%%%%%%%%%%%%%%%%%%%%%%%%%%%%%%%%%%%%%%%%%%%%%%%%%
2777A03%%%%%%%%%%Qq%%%%%%%%%%%%%%%%%%%%%%%%Qq%%%%%%%%%%%%%%%%%%%%%%%%%%%%Qq%
2771A03%%%%%%%%%%%%%Qq%%%%%%%%%%%%%%%%Qq%%%%%%%%%%%%%%%%%%%Qq%Q%l2K4Qq%%%%%%
2764A03%%%%Qq%%%Q%q%%%%%%%%%%Qq%%%%%%%%%%%%%%%%%%%Qq%%%%%%%%%%%%%%Qq%%%%%%%%
2758A03%%%%%%%%%%%%%%%Qq%%%%Qq%%%%%%%%%%%%%Q%q%Qq%%%Qq%%%%%%%%%%Qq%%%%%%%%%%
2751A03%%%%%%%%%%%%%%%%%%%%%%%%%%%%%%%%%%%%%%%%Qq%%%%%%Qq%%%%%%%%%%%%%Qq%Qq%
2744A03%%Qq%%%%%%%%%%%%%%%Qq%QqQq%%%%%%%%%%%%%QqQq%%%%%Q%qQ%qQ%q%Qq%%%%%%Q%q
2738A03%%%%%%%%%%%%%%%%%%%%%%%Qq%%%%%%%%Q%q%QqQqQq%Qq%%%Q%%q%%%%%%%%%%QqQ%q%
2731A03Qq%%%%%%%%Qq%%%%Qq%%Qq%%%%%%%%%%%%%%Qq%%%%%Qq%%%%QqQ%q%%%%%%Qq%%QqQ%q
2725A03%%QqQ%q%%%%%Qq%%%%%%Qq%%QqQ%%q%%%QqQ%%q%%%Q%%%qQ%%%qQ%q%%Qq%Q%q%Q%%qQ
2718A11%%qQq%%%Q%q%QqQ%%qQq%Qq%%Q%%qQqQqQqQqQqQqQ%qQ%%qQ%%%qQ%%qQ%%%%q%Q%%%q
2711A03Qq%%Q%q%%Q%%%%%%q%Qq%%Q%qQq%%%%QqQ%%%%%%%%%%qQ%%q%%QqQqQqQ%qQqQ%%qQqQ
2705A11%%%%%%qQ%%%%%%%%%%qQ%%q%Q%%%%%qQ%qQqQ%q%Q%%%%%qQ%%%qQ%qQqQ%%%%qQ%%%%%
2698A11qQqQ%qQ%qQ%%%%%%%qQ%%qQ%%%%%%%%q%Q%q%Q%qQ%%%%%%%%%%%%%%qQ%%%%%%%%%%%q
2692A03Q%%%%q%QQq%qQ%q%Q%%%%q%%Q%%%%%%qQ%%%%%%%%%%%%%%%%%%%%%%%%%%%%%%%%%qQ%
2685A11%%%%%%%%%%%%%%%%%%%%%%%%%%%%%%%%%%%%%%%%%%%%%%%%%%%%%%%%%%%%%%%%%%%%%
2679A11%%%%%%%%%%%%%%%%%%%%%%%%%%%%%%%%%%%%%%%%%%%%%%%%%%%%%%qQ%%%%%%%%%%%%%
2672A11%%%%%%%%%%%%%%%%%%%%%%%%%%%%%%%%%%%%%%%%qJ6qQ%qQj6%qJ6k4J6Q%Q%q%Q%q%%
2666A11%qQ%%qQ%%Qq%%%%QqQq%%%%%%%%%%%%%%%%%%%%%%%%%%%%%%%%%%%%%%%%%%%%%%%%%%
2659A11%%%%%%%%%%%%%%%%%%%%%%%%%%%%%%%%%%%%%%%%%%%%%%%%%%%%%%%%%%%%%%%%%%%%%
2653A11%%%%%%%%%%%%%%%%%%%%%%%%%%%%%%%%%%%%%%%%%%Qq%%%%%%%%%%%%%%%%%%%%%%%%%
2646A11%%%Qq%%%%Qq%%%%%Qq%%%%%%%%%%%%%%Qq%%Qq%%%Qq%%Qq%%%%%%Qq%%%%%%%%%Qq%%%
2640A11%%%%%%%%%%%%%%%%%%%%%%%%%%%%%%%%%%%%%%%%%%%%%%%%%%%%%%%%%%%%%Qq%%%Qq%
2633A11%%%%%%%%%%%%%%%Q%q%Qq%%%Qq%%Q%%%q%%Qq%%%%%%%%%%%%%%%Qq%%%%%%Qq%%%%%%%
2626A11%%%%%%%%%%%%%%Qq%%%%%Qq%%%Q%qQq%%%Q%q%Qq%Q%%qQ%qQqQq%%QqQq%%%%%QqQ%%q
2620A11Qq%%%%%%%%%J6qqQ%%%%%q%Q%%%%q%Q%%%%%q%%Q%q%Q%q%Q%q%Q%%%qQq%Qq%Q%q%Qq%
2613A11Q%%q%Qq%%%Q%qQq%%%%%%%%%QqQ%%%%qQ%%%%%q%Q%%%q%Q%qQ%qQqQ%qQ%%%qQ%%%%%%
2607A19%qQqQ%q%%Q%%qQ%qQ%%%%%%q%%QqQ%%%%%%%%%%%%qQ%%%%q%%%%%%%Q%qQq%QqQq%Qq%
2600A11%%Q%%qQ%%%q%Q%%%%%%%%%%qQ%%qQ%%%%%%%%%%%%%%%%%%q%Q%q%QqQqQ%%%qQqQ%%%%
2594A19qQ%%%%%%%%%%%%%qQ%%%%%%%%%%%%%%%%%%%%%%%%%%%%%%%%%%%%%%%%%%%qQ%%%%%%%
2587A19%%%%%%%%%%%%qQ%%%%%%%%%%%%%%%%%%%%%qQ%%%%%%%%qQ%%%%%qQ%%%%%qQ%%%%qQ%%
2580A19%%%%%%%%%%%%%%%%%%qQ%%%%%%%%%%%%%%%%%%%%%%%%%%%%%%%%%%%%%%%%%%%%%%%%%
2574A19%%%%%%%%%%%%%%%%%%%%%%%%%%%%%%%%%%%%%%%%%Q%q%%%%%Q%qqQ%%%Qq%%%%%%%%%%
2567A19%%%%%%%%%%%%%%%%%%%%%%%%%%%%%%%%%%%%%%%%%%%%%%%%%%%%%%%%%%%%%%%%%%%%%
2561A19%%%%%%%%%%%%%%%%%%%%%%%%%%%%%%Qq%%QqQq%%%%%%%%%%%%%%%%%%%%%%%%%%%%%%%
2554A19%%%%%%%QqQq%%%%%%%%%%%%%%Qq%%%Qq%%Qq%%%%%Qq%%%%%%QqQq%%%%%%%Qq%%%%%%%
2548A19%%%%%%%%%%%%%%%%%%Qq%%%%%%Qq%QqQ%q%%%%%%%%%Qq%%%%%%%%%%%%%%%%%%%%%%%%
2541A19%%%Qq%Qq%%%Qq%%Qq%%%%%%%QqQq%%%%%Qq%%%%%%Qq%%%%QqQq%%%%%QqQq%Qq%QqQqQ
2534A27%%q%%%%%%Qq%%%%QqQq%%%%%Qq%%%%%%Qq%%%%%%%%%%%%%%%%%%%%%%Q%q%%%%Q%%qQq
2528A19%%%QqQ%%q%%%Qq%%QqQqQ%q%QqQ%%%qQq%%%Q%%q%%%Qq%%%%%Q%q%%%%QqQq%Q%qQqQq
2521A19Q%%%q%%%Q%q%QqQ%%%%%%q%QqQ%%%qQqQ%%%%%%q%Q%%%%%%%%%%qQ%qQ%%%%%%%%%%%%
2515A27%%%%qQ%%%%qQ%%%%%%%qQqQq%%Qq%Q%%%%%%%%%q%Q%qQ%qQ%%%q%%QqQq%%Q%%q%Q%%%
2508A27%qQ%%%%%%%%%%%%%%%%%%%%%%%%%%%%%%%%%%%%%%%%%%%%%%%qQ%%%%%%%qQqQ%%%%%%
2501A27%qQ%qQ%%%%%%%%%%%%%%%%%%%%%%%%%%%%%%%%%%%%%%%%%%%%%%qQ%q%Q%%qQ%%%%%%%
2495A27%%%%%%%%%%%%%%%%%%%%%%%%%%%%%%%%%%%%%%%%%%%%%%%%%%%%%%%%%%%%%%%%%%%%%
2488A27%%%%%%%%%%%%%%%%%%%%%%%%%%%%%%%%%%%%%%%%%Qq%%%Qq%%%%%%%%%%%%%%%%%%%%%
2482A27%%%%%%%%%%%%%%%%%%%%%%%%%%%%%%%%%%%%%%%%%%%%%%%%%%%%%Qq%%%%%%%%%%%%%%
2475A27%%%%%Qq%%%%%%%%%%Qq%%%%%%Qj6QqK4qqj6QJ6qq%%J6%%q%Qq%%qJ6q%%%%%%%%Qq%%
2469A27Qq%%Q%qQq%%%Qq%%%%%%%%%%%%%%%%%%%%%%%%%%%%%%%%%%%%%%%%%%%%%%%%%%%%%%%
2463A27%%%%%%%%%%%%%%%%%%%%%%%%%%%%%Qq%%%Q%q%%%%%%Qq%%Qq%Q%q%Q%%%qQqQ%q%%%%%
2456A27%%%%%%%%%%%%Qq%%%%%%%%%%%%%%Qq%%%Qq%%%%%%%QqQq%Qq%%%%%%%Qq%%%%%%%%%%%
2449A27%%Q%qQ%q%QqQq%%%Qq%%%%%%%%Qq%QqQq%Qq%%Q%%%%%q%%Qq%%%Q%qQ%%%qQ%%%%%%q%
2443A27Q%%%%q%Q%%%%%q%Q%qQ%qQ%%%%q%Q%%%%%qQ%%%%%%%%%qQ%%%%%%%q%Q%%%%%%%%%%%%
2436A35%%%%%qQ%%%%%%%%%%%%%%%qQq%Q%%%%%%%%%%%%%%%%%%%%%%%%%%%%%%%%%%%q%Q%qQ%
2430A35%qQ%%%%%qQ%%qQ%%%%%qQ%%%%%%%%%%%%%%%%%%%%%%%%%%%%%%%%qQ%q%Q%%%%%%%%qQ
2423A35q%Qj6J6%%qQ%%%%%%%%%%%%%%%%%%%%%%%%%%%%%%%%%%%%%%%%%%%%%%%%%%%%%%%%%%
2417A35qQ%%%%%%%%%%%%%%%%%%%%%%%%%%%%%%%%%%%%%%%%%%%%%%%%%%%%%%%%%%%%%%%%%qQ
2410A35%%%%%%%%%%%%%%%%%%%%%%%%%%%%%%%%%%%%%%%%%%%%%%%%%%%%%%%%%%%%%%%%%%%%%
2404A35%%%%%%%%%%%%%%%%%%%%%%%%%%%%%%%%%%%%%%%%%%%%%%%%%%%%%%%qQQq%%%%%%%%%%
2397A35%%%%%%%%%%%%%%%%%%%%%%%%%%%%%%%%%%%%%%%%%%%%Qq%%%%%%Qq%%%%%%%%%%%%%Qq
2390A35%%%%Qq%%%%Qq%%Qq%%%%%%%%%%Qq%%QqQqQq%Qq%%Qq%Qq%%%%Qq%%Qq%%Qq%%QqQqQq%
2384A35%Qq%Q%q%%QqQqQq%%%Q%qQq%%Qq%Q%q%%Qq%%Q%q%Q%%%qQ%%qQ%qQ%qQqQqQq%Qq%%%Q
2377A43qQqQqQ%%%%qQqQq%Q%%%%q%Qq%Q%%%%q%J6j6Q%%%%%%qQ%%qQ%%%%qQqQ%q%QqQ%%%%%
2371A43qQ%%%%qQ%%%%%%%%qQ%%%%%qQqQ%q%%Qq%Q%%%%%%%%qQqQ%%%%%%qQ%%%%%%%%%%%%%%
2364A43%%%%%%%%%%%%%%%%%%qQ%%%q%%Q%%%qQ%%%qQ%%%%%%%qQqQ%%%%%%%qQ%qQ%%%%%%%%%
2358A43%%%%%%%%%%%%%%%%%%%%%%%%%%%%%%%%%%%%%%%%%%%%%%%%%%%%%%%%%%%%%%%%%%%%%
2351A43%%%%%%%%%%%qQ%%%qQ%%%%%%%%%%%%%%%%%%%%%%%%%%%%%%%%%%%%%%%%%%%%%%%%%%%
2345A43%%%%%%%%%%%%%%%%%%%%%%%%%%%%%%%%%%%%%%%%%%%%%%%%%%%%%%%%%%%%%%%%%%%%%
2338A43Qq%%Qq%%Qq%%%%%%%%%%%%%%%%%%%%%%%%%%%%%%%%%%%%%%%%%%%%%%%%%%%QqQq%Qq%
2331A43%%%%%%%%%%%%%Qq%Qq%%%%%%%%%%%Qq%%%%%%%%Qq%%%%%Q%qQq%Qq%%%%Q%q%%%%Q%qQ
2325A51q%Q%qQqQq%%%Qq%%%QqQqQ%%%%q%%QqQqQq%%%%%%%%%%Qq%%Qq%QqQq%%Q%%%q%%%%Qq
2318A43%Q%%%q%Q%%%q%Q%%q%Qq%%Q%q%Q%%%%%%qQ%%%%%%%%qQ%%%%%%qQ%%%q%%QqQqQ%%%%%
2312A51%%%%%qQ%%%q%QqQ%%%%%%%%%%%qQqQ%%%%%%%%qQ%%%%%qQ%%%qQ%%%%%%%%%%%%%%%%%
2305A51%%%%%%%%%%%%%%%%%%%%%%%%%%%%%%q%QqQ%%%%qQqQ%%%qQ%qQ%%%%%%%%%qQ%%%%%%%
2298A51%%%%qQ%%%%%%%%%%%%%%%%%%%%%%qQ%%%%%%%%%%%%%%%%%%%%%%%%%%%%%%%%%%%%%%%
2292A51%%%%%%%%%%%%%%%%%%%%%%%Qq%%%%%Qq%%Qq%%%%%%%%%%Qq%%%%%%%%%%%Qq%%%%%%%%
2285A51%%%%%%%%%%%%%%%%%%%%%%%%Q%q%%%%%Qq%%%%%%%%%%%%Qq%%%Qq%%%%QqQq%%Qq%%%%
2279A51Qq%%%%%qQ%%QqQ%Qq%%J6qm0N6qm8O4n6M0k4Q%%qqJ6q%%J6j6Q%%Qqq%Qq%%Qq%%%Qq
2273A51%%QqQqQ%%%q%%%%%%%%%%%%QqQ%%q%%%QqQq%Q%qQqQ%qQqQq%%%%QqQq%%%%%%Q%qQ%q
2267A51%%%%%%%Q%%qQ%%qQ%qQ%q%%Qq%Q%qQqQ%qQ%%qQ%%%%%%%qQ%qQqQ%%%qQqQqQ%qQ%%%q
2260A51Qq%Qq%%%Qq%%Qq%%%%%%%%Qq%Qq%Qq%%Q%q%QqQ%%qQqQ%%%%%%%qQ%%%%%%%%%%%%%%%
2253A59%qQqQ%%%qQ%%%%qQqQqQ%%%%%%%%qQ%%%%qQ%%%%%%%%%%%%%%%%%%%%%%%%%%%%%%%%%
2247A59%%%%%%%%%%%%%%%%%%%%%%%%%%%%%%%%%%%%%%%%%%%%%%%%%%%%%%%%%%%%%%%%%%%%%
2240A59%%%%%%%%%%%%%%%%%%%%%%%%%%%%%%%%%%%%%%%%%%%%%%%%%%%%%%%%%%Qq%%%%%%%%%
2234A59%%%%%%%%%%%%%%%%%%%%%%%%%%%%%%%%%%%%%%%%Qq%%%%%%%%Qq%%Qq%%%%%%Qq%Qq%%
2227A59%qQ%%Qq%Qq%%%%%%%%%%%%%%%%%%%%%%%%%%%%%Qq%%%%%%%%%%%%%%%Qq%%%%%%%%%%%
2221A59%%%%%%%%%%%%%%%%%%%Q%qQ%q%%%%%%Qq%Q%%qQq%Q%q%Qq%%%%%Q%%%%%%%%q%Q%qQ%%
2214A67%%%%%qQ%qQ%%q%Qq%%%%Q%%%%qQ%%%%%qQq%%%%Q%%%%%%%q%Qq%Q%%q%Q%%qQ%%qQ%%%
2207A67%%%%%%%%%%%%%%%%%%%%%%%%%%%%%%%%%%qQ%qQ%qQqQ%%q%%QqQ%%%%%%%%%%%%%%%%%
2201A67%%%%%%%%%%%%%%%%%%%%%%%%%%%%qQ%%%%%%%%%%qQ%%%%%%%%%%%%%%%%%%%%%%%%%%%
2194A67%%%%%%%%%%%%%%%%%%%%%%%%%%%%%%%Qq%%%%%%%%%%%%%%%%%%%%%%%%%%%%%%%%%%%%
2188A67%%%%%%%%%%%%%%%%%%%%%%%%%%%%%%%%%%Qq%Qq%Qq%%%Qq%%%%%%%%Qq%%Qq%%Qq%%%%
2181A67%%%Qq%%%%%Q%q%Qq%%q%Q%Q%j6J6Qj6%%QqQqQqQ%%qQq%%QqQ%q%Q%%qQ%%%%q%Qq%Q%
2175A75%%%%qQq%%Qq%QqQ%q%%Qq%Qq%%%%%Q%qQ%qQ%%%%qQ%%%qQqQ%qQ%%%qQ%qQ%%%%%%qQq
2168A67%QqQ%%%%%%%%%%%q%%%QqQ%qQ%qQ%%q%Q%qQ%%%%%%%%%%%%%%%%qQ%qQ%%%%%%%%%%%%
2162A75%%%%%%%%%%%%%%%%%%%%%%%%%%%%%%%%%%%%%%%%%%%%%%%%%%%%%%%%%%%%%%%%%%%%q
2155A67Q%%%%Qj6Q%%%%%%%%%%%%%%%%%%%%%%%%%%%%%%%%%%%%%%%%%%%%%%%%%%%%%%%%%%%%
2149A75%%%%%%%%%%%%%%%%Qq%%%%%%%%%%%%%%%%%%%%%%%%%%%%%%%Qq%%%%%%%%%%%%%%%%%%
2142A75%%%%%%%%%%%%%%%%%%%%%%Qq%%%Qq%%%%%%%%Qq%Q%%%q%%%Q%q%%%Qq%Qq%%%Qq%%Qq%
2135A75Qq%%Q%q%%%Q%%qQ%q%%%QqQ%%qQq%%Q%%q%%%%%%%%Q%qQqQq%QqQ%%qQqqQ%Q%q%Q%qQ
2129A83qQ%qQ%%%%%%%%%q%Qq%%%Q%q%%Q%%%%%%qQq%Q%%%qQ%qQ%%%%%%q%Q%%%qQ%qQ%%%%qQ
2122A83%%%%%%%%%%%%%%%%%%%%%%%%%%%%%%%%%%%%%%%%%%%%%%%%%%%%%%%%%%%%%%%%%%%%%
2116A83%%%%%%%%%%%%%%%%%%%%%%%%%%%%%%%%%%%%%%%%%%%%%%%%%%%%%%%%%%%%%%%%%%%%%
2109A83%%%%%%%%%%%%%%%%%%%%%%%%%%%%%%%%%%%%Qq%QqQqQ%q%%%%%%%%%%%%%%%%%%%%%%%
2102A83%%%%%%%%%%%%%%%%%%Qq%%%%%%%%%%%%Qq%%%%%%%%%%%%Qq%Qq%%%%%QqQ%q%%%%%%%%
2096A83%%%%%Qq%%%QqQ%%%q%%Q%%q%QqQqQq%%Q%%qQ%qQ%qQ%q%%%Qq%Q%%%%%%%qQqQ%%%%%%
2089A91%%%%%%qQqQ%%%%%%%%%%%%qQ%%%%%q%%Q%%%qQ%%qQ%qQ%%%%%%%%%%%%%%%%%%%%%%%%
2083A91%%%Qq%%Qq%qQ%%%%Q%qqqJ6%%%Qj6%Q%%%%%%%%%%%%%%%%%%%%%%%%%%%%%%%%%%%%%%
2076A91%%%%%%%%%%%%%%%%%%%%%%%%%%%%%%%%%%%%%%%%%%%%%%%%%%%%%%%%%%%%%%%%%%%%%
2070A91%%%%%%%%%QqQq%%%%%%%%Q%q%%%%%%%%%%Qq%%Qq%Qq%%%%%%%%%%%%%%%%Qq%%%%%Qq%
2063A91%Qq%Q%qQqQ%qQq%%%%%%Q%%qQ%%%%qQ%%%%qQq%%%Q%qQqQ%qQq%%%%%Q%%q%%%%%%%Q%
2057A99%qQ%%%%qQ%%%%%%%%%%%%%%%%%%%%%%%%%%%%%qQ%%%%%%qQ%%%%%%%%%%%%%%%%%%qQ%
2050A99%qQ%%%%qQ%%%%%%%%%%%%%%%%%%%%%%%%%%%%%%%%%%%%%%%%%%%%%%%%%%%%%%%%Qq%%
2043A99%%%%%%%%%%%%%%%%%%%%%%%%%%%%%%%%%%%%%%%%%%%%%%Qq%%%%%%%%%%%%%%%%%%%%%
2037A99%%%%%%%%%%%%%%%Qq%%%%QqQ%%q%%%%Qq%%Qq%%%%%%Qq%%%Qq%%%QqQ%%%%%q%%QqQ%q
2030A99%%%%Qq%%%QqQ%%q%%Qq%%%%%Qq%%%QqQq%%Q%%q%%%%%%Q%%%%qQ%%qQq%Q%%%qQ%qQ%%
2024B07%%%%qQ%%%%%%%%%%%%%%%%%%%%%%%%%%qQqQ%%%%qQ%%%%%%%%%%%%%%%%%%%%%%%%%%%
2017B07%%%%%%%%%%%%%%%%%%%%%%%%%%%%%%%%%%%qQ%%%%%%%%%%%%%%%%%%%%%%%%%%%%%%%%
2011B07%%%%%%%%%%%%%%%%%%%%%%%%%%Q%q%%%%%%%%%%%%%%%%%%%%%%%%%%%%%%QqQq%%%%%%
2004B07%%%%%Q%qQq%%Q%q%%%%%%QqQqQq%Q%q%%QqQq%%%Q%q%QqQ%qQ%qQ%qQ%%%%%%%%%%q%Q
1997B15%qQ%%%%%%%%%qQ%qQ%%%%%%%%%%%%%%%%%%%%%qQ%%%%%%%%%%qQ%%%%%%%%%%%%%%%%%
1991B15%%%%%%%%%%%%%%%%%%%%%%%%%%%%%%%%%%%%%%%%%%%%%%%%%%%%%%%%%%%%%%%%%%%%%
1984B15%Q%q%%%%Q%q%%QqQq%%%%%%%%%%Qq%%%%%%%%%%%Qq%%%%%%%%%%%%%%%%%%%%%%%%%%%
1978B15%%%%%%%Qq%%%%%%%%%%%Qq%%%%%Q%q%%Q%qQqQqQ%%%q%%%%%Qq%Qq%%Q%qQ%%%qQq%Q%
1971B23%q%%%QqQqQ%%%%%%%qQ%%qQ%%%%%%%%%%%%%%%%%q%Q%%%%%%%%%%%%%%%qQ%qQ%%%%%%
1964B23%qQ%%%%%qQ%%%%%%%%%%%%%%%%%%%%%%%%%%%%%%%%%%%%%%%%%Qq%%%%%%%%%%%%%%%%
1958B23%%%%%%%%%%%%%%%%%Qq%%%%%%%%%%%%%%%%%%%%%%%%%%%%%%%%%%%%Qq%%Q%%q%%%%%%
1951B23%%%%%%%%%%%%%%%Qq%%%%%%Qq%%%%%%%%%%%%%%%%QqQq%QqQqQ%q%%%%Q%%q%Q%qQ%q%
1945B23Q%%%%%%qQqQq%Qq%%Qq%%%Q%%%%%qQqQ%%%%%%%%q%Q%%%%%%%%%%%%%%%%%%%%%%%%%%
1938B31%%%%%%qQ%%%%%%qQ%%%%%%%%%%%%qQ%%%Qqq%J6%q%%%Qq%%qQ%%%%%%%%Qq%%%%%%%%%
1932B31%%%%%%%%%%%%%%%%Qq%%%%%%%%%%%%%%%%%%%%%%%%%%%%%%%Qq%%%%%%Qq%%%%Q%%%q%
1925B31%%%%%%%%%%QqQ%q%Qq%%%%Q%q%Q%%%%qQq%%%Qq%Qq%%%%QqQqQqQqQq%Q%q%%Qq%Qq%%
1919B31Q%%%qQqQ%%%q%QqQ%%%%q%Q%%%%%%%%%%%%%%%%%%%%%%%%%%%%%%qQ%%%%%%%%%%%%%%
1912B39%%%%%%%%%%%%%%%%%%qQ%%%%%%%%%%%%%%%%%%%%%%%%%%%%%%%%%%%%%%%%%%%%%%%%%
1905B39%%%%%%%%%%%%%%%Qq%Qq%Q%%qQq%%QqQq%%%Qq%%%%%%%Q%qQqQq%%%Qq%%%%%Qq%%%%Q
1899B47q%%Q%qQq%Q%q%Q%%%%%%%qQ%%%%%%%%%%%%%%%%%%%%%%%%%%%%%%%qQq%QqQ%%%%%%%%
1892B47%%%%%%%%qQ%%%%%%%%%%%%%%%%%%%%%%%%Qq%%%%%%%%%Qq%%%%%%Qq%QqQ%q%%J6j6QJ6
1886B71m8J6qJ6J6j6%QqqJ6q%%%%%%Qq%%Qq%%%%%%QqQq%%%%%%%%%%Qq%%%QqQq%%%%%%%%Qq
1880B47%%%%%QqQqQqQq%%Qq%%%%%%Q%%q%Qq%Q%%qQ%%%%%%qQqQ%%%%%%%%%%%%%%%%%%%qQ%%
1873B55%%%%%%%%%%%%%qQ%%%%%%%%%%%%%%%%%%%%%%%%%%%%%%%%%%%%%%%%%%%%%%%%%%%%%%
1867B55%%%%%%%%%%%%%%%%%%%%%%%%%%%%%%%%%%%%%%%%%%Qq%%%%%%Qq%%%Q%%q%%Qq%%%%%%
1860B55%%%%%%%%%%%%%%%%%%%%%%%%%%%%%%%%%%%%%Qq%%Qq%%Qq%Q%q%Q%%q%Q%%%%qQqQ%qQ
1853B63%%%%q%Q%%%%%%%%%%%%%%%%%%%%%%%%%%%%%%%%%%%%%%%%%%%%%%%%%%%%%%%%%%%%%%
1847B63%%%%%%%%%%%%%%%%%%%%%%%%%%%%%%%%%%%%%%%Qq%%%%%%%%%%%%%%%%%%%%Qq%%%%%%
1840B63Qq%Q%%%qQq%%QqQ%qQqQq%Qq%QqQq%%%%%%%%Q%%qQqQqQq%%%Qq%Qq%QqQqQ%qQ%%qQ%
1834B71%qQ%%%%%%%%%%%%%%%%%%%%%%%%%%%%%%%%%%%%%%%%%%%%%%%%%%%%%%%%%%%%%%%%%%
1827B71%%%%%%%%%%%%%%%%%%%%Qq%%%%%Qq%%%%%%%%%Qq%%%%%%%%%%Qq%%Q%q%%QqQ%q%%Q%q
1821B71Q%q%%%Q%q%Qq%%Q%%%qQ%%qQ%q%%%%Q%%qQqQ%%qQq%Q%%%qQ%%%qQ%%%%%%%%%%%%%%%
1814B79%%qQ%%%%%q%Q%%qQqQ%%%%%%%qQ%%%%%%%%%%%%%%%%%%%%%%%%%%%%%%%%%%%%%%%%%%
1807B79%%%%%%%%%%%%%%%%%%%%%%%%%%%%%%%%%%%%%%%%QqQq%Qq%%Qq%%QqQ%q%Q%%%qQq%Qq
1801B79QqQq%QqQ%q%%QqQ%%%%%q%Q%%%%%%q%QqQ%%%qQ%%%%%%%%%%%%%%%%%%%%%%%%%%%%%%
1794B87%%%%%%%%%%%%%%%%%%%%%%%%%%%%%%%%%%%%%%%%%%%%Qq%%%Qq%%%%%%%qQqQQ%%qQ%q
1788B87%%%%%Q%%q%Qq%%%%Q%q%QqQq%%Q%%%qQq%%QqQqQ%q%Qq%Q%%q%Q%%%%%%qQqQ%%qQ%%%
1781B95%%%%%%%%%%%%%%%%%%%%%%%%%%%%%%%%%%%%%%%%%%%%%%%%%%%%%Qq%%%qQ%%%%%%%%%
1775B95%%%%%%%%%%%%Qq%%%%QqQq%%%%%%%%%%%%%%%%%%%%%%Qq%%Qq%%Qq%%%%%%Qq%%%%%%Q
1768C03%%%q%QqQ%qQ%%qQqQ%%%%%%%%%%%%qQ%%%%%%%%%%%qQ%%%qQ%%%%%%%%%%%%%%%%%%%%
1761C03%%%%%%%%%%%%%%%%%%%%%%%%%%%%%%%%%%%%%%%%Qq%%%%%%%%%%%%%%%Q%q%Q%%qQq%%
1755C03%%%Qq%%%Qq%%%Qq%Qq%%%%%%Q%qQq%Qq%Q%qQ%%%%%%%%%qQ%%%qQ%%%%%%%%%%%%%%%%
1748C11%%%%%%%%%%%%%%%%%%%%%%%%%%%%%Qq%%%%%%%%%%%%%%%%%%%%%%%%%%%%%%%Qq%%%%%
1742C11%%%%%%%%%%Q%q%%Q%%qQ%%q%Q%q%Q%q%Q%q%Q%%qQ%qQ%%%qQqQ%%%%%%%%%%%%%%%%qQ
1735C19%%qQ%%%%%%%%%%%%%%%%%%%%%%%%%%%%%%%%%%%%%%%%%%%%%%%%%%%%%%%%%%%%%Qq%%
1728C19%%%%Qq%%%%%QqQq%%QqQq%%%QqQ%%%%%%qQ%%q%%Q%q%Q%%%%%%%%%%%%qQqQ%%%%%%%q
1722C19Q%qQ%%%%%%%%%%%%%%%%%%%%%%%%%%%%%%%%%%%%%%%%%%%%%%%%%%%%%%%%%%%%%%%%%
1715C27%qQ%%%%%%%%%%%%%%%%Qq%%%%%%%%%%%%%Qq%%Qq%%Qq%%Q%q%QqQqQ%q%%Q%q%Q%%%%q
1709C27Q%%%%%%%qQ%%%%%%%%%%%%%%%%%%%%%%%%%%%%%%%%%%%%%%%%%%%%%%%%Qq%%%%%%%%%
1702C35%%%%%%%%%%%%%%%%%Qq%%%Q%q%Q%qQ%q%Q%%%%%q%%%%%%%%%Qq%%Q%%qQqQ%%%%%%%%%
1696C43%%%%%%%%%%%%%%%%%%%%%%%%%qQ%%%%%%%%%%%qQ%%%%%%%%%J6qj6%%qQQ%qQ%%%qQ%%
1689C43%%%%%Qq%%%%%%%QqQq%Q%%qQq%%QqQqQq%Q%%qQq%%Q%qQq%Q%%%%%q%Q%%%%%%%%%%%%
1683C51%%%%%%%%%%%%%%%%%%%%%%%%%%%%%%%%%%%%%%%%%%%%%%%Qq%%%%%%%%Qq%%%%%%%%%%
1676C51%%%%%%%Qq%%Qq%%Q%q%%%%Qq%%Q%%%qQ%%%qQ%%%%%%qQ%%%%%%%%%%%%%%%%%%%%%%%%
1669C59%%%%%%%%%%%%%%%%%%%%%%%%%%%%%%%%%%Q%%q%%Qq%%%Qq%%%%%%%%%%%%%%%%%%%%%%
1663C59%%%Qq%%Q%%q%Q%%qQqQqQqQ%%%%qQ%%%qQ%%%%%%%%%%%%%%%%%%%%%%%%%%%%%%%%%%%
1656C67%%%%%%%%%%%%%%%%%%%%Qq%%Q%q%%%%%%%%%%%%%%%%%%%%%Qq%Qq%%Q%%%%%%qQ%qQ%%
1650C75q%Q%%%%%%%%%%%%%%%%%%%%%%%%%%%%%%%%%%%%%%%%%%%%%%%%%%%%%%%%%%%%%%%%Qq
1643C75%%%%%%%%%Q%j6Q%%%%%%Q%%q%%QqQ%q%%%%%%%%%Q%q%Q%%%%%%%%%%%%%%%%%%%%%%%%
1637C83%%%%%%%%%%%%%%%%%%%%%%%%%%%%%%%%%%%%%%%%%%%%%%%%%%%%%%%%%%%%%%%%%%%%%
1630C83%%%Qq%%%Q%q%%Q%%%qQ%qQ%%%qQ%%%%%%%%%%%%%%%%%%%%%%%%%%%%%%%%%%%%%%%%%Q
1623C99q%%%%%%%%%%Qq%%%%Qq%%%Qq%Q%q%%QqQ%qQ%qQ%qQ%%%q%%Q%qQ%%%%qQ%qQ%%%%%qQ%
1617C99%qQ%%%%%%%%%%%%%%%%%%%%%%%%%%%%%%%%%%%%%%%%%%%%%%%%%%%%%Qq%%QqQ%%qQ%%
1610D07q%Q%%qQ%qQ%%qQ%%%%%qQ%%%%%%%%%%%%%%%%%%%%%%%%%%%%%%%%%%%%%%%%%%%%%%%%
1604D07%%%%%%%%%QqQq%%%%Qq%%%%%%%Q%%q%%%Q%qQ%qQ%%%%%%%%%%%%%%%%%qQ%%%%%%%%%%
1597D15%%%%%%%%%%%%%%%%%%%%%%%Qq%%%%%%%%%%%%%qQqJ6%j6%J6q%%%J6qqQqQ%%qQ%qQ%%
1591D23%%qQ%%qQ%qQ%%%%%%%%%%qQ%%%%%%%%%%%%%%%%%%%%%%%%%%%%%%%%%%%%%%%%%%%%%Q
1584D31q%Q%%%qQq%%%%%%%%%QqQq%%%QqQ%q%Q%%%qQ%%qQ%qQ%%%qQ%%%%%%%%%%%%%%%%%%%%
1578D31%%%%%%%%%%%%%%%%Qq%%%%%%%%%%%Q%qQq%Q%%%qQ%qQ%%%%%%qQ%%qQqQ%%%%%%%%%%%
1571D39%%%%%%%%%%%%%%%%%%%%%%QqqQ%%Qq%%Qq%%QqQq%%%%%%QqQqQq%%%%Q%q%QqQ%%%%%%
1565D47%%%%qQ%%qQ%%%%%%%%%%%%qQ%%%%%%%%%%%%%%%%%%%%%%%%%%%%%Qq%%%%Qq%%%%%Qq%
1558D47Q%%%%%%%%%%%%%%%%%%qQ%%%%%%%%%%%%%%%%%%%qQ%%%%%%%%%%%%%%%%%%%%%%%%%%%
1551D55%%%%%QqQq%QqQq%%%%%QqQ%%%qQ%%qQ%%%%qQ%%%%qQ%%%%%%%%%%%%%%%%%%%%%%%%Qq
1545D63%%%Qq%%%%Q%q%Qq%Q%%q%%%%%Q%qQ%%q%Qq%Q%%%%%qQ%%%%%%%%%%%%%%%%%%%%%%%%%
1538D71%%%%%%%%%%%Qq%%%%%%%%%%%QqQq%%%%%%Qq%QqQ%%%%%q%Q%%%%%%%%%%%%%%%%%qQqQ
1532D79%%%%%%%%%%%%%%%%%%%%%%%%%%%%%%%%%%%%%%%%Q%%q%%%%Q%%q%Q%qQ%%%%%%%%%q%Q
1525D87%%%%%%%%%%%%%%%%%%%%%%%%%%%%%%%%%%%%%%%%%%%%%%%Qq%%Q%qQqQ%qQ%%%%%qQ%%
1519D95%%%%%%%%%%%%%%%%%%%%%%%%%%Qq%%%%%%%%%%%%Qq%%%%%%%%%Q%q%Q%qQ%%%%%qQ%%%
1512E03%%%%%%%%%%%%%%%%%%%%%%%%%%%%%%%%%%%%%%%%%%%%%%Qq%Q%%qQ%qQqQ%qQ%qQqQqQ
1505E11%qQqQ%%%%%%%%%%%%%%%%%%%%%%%%%%%%%%%%%%%%%%%%Q%qQ%q%%Q%%%%%%%%%%%qQ%%
1499E19%%%%qQ%%Qj6Q%%%%%%%%%Qq%qQ%qQ%%J6j6j6QQK4j6%k4Qj6J6L2j6%qQqqJ6qqQ%%%%
1493E19QqQ%qQ%qQqQ%%%%%%qQ%%%%%%%Qq%%%qQ%%Qq%%Qq%%%Q%%%qQ%%%%%%qQ%%%%%%%%%%%
1487E35%%%%%%%qQ%%%%%%%%%%%%%%%%%%%%%%%%%%%%%%QqQqQqQqQq%%%%%%Q%%%%%%%%%%%qQ
1480E43%%%%%%%%%%%%%%%%%%%%%%%%%%%Qq%%Qq%%Qq%%%%%%Q%%%%%%qQ%%%%%%%%%%%%%%%%%
1474E51%%%%%%%%%%%%%%%%%%Q%%q%%%QqqQQ%q%Q%q%Q%qQ%%%%%%qQ%%%%%%%%qQ%qQ%%%%%%%
1467E59%%%%%%%%%%%%%%%%%%%%%%%%%%Qq%%%%Q%%%qQ%%%%%%%%%%%%%%%%%%%%%%%%%%%%%%%
1460E67%%%%%%%Qq%%%Qq%%%Q%q%%QqQ%%%%%%qQ%%%%%%%%%%%%%%%%%%%%%%%%%%%%%%%Q%qQ%
1454E83qQ%qQ%qQ%%%%%%qQ%%%%%%%%%%%%%%%%%%%%%%%%%%%%%%%Qq%Q%%q%Q%%%%qQ%%qQ%%%
1447E91%qQ%qQ%%%q%Q%%%%%%%%%%Qq%%%%%%%%%%QqQq%Q%q%Q%%%%%qQ%%%%%%%%%%%%%%%%%%
1441E99%%%%%%%%%%%%%%%%Qq%%%%Qq%Q%%%%qQqQ%%qQ%%%%%%%%%%%%%%%%%%%%%Qq%%%%%Qq%
1434F07%%%Q%%%%qQq%QqQ%%%%%%%%%%%%%%qQ%%%%%%%%%%%%%%%%%%%%%Qq%Qq%Q%qQq%%%Q%q
1428F15Q%%%%%%qQ%%%%%%%%%%%%%%%%%%%%%%%%%%%%%%%%%%%Qq%QqQ%%%%qQ%%%%%%%%%Qq%%
1421F31%%%%%%%%%%%%%%%%%%%%%%%QqQ%%%%%%qQ%%%%%%%%%%%%%%%%%%%%Q%q%%%%%%%%%%Qq
1414F39Qq%%Q%qQ%%%%%%%%%%%%%%%%%%%%%%%%%%%%%%%%%%%%%%Qq%Q%q%Q%%%%%%%%%%%%%%%
1408F55%%%%%%%%%%%%%%%%%%%%%Qq%%%%QqQq%Q%%%%%%%%qQ%%%%%%%%%%%%%%%%%%%%%%%%Qq
1401F63%%%%%%%Q%q%Q%%%%%%%%%%%%%%%%%%%%Qq%%%%J6k4Q%qQQq%Q%q%%%%Q%%q%Q%%%%%%%
1395F79%%%%%%%%%%%%%%%%%%%%QqQq%Q%%%qQ%qQ%%qQq%Q%%%%%%%%%%%%%%%%%%%%%%%Q%%q%
1388F87Qq%%Q%%%%qQ%qQqQ%%%%%%%%%%%%%%%%%%%%%%Qq%%Q%%%qQ%%%%%%%%%%%%%%%%%%%%%
1382G03%%%%%%%%%%Q%qQ%qQ%%%qQ%%%%%%%%%%%%%%%%%%%%%%%%%%%%%%%%%%%%QqQ%%%%%%%%
1375G19%%%%%%%%%%%%%%%%%%Q%qQq%%%Qq%Q%%%%%%%%%%%%%%%%%%%%%%%%%%%%%%%%QqQqQqQ
1369G35%qQ%%%%%%%%%%%%%%%%%%%%%%%%%%Qq%%Qq%QqQqQqQqQ%%%%%%%%%%%%%%%%%%Qq%%%%
1362G43%QqQq%Qq%%Qq%QqQ%qQ%%%%%%%%%%%%%%%%%%%%%%%%%%%Q%%%%%%%%%%%%%%%%%%%%%%
1355G59%%%%%%%Qq%QqQ%%%%%%%%%%%%%%%%%%%%%%%%%%QqQqQ%%%q%Qq%Q%%%%%%%%%%%%%%%%
1349G75%qQ%%Qq%%%Qq%Q%qQ%%%%%%%%qQ%%%%%%%%%%%%%%%%%Q%%q%%QqQqQ%%%%%%%%%%%%%%
1342G91%%%%%%%%%Q%qQ%q%%Q%%%%%%%%%%%%%%%%%%%%%%QqQqQq%Q%qQ%%%%%%%%%%%%%%%%%%
1336H07%%%%%%%%%%%%%QqQqQ%%%%%%%%%%%%%%%%%%%%%%%%%Qq%Qq%%Qq%Q%%%%%%%%%%%%%%%
1329H23%%%%%Qq%%Q%%%qQ%qQ%%%%%%%%%%%%%%%%%%%QqQqQq%%QqQ%%qQ%%%%%%Qq%%%%%%%%Q
1322H47%qQq%%Q%%qQ%%%%%%%%%%%%%%%%%%%%%%%QqQq%%Q%%qQ%%%%%%%%%%%%%%%Qq%%%%%Q%
1316H63%%qQ%%%%%%%%%%%%%%%%%%%%%%Q%%%%%%%%%%%%%%%%%%%%%%%%%Qq%Q%q%Q%%%%%%%%%
1309H79%%%%%%%%%%%%%%%%%%%%%%%Q%%%%%%%%%%%%%%%%%%%Q%%%%%%%%%%%%%%%%%%%%%%%%%
1303H95%Qq%Q%%%%%%%%%q%Q%%%qJ6q%q%J6q%%qQJ6k4J6%%%%%q%Q%%%%%%%Qq%%%%%%%Qq%%Q
1297I19qQqQ%%%%%%%%%%%%%%%%Q%%qQ%%%%%%%%%%%%%%%%%%%%%%%%%Q%%%%qQ%%%%%%%%%%%%
1290I35%%%%%%%Qq%QqQ%%%%%%%%%qQ%Qq%QqQq%Qq%%%QqQ%qQ%%%%%%%%Qq%%%%%Q%qQqQ%%%%
1283I59%%%%%%%%%%%%%%%%%%%QqQ%%%%%%%%%%%%%%%%%%%%QqQ%qQ%%qQ%%%%%%%%%%%QqQqQ%
1277I83%%%qQ%%%%%%%%%%%qQQqQ%qQq%Qq%%%Q%%%%%%%%%%%%%%%Qq%%Q%%%%%%%%%%%%%%%%%
1270I99%Q%qQqQ%%%%qQ%%%%%%%%%%%%QqQqQ%%%%%%%%%%%%%%%%%%Q%qQ%%%%%%%%%%%%%%%%%
1264A023%QqQq%QqQ%%%%%%%%%%%%%%%Q%qQ%%%%%%%%%%%%%Qq%Q%q%Q%%%%%%%%%%%%%%%%%Qq
1257A047%%QqQ%%%%%%%%%%%%%%%%%%%%%Qq%Q%%%%%%%%%%%%%%%%Q%q%Q%%qQ%%%%Qj6%Q%qQQ
1251A079%q%%Q%%%%qQ%%%%%%%%Qq%%%QqQ%%%%%%%%%%%%%%%%Qq%Q%%%%%%%%%%%%%Qq%%Qq%%
1244A095%Q%%%%%%%%%%%%%%%%%Q%%%%%%%%%%%%%%%%QqQqQ%qQ%%%%%%%%%%QqQ%q%%Q%%%%%%
1238A127%%%%%%%%%%%%%Q%%%%%%%%%%%%%%%%%Q%%q%Q%%%%%%%%%%%%%%%%QqQ%%%%%%%%Qq%%
1231A151%%%QqQ%%%%%%%%%%%%%Q%q%Q%%%%%%%%%%%%%%Q%%%qQqQ%qQ%%%Q%%qQq%%QqQ%%%%%
1225A183%%%%%%%%%QqQqQ%%%%%%%%%%%Qq%%QqQ%%%%%%%%%%Q%q%Q%%%%%%%%%%%%%%%%Qq%Q%
1218A215%%%%%%%%%%%%%%Q%%%%%%%%%%%%%%%%Q%qQ%%%%%%%%Qq%QqQ%%%%%%%%%%%%%%QqQ%%
1212A247%%%%%%%%%%%%%%%Q%%%%%%%%Qq%%%%%Q%%qQ%%%%%%%%%%%%%Q%qQ%%%%%%%%%%%%%Q%
1205A279%%%%%%%%%%%%Q%%q%Q%%%%qQ%%%Q%qQQ%j6Q%%%%QqqQ%QqQ%%%%%%%%%%Qq%%%Q%qQ%
1199A311%%%%%%%%%%%QqQ%%%%%%%%%%%%Q%%%qQ%%%%%%%%%%Q%%%%%%%%%%%%%%Q%%%qQ%%%%%
1193A343%%Q%%%%%%%%%%%%%%%%QqQ%%%%%%%%%QqQqQ%qQ%%%%%%%%%%QqQ%%%%%%%%%%%Q%%%%
1186A383%%%%%%%%%QqQ%%%%%%%%%%Qq%%%Q%%%%%%%%%QqQq%Q%%%%%%%%%%Q%qQ%%%%%%%%%%%
1180A415Q%%%%%%%%%%%%%%Q%%Qq%Qq%%%Qq%Q%%%%%%%%%%%%%%%Q%%%%%%%%QqQ%%%%%%%%%%%
1173A455%%%Q%%%%%%%%%QqQ%qQ%%%%%%%%%Q%qQ%%%%%%Qq%Q%%%%%%%Q%%qQ%qQ%%%%%%%%%%Q
1167A503%%%%%%%%%%Q%qQ%%%%%%Qq%%QqQ%%%%%%%%%QqQ%%%%%%%%%Q%%%%%%%%%%QqQ%%%%%%
1160A543%%Qq%%Q%%%%%%%%%%%QqQ%%%%%%%%%%Q%%%%%%%QqQ%%%%%%%%%Q%qQ%%%%%%%%QqQ%%
1154A591%%QqQq%Q%%%%%%%%%%%%%%Q%%%%%%%%%%Q%%%%%%%%%Q%%%%%%%%%%%Qq%Q%%%%%%Q%q
1147A631Q%%%%%%%%%%%Q%%%%%%%%%%Q%%%%%%%Qq%Q%%%%%%%%%Q%%%%%%%%%Q%%qQ%%%%Q%q%Q
1141A687%%%%%%%%%QqQ%%%%%%%Q%%%%%%%%%%%Q%%%%%%%%Q%%%%%%%%%%Q%%%%Qq%Qq%Q%qQ%%
1134A735%%%QqQ%%%%%%%%%Q%%%%%%Q%%%%%%%%%%%%Q%%%%%%%%Q%%%%%%QQq%%qQ%%%%%QqQ%%
1128A791%%%%%%%Q%%%%%%%%Q%%%%%%%%Q%%%%%%%%Q%%%%%%%%Q%%%%%%%%%QqQ%%%%%%%Q%%%%
1121A847%%%%QqQ%%%%%%%%Q%%%%%%%%%Q%%%%%%%%%Q%%%%%%Q%%%%%%%Q%%%%%QqQ%%%%%%%%%
1115A903Q%%%%%%%Qq%Q%%%%%%%Q%%%%%%%QqQ%%%%%%%Q%%%%%QqQ%%%%%%%%Q%%%%%%%QqQ%%%
1108A967%%Qq%Q%%%%%Q%qJ6q%Q%%%%%q%QqJ6q%Q%Qk4QJ6j6%QJ6%%q%qJ6q%%QQj6QQqQ%%%%
1103B023Q%%%%QqQqQ%%%%%QqQqQ%%%%%Q%%%%%%%Q%%%%%%%Q%%%%%%%Q%%%%%%Q%%%%%%%%Q%%
1096B095%%%%QqQ%%%%Q%%%%%%%%Q%%%%%Q%%%%%%Q%qQ%%%%Q%%%%%%Q%%%%%%%Q%%%%%%%Q%%%
1090B167%Qq%Q%%%%%%%Q%%%%%%Q%%%%%Q%%%%%%%Q%%%%%%Q%%%%%%%%Q%%%%QqQ%%%%Q%%%%%Q
1083B247%%%%%%%Q%%%%QqQ%%%%Q%%%%%%%Q%qQ%%Qq%Q%%%QqQ%%%%Q%%%%%%Q%%%%Qq%Q%%%Q%
1077B327%%%%%Q%%%%%%%Q%%%%%%Q%%%Qq%Q%%%%Q%%%%%%Q%%%%%QqQ%%%%%Q%%%%Q%%%%%%Q%%
1070B407%%%Q%%%%%%%Q%%%%QqQ%%%%Q%%%Q%%%%%%Q%%%%Q%%%%%Q%%%%%%Q%%%%%Q%%%%%Q%%%
1064B495%%Q%%%%%Q%%%%%Q%%%%Q%%%%%Q%%%%%%Q%%%%Q%%%%Q%%%%%Q%%%%%%Q%%%%Q%%%%%Q%
1057B591%%%%Q%%%%Q%Q%qQq%%Q%%%Q%%Q%%%%%%%Q%%Q%%%%Q%%%%%%Q%%%Q%%%%%QqQ%%Q%%%%
1051B687Q%%%%QqQ%%%Q%%%%%Q%%%Q%%%%Q%%%%%Q%%%%Q%%%%%Q%%%%Q%%%Q%%%%Q%%%%Q%%%%Q
1044B799%%%%QqQ%%Q%%%%%Q%%%%Q%%%Q%%%%Q%%%%Q%%%Qq%Q%%Q%%%%Q%%%%Q%%%Q%%%%Q%%%Q
1038B911%%%QqQ%%%Q%%%Q%%%%%Q%%%Q%%%%Q%%%%Q%%%Q%%%Q%%%Q%%%%%Q%%%Q%%Q%%%Q%%%%%
1031C023Q%%%QqQ%Q%%%%%Q%%%Q%%%Q%%%Q%%%Q%%%QqQ%%Q%%%%%Q%%Q%%%Q%%%Q%%%%Q%%%Q%%
1025C151%Q%%%%Q%QqQ%%%Q%%%Q%%%Q%%Q%%%%Q%%Q%%%Q%%%Q%%%%Q%%Q%%%Q%%%%%%Q%Q%%Q%%
1018C287%Q%%%Q%%%Q%%%Q%%%Q%%%%Q%%Q%%Q%%Q%%%%Q%%Q%%%%Q%%%Q%%Q%%QqQ%%Q%%Q%%%Q%
1012C431%%Q%%%Q%Q%%%%Q%%Q%%%Q%%Q%%%Q%%Q%%%Q%%%Q%%Q%%Q%qJ6QqJ6%j6J6qQqQ%%Q%%Q
1006C575%%Q%%Q%%Q%%%Q%%%Q%%Q%%Q%%Q%%%Q%%Q%%Q%%Q%%Q%%%Q%%%Q%Q%%%Q%%Q%%%Q%Q%%Q
999C743%%%Q%%Q%%%Q%Q%%%Q%%Q%%Q%%%Q%%Q%Q%%%Q%%QqQQ%%Q%%%Q%Q%%%Q%%Q%Q%%%Q%%Q%%
993C911Q%%Q%Q%%%Q%%Q%Q%%Q%%Q%%Q%%%Q%Q%%%Q%Q%%Q%Q%%%Q%Q%%Q%%Q%%Q%%Q%%Q%%Q%%Q%
986D103Q%%%Q%Q%Q%%Q%%Q%%Q%%Q%Q%%Q%%Q%QQq%QqJ6%%QQ%qJ6qQQ%%%Q%Q%%Q%Q%%Q%Q%%Q%
980D303%Q%Q%Q%%Q%%Q%%Q%Q%Q%%Q%Q%%Q%Q%%Q%QqJ6%%%QQ%%%Q%Q%Q%%Q%Q%%Q%%Q%Q%Q%%Q%
973D519%Q%QQ%%Q%Q%%Q%%Q%Q%Q%%Q%Q%%Q%Q%Q%Q%%Q%Q%Q%%Q%Q%Q%%Q%Q%Q%Q%%Q%%QQ%Q%Q%
967D759%Q%Q%%QQ%%Q%Q%Q%%QQ%%QQ%%Q%%Q%QQ%Q%%Q%Q%Q%%QQ%Q%%QQ%%QQ%%Q%%Q%Q%QQ%%Q
960E015%Q%Q%Q%%QJ6qQ%Q%Q%%J6%%Q%QQ%QqQQ%Q%Q%Q%Q%Q%Q%Q%Q%Q%Q%Q%Q%Q%Q%Q%Q%Q%Q%
954E279QQ%Q%Q%Q%Q%QQ%Q%Q%Q%Q%QQ%%QQ%Q%Q%QQ%Q%%QQ%Q%Q%Q%Q%QQ%Q%Q%QQ%QQ%%QQ%QQ
947E591%Q%%QQQ%%QQ%Q%Q%Q%QQ%QQ%Q%QQ%Q%QQ%Q%%QQQ%Q%Q%QQ%Q%QQ%Q%QQ%QQ%Q%QQ%Q%Q
940E911QQ%Q%Q%J6%%QQ%QQ%QQ%Q%QQ%QQ%QQ%Q%QQ%QQQ%Q%Q%QQQ%QQ%QQ%Q%QQ%QQQ%QQ%QQ%
934F263Q%Q%QQJ6qQQQ%Q%QQQ%QQQ%QQQ%QQ%QQ%QQQ%%J6Q%Q%QQ%QQQQ%QQ%QQ%QQQ%QQQ%QQ%
928F639QQ%J6%QQQQ%Q%QQQQQ%Q%QQQQ%QQ%QQQQQ%QQQ%QQQ%QQQ%J6%Q%J6%QQQQ%QQQ%QQQQ%
921G047QQQ%J6%QQQQQ%QQQQQ%QQQ%QQQQQQQ%QQQQQ%QQQQQQ%QQQQQ%QQQQQQQ%QQQQQQQ%QJ6
915G511%QQQ%QJ6%QQQQQQQ%QQQQQQQQQQQQQ%QQQQQQQQQQ%QJ6QQQQqK4%QQQQJ6%QQ%%K4J6%
909G975%K4%%J6Q%J6Q%QJ6Q%QJ6%QQJ6%J6%QJ6%QJ6Q%J6%J6QQQQQQQQQQQQQQQQQQQQQJ6QQ
903H439QQQQQQQQQQQQQJ6QQQQQQQQQJ6QQQQQQQQQQJ6%J6QQQQJ6%J6QQQQQQJ6QQQQQQJ6QQQ
898H975QJ6QQQQQQJ6QJ6Q%J6QQQQJ6QQQQQJ6QQQQJ6QQQQJ6QQJ6QQQJ6QQQJ6QQQJ6QQQJ6QQ
892I519QJ6QQJ6QQJ6QQQJ6QQQQJ6QJ6QQQJ6QJ6QJ6QQQJ6QJ6QQQJ6QQJ6QJ6QQJ6QQJ6QQJ6Q
887A0071QJ6QJ6QQJ6J6QQJ6QQJ6QJ6QJ6QQJ6QQJ6QJ6J6QQQJ6J6QJ6QQJ6QJ6QJ6QJ6QJ6QJ6
883A0615QJ6QJ6QJ6QQJ6J6J6%J6J6QJ6J6QJ6QJ6QJ6QJ6QJ6J6QJ6QJ6J6QJ6QJ6J6QJ6QJ6QJ6
879A1159J6QJ6QJ6J6QJ6J6QJ6QJ6J6QJ6J6QJ6J6J6QJ6QJ6J6QJ6J6J6QJ6J6J6QJ6J6J6QJ6Q
875A1703J6J6J6QJ6J6J6J6QJ6J6J6QJ6J6J6QJ6J6J6J6QJ6J6J6QK4QJ6J6J6J6QJ6J6J6J6QJ6
871A2263J6J6J6J6J6J6J6J6QJ6J6J6J6J6J6J6QJ6K4QJ6J6J6J6J6J6J6J6J6J6J6J6J6J6J6J6
868A2823QK4QK4J6QK4J6J6J6J6QJ6K4J6J6J6J6J6J6J6J6J6K4QK4J6J6J6J6J6J6J6K4QK4J6
864A3431J6J6J6J6K4J6J6J6J6J6J6K4J6J6J6J6K4J6J6J6J6K4J6J6J6J6K4J6J6K4J6J6J6J6
861A4023L2QJ6K4J6J6J6K4J6J6J6L2J6J6J6J6K4J6J6K4J6K4J6J6K4J6J6K4J6K4J6J6K4J6K4
857A4687J6K4J6J6K4J6K4J6K4J6K4J6K4J6K4J6K4K4J6K4J6K4J6K4J6K4J6K4J6K4K4J6K4J6
854A5367K4K4J6K4K4J6K4J6K4K4J6K4K4J6K4K4K4K4J6K4J6K4K4K4J6K4K4K4K4J6K4K4J6K4
851A6103K4K4K4J6K4K4K4K4K4K4J6K4K4K4K4K4K4K4J6K4K4K4K4K4K4K4K4K4K4L2J6K4K4K4
848A6895K4K4K4K4K4K4K4K4K4K4K4K4K4K4L2K4K4K4K4L2J6L2K4K4K4K4L2K4J6L2K4K4L2K4
844A7743K4L2J6L2K4L2K4K4K4L2K4K4L2K4K4L2K4L2K4K4L2K4K4L2K4L2K4L2K4K4L2K4L2K4
841A8655L2K4L2K4L2L2K4L2K4L2K4L2K4L2K4L2L2L2K4L2K4L2K4L2L2L2K4L2L2L2K4L2L2K4
838A9639L2L2L2L2L2K4L2L2L2K4M0L2K4L2L2L2L2L2L2K4M0L2L2L2L2L2L2K4M0L2L2L2L2L2
835B0711L2L2L2L2L2M0L2L2L2L2L2M0L2L2L2L2L2M0L2L2M0L2L2M0L2L2M0L2L2M0L2M0L2L2
832B1863M0L2M0L2M0M0L2L2M0L2M0L2M0M0L2L2M0M0M0L2M0M0L2M0L2M8L2M0M0L2M0M0M0M0
828B3127L2M0M0M0M0M0M0M0L2M0M0M0M0M0M0M0M0M0M0M0M0M0M0M8M0M0M0M0M0M8M0M0M0M8
825B4495M0M0M0M8M0M0M8M0M0M8M0M0M8M0M0N6M0M0M8M0M8M0M8M8M0M8M0M8M8M0M8M8M0M8
822B5983M8M8M0M8M8M8M8M0M8M8M8M8M8M8M8M8M8M8M8M8M8M8M8M8M8M8N6M8M8M8N6M8M8M8
819B7615M8N6M8N6M8M8M8N6M8N6M8N6M8N6N6M8N6N6M8M8N6N6N6M8N6N6N6M8N6N6N6N6N6M8
815B9407N6N6N6N6N6N6N6N6O4N6N6N6N6N6N6O4M8O4N6O4N6O4N6N6O4N6N6O4O4N6N6O4N6O4
812C1383O4O4N6O4O4N6P2N6N6N6P2O4O4O4O4O4O4O4O4O4O4O4P2O4O4O4O4O4P2O4P2O4O4P2
809C3567O4O4P2O4P2P2O4P2O4P2P2P2O4P2P2P2P2O4P2P2P2P2Q0O4P2Q0P2P2P2P2Q0P2P2P2
806C5975Q0P2Q0P2Q0P2Q0P2Q0Q0P2Q0Q0Q0P2Q0Q0Q0Q0Q0Q0Q0Q0Q0Q0Q0Q0Q8Q0Q0Q0Q8Q0Q0
802C8663Q8Q0Q8Q0Q8Q8Q0Q8Q0Q8Q8Q8Q0R6Q8Q0R6Q8Q0Q8R6Q8Q8Q8Q8R6R6Q8Q8R6R6Q8R6Q8
799D1663R6Q8R6R6R6R6Q8J04R6R6R6R6R6R6J04R6R6R6J04R6J04R6J04R6J04J04J04R6J04J04
796D4607J04J04J04J04J04J04J12J04J04J12J04J04J12J12J04J12J12J04J12J12J12J12J12
794D7087J12J04J20J12J12J12J20J12J20J12J12J20J20J20J12J20J20J20J20J20J20J20J20
792D9767J20J28J20J28J20J28J28J20J28J20J28J28J28J28J28J28J28J36J28J28J36J28J36
790E2695J28J36J36J36J28J36J44J36J36J36J36J36J44J44J36J44J36J44J44J36J44J52J44
787E5887J44J44J44J44J52J44J52J52J44J52J52J52J52J52J52J60J52J52J60J52J60J60J52
785E9367J60J60J60J60J68J60J60J60J68J68J60J68J68J68J68J68J76J68J68J68J76J76J68
783F3191J76J76J76J84J76J76J76J84J76J84J84J84J76J84J92J84J84J92J84J92J92J84J92
781F7399K00J92J92J92K00J92K00K00K00K00K00K00K00K00K08K08K00K08K08K16K08K08K16
779G2047K08K16K16K16K16K16K16K24K16K24K24K16K24K32K24K24K32K32K24K32K32K40K32
776G7183K32K40K40K32K40K48K40K40K48K48K48K48K40K56K56K48K56K48K64K56K56K64K56
774H2887K64K64K64K64K72K72K64K72K72K80K72K80K72K80K80K80K88K80K88K88K88K88K96
772H9255K96K96K96K96L04K96L04L04L04L04L12L04L12L12L20L12L20L20L20L20L28L20L28
770I6383L28L36L28L36L36L36L44L36L44L52L36L52L52L52L60L52L60L60L52L68L68L68L68
768A04407L68L76L76L76L76L84L76L92L84L92L92L92M00L92M08M00M00M16M00M16M16M08M24
766A13471M16M24M24M32M24M32M40M40M40M40M40M48M56M48M56M56M64M64M64M64M72M72M80
763A23767M80M80M88M80M96M96M96M96N04N04N04N12N04N28N20N20N28N28N36N36N36N44N52
761A35535N44N52N52N60N68N68N68N76N76N76N84N92N92N92O00O00O08O08O16O16O16O24O40
759A49063O32O32O40O48O56O48O64O56O72O72O72O80O88O88O88P04O96P12P12P12P28P20P36
757A64719P36P36P44P52P60P60P68P68P76P84P92P92P92Q08Q08Q16Q24Q24Q32Q40Q40Q48Q64
755A82983Q56Q72Q72Q80Q88Q88R04R04R12R20R28R28R44R44R52R60R68R68R84R92R92J008
752B03447J008J016J024J032J048J048J056J064J080J072J096J096J104J120J120J136J136
751B21703J152J160J168J176J192J192J200J216J224J232J248J256J264J272J288J288J312
749B42543J312J328J336J352J360J368J384J392J408J416J432J440J456J464J480J488J504
748B66463J512J528J544J552J568J584J600J608J624J640J648J664J688J696J712J728J744
746B94103J752J776J792J808J816J840J856J872J896J904J928J936J968J976J992K024K032
744C26271K056K072K096K112K136K152K176K200K216K240K264K280K304K328K352K376K400
743C64031K424K448K464K496K528K544K568K600K624K656K680K712K736K760K792K824K856
741D08743K880K912K944K984L000L048L064L112L136L176L208L248L280L320L344L400L432
739D62231L464L504L552L584L624L672L712L760L792L848L880L944L976M024M072M128M168
738E26935M232M271M320M376M432M488M536M608M648M720M768M832M889M960N016N080N144
736F06255N215N280N353N415N496N560N640N712N784N865N943O032O105O191O273O360O456
735G04935O536O631O729O815O920P017P112P216P320P431P536P640P760P880P993Q103Q233
733H29807Q359Q488Q608Q753Q879R017R159R305R447R593R751R904J0073J0224J0391J0569
731I80327J0736J0919J1096J1280J1473J1663J1864J2064J2272J2488J2704J2920J3160J3376
730A148342J3625J3863J4121J4368J4640J4896J5175J5456J5753J6047J6336J6664J6976J7305
729A363567J7640J7983J8337J8704J9063J9465J9848K0248K0663K1088K1528K1984K2441K2911
727A645470K3409K3904K4423K4960K5504K6072K6648K7249K7863K8497K9151K9825L0528L1240
726B024743L1983L2745L3527L4352L5177L6056L6951L7872L8832L9824M0849M1903M3001M4136
725B551951M5320M6528M7783M9104N0456N1857N3312N4839N6392N8033N9735O1488O3321O5231
723C315350O7208O9272P1424P3665P5992P8431Q0969Q3615Q6376Q9272R2296R5448R8745J02216
722D480279J05831J09624J13609J17791J22176J26800J31648J36768J42153J47799J53705
721E888183J59808J66223J73048J80368J88161J96416K05160K14400K24208K34600K45639
720H076214K57385K69880K83191K97393L12552L28768L46119L64696L84641M06063M29088
719A1755990M53904M80649N09543N40784N74641O11367O51288O94744P42161P93943Q50689
718A8659703R12934R81369J056824J140160J232481J334983J449145J576639J719441J879944
717C1943623K060960K265826K498600K764144L068423L418666L823846M295049M846144N494585
716F6479866O262596P178608Q279506R613508J1244394J3257588J5768805J8937020K2983559
715A80005450K8220769L5095541M4254922N6643661P3642179R7234792J30120862J75409529
714H20627705K34749039L02006173L48728604L10920235J30451891j30451761l10920365l48728604
714A357382917l02006173k34749104j75409529j30120797r7234792p3642179n6643661m4254938
713B43321744l5095525k8220769k2983542j8937037j5768805j3257588j1244394r613508q279506
712G9921070p178624o262575n494590m846144m295049l823846l418675l068414k764144k498600
711C6270409k265826k060952j879960j719441j576623j449145j334991j232481j140160j056824
710B0554006r81375r12928q50689p93960p42152o94736o51296o11367n74633n40792n09535
709A2690543m80649m53904m29096m06047l84649l64696l46119l28768l12561k97391k83192
708H603471k69872k57392k45641k34608k24208k14415k05168j96417j88176j80375j73041
707F214158j66191j59769j53671j47793j42159j36776j31665j26792j22191j17793j13615
706D695743j09625j05839j02209r8752r5448r2287q9272q6385q3615q0969p8424p5999p3665
705C523254p1416o9280o7208o5231o3321o1488n9728n8040n6399n4832n3312n1857n0456m9095
703B691591m7792m6537m5304m4136m3008m1903m0849l9824l8832l7879l6944l6056l5184l4345
702B122998l3535l2737l1983l1240l0520k9833k9151k8505k7855k7249k6656k6064k5504k4960
701A717206k4423k3912k3393k2919k2441k1976k1528k1096k0663k0256j9840j9457j9071j8704
699A417527j8337j7983j7640j7305j6976j6656j6352j6039j5745j5455j5184j4896j4640j4368
698A189951j4113j3871j3625j3384j3152j2920j2704j2488j2272j2064j1864j1663j1473j1280
697A013078j1096j0919j0736j0569j0391j0224j0073r904r751r593r447r313r151r017q888
695H64006q744q616q480q359q233q111p985p880p760p648p535p424p320p216p120p009o920
694G31646o823o721o631o536o456o360o273o191o113o024n943n865n784n712n640n568n488
692F27518n415n353n280n207n152n080n016m960m889m832m776m712m648m600m544m488m424
690E44142m375m337m263m224m176m120m080m032l968l936l888l848l792l760l712l664l632
689D76335l584l552l504l472l424l400l352l312l280l248l208l176l136l112l072l032l016
687D20455k976k944k912k880k856k816k800k768k736k704k680k648k632k600k568k544k520
686C73871k504k472k440k424k400k376k352k328k304k280k264k240k216k200k168k160k136
684C34607k112k096k072k056k032k016k000j976j968j936j928j912j888j872j856j840j816
682C01231j808j792j768j760j744j728j712j696j680j664j656j640j624j608j600j584j560
681B72607j560j544j528j512j504j488j480j464j456j440j432j416j400j400j384j368j360
679B47871j352j336j328j312j304j296j288j272j264j256j240j240j224j216j200j200j184
677B26359j176j168j160j152j136j136j120j120j104j096j096j080j064j072j056j048j040
676B07535j032j032j016j008j008r92r92r76r76r68r60r52r44r44r36r20r20r12r04q96q96
674A87351q88q80q72q72q64q56q48q40q40q32q24q24q16q08q08p92q00p84p84p76p68p68p60
672A68447p60p52p44p36p44p28p20p28p20p04p12o96p04o88o88o88o80o72o72o72o64o56o56
669A52263o48o48o40o40o32o24o24o24o16o16o08o08o00o00n92n92n92n84n76n76n76n68n68
667A38311n60n60n60n52n44n52n44n36n36n36n28n20n28n20n20n12n04n20n04m96n04m88m96
665A26191m88m88m80m88m80m80m72m72m72m56m64m64m56m56m48m56m48m40m48m32m40m40m32
663A15591m24m32m24m24m16m24m16m08m08m16m08m00m00m00m00m00l92l92l92l84l84l84l84
661A06279l76l76l76l76l68l68l68l68l68l60l52l60l60l52l52l52l52l36l52l44l36l36l44
658I8047l36l36l28l36l28l28l20l28l20l20l20l20l20l12l12l12l12l04l04l04l12k96l04
656I0735k96k96k96k96k96k88k96k88k88k80k88k80k88k80k80k72k80k72k80k64k80k64k72
654H4215k64k72k64k64k56k64k64k56k56k56k56k56k48k56k48k56k40k56k40k48k40k40k40
652G8375k48k32k40k40k32k40k32k32k32k32k24k32k24k32k24k24k16k32k16k24k16k16k24
650G3111k16k08k16k16k16k08k08k16k08k08k08k00k08k00k08k00k08j92k08j92k00k00j92
647F8375k00j92j92j92j92j92j92j92j92j84j92j84j84j84j84j84j84j84j84j76j84j76j76
645F4079j76j84j76j68j76j76j76j68j76j68j76j68j68j68j68j60j76j68j60j60j68j60j60
643F0175j68j60j60j60j60j52j60j60j60j52j52j60j52j52j52j60j44j52j52j52j44j44j52
641E6615j44j52j44j52j36j52j36j52j44j36j44j44j36j44j36j36j44j36j36j36j44j28j44
639E3359j28j36j36j36j28j36j28j36j28j28j28j36j28j28j28j28j28j28j20j28j28j20j28
636E0383j20j28j20j28j12j28j20j20j20j20j20j20j12j20j20j20j12j20j12j20j12j12j20
634D7647j12j12j12j12j12j12j12j12j12j12j12j04j12j04j12j12j04j12j04j04j04j04j12
632D5127j04j04j04j04j04j04j04j04r6j04j04r6j04r6j04r6j04r6r6r6j04r6r6r6r6r6j04
630D2415r6q8j04q8r6q8r6r6r6r6q8q8r6q8r6q8q8r6q8q8q8r6q0q8r6q8q0r6q0q8q8q8q8q0
626C9343q8q0q8q8q0q8q0q8q0q0q0q8q0q8q0q0q0q0q0q0q0q0q0q0q8p2q0q0p2q0q0q0p2q0
623C6583p2q0p2q0q0p2p2q0p2p2p2q0p2p2p2q0p2o4p2p2q0p2o4q0o4p2p2p2p2o4p2p2p2o4
620C4111p2o4p2p2o4p2n6q0o4o4p2o4o4o4o4p2o4o4o4p2o4o4o4o4o4o4o4o4o4o4n6o4o4p2
617C1871m8p2o4n6o4n6o4o4n6o4o4n6o4o4n6n6n6o4n6o4n6n6n6o4o4n6n6n6n6n6n6o4n6n6
613B9855n6n6n6n6n6n6n6n6m8n6n6n6n6m8o4m8n6m8n6n6n6n6m8n6m8n6n6m8m8n6m8n6m8n6
610B8023m8m8n6m8n6m8m8n6m8m8m8m8n6m8m8m8n6m8m8m8m8m8m8m8m8m8m8m8m8m8m8m8m8m0
607B6359n6m0m8m8m8m8m0m8m8m0m8m8m0m8m8m0m8m8m0m8m8m0m0m8m0m8m0m8m0m8m0m0m8m0
604B4831m0m8m0m8m0m0m0m8m0m0m0m8m0m0m0m0m0m8m0m0m0m0m0m0m0m0m0m0m0m0m0m0l2m8
600B3431m0l2m0m0m0m0m0m0l2m0m0m0m0l2m0m0l2m0m0l2m0m0l2m0m0l2m0m0l2m0l2m0l2m0
597B2151l2m0l2m0l2m0l2l2m0l2m0l2m0l2l2m0l2l2m0l2l2l2m0l2l2m0l2l2m0l2l2l2l2l2
594B0975m0l2l2l2l2l2l2l2m0k4l2l2l2l2l2m0k4m0k4l2l2m0k4l2l2m0k4l2l2l2l2k4l2l2
591A9887l2l2l2k4l2l2l2k4l2l2l2l2k4l2l2k4l2k4l2l2l2k4l2l2k4l2k4l2k4l2l2k4l2k4
587A8887l2k4l2k4l2l2k4l2k4l2k4l2k4l2k4l2k4k4k4l2l2k4l2k4k4k4l2k4k4l2k4l2k4k4
584A7951k4l2k4k4l2k4k4k4l2k4k4k4k4l2j6l2k4k4k4l2k4k4k4k4k4k4k4k4l2k4k4k4k4k4
581A7087k4k4k4k4k4k4k4l2j6k4k4k4k4j6l2k4k4k4k4k4k4k4k4k4j6l2j6k4k4k4k4j6k4k4
578A6287k4k4k4j6k4k4k4k4j6k4k4j6l2j6k4k4k4j6k4k4k4j6k4k4k4j6k4j6k4k4k4j6k4j6
574A5543k4j6k4k4k4j6k4j6k4j6k4k4j6k4j6k4k4k4j6j6k4j6k4k4j6k4j6k4j6k4j6k4j6k4
571A4839j6j6k4j6k4j6k4j6j6k4j6k4j6k4j6j6k4j6k4j6j6k4k4qk4j6k4j6j6k4j6j6j6k4k4
568A4167j6j6j6k4qk4ql2j6j6j6k4j6j6j6j6k4j6j6j6k4j6j6j6j6k4j6j6j6k4j6j6j6j6j6
564A3551j6k4j6j6j6j6j6j6k4j6j6j6j6j6j6j6k4j6qj6k4j6j6j6j6j6j6j6k4qj6k4qk4j6j6
561A2943j6j6j6j6j6qj6j6k4qj6k4qj6j6j6j6j6j6j6j6j6j6j6j6j6j6qj6j6j6j6j6j6j6j6
558A2383j6qj6j6j6j6qk4j6qj6j6j6qj6j6j6j6qk4j6qj6j6qj6k4qj6qj6j6j6j6j6qj6j6j6
554A1815qj6j6j6qj6j6qj6j6j6j6qj6j6qj6j6qj6j6qj6j6j6qj6j6qj6j6qj6j6qj6qj6j6qj6
550A1263j6qj6j6qj6j6qj6qj6qj6j6qj6qj6j6qj6qj6qj6j6qj6qj6qj6qj6qj6qj6j6qj6j6q
546A0719qj6qj6qj6j6qqj6qj6qj6qqj6j6qqj6qj6qj6qqk4qqqqk4qqj6qqj6qj6qj6qqj6qqj6
541A0151qj6qqj6qj6qj6qqj6qqj6qqj6qqj6qj6qqj6qqj6qj6qqqj6qqj6qqj6qqj6qqj6qqqq
536I607j6qj6qqqqj6qqj6qqj6qqqj6qqqqqj6qqqj6qqqj6qqqqj6qqqj6qqqj6%j6qqqj6qqqq
531I063j6%j6qqqqj6qqqqqj6qqqqqqj6qqqqqj6q%j6qqqqqj6qqqqqqqqj6qqqqqqqqj6%qj6q
526H535%j6qqqqqqqqqqqqj6q%j6qqqqqqqqqqqqqqqqqqqqj6q%qj6%qqqj6%j6qq%j6%j6qqqq
520H039q%j6%qq%j6j6%k4J6j6k4%%qj6%qqq%j6qj6Qqqj6%qqqqqqqqqq%j6%qqqq%j6q%j6%q
515G631qqqqqqqqq%qqqqqqqq%j6qqq%qq%j6%qqqqq%j6%qqqq%qj6%qqqq%qqqqq%qqqqq%qqq
508G175qqq%qqqq%qqqqq%qqq%j6%qq%qqqq%qqqqq%qqq%qqqq%qq%qqqq%qqq%j6%qq%qqqq%q
502F751q%qqq%qqqq%qq%qqqq%qq%qqq%qq%qqq%qqq%qq%qqq%q%qqq%j6%q%qqq%qq%qq%qqq%
496F359qqq%qq%q%qqq%q%qqq%q%j6%%qqq%qq%qq%q%qqq%%qqq%qq%q%qq%qq%qq%qq%q%qqq%
489E999q%qq%q%j6%%q%j6%%qq%qq%qq%q%q%qq%qq%qq%q%qq%qq%q%q%qq%q%q%q%qq%qq%%qq
483E671%q%j6%%q%qq%%q%qq%qq%q%qq%q%q%qq%q%q%q%qq%q%q%qq%%q%qq%q%q%qq%q%q%qq%
476E367%q%q%q%q%qq%q%q%q%q%q%q%q%q%qq%q%q%%qq%q%q%qq%%qq%%q%q%qq%%q%qqQj6Qq%
470E095qq%q%q%q%q%%q%qq%q%q%q%%q%q%q%q%q%q%q%q%%qq%q%%q%q%q%q%q%q%%%qq%%q%q%
463D831q%q%q%q%q%%q%q%q%q%q%q%%qq%%q%%q%%qq%%q%q%q%q%q%%q%q%%q%%qq%%q%q%q%%q
457D583%q%q%%q%q%%q%q%q%q%%q%%q%q%%q%q%%q%q%q%%q%%q%q%q%%q%%q%q%%qq%%q%%%q%q
450D359%q%q%%q%q%%q%%q%q%%%q%q%q%%q%%q%%q%q%%q%q%%qqQq%q%%q%q%%q%%q%%q%%q%q%
443D151%q%%q%%q%q%%q%%q%q%%%q%q%%q%%q%%q%%q%q%%q%%%q%%q%q%%q%%q%%q%%q%%q%%q%
437C959%q%%q%%q%%q%%q%q%%%q%%q%q%%%q%q%%qQq%%qq%%%%qqQq%q%%q%%%q%%q%q%%%q%%%
430C783q%q%%%q%q%%q%%%q%%q%%%q%%q%%q%%q%%q%%q%%%%q%%q%%q%%q%%%q%%q%q%%%qQqq%
424C607%%q%%%q%%q%%q%%%%q%q%%%%q%%%qq%%q%%Qj6%%%q%%%q%%%q%%%q%q%%qQ%q%%q%q%%
417C455%q%%%%q%q%%%q%%q%%%q%%q%%%q%%%%q%%q%%%q%%%q%%%q%%q%%%%q%%q%%q%%%%q%%q
411C303%%%q%%%q%%q%QqqQq%q%%%%q%%q%%%%q%%%q%%%q%%%q%%%q%%%%q%%q%%%q%%qQq%%%q
404C167%%qQq%%q%%%q%%%%q%%q%%%q%%%%%q%%%q%%%q%%%q%%%q%%%%%q%%q%%qQq%%q%%%%%q
397C039%%qQq%%q%%%%q%%q%%%%%q%%q%%%%q%%%%q%%%%q%%%%q%%q%%%%%q%%%q%%%q%%%%q%%
391B919%q%%%%q%%%%%q%%%q%%%q%%%%q%%%%q%%%%%q%%%%q%%%%q%%%q%%%q%%%%%q%qQ%q%%%
384B807q%%%qQq%%%q%%%%%%q%%q%%%%%q%%%q%%%%%q%%%q%%%%%q%%%%q%%%%q%%q%Qq%%%%q%
378B695%%%%q%%qQq%%%%q%%%%%q%%%%q%%%q%%%%%%q%%qQq%%%%qQq%%q%%%%qQq%%qQq%%%%%
371B599%q%%%%%q%%q%%%%%q%%%%%q%%%%%q%%%%%%q%%%%q%%%%%%q%%%%q%%%%q%%%%q%%%%%q
364B495%%%%%q%%%%%%q%%%%%q%%%%q%%%%%%q%%%%qQq%%%%q%%%%q%%%%q%%%%%%%%q%%%%%q%
358B407%%%%%q%%%%%q%%%%%q%%%%%%%q%%%%q%%%qQ%q%%Qq%q%Qq%%q%%%%%%q%%%%%q%%%%%%
351B327%q%%%%qQq%%%q%%%%%%%q%%%%%q%%%%%%qQq%%q%QqQq%%%q%%%%qQq%%%%%q%%%%%q%%
345B239%%%%%q%%%%%%q%%%%%%q%%%%%qQq%%%%%q%%%%%%%q%%%%%%%q%%%%%q%%%%%%%%q%%%%
338B167%%%q%%%%q%%%%%%qQq%%%%%qQ%%q%%%q%%%%%q%%%%%%%q%%%%%%%%q%%%%%q%Qq%%%%%
332B095%%q%%%%%%%q%%%%%%%q%%%%%%%q%%%%%%%q%%%%%q%%%%%%%q%%%%%%%q%%%%%%q%Qj6Q
325B023%%q%Q%%qqQ%%q%%%qqJ6q%Qj6L2k4%Q%qqQQj6%%%%%q%%%%%%qQq%%%%%%%q%%%%qQ%q
319A959%%%%%%q%%%%%%%%%q%%%%%%%%q%%%%%%%%qQq%%%%%%%%q%%%%qQ%%q%%%%%%q%%%%%%q
312A895Qq%%%%%%%%q%%%%%%%q%%%%%%%%q%%%%%%%qQq%%%%%%%qQq%%%%%%%%q%%%%%%%%q%%%
306A839%%%q%%%%%%%%%%%qQq%%%%%qQq%%%%%%%%%q%%%%%%%q%%%%%%%%%q%%%%%%%%%q%%%%%
299A783%%%q%%%%%%%%%%q%%%%%%%%q%%Qq%%%%%%%q%%%%%%q%Qq%%%%%%%%qQq%%%%%%%%qQqQ
293A735q%%%%%q%%%%%%%%%%q%%%%%%%%%%q%%%%%%%%q%Qq%%%%%%q%%%%%%%%%%%%q%%%%%%%%
286A679q%%%%%%%%%%%q%%%%%%%%%%%q%%%%%%%q%Qq%%%%%%%%q%QqQq%%%%%%%q%%%%%%%%%q%
280A623%%%%%%%%%%%q%%%%%%%%%%q%%%%%%%q%Qq%%%%%%%%%%%q%%%%%%%Qq%q%%Qq%%%%%%q%
273A575QqQq%%%%%%%%%%q%%%%%%%%%%q%%%%%%%%%%q%%%%%%%qQqQq%%%%%%%%%qQ%q%%%%%%%
266A535%%%q%%%%%%%%%%%%%qQq%%%%%%qQ%q%%%%%%%%%%q%Qq%%%%%%%%%%%%qQq%%%%%%%%%%
260A495%q%%%%%%%%%%%qQq%%%%%%%qQq%%%%%%%%%%%qQq%%%%%%%%q%QqQq%%%%%%%%%%qQqQq
253A447%%%%%%%%%%q%%%%%%%%%%%%q%Q%%q%%%%%qQq%Qq%%%%%%%%%%q%Qq%%%%%%%%qQq%%%%
247A407%%%%%%%%%%%q%%%%%%%%qQ%q%%%Qq%%%%%%%%%%qQqQq%%%%%%%%%%q%%%Qq%%%%%%%%q
240A367%Qq%%%%%%%%%%%q%%%%%%%qQ%%%%%q%%%%%%%%%%%%%%%q%%%%Qq%%%%%%%%q%%%%%%%%
233A335%%%%%q%%%%%Qq%%%%%%%%%q%%%%%%%%%%%qQq%%%%%%%%%%%%qQ%%q%%%%%%%%%%%%%q%
227A295Q%q%Qq%Qj6Q%%%%%qQq%%Qq%%%%%%q%Q%q%%%%%%%%%%%%%qQq%%%%%%%%%%%%%qQ%%%q
220A263%%%%%%%%%%%%%q%%%%%%%%%%%%%%%%%%%q%%%%%%%%%%qQ%q%%%%%%%%%%%%%%%q%%%Qq
214A231Q%q%%%%%%%%qQq%%%%%%%%%%%%%%%qQq%%%%%%%%%%%%%%%q%%%%%%%%%%%%%%%%%%%q%
207A199%Q%q%%%%%%%%%%%%q%Qq%%Qq%%%%%%%%qQ%q%%%%%%%%%%%%%q%%%%%%%%%%qQ%qQqQ%q
201A167%%%Qq%%%%%%%%%%%%%qQqQ%q%%%%%%%%%%%%%%%qQq%%%%%%%%%%%%%qQq%%%Q%q%%%%%
194A143%%%%%%q%Qq%%%%%%Qq%%%%%%%%%%%%%q%%%%%%%%%%%%%%qQ%%q%Qq%%%%%%%%%%%%%%%
187A119qQqQ%q%%%%%%%%%%%%%%q%%QqQq%%%%%%%%%%%%%%%q%QqQq%%%%%%%%%%%%%%%%%%q%%
181A087%%%%%%%%qQ%%%%qQqQq%%%%%%%%%%%%%%%%%%q%Qq%%%%%qQ%%%%%%%%%%%q%%Qq%%%%%
174A063%%qQ%%%%%%%q%%%QqQqQq%%%%%%%%%%%%qQq%Qq%%%%%%%%%%%%%%qQqQqQq%%%%%%%%%
168A039%%%%%%q%Q%%qQq%%%%%%%%%%%%%%%%%%qQq%%%%%%%%%%%%%%%%%%%%%%%%%%q%%%%%%%
161A015%%%%%%%%%%%q%%%%%%%%%%%%%%%%%%%%%%%q%%%%%%%%%%%%%%%%%%q%QqQq%%%%%%%%%
155I91%%%%%%%%%%%qQ%q%%%Qq%%%Qq%%%%%%%%%qQqQ%%q%%Q%q%%%%%%%%%%%%%%qQqQq%%%%%
148I67%%%%%%%%%%%%%%%qQq%%%%%Qq%%%%%%%%%qQq%QqQqQq%%%%%%%%%%%%%%%%%%%qQ%qQ%q
141I43Q%%qQq%%%%%Qq%%%%%%%%%%%%%q%%%%%%%%%%%%%%%%%q%Q%q%Q%q%%%%%%%%%%%%%%%%%
135I27%%%%%%qQq%%%%%%%%%%%%%%%%%%%%%%qQqQq%%%%%QqQq%%%%%%%%%%qQ%%qQ%%J6qj6Qq
128I03k4K4Qq%%%%%%qQ%%%%%%%%q%%Q%%%q%%%%%%%%%%%%%%%%%%%%%%%q%Q%q%%%%%Qq%%%%%
122H87%%%%%%%%%%%%%%%%q%%%%%%%%%%%%%%%%%%%%%q%%Qq%Q%q%%Q%q%%%%%%%%%%%%%%qQ%%
115H71%qQq%%%%%%%%%%%%%%%%%%%%qQ%%%%%qQq%%%Q%q%%%%%%%%%%%%%%%%%%%%%qQ%qQqQ%q
108H47%%%%%%%%%%%%%%%%%%%%%%%qQ%qQqQq%%%%%%%%%%%%%%%qQ%qQ%%qQ%%q%Q%q%%%%%%%%
102H31%%%%%%%%%qQ%%qQqQ%q%QqQ%q%%%%%%%%%%%qQ%%qQ%qQ%%q%Q%%qQ%q%%%%%%%%%%%%%%
95H15%%%%%%%%%%%%%%q%Qq%%Qq%%Qq%%Qq%%%%%%Qq%%%%%%%%q%Q%%%q%Qq%%%%%%%%%%%%%%%
88G99%%%%%%%%%qQ%q%%Qq%Qq%%%%%%%%%%%%%%%%%%%%qQ%%q%%Qq%%%%%%%%%%%%%%%%%%%%%%
81G83%%%qQq%%Q%qQq%QqQj6Qq%J6q%Q%q%%%%%%%%%%%%%%%qQqQq%%%Qq%Q%%%q%%%%%%%%%%%
75G67%%%%%%%%%%%%%%qQq%Q%q%Qq%%%%%%%%%%%%%%%%%%%%%q%%%%%%%%%%%%%%%%%%%%%%%%%
68G51%%qQ%q%Q%%qQ%%q%Q%q%%Qq%%%%%%%%%%%%%%%%%%%%%%%%%%%%%%q%%%%Qq%Qq%%%%%%%%
61G35%%%%%%%%%%%%%%%%%%qQq%%%%%%%%%Qq%%%%%%%%%%%%%%%%%%%%q%Q%qQq%%%%%Q%q%Qq%
54G19%%%%%%%Qq%%%%%%%%qQ%%%qQ%qQ%qQ%q%%Qq%%%%%%%%%%%%%%%%%%%%%%%%%%%%%%%%%q%
48G03%%%%%Qq%%%%%%%%%%%%%%%%%%%%%%%%%%%%qQ%%q%%%QqQq%%%%%%%%%%%%%%%%%%%%%%%%
41F95qQ%%%%qQq%%%Qq%%%%%%%%%%%%%%%%%%%%%%%%%%%%%%%%%q%%QqQ%%%%q%%%%%Qq%%%%%%
34F79%%%%%%%%%%%%%qQ%%%%%%%%%qQq%Qq%%%qJ6%qQ%%j6%Q%%qQ%qQ%%%%%%%%%%%%%%%%q%Q
28F71q%Q%q%%%%%%%%%%%%%%%%%%%%%%%%%%%%%%%%%%%%%%%%%%qQqQ%%%q%%%%%%%%%%%%%%%%
21F55%%%%%%%%%%%%%%qQ%qQ%%q%QqQq%Q%q%%%%%%%%%%%%%%%%%%%%%%%%%%%%%%%%%%%%qQ%%
14F47q%%%QqQq%%%Qq%%%%%%%%%%%%%%%%%%%%%%%%qQq%Q%%qQq%Qq%%Qq%%%%%%%%%%%%%%%%%
7F31%%%%%%%%%%%%%%qQq%Q%%%%%%%%%q%%%%%%%%%%%%%%%%%%%%%%%%%%%%%%%%%%%%%%qQ%%%
0F23qQq
0F15
##$OBSERVED MULTIPLETS=	(I, X, Y, Hs, Vs, An, H, C, N, (J))
$$ I: Multiplet Index
$$ X: Strt Coordinate
$$ Y: End Coordinate
$$ Hs: Horizontal Chemical Shift
$$ An: Normalised Integral Area
$$ H: Hydrogens
$$ C: Category
$$ N: Name
$$ (J): Coupling Constants
(1, 1.4098499980859255931, 1.4458502230873320205, 1.4278501105866288068, 12, 12, s, 1&comma;2&comma;3&comma;4&comma;6&comma;7&comma;8)
##$OBSERVED MULTIPLETS AREAS=	
(1, 6.0873876560236634958)
##$OBSERVED MULTIPLETS PEAKS=	(I, X, Y)
$$ I: Multiplet Peak Index
$$ X: Peak x Position
$$ Y: Peak Intensity
(1, 1.4278501105866288068, 0.49189701676368713379)
##$PREDICTED PEAKS=	(X Y T A)
(1.4277979724084928215,  , 0.17999999999999999334, <1-a>)
(1.4277979724084928215,  , 0.17999999999999999334, <1-b>)
(1.4277979724084928215,  , 0.17999999999999999334, <2-a>)
(1.4277979724084928215,  , 0.17999999999999999334, <2-b>)
(1.4277979724084928215,  , 0.17999999999999999334, <3-a>)
(1.4277979724084928215,  , 0.17999999999999999334, <3-b>)
(1.4277979724084928215,  , 0.17999999999999999334, <4-a>)
(1.4277979724084928215,  , 0.17999999999999999334, <4-b>)
(1.4277979724084928215,  , 0.17999999999999999334, <6-a>)
(1.4277979724084928215,  , 0.17999999999999999334, <6-b>)
(1.4278979724084928105,  , 0.17999999999999999334, <7>)
(1.4278979724084928105,  , 0.17999999999999999334, <8>)
##$PREDICTEDCOUPLINGCONSTANTS=	J(A,B)	$$ (Hz)
13.2(1-a, 1-b)
7.1(1-a, 2-a)
7.1(1-a, 2-b)
7.1(1-a, 6-a)
7.1(1-a, 6-b)
13.2(1-b, 1-a)
7.1(1-b, 2-a)
7.1(1-b, 2-b)
7.1(1-b, 6-a)
7.1(1-b, 6-b)
7.1(2-a, 1-a)
7.1(2-a, 1-b)
13.2(2-a, 2-b)
7.1(2-a, 3-a)
7.1(2-a, 3-b)
7.1(2-b, 1-a)
7.1(2-b, 1-b)
13.2(2-b, 2-a)
7.1(2-b, 3-a)
7.1(2-b, 3-b)
7.1(3-a, 2-a)
7.1(3-a, 2-b)
13.2(3-a, 3-b)
7.1(3-a, 4-a)
7.1(3-a, 4-b)
7.1(3-b, 2-a)
7.1(3-b, 2-b)
13.2(3-b, 3-a)
7.1(3-b, 4-a)
7.1(3-b, 4-b)
7.1(4-a, 3-a)
7.1(4-a, 3-b)
13.2(4-a, 4-b)
7.1(4-a, 7)
7.1(4-a, 8)
7.1(4-b, 3-a)
7.1(4-b, 3-b)
13.2(4-b, 4-a)
7.1(4-b, 7)
7.1(4-b, 8)
7.1(6-a, 1-a)
7.1(6-a, 1-b)
13.2(6-a, 6-b)
7.1(6-a, 7)
7.1(6-a, 8)
7.1(6-b, 1-a)
7.1(6-b, 1-b)
13.2(6-b, 6-a)
7.1(6-b, 7)
7.1(6-b, 8)
7.1(7, 4-a)
7.1(7, 4-b)
7.1(7, 6-a)
7.1(7, 6-b)
13.2(7, 8)
7.1(8, 4-a)
7.1(8, 4-b)
7.1(8, 6-a)
7.1(8, 6-b)
13.2(8, 7)
##END=		$$ NMR SPECTRUM
##TITLE=	Predicted 1H NMR Spectrum
##JCAMP-DX=	6.0	$$ MestReNova 17.0.0-41178
##DATA TYPE=	NMR PEAK TABLE
##DATA CLASS=	PEAK TABLE
##BLOCK_ID=	4
##ORIGIN=	Mestrelab Research S.L.
##OWNER=	ctheodore
##CROSS REFERENCE=	NMR SPECTRUM: BLOCK_ID=3                                     
##.OBSERVE FREQUENCY=	500
##.OBSERVE NUCLEUS=	^1H
##NPOINTS=	1
##FIRSTX=	1.4278501105866288068
##LASTX=	1.4278501105866288068
##XFACTOR=	1
##YFACTOR=	1
##FIRSTY=	0.49189701676368713379
##XUNITS=	PPM
##YUNITS=	ARBITRARY UNITS
##PEAK TABLE=	(XYW..XYW)
1.4278501105866288068,0.49189701676368713379,0.0015026910173489501938
##$MNOVA/PEAK_DATA_TABLE=	(T,F,A,ST,SP,APT,APC)
$$ Complementary to PEAK TABLE
$$ T: Type
$$ F: Flags
$$ A: Annotation
$$ ST: Shape Type
$$ SP: Shape Parameter
$$ APT: Attached Peaks Type
$$ APC: Attached Peaks Count
Compound,None,,0,0,0,0
##END=		$$ NMR PEAK TABLE
##END=		$$ LINK
