##TITLE=	ethyl acetate 1h no prcessing
##JCAMP-DX=	6.0	$$ MestReNova 17.0.0-41178
##DATA TYPE=	LINK
##BLOCKS=	2    
##ORIGIN=	Mestrelab Research S.L.
##OWNER=	ctheodore
##$MNOVA/METADATA=	(DOCUMENT,BASE64)
eyJuYW1lIjoiL1VzZXJzL2N0aGVvZG9yZS9Eb2N1bWVudHMvY2xhc3Nlcy9OTVIgZXhwZXJpbWVudC9
naXRodWIgZmlsZXMvZXRoeWwgYWNldGF0ZS9ldGh5bCBhY2V0YXRlIDFoIG5vIHByY2Vzc2luZy5tbm
92YSIsInBhZ2VzIjpbeyJpdGVtcyI6WyIxIiwgICAgICAgICAgICAgICAgICAgICAgICAgICAgICAgI
CAgICAgIjIiICAgICAgICAgICAgICAgICAgICAgICAgICAgICAgICAgICAgIF19XX0=
##TITLE=	
##JCAMP-CS=	3.7	$$ MestReNova 17.0.0-41178
##BLOCK_ID=	1
##ORIGIN=	Mestrelab Research S.L.
##OWNER=	ctheodore
##$MNOVA/METADATA=	(ITEM,BASE64)
eyJhbmdsZSI6MC4wLCJwb2ludHMiOlt7IngiOjUzMjEuMCwieSI6NTgzNS4wfSx7IngiOjU3NzAuMDA
1NjY0Mjk2OTM3LCJ5Ijo1ODM1LjB9LHsieCI6NTc3MC4wMDU2NjQyOTY5MzcsInkiOjYwNzQuNzQ0ND
gyNzMwMTd9LHsieCI6NTMyMS4wLCJ5Ijo2MDc0Ljc0NDQ4MjczMDE3fSx7IngiOjUzMjEuMCwieSI6N
TgzNS4wfV0sInoiOjEuMH0=
##NAMES=	
##ATOMLIST=	
$$ AN	AS	NH
	1	C	3
	2	C	 
	3	O	 
	4	O	 
	5	C	2
	6	C	3
##BONDLIST=	
$$ AN1	AN2	BT
	1	2	S
	2	3	S
	2	4	D
	3	5	S
	5	6	S
##MAXRASTER=	32768
##XY_RASTER=	
$$ AN	X	Y	Z
	1	-32767	14190	0
	2	-16385	4728	0
	3	0	14190	0
	4	-16385	-14190	0
	5	16385	4728	0
	6	32767	14188	0
##END=		$$ JCAMP-CS
##TITLE=	Predicted 1H NMR Spectrum
##JCAMP-DX=	6.0	$$ MestReNova 17.0.0-41178
##DATA TYPE=	NMR SPECTRUM
##DATA CLASS=	XYDATA
##BLOCK_ID=	2
##ORIGIN=	Mestrelab Predictor, Modgraph NMRPredict Desktop
##OWNER=	ctheodore
##NUMDIM=	1
##$MNOVA/METADATA=	(ITEM,BASE64)
eyJhbmdsZSI6MC4wLCJheGVzIjp7IngiOnsibWF4Ijo0LjkxNDE0MjM1MDE4OTk4NywibWluIjowLjc
yMDU2MDYwNjE5MDI5ODd9LCJ5Ijp7Im1heCI6MC4xMzM1NjgyODk2ODk3MTk2OCwibWluIjotMC4wMT
IxNDI1NjIwNzU4MTUxfX0sInBvaW50cyI6W3sieCI6NTMyMS4wLCJ5Ijo1ODM1LjB9LHsieCI6ODcyM
i4wLCJ5Ijo1ODM1LjB9LHsieCI6ODcyMi4wLCJ5Ijo4MjA4LjB9LHsieCI6NTMyMS4wLCJ5Ijo4MjA4
LjB9LHsieCI6NTMyMS4wLCJ5Ijo1ODM1LjB9XSwieiI6MC4wfQ==
##.OBSERVE FREQUENCY=	500
##.OBSERVE NUCLEUS=	^1H
##.SOLVENT NAME=	DMSO-d6
##.PULSE SEQUENCE=	
##.ACQUISITIONMODE=	SIMULTANEOUS (DQD)
##$ORIGINAL FORMAT=	Predictor
##$MNOVA/SCALES_VERSION=	9
##$PARAMETER FILE=	(parameters, ASCII, , 0)
$$ <?xml version="1.0" encoding="utf-8"?>
$$ <PredictorParameters>
$$     <Title>Predicted 1H NMR Spectrum</Title>
$$     <Origin>Mnova: NMR Prediction</Origin>
$$     <Name>Mestrelab Predictor, Modgraph NMRPredict Desktop</Name>
$$     <Version>1.7, 1.22 (5.076)</Version>
$$     <Nucleus>1H</Nucleus>
$$     <Solvent>DMSO-d6</Solvent>
$$     <From>0</From>
$$     <To>12.5</To>
$$     <Frequency>500</Frequency>
$$     <LineWidth>0.75</LineWidth>
$$     <Size>65536</Size>
$$     <DEPT>0</DEPT>
$$     <ProtonatedCarbons>0</ProtonatedCarbons>
$$     <ExcludeLabile>true</ExcludeLabile>
$$     <FastPrediction>0</FastPrediction>
$$     <ProtonDecoupled>0</ProtonDecoupled>
$$     <Reference/>
$$     <Options>
$$         <Settings>
$$             <Predictor Name="Mestrelab Predictor">
$$                 <Settings>
$$                     <Model>/Applications/MestReNova.app/Contents/Resources/data/1H.mbst</Model>
$$                 </Settings>
$$             </Predictor>
$$             <Predictor Name="Modgraph NMRPredict Desktop">
$$                 <Settings>
$$                     <Algorithm hoption="2" hsolvent="1" usnucleus="1">Fast Increments</Algorithm>
$$                     <JsAlgorithm>Fast Increments</JsAlgorithm>
$$                     <NMRSOAPDIR>/Applications/MestReNova.app/Contents/Resources/NMRPredict</NMRSOAPDIR>
$$                     <NMRTEMPDIR>/private/var/folders/3f/5b3_td5j7k3f1lyt31390d3jfxj842/T/NMRPredict-1574477954</NMRTEMPDIR>
$$                     <NMRUSDATABASEDIR>/Users/ctheodore/Library/Application Support/Mestrelab Research S.L./MestReNova/NMRPredict/NMR1HDatabase</NMRUSDATABASEDIR>
$$                     <Databases>ABCDEFGHIJKLMNOPQRSTUVWXYZ</Databases>
$$                 </Settings>
$$             </Predictor>
$$         </Settings>
$$     </Options>
$$     <MoleculeID>{d04a0f7e-b764-4ecc-9dcf-7804f9806589}</MoleculeID>
$$ </PredictorParameters>
$$ 
##XUNITS=	HZ
##YUNITS=	ARBITRARY UNITS
##FIRSTX=	6250
##LASTX=	0.095367431640625
##DELTAX=	-0.095367431640625
##XFACTOR=	1
##YFACTOR=	5.654325621464280145E-11
##FIRSTY=	6.74451214877080929E-08
##MINY=	9.544828039054209512E-09
##MAXY=	0.12142571806907653809
##NPOINTS=	65536
##XYDATA=	(X++(Y..Y))
6250A193%%%qQ%qQ%%q%Q%q%%%%%%Qq%%%%%%%q%Q%q%Q%qQq%%%Qq%qQ%%%%%%%%%%qQ%%%%%qQ
6244A177%q%%%%%%%%%%%%%%%%%%%%%q%%Qq%%%%%qJ6q%%%%%%%%%%%%%%qQq%%%%%%%%%%%%%%
6237A153%%%%%%%%%%%%qQ%q%QqQq%%%%Qq%qQ%%%qQ%%qQQqq%Qq%%Qq%%%Qq%%%%Qq%%%%%%qQ
6231A137q%%%%%%%%%%%%%%%%%%%%%%%%%%%%%%%q%%%%%%%%%%%%%%%%%%%%%%%%%qQ%q%%%%Q%
6224A121q%%%%%%%%%%%%%%%%q%%Q%q%Qq%%%%%%%%%%%%%%%%%%%%%%qQ%%%%qQq%Q%%q%%%%%%
6218A097%%%%%%%%%%%%qQqQ%qQqQq%Qq%%%Q%q%%%%%%%%%%%%%%%%q%QqQq%Qq%%%Qq%%%%%%%
6211A081qQ%%%qQ%%%qQqQqQ%q%%Qq%%%%Qq%%%%%%qQ%qQ%%q%Q%%%%q%Q%q%%%%%%%%%%%%%%%
6205A065%%%%qQ%%%%%%%%%%q%Qq%%%%%%%%%%%%%%%%%%%%%%%%qQqQq%%Q%q%%%%%%%%%qQ%%%
6198A049%%%%qQqQ%%%qQqQ%%%q%%%%%%%%%%%%%%%%%%q%%Q%%%%%qQ%qQq%%%%%%%Qq%%%%%%%
6192A033%q%Q%%%%qQ%q%QqQ%q%%Qq%%%%%%%%%%%%%%%%%qQ%%q%QqQqQq%%%%%%%%%%%%%%qQq
6185A009Q%%Qk4K4qQj6%%Q%qQ%q%Q%%q%%%%%%%%Qq%%%%%%%%%%%%%%%%%%%%%q%%%%%%%%%%%
6179A001%%%%%%%%%%%%%%%%%%%%%%q%%QqQq%%%%%%%%%%%%%%%%%%%qQ%qQ%%%%%%%%qQ%%qQ%
6173I93q%%%%%%%%%%%%%%%%%%%%%qQ%%q%Q%q%%%%%%%%%%%%%%%%%%%%%%%%%q%Qq%QqQq%%%%
6166I69Qq%%%%%%%%%%%%%%%%%%%%%%%%%%%qQ%%qQqQj6Q%Q%q%%%Q%qQq%%Qq%%%%%q%Q%%q%Q
6159I61%%qQ%q%Q%%qQ%qQq%%%Qq%%%%%%%%%%%%%%%%qQ%q%Qq%QqQq%%%QqQq%%%Q%q%%%%%%%
6153I45%%%%%%%%%%%%q%Q%q%QqQq%%%%%%%%%%%Qq%%%%%%%%%%%%%%%q%Q%qQq%%%Qq%%%%%%%
6146I29%%%%%%%%%%%%%%%%%%%%%%%q%Q%%%%q%Q%q%qJ6q%Q%%qQ%q%%%%%%%%%%%%%%%%%qQ%%
6140I21%%%%qQ%q%Qq%%%Qq%%%Qq%%%%%%%%%%%%%%Qq%q%%QqQqQq%%%Qq%%%Qq%%%%%%%%%%%%
6133I05%%%%%%%%%%%%qQ%%qQ%q%%Q%q%%%%%QqQqQq%%%%%%%%%%%%%%%%%%%%qQ%%%%%%%%%%%
6127H97%%%q%%Qq%%%%%%%%%%%%%%%%%%%%%%%%%%%q%QqQ%q%%Q%q%%%%%%%%%%%%%%%%%%%%%%
6120H81%%%%%%%%%%qQ%%%q%Q%qQ%%qQq%QqQq%%%%%%%%%%%%%%%%%%%%%%%%%%%%qQ%%%%%qQq
6114H65Q%q%%%%%%%%%%%%%%%%%Qqq%Q%%qQ%%qQ%%%%%%qQqQ%q%QqQqQ%q%%%%%%Qq%%%%%%%%
6107H57%%%qQ%%%%%%%%q%Q%qQqQqQqQqQqQqQq%%%Qq%%%%%%%%%%%%%%%%%%%%%%%%qQ%%qQ%Q
6100H57q%q%%qQQ%q%%Q%%qQq%%%%%%%%%%%%%%%%%%%%%%%%%%q%%%%%%Q%%q%%Qq%Qq%qQQ%k4
6094H17K4%q%%QqQ%q%%%%%%%%%%%%%%qQ%%%%q%%Q%%%q%%Qq%%Q%%%q%%%%%%QqqJ6j6Q%qQ%q
6088H17%%%K4m0L2j6Qj6Q%qQ%%Qq%Qj6J6%q%%%%Qq%%%Qq%%%%%%%%qQ%%%%%%%%%qQqQ%%qQ%
6082H17%%q%%%Qq%Q%q%%Qq%%%%%%%%%%%%%%%%%%%%%%%%%%%%%%%%%%qQqQ%qQq%Q%qQq%Qq%Q
6075H09q%%%%%%%%%%%%%%%%%%%%%%qQ%%%%%%%%%%%%qQ%%qQ%q%Qq%%%Qq%Qq%%Q%%q%%%Qq%%
6069G93%%%%%%%%%%%%%%%%%%%%%%%%%%%%%%%q%Q%q%Qq%%%%%%%%%Qq%%%%%%%%%%%qQ%%%qQ%
6062G85%%%%%%%%%%%q%Q%%q%Qq%%%%%Qq%%%%%%%%%%%%%%%Qq%%%%%%%%%%%%%%%qQ%qQ%%%%%
6055G77q%%QqQq%%%%Qq%%%%%%%%%%%%%%%%%%%%%%%%%%%%%%%%%%%q%Q%%%%qQqQqQqQqQ%%%q
6049G61%%%%%%%QqQq%%%%%%Qq%%%%%%%%%%%%%%%%%%%%%qQ%%%q%%Q%%qQ%%%q%%%%%%%%%Qq%
6042G53%%%%%%%%%%%%%%%%%%%%%%%%%%qQ%%%%%qQ%%%qQq%QqQqQq%Q%qQ%q%%%%Qq%%%%%%%%
6036G45%%%%%%%%%%%%%%%%%%%%%%%%%%%%q%%Q%q%%%Qq%Qq%%Qq%%%%Qq%%%%%%%%%%%%%%%%%
6029G37%%%%%%%%%%%%%%qQqQ%%%%%q%Qq%%Q%%qQq%%%%Qq%%%%%%%%Qq%%%%%%%Qq%%%%%%%%%
6022G29%%%%%%%%%%%%%%%%%%qQ%q%Q%qQ%q%%%%%%%%%%%%%%%%%%%%%%%%%%%%%%%%%%%%%%%%
6016G21%%%%%%%%%qQ%%%%%%%q%%Q%q%%%Qq%QqQq%%Qq%Qq%%%%%%%%%%%%%%%%%%%%%%%%%%%q
6009G05%Q%%qQ%qQ%%qQ%q%Q%q%%%QqQq%%%%%%%%%%%%%%%%%%%%%%%%%%%%%%%%%%%%%%%%Qq%
6003G05%%%%%%qQq%%%%%%QqQ%q%%Qq%%%%%QqQq%%%%%%%%%%%%%%%%%%%%%%%%%%%%%%%%%qQ%
5996F97%%%%%%%%%qQqQ%q%Q%%%%%%qQ%%%%%q%%%%%%%%%%%%%%%%%%%%%%%%qQQq%%%Qq%%%%Q
5990F97q%QqQj6QqQq%Q%%qQ%%%%qQ%q%%%%%Qq%%%%%%%%%%%%%%%%%%%%%%%%%%%%%qQ%%%%%%
5983F81qQ%%%%%%%%%%%qQ%qQ%q%%Qq%%Q%%qQq%Qq%%%%%%%%%%%%%%%%%%%%%qQ%%%%%%%qQ%%
5976F73%%%%%%%%%%%%%q%QqQ%qQ%qQq%%Q%q%%%%%Qq%%%Qq%%%%%%%%%%%%%%%%%%%%%%%%%%%
5970F65%%%%%%%%qQqQ%%%%%qQ%qQ%%qQ%q%QqQq%%Qj6Q%%%%Q%q%%Qq%Q%q%%%%%%Qq%%%%%%%
5963F57%%%%%%%%%%%%%%%%%%qQ%%qQqQqQ%Qj6%%%Qq%%%%%%%%QqQq%%Qq%%%%%Qq%Qq%%%%%%
5957F49%%%%%%%%%%%%%%%%%%%%%%Qqq%Q%%qQ%%%qQ%%%%qQ%%qQqQq%%%Q%q%%%%Q%q%%%%%%%
5950F41%%%%%%%%%%%%%%%%%%%%%%%%%%%%%%%%%%qQ%%%%%%%%%%%%%%%%%%%qQ%qQ%%q%Q%%qQ
5944F41qQq%Qq%%%%Qq%%%%%%%%%%%%%%%%Qq%%%qQj6J6%%%%%%%%%%%%%%%%%%%%%%%qQ%%%%%
5937F33%%%%%%qQ%qQ%qQqQqQ%q%%%%%Qq%%%%%%%%%%%%%%%%%%%%%%%%%%%%%%qQ%%%%%%%%%%
5931F25%%%%%%%%%%%qQqQ%q%QqQ%%%%qQqQ%%%q%%%%Qq%%%Qq%%%%%%%Qq%%%%%%%%%%%%%%%%
5924F17%%%%%%%%%%%%%%qQ%%%%%%%qQ%qQ%%%%%q%%Q%%%qQq%Q%%%q%%%%%Q%q%Qq%%%Qq%%%%
5918F09%%%%%%%%%%%%%%qQqQqQ%%%%%%%%%%%%%%%qQ%%%%%%%%%%%%%%%%q%Q%%qQq%%%Q%qQq
5911F01%%QqQq%%Qq%%Qq%%Qq%%%%%%%%%%%%%%%%%%%%%%%%%%%%%%%qQ%%%%%%%%%%qQqQ%%%%
5904F01%%%Qj6Q%%%qQ%%%%%q%%%%%Qq%%%Qq%%%%%%%%%%%%%Qq%%%%%%Qq%%%%Qq%QqQqQq%%%
5898E93%Qq%qQ%%%%%%q%Q%%qQqQqQ%%qQ%%q%Q%qQq%%Qq%Q%q%Q%q%%%Q%%q%%Q%qqQqQJ6q%j6
5892E77%J6%%q%Qj6Q%Qq%Q%q%%%%qQ%%%%%qQ%%%%%%%%%%%%%%%%%qQ%%%qQq%Q%%%%%qQ%%%%
5885E85%%%%qQq%%Q%q%%%%%%%%%%%%%%%Qq%%%%%%%%%%%%%%%%Qq%%%%%%%Qq%%%%%%%%%%%%%
5879E77%%%%%%%q%Q%%%%qQqQ%qQ%q%Q%q%Q%q%%Qq%QqQ%q%%%%%Qq%%%%%%%%Q%q%%%%%%%Q%q
5872E69%%%%%%%%%%%%%%%%%%%%%%%%%qQqQq%Q%%qQqQqQ%%q%Q%%qQqQ%qQqQ%%%q%Qq%Qq%Qq
5865E61Q%%%%q%%%%%%%Qq%%%Qq%%%%%%%%%%%%%%%%%%%%%%%%%%%%%%%%%%%%%%%%%%%%%%%%%
5859E61%%%%%qQ%%%%q%Q%%%q%%%%Qq%%%Qq%%%%Q%%%%qQ%q%%%%%%Qq%%%%%Qq%%%%%%%%%%%Q
5852E61q%%%%%%%%%%%%%%%%%qQ%%%qQ%q%QqQ%qQ%%%%%%qQ%%qQ%%%%%q%Q%%qQq%QqQq%Qq%Q
5846E53q%%%%Qq%Q%q%%Qq%%%%%%%%%%Qq%Qq%QqqQ%%%%%%%%%%%%%%%%%%%%%%%%%%%%%%%%%%
5839E45%%%%%qQ%%%q%Q%%%qQ%%%qQ%%qQ%%%qQqQqQq%%%%%%%%%%%%%%%%%%%%Q%%q%%%%%Qq%
5832E37%%%qQ%%%%%%%%%%%%%qQ%%%%%%%%%%%%%%qQ%qQ%%%%qQqQ%%%%qQ%%%%%%qQ%%%%q%Q%
5826E37%q%%Q%qQ%%q%Qq%%Q%q%%%Q%qQq%%%%%%%%%%%%%%%%%%%%%%%%%%%%%%%%%%%%%%%%%%
5819E29%%%%%%%%%%%%%%%%%%%%%%%%%%%%qQ%%%%%%%%%%%q%QqQq%Q%%qQq%Q%q%%Q%q%%%%Qq
5813E21Q%qQ%q%%%%%%%%%%%%%%%%%%%%%Qq%%%%%%%%%%%%%%%%%%%%%%%%%%%%%%%%%%%%%%%%
5806E21%%%%%%%%%%%q%QqQ%qQ%%qQqQ%%qQq%%%%%Qq%%%%%%%%%%%%Q%%q%%%QqQq%%%%%%%%%
5800E13%%Q%q%%%%%%Qq%%%%%%%%%%%%%%%%%%%%%%%%%%%%%%%%%qQ%qQqQ%j6J6qJ6j6%%QqQQ
5793E21j6%%Q%%%qQqQ%%q%%%Qq%%%%%Q%q%%%%%%%%%%%%QqQq%%%%%%%%%%%%Qq%%%%%%Qq%%%
5787E05%%%%%%%%%%%%%%%%%%%%%%%%%%%%%%%%%%%%%%%%%%%%%%%%%%%%q%%QqQqQq%Q%%%%%%
5780E05%%%%qQ%%%qQ%%%qQq%QqQq%Qq%Qq%QqQq%%%%%%Qq%%%%%%%%%%%Qq%%%%%%%%%%%%%%%
5774D97%%%%%%%%%%%%%%%%%%%%%%%%qQ%q%Q%%%qQqQqQ%%%%q%Qq%Q%%q%Q%%q%%Q%%%%qQq%%
5767D89%Q%qQq%Qq%%%%%QqQ%q%Q%%%q%Qq%%%%%%%%%%%%%%%%%%%%%%%%%%%%%%%%%%%%%%%%%
5761D89%%%%%%%%%%%%%%%%%%%%%%%%%%%%%%%%%%qQqQqQq%%%Q%%%qQ%%%qQ%%%%%qQq%%Q%%%
5754D89q%Qq%Qq%%Qq%%Qq%%%Q%%q%%%%%Qq%Qq%%%%%%%%%%%Qq%Qq%%%%%%%%%%%%%%%%%%%%%
5747D81%%%%%%%%%%qQ%%%%%%%%%%%%q%QqQ%%%%%%%%%%%%%%%%%%%%%%%%%qQ%q%%%%%QqQqQq
5741D73QqQ%%q%Qq%%%%%%%QqQ%%q%Q%%q%%%%%%%%Qq%QqQq%%%%%%Qq%%%%%%%%%%%%%%%%%%%
5734D73%%%%%%%%%%%%%Qq%%%%%%%%%%%%%%%%%%%%%%%%%%%%%%%%%%qQ%%%qQ%%%%%qQ%q%%%%
5728D65%Q%q%Qq%%Q%q%%%Qq%%Q%q%%%QqQq%Qq%%Q%q%%%%%%%%%%%%%%%qQ%%%%%%%%%Qq%%%%
5721D65QqQj6Q%%%%%%%%%%%%%%%%%%%%%%%%%%qQ%%%%%%%%%%%%%%q%QqQqQ%%%qQqQ%%%%%%q
5715D57Q%%%%q%%%Q%q%%QqQ%%%qQ%%q%%%%%%Q%qQq%%%Qq%Qq%%%Qq%%%%%qJ6%%qQq%Qq%%%%
5708D57Qq%%%%%%%%%%%qQ%%%%Qq%%%%%%%%%%%Qq%%%%%%%%%%qQ%qJ6j6Q%q%%%Q%qQ%Qqq%%Q
5702D57%%qQq%%Q%%%q%%Q%%%qQqQ%q%QqQ%%q%%J6q%q%QqQ%qQqqQj6J6J6n6N6p2Q8k4Qj6%Q
5696D57m0N6k4%J6k4L2j6qJ6k4J6%%%%qQ%j6J6q%%%%%%qQ%%%Qq%%%QqqQ%%%%%%%%%%%%%%%
5691D49%%%%%%%%qQ%%%q%Qq%Q%%%%%%%%%%%%%%%%qQqQ%%%%%%%%%%%%qQ%%%q%Q%%%qQ%%%%q
5684D41QqQ%%qQ%qQ%%qQq%Q%%q%Qq%%%Qq%%Qq%%%%%%Qq%%Qq%%%%%%%%%%%%%%%%%Qq%%%%%%
5678D41%%%%%%%%%%%%%%%%%%%%%%%%%%%%%%%%%%%%%%%%%%%%%%%%%%%%%qJ6qq%QqQ%%%%%%%
5671D41%%%%%%%qQ%%%%qQq%Qq%%Q%q%Q%%q%Qq%Qq%%%QqQqQqQ%q%%Q%%qQ%q%%%Qq%Qq%%%%%
5664D33%%%%%%%%%%%%%%%%%%%%Qq%%%%%%%%Qq%%%Qq%%%%%Qq%%%qQQqqQ%%%qQ%%%%%%%%%%%
5658D33%%%%%%%%%qQ%%%%%%%%%%%%%%%%%%%%%%%qQ%qQ%%%q%%%Q%%%%%%%%%%%%%%%%%%%qQq
5651D25Q%qQ%qQqQ%q%Qq%%Qq%Qq%Qq%%%%Qq%QqQq%%Q%q%Qq%%%%Q%%q%%%%%%%%%%%%%%%%%%
5645D25%%%%%%%%%%%%%%%%%%%%qQ%%%%%qQ%%%%%%%%%%%%%%%%%%%%qQ%%%%%%qQ%%%%%%%%%%
5638D25%%%%%%%%%qQ%%q%%Qq%Qq%%%%%Qq%%Q%q%%Qq%QqQq%Qq%%%Qq%%%%%%Qq%QqQ%%qQqQq
5632D17%%%Q%q%%%%Qq%%%%%%%%Qq%%%%%%%QqqQ%%%%%%%%%%%%%%%%%%%%%Qq%%%%%%%%%%%%%
5625D17%%%%%%%%%%%%%%%%%%QqQqqQQq%%qQ%%%%%%qQ%%%%%%%%%%%%%%q%Q%%%%%%%%qQqQ%q
5618D09Q%%q%Q%%%qQqQqQq%%%%%Qq%Q%%qQ%qQ%%%qQq%%%%%%Qq%%QqQq%QqQq%%%%%%QqQq%%
5612D09%QqqJ6q%%%%Q%q%%%%%%%Qq%%%%%%%%%%%%%%%%%%QqQq%%%%%%qQ%%%%%%%%%%%qQqJ6
5605D17q%%%%%%%%%%%%%%%%%%%%%%%%%%%%%%%%%%%%%qQqQqQqQq%%%Q%%%q%Qq%Q%%qQ%qqQ%
5599D01%QqQQj6%%%Q%%%q%QqQqQ%%%qQqQ%qQq%%%Qq%Q%q%%%%%Q%q%%%%%%%%Qq%%%%%%Q%%q
5592D01Qq%Qq%%%%%%%%%%%%%%%%%%%%%%%%%%%%%%%%%%%%%%%%%%%%%%%%%%qQ%%%%%%%%%%%%
5586D01%%qQqQ%%%%%%%%%%%%%%%%qQ%%%%%%%%%%%%%%%%%%%%%qQ%%q%Q%%%%%%qQ%%%%%q%Q%
5579D01%q%%%%%Qq%%%Q%%q%QqQqQq%Qq%%%%%%%%Qq%%%%%%%Qq%%%%Qq%%%%%%%%%%Qq%%%%%%
5573C93%%%%%%%%%%%%%%Qq%%%%%%%%%qJ6q%%qQ%%%%%%%%%%%%%%%%%%%%%%%%%%%%%%%%%%%%
5566C93%%%%%%%%q%Q%%%%%%qQ%%%%%%%%%%%%%%%%qQ%%%%%%%%%%%%%%%%%%%%%%qQ%%%%%%%%
5560C93%qQq%%%%%%%%%Q%%%q%%%%Q%q%%Q%qQ%qQq%%%%QqQ%q%%Q%q%%%%%%Q%q%%%%%Qq%%%%
5553C85%%%%%%%%%%Qq%Qq%%%%%%%%qQqQ%Qq%qQ%%%%%%%%%%%%%%%%qQ%%%%%%%%%%%%%%%%%%
5546C85%%%%%%%%%qQ%%%%%%%%%%%%%%%qQ%%%%%%%%%%%%%%%%qQ%%qQ%%%%%%%%%%%%%%%%%qQ
5540C85%%qQ%qQq%QqQ%%qQqQ%qQq%%Qq%Q%%qQq%Q%%%%%%q%QqQqQ%q%Q%%%%%q%Qq%%%Qq%%%
5533C77Qq%Qq%%%%%%%Qq%%%Qq%%Qq%%%%%%%%%%Qq%%%%%%%%%%%%%%%%%%%%%%%%%%qQ%%%%qQ
5527C77%%%%%%%%%%%%%%%%%%%%%%%%%%%%%%%%%%%%%%%%%%%%%%%%%%%%%%%%%%%%%%%%%%%%q
5520C69Q%%%%%%%%%%%%%%%%qQ%%%%%%%qQ%q%%Q%%%%%q%%%QqQqQ%q%Q%%%%%%qQ%q%%%Qq%Qq
5513C69QqQq%%Q%%qQq%Q%%%%%%q%%Qq%%%%%Q%q%%%%%Qq%%%%%%%%%%%%Qq%%%Q%%q%%%Qq%Q%
5507C77q%Qq%%%%%%%%%%%%%%%%%%%%%%%%%%%%%QqQ%q%%%%%%%qQ%%%%q%QQq%Qk4J6q%%%%J6
5501C77qQq%%%%%%%%%%%%q%Q%%%%%%%qQ%%%%%%%%q%Q%%qQ%%%%%%%%%%qQ%%%%%%qQq%%Q%%%
5494C69%%qQ%%%qQqQqQ%q%Q%q%%%Q%qQqQq%%%%%%%%%%%%%%%%%Q%%%%qQ%qQ%q%%QqQq%Qq%%
5487C61%%%%%%%%%%%%%%Qq%%%%%%%%%%%%%%%%%%%%%%%%%%%%%%%%%%%%%%%%%%%%%%%%%%%%%
5481C61%%%%%%%%%%%%%%%%%%%%%%%%%%%%%%%%qQ%%%%%%Qq%Qq%%%%%%%%%%%%%%%%%%%%%%%%
5474C61%%%%%%%%%%%%%qQ%%%%%q%Q%%%%q%Q%qQ%%%%%%%%%%q%%Q%qQ%%qQ%%%%%qQ%%%qQqQq
5468C53%%QqQq%%%Qq%%%Qq%Qq%QqQq%QqQ%%%q%Q%%%%q%%Q%qQq%%%Q%q%%%%%Qq%Qq%%%%%%%
5461C53Qq%%Qq%%%%%%%%%%%qQ%%%Qj6Q%Qq%%%%%%%%%%%%%%%%%%%%%%%%%%%%%%%%%%%%%%%%
5455C53%%%%%%%%%%%qQ%%%%%%qQ%qQQq%qQ%%%%%%qQ%%%%%%%%qQ%%%%%%%%%%%%%%qQ%%%qQ%
5448C53%%%%%%qQ%%qQ%%%%%%%%%%%%%q%Q%%qQ%%qQq%%Qq%%QqQ%%%%qQqQ%%%%qQ%%qQ%qQq%
5441C45Qq%Qq%%%Qq%%Qq%%%Q%q%%%%%%Q%q%%%%%%%Qq%%%%%Q%q%%%%%Qq%%Qq%Q%q%%%%%%%%
5435C45%Qq%Qq%Qq%%%%%%Qq%%%%%%QqQq%%%%%%Qq%%%Qq%%%%%%%%%%%%%%%%%%%%%%qQ%qQ%%
5428C45%%QqqQqJ6qqQ%%%%%%%%%%%%%%%%%%%%%%%%%%%%%%%%%%%%%%%%%%%%%%%%%%%%%%%%%
5422C45%%%%%%%%%%%%%%%%%%%%%%%%%%%%%%%%%qQ%qQqQ%%%%qQqQ%qQ%%%q%%%%%%%Qq%Q%qQ
5415C45%%q%Q%qQ%q%Q%%q%%%%%%%%%%%%Q%%%qQq%%%%%%%%%%QqQq%%%%Qq%%%%%%Q%qQqQq%%
5409C37%%Qq%%%%%%%%%%%%%%%%%%%%%%%%%%%%%%%%%%%%%%%qQ%%%%%QqQj6%K4qq%%QqqQ%%%
5402C37%%%Qq%%%%%%%%%qQqQ%%%%%%%%%%%%%%%%%%%%%%%%%%%%%%%%%%%%%%%%%%%%%%%%%%%
5396C37%%%%%%%%%%%%%%%%%%%%%qQ%%%%%%%%%%%qQ%%%qQ%qQ%%%%%%qQ%%%%%%%%q%%Q%q%Qq
5389C29QqQq%%QqQ%%%%%q%QqQ%%qQ%qQ%%q%%Q%qQq%QqQq%Q%%qQq%%%Qq%%QqQq%Qq%Qq%%%%
5383C29QqQq%%QqQ%%%%q%%Q%q%%%%%%QqQq%%%%%%qQ%%%%Qq%%%%Qq%%%%%%%%Qq%%%%%%%%%%
5376C29%%%%%%%%Qq%%%%%%%Qq%%%%%%%%%%%%qQ%%%%%%%%%%%%%%%%%%%%%%%%%%%%%%%%%%%%
5369C29%%%%%%Qq%%%%%%%%%%%%%%%Qq%%%%%%%%%%%%%%%%%%%%%%%%%%%%%%%%%%%%%%%%%%%%
5363C29%%%%%%%%q%QqQ%%%%qQ%%%qQqQ%%%%%qQ%%%%%%qQ%%%%qQqQ%%%q%%%Q%%%%qQ%qQ%%%
5356C29%qQq%%%Qj6QQqQqQqQqQqQ%q%Q%q%Qq%%Q%q%QqQ%q%%%%%%%%%%%%%%%%%%%%QqQq%Qq
5350C21%%%%%%%Q%q%%Qq%%%%QqQq%%%%%%%%%%%%%%%%Qq%%%%%%%%%%%%%%%%%%%%%%%%%%%%%
5343C21%%%%%%QqQq%%%%%%%%%%%%%Qq%%%%%%%%%%%%%%%%%%%%%%%%%%%%%%%%%%%%%%%%%%%%
5337C21%%%qQ%%%qQ%%%%%%%%%%%%%%%%%%%%%%%%%%%%%%%%%%qQ%%%%%%%%%%%%Qq%%%q%%Q%%
5330C21%%q%Q%q%%Q%%q%QqQqQ%%%qQ%%%qQqQqQ%%%%%%%%q%Q%%%qQ%%%qQ%qQ%q%%%%%QqQqQ
5323C21%%%%qQq%%Q%%%%qQ%%q%Q%qQq%%%QqQ%%q%Q%q%Qj6Q%J6j6QQj6QqqJ6j6J6q%%%%%%%
5317C13%%%Qq%%%%%%%%%%Qq%Qq%%%%%%%%%%%%%QqQ%%j6Q%%j6J6Qj6QqJ6J6j6qL2m8L2%q%q
5312C13%Q%q%Qq%%%%%%Qq%%Qq%%%%%%%%%%%%%%%%%qQ%%%%%%%%%%%%%J6qq%J6j6qJ6qQj6%%
5306C05QqJ6k4J6Q%qqQqQ%Q%%qQ%q%%%%%%%%%%%%%%%%%%%%%%%%%%%%%%%%%%%%%qQ%%%%%%%
5299C13%qQ%%%%%%%%%%%%%%%%%qQ%%%%%%%%%%%%qQqQ%%%%%%%qQ%%%qQ%%%qQ%%%qQqQq%Qq%
5293C05Q%qQ%%q%Q%%q%Q%qQ%%qQ%%qQqQqQqQqQ%%qQq%%Q%%qQ%%qQq%Qq%Qq%%%%%Q%%%%qQ%
5286C13%qQ%%q%%Qq%Qq%%Qq%QqQ%qQq%%QqQqQq%%%%%%QqQq%Qq%%qJ6qQ%%q%%Qq%%%%%%%Qq
5280C05%%%Qq%%%Qq%QqQq%%Qq%%QqQq%%%%%QqQ%q%Q%q%%%%%%%%%%%%%%%%%%%%%%%%%%%%%%
5273C05%%%%%%%%%%%%%%%%%%%%%%%%%%%%%%%%%%%%%q%Q%%%%%%qQ%%%%Qq%%%%%%%%%%%%%%%
5267C05%%%%%%%%%%%%%%%%%%%%%%%%%%%%%%%%%%qQ%qQ%%%%%%%%%%%%%%%%%%%%%%%%%%%%%%
5260C05%%%%%%qQ%%%%%%%%%%%%%qQqQ%%%qQ%%%%%%q%Q%%%%%%%%q%Q%%%%%%%%%qQ%qQ%%%q%
5254B97Q%qQ%q%%Q%%%qQ%%%%%q%Q%%%qQq%Qq%%Qq%%QqQqQq%%Qq%%%%%Q%qQq%%Q%qQ%qQq%Q
5247C05qQqQq%%%%%Qq%Qq%QqQq%%qQ%Qq%%%%Q%qQ%q%%%%%%%%%%%%%%Qq%%Qq%%%%%%Qq%Q%q
5240B97%%%%%QqQq%%%%%%%%%%%%%%Qq%%%%%%%%%%%%%%%%%%%%%%%%Q%q%%%QqQq%%%%%%%%%%
5234B97%%%%%%%%%%%%%%%%%qQ%%%%%%%%%%%%%%%%%%%%%%%%%%%%%%%%%%%%%%%%%%%%%%%%%%
5227B97%%%%%%%%%%%%%%%%%%%%%%%%%%%%%%%%%%%%%%%%%%%%%%%%%%%%%%%%%%%%%%qQ%%%Qq
5221B97%q%Q%qQ%%%%%%%%%%%%%%%%%%%%%%%%%%%%qQ%%%%qQ%%%%%qQ%%%%%%%%qQ%%%%qQ%%%
5214B97qQ%%%qQ%qQ%%%%%qQ%qQqQqQ%q%%Q%%%%q%%%Q%qQ%%%%qQqQqQq%%%%%Qq%%Q%qQq%%%
5207B89Qq%%QqQ%qQqQqQ%qQq%QqQqQ%%q%%Qq%%%%Qq%%%Qq%Q%%q%Qq%Qq%%%Q%q%%Qq%%%Qq%
5201B89%%QqQq%%Q%q%Qq%%%%%Qq%%%%Qq%%%%Qq%%%%%%Qq%%%%qQ%Qq%%%%%%%%%%%%Qq%%%%%
5194B89%%%%%%%%%%Qq%%%%%%%%%%%%Q%%q%%%%Qq%%%%%%%%%%%qJ6q%%%%%%%%%%%%%%%%%%%%
5188B89%%%%%qQqQ%qQqQ%q%Qq%J6qqQ%%QqQq%qQ%%%Qq%%Q%%q%%%%%%%%%%%%%%%%%%%%%%%%
5181B89%%%%q%Q%%%%%%qJ6qQqQq%Q%l2K4%qQ%%%%%%q%Q%%%%%%%%%%%%%%%%qQ%%%%%%%%qQ%
5175B89%%%%qQ%%%%%%%%%qQ%%qQqQ%%%%%%%qQ%%q%Q%%%%qQ%%qQ%%q%%Q%qQ%%qQ%%qQq%Qq%
5168B81Qq%%Q%%qQ%%%qQq%%QqQ%%q%Qq%Q%qQqQqQ%%%q%%%%%%%%%Qq%Qq%%%%%%%%%%%%%Qq%
5162B81Q%q%Qq%%%%%Q%q%%%%%Q%qQqqJ6j6Q%Qq%Q%q%%Qq%%Qq%%Qq%Q%q%%Q%q%Q%q%Qq%%%%
5155B81%%%%%%%%%%QqQqQq%%Qq%%%Q%qQq%%%%%%%Qq%%%%%%Qq%%Qq%%%%%%Qq%%%%%%%%%%%%
5149B81%%%%%%%%%%%%%%%%%%Qq%%%%%%%%%%%%%%%%%%Qq%%Qq%Q%q%%%%%%%%%%%%%%%%%%%%%
5142B81%%%%%%%%%%%%%%%%%%%%%%%%%%%%%%%%%%%%%%%%%%%%%%%%%%%%%%%%%%%%%%%%qQ%%%
5136B81qQ%Qq%%Qj6J6q%qQ%%%%%%%%%%%%%%%%%%%%%%%%%%%%%%%%%%%%%%%%%%%qQ%%%%%%%%
5129B81%%qQ%%%%qQ%%%%%%%%%%%%%%%%%%%%%%%%%%q%Q%qQ%%%%%%%%%qQ%%%q%Q%%qQqQ%%%%
5123B81%%%%%qQ%%%%%%%%%%%%%%%qQ%qQ%%%%%%%%qQq%QqQqQqQ%q%Q%%qQ%%qJ6j6Q%qQ%%%%
5116B81%qQqQqQ%%%%%%%%%%%%qQ%%%q%Qq%Q%qQ%%q%%%Q%q%%%%%Q%%q%%%Qqq%J6%Qj6Qq%%q
5110B65QQ%qQqQ%q%Qq%QqQq%%Qq%%%Qq%Qq%%%%%%%%%%%%%%%Q%q%QqQq%%QqQ%%%qQ%q%%Qq%
5103B73%%%%%%%%%%Qq%%Qq%%%%%%%%%%%%%%%%%%%%%%%%%%%%%Qq%%%%%Qq%Qq%%%%%%%%%%%%
5097B73%%%%%%%%%%%%%%%%qQ%%%%%%%%%%%%%%%%%%%%%%%Qq%%%%%%%%%%%%%%%%%%%%%%%%%%
5090B73%%%%%%%%%%%%%%Qq%%%%%%%%%%%%%%%%qQ%%%%%Qq%%%%%%%%%%%%%%%%%%%%%%%%%%%%
5084B73%%%%%%%%%%%%%%%%%%%%%%%%%%%%%%%%%%%%%%%%%%qQq%Q%%%%qQqQ%%%%%%qQ%%%%qQ
5077B73%qQ%%qQ%%%%%%%%%%%%qQq%Qq%Q%qQ%q%Q%qQq%Q%%qQ%%q%QqQq%%%QqQqQq%%Q%%%%q
5070B65Q%%%%%%%q%Q%%qQqQ%qQ%qQq%%%Q%%q%%%%%%Q%q%%Q%q%%%%%Qq%%QqQ%%%q%QqQq%Qq
5064B65Q%%q%%%%Qq%%QqQ%%%q%Qj6Q%Q%qQqQq%Q%qQq%%Q%qQ%%%q%QqQqQ%%%%qQqQq%Qq%Q%
5057B73%%qQ%%q%Qq%Q%%q%Q%q%Qq%%%QqQ%q%%QqQq%%Qq%%%%%%%Qq%%%%%%%Qq%Qq%Q%q%Q%q
5051B65%%%Qq%QqQ%q%Qq%QqQq%Qq%%%%%%Qq%QqQqQ%qQq%%QqQq%Q%q%Qq%%%%%Qq%%%%%%%%%
5044B65%%%%%%QqQ%qQq%%%%%%%%%%%%%%%%%%%%%%%%%%%%%%%%%%%%%%%%%%%%%%%%%%%%%%%%
5038B65%%%%%%%%%%%%%%%%%%%%%%%%%%%%%%%%%%%%%%%%%%%%%%%%%%%%%%%%%%%Qq%%%%qQ%%
5031B65%%%%%%%%%%%%%%%%%%%%%%%qQ%%%%%%%%%%%%q%Q%%%%%%%%%%qQ%%%%%%qQ%%%qQqQ%%
5025B65qQ%%%%%%%%%%%%%%%%%q%QqQ%%%%%%%%%%%%qQ%%%%%%%%%%%qQ%%%%%%%Qq%%%%%%%%%
5018B65%%%%%qQqQ%%%%%q%Q%%qQ%%%%%qQqQqQ%%%%qQqQ%%q%%%%Q%qJ6%%q%%%q%J6q%%%%q%
5012B57Q%%%%qQ%%%%%%qQqQ%%qQ%%%%%%%%%%%%qQ%%%%%%%%%%%qQ%%q%%QqQq%Q%%%%qQqQ%%
5005B65%%qQ%%%%%%%%%%%%%qQ%%qQq%%Q%%%%%q%Q%%%%%%qQqQq%%Qq%%%Q%%q%Q%q%%%%Qq%Q
4998B65q%%%Q%%%%q%%Q%qQ%q%%Qq%Q%%q%%%Qq%%%%%Qq%%%%QqQqQq%%%Q%q%%%%Q%q%%%%%%%
4992B57%%%Qq%%%%%Q%%q%Qq%%Qq%%%%Qq%%Qq%Qq%%%%%%%Q%%q%%QqQqQq%%%Qq%QqQqQq%%%Q
4985B65q%%%%%%%%Qq%%%%%%%%Qq%%%%%%%%%%%%%Qq%Qq%%%%%Qq%%%%Qq%%%%%%%%%%Qq%Q%q%
4979B57%%%%Qq%%%%%%%%%%%%%%%QqqQ%%%%%%%%%%%%%%%%%%%%%%%%%%%%%%%%%%%%%%%%%%%%
4972B57%%%%qQ%%%%%%%Qq%%%qQqQ%%%%%%%%%%%%%%%%%%%%%%%%%%%%%%%%%%%%%%%%%%%%%%%
4965B57%%%%%%%%%%%Qq%qQ%%qQ%qQQq%%%%%%%%%%%%Qq%%%%%%%%qQ%%%%%%%%%%%%%%%%%%%%
4959B57%%%qQ%%%%%%%%%%%%%%%%%%%%%%%%%%%%%%%%%%%%%%%%%%%%%%%%%%%qQ%%%%qQ%%%qQ
4952B57%qQ%%%%%qQ%%qQ%%%%qQ%%qQ%%%qQ%qQ%%%%%%%%%%qQ%qQ%%qQ%qQ%%%%qQ%%qQqQ%%%
4946B57%%%qQ%%%%%qQ%qQ%%%%%qQ%%q%%%Q%%%%q%Q%%%%%%%%%%q%QqQ%%%%qQ%%%%q%%Q%%qQ
4939B57qQqQq%Q%%qQqQqQ%%q%Q%%%%%%q%QqQ%%%%%%%%%q%QqQ%q%Qq%Qq%%Qq%Qq%%%%%%%%%
4933B49QqQ%q%Q%q%%Qq%%Q%%%qQ%%%%qQ%%qQ%%%%%q%Q%%%%%%%%q%Q%%%%q%%Q%qQq%Qq%Q%q
4926B49%%%%%%%%Qq%%%Qq%%%%%%Qq%%%Qq%%%%%%%QqQqq%Q%J6j6%%%%Qq%Qq%Qq%%Q%q%%Qq%
4920B49%%%%%%%QqQ%%q%%%QqQqQq%Qq%Qq%Qq%%%Qj6QqL2k4qK4k4qK4qQQQ%m0QK4j6%%qJ6j6
4914B41%J6j6Q%%Qq%%%qJ6%j6Q%%%%%%%%%%QqQ%qQq%%%Q%q%%%Qq%%%%%%%%Qq%%%%%%%%%%%
4908B49%%qQ%%%%%%%%%%%%%%%%%%%%%%%%%%Qq%%%%%%%%%%%%%%QqQq%%%%%%%%%%%%%%%%%%Q
4901B57q%%%%%%%%%%%%%%%%%%%%%%%%Qq%%%%%%Qq%%Qq%%%%Qq%%%%%%%%%%%%Qq%%%%%%%%%%
4895B49%%%%%%%%%qQ%%%%%%%%%%%%%Qq%%%%qQ%%%%%%%Qj6%Q%%%%%%%%%%%%%%%%%%%%%%%%%
4888B49%%%%%%%%%%%%%%%%%%%%%Qq%%%%qQQq%%%%%%%%%%%%%%%%%%%%%%%%%%%%%%%%%%%%%%
4882B49%%%%%%%%%%%%%%%%%%%%%%%%%%%%%%%qQqQ%%%qQ%%%%%%%%qQ%%%%%%%%%%%%%%%%%%%
4875B49%%%%qQ%qQ%%%%%%%%Qj6%Q%%%q%Q%%%%%%%%%%%%%%%%%%%%%%%%%%%%%%%%%%%%%%%%%
4869B49qQ%%%%%%%%%%%%%qQQj6%%%QqQ%%q%Q%%qQ%%%%%%%%%qQqQ%qQ%%%%%q%%Q%%q%%%Q%q
4862B41%Q%qQ%%qQ%%%qQ%q%%Q%%%qQ%qQq%%QqQq%%QqQ%%%qQ%qQqQ%q%%%%%Q%%%%%%%q%%%%
4855B41Qq%%Q%%%qQ%qQqQ%q%Q%q%Q%q%Q%q%%%%QqQ%qQqQq%%%%QqQq%%Q%q%Q%q%Qq%%Q%%%%
4849B49qQ%qQ%%q%Q%qQ%qQqQqQ%qQq%%QqQqQ%%q%Qq%Qq%Q%%%%qQ%%%%q%%%%%%%Qq%%Q%qQq
4842B41Qq%%%Q%qQq%%%%%Qq%%%%%%Qq%%%%%QqQq%QqQqQ%%%%%q%%Qq%%%%%Q%%q%Qq%%%Qq%Q
4836B49%q%%%%%%Qq%%Qq%%%%QqQq%%%%%%%%%%QqQqQqQ%qQqQq%%%%%%QqQqQq%%%%%%%%%%%%
4829B41%Qq%%%%Qq%%%%%%%%%%%%%Qq%%%%%%%%%%%%%Qq%Q%q%Q%%%q%%QqQqQq%Qq%%%%%%Qq%
4823B41%%%%%%%%%%%%%%%%%%%%%%%Qq%%%%%%Qq%%%%%%%%QqqJ6q%%j6J6Q%q%%%%%Qq%%Qq%%
4816B41%%%%%%%%%%%%%%%%%%%%%%%%%%%%%%%%%%%%%%%%%%%%%qQ%%%%%%%%%%%%%%%%%%%%%%
4810B41%%%%%%%%%%%%%%%%%%%%%%%%%%%%%%%%%%%%%%%%%%%%%%%%%%%%%%%%%%%%%%%%%%%%%
4803B41%%%%%%%%%%%%%%%%%%%%%%%%%%%%%%%%%%Qq%%%%%%%%%%%%%%%%%%%%%%%%%%%%%%%%%
4797B41%%%%%%%%%%qQqQq%Q%%%qQ%%%%qQ%%%%qQ%%%qQ%%%qQ%%%%%%%%%%%%%qQ%%%%%%%%%%
4790B41%%%%%%%q%Q%%%qQ%Qq%%%%%%%%%%%%%%%%%%%%%%%%%%qQ%%%qQ%%qQ%%%%qQ%%%%%%%%
4783B41%%%%qQqQqQ%%qQ%%%qQ%qQqQ%%%qQ%%%%%%%%%%qQqQ%qQ%qQ%%%%%%%%%%%%qQ%%%%%%
4777B41%%%q%Q%qQq%%%Q%%%%%%%%qQ%qQ%qQ%%%%%%qQ%%%q%Q%%%%%qQqQ%q%QqQ%%%%%%%%qQ
4770B41%%%%%%%%%qQ%%%%qQ%%%%%%qQ%qQ%qQ%qQ%%qQ%%%%%%%%%%qQ%q%Q%%%%%qQ%%%%qQ%%
4764B41%q%%%%%%Q%%q%Q%q%Q%qQqQ%%%%%%%%%%%%qQq%%%Qq%%%%Q%%%%q%%QqQ%%qQ%qQ%%%q
4757B33Q%%%q%%QqQq%Q%%%qQ%q%%%%QqQq%%QqQq%%%%%%%%%%%%%Q%qQ%%q%%%Q%%q%%Qq%%Q%
4750B41qQq%Q%%%%%%q%%Qq%Q%%%%qQ%%q%Q%q%%%%%Qq%%Qq%Q%%qQ%%%%%%%q%QqQ%q%QqQq%%
4744B33Q%%%%q%Q%qQ%%%%qQqQq%Q%q%%Q%%qQq%%%Q%qQq%%%QqQ%q%Qq%QqQ%%%%qQq%QqQq%Q
4737B41q%%%%%%%%%Q%q%%Q%q%%%%Qq%%%%%%%%%Qq%%%%%%Qq%Qq%Qq%Q%q%%%%%%%%%%Qq%%%Q
4731B41%qQ%q%%%%%%Qq%%%%%Q%q%%%Qq%%Qq%%%%%Q%q%%Q%%qQj6J6%q%Qq%Qq%%%%%%%%%%%%
4724B33%%%Qq%%%%%%%%%Qq%%QqQ%q%%%Q%%qQ%%%%qqJ6%%q%%Qj6K4qQk4QqQq%Q%Qq%Qq%%Qq
4718B33%%%%%%%%%%%%%Qq%%%%%%%%%%%%%%%%%%%%%%%%%%%%%%%%%%%%%%%%%%%%%%%%%%%%%%
4712B33%%%%%%%%%%%%%%%%%%%%%%%%%%%%Qq%%%%%%%%%%%qQ%%%%%%%%%%%%%%%%%%%%%%%%%%
4705B33%%%%%%%%%%%%%%%%%%%%%%%%%%%qQ%%%%%%%%%%%%%%%%%%%%%%%%%%%%%%%%%%%%%%qQ
4698B33%%%%%%%%%%%%%%Qq%%%%%%%%%%%qQ%qQ%%%%%%%%Qq%%%%%%%%%%%%%%%%%%%%%%%%%%%
4692B33%%%%%%%%%%%%%%%%%%%%%%%%%%%%%%%%%%%%%%%%%%%%%%%%%%%%%%%%%%%%%%%%%%%%%
4685B33%Qq%%%%%%%%%%%%%QqQqqQ%%%%%%%%%%%%%%%%%%%%%%%%%%%%%%%%%%%%%%%%%%%%%%%
4679B33%%qQqQ%%%%%%%%%%qQ%%%%%%%%%%%%%%%%%%%%%%%%%%%%%%Qq%%%%qQ%%%%%%qQ%%%%q
4672B25Q%%%%%QqQj6QQq%%qQ%%%q%Q%%%%%%%%%%%%%%%%%%%%%%%%%%%%%%%%%%qQ%%%%%%%%%
4666B33%%%%%%%%%%%%%%%%%%%%%%%%%%%%%%%%%%%%%%%%%%%%%%%%%%%%%qQ%%%%%%%%%%%%qQ
4659B33%%%qQ%qQ%%%%%%%%%%%%%%%%%%%%%%qQ%%%%%%%%%%%%%%%%%%%%qQ%%%%%%qQ%%%%%%%
4652B33%%qQ%qQq%Q%%q%Q%%q%Qq%Q%q%%Q%%%%%%%%%qQ%%qQ%%%%%%qQ%qQ%%%%%%%qJ6j6Q%q
4646B25%Q%%%%%%%%%%%%qQ%%q%%Qq%Q%%%%%%%%%%%qQ%%qQ%%qQ%%qQqQ%%%%%%%%%qQqQ%qQ%
4639B33qQ%%qQ%%%%qQ%q%QqQ%%%%%%%%%qQq%%Q%%%%q%Q%%%qQ%%%qQq%%QqQq%Q%%qQqQ%%%%
4633B33qQ%%qQqQ%%%%%%%%%%%%%%%qQqQ%%%%qQ%qQq%Q%%q%Q%%qQq%Q%%%%%%%%%%%%%%%%%q
4626B25Q%%%%%%%%qQqQ%%qQ%%%q%QqQ%%qQ%%q%QQj6%Qq%qK4%%j6%qJ6%qQ%%qQq%%%Q%qQ%%
4620B33%qQ%%%q%%%%%Q%qQ%%%%%%qQ%%%%%%%q%Q%q%Qq%%Qq%QqQqQ%%q%Qq%%%Q%qQ%%%%%%%
4613B33%q%Q%%%%qQqQqQqQ%%qQ%qQ%%%%%qQqQ%qQqQ%%%%qQq%Q%qQq%%%Qq%Qq%Qq%Q%%qQqQ
4607B33qQqQ%q%%%%QqQq%Qq%%%Qq%%%%%%%%Q%%q%%%%%%%Qq%Qq%Q%q%%%%%Qq%Qq%%%%Q%qQq
4600B25%%Qq%Qq%QqQ%q%%Qq%%Qq%Q%q%Q%q%QqQ%%%qQq%%%Qq%Q%q%%Qq%Qq%%%%%%%%%%%%%%
4594B25Q%qQ%q%%Qq%Q%qQq%Q%q%%Qq%Qq%%Qq%%QqQqQq%%QqQqQ%qQq%%Q%%q%%%%%%Qq%%%%Q
4587B33qQq%%Q%%qQq%Qq%Q%qQq%%%Q%%qQqQ%qQ%q%%Q%%qQ%%q%%Qq%%%%Qq%%%%Q%q%%%%%%%
4581B25%%%%Qq%%%%%%Qq%%%Q%qQqQ%qQq%%%%%%Q%%qQ%q%Q%q%%%%%Q%qQqQq%%%%Q%qQq%%%Q
4574B33q%%%Qj6Q%%%%%Qq%%%QqQq%%%%%%%Qq%%%%Qq%%%%%QqQ%q%QqQqQq%%Qq%%%%%%Qq%Qq
4568B25%%%%%%%%%%%%%%%%%%%%%%%%Qq%%%%%%%%Qq%%%%%%%%%%%%%%QqQq%%%%Qq%%Qq%%Q%%
4561B33q%%%%%%%%%%%%%%%%%%%%%%%%%%%%%%%%Q%q%%%%%%%%%%%Q%q%%%%%%%Qq%%%Qq%%%%%
4554B25%%%%%%%%%%%%%%%%%%%%%Qq%Qq%%%%%%%%%%%%%%%%%%%%%%%%%%%%Qq%%%%%%%%%%%%%
4548B25%%%%Qq%%%%%%%%%%%%Q%q%%%%%%%%%%%%%%Qq%%%%%%Qq%%%%%%%%%%%%%%%%%%%%%%%%
4541B25%%%%%%%%%Qq%%%Qq%%Qq%%%%%Qq%%%%qJ6q%Q%j6Q%%qQ%%%%%%%Q%q%%%%%%%%%%%%%%
4535B25%%%%%%%%%%%%%%%%%%%%Qq%%%%%Qq%qQQqQk4K4q%%Qj6QqQ%qQ%%%%%%%%%Qq%%%%%%%
4529B25%%%%%%%%%%%%%%%Qq%%%%%%%%%Qj6QQqQqQj6%Qj6J6K4k4%%k4K4%%J6j6%qQqQ%Qj6Q
4523B25Qq%qQ%%%%%%%%%%%%%%%%%%%%%%%%qQ%%%Qq%%%%%%%%%%%%%%%%%%%%Qq%Qq%%%%%%%%
4516B25%%%%%%%%%%%%%%%%%%%%%%%%%%%%%%%%%%%%%%%%%Qq%%%%%%%%%%Qq%%%%%%%%%%%%%%
4510B25%%%%%%%%%%%%%%%%%%%%%%%%%%%qQqQ%%%%%%%%%%%%%%%%%%%%%%%%%%%%%%%%%%%%%%
4503B25%%%%%%%%%%%%%qQ%%%%%%%%%%%%%%%%%%%%%%%%%%%%%%%%%%%%%%%%%%%%%%%%%%%%%%
4497B25%%%Qq%%%%%%%%%%qQ%%%%%%%%%QqQq%%%%%%%%%%%%%%%%%%%%%%%%%%%%%%%%%%%%%%%
4490B25%%%%%%%%%%%%%%%%%%%%%%%%%%%%%%%%%%%%%%%%%%%%%%%%%%%%%%%%%%%%%%%%%%qQ%
4484B25%%%%%%%%%%%%%%%%%%%%%%%%%%%%%%%%%%%%%%%%%%%%%%%%%%%%%%%%%%%%%%%%%%%qQ
4477B25%qQ%%%%%%%%qQ%qQ%%%%%%%%qQ%%%%%%%%%%qQ%%%%%qQqQ%%%qQ%%%%%%qQ%%%%%%%%%
4470B25%%%%%%%%%%%%%%%%%%%qQ%%%%%%%%%%%%%%%%%%%%%%%%%%%%%%%%qQ%qQ%%%%%qQ%%%%
4464B25%%qQq%Q%%%qQ%%%%%%%%%%%%%%%%%%%%%%%%%%%%%%%qQ%%%%%qQ%%%%%%%%%%%%%%%%%
4457B25%%%%%%%%%%%%%%%%%%%%%%%%%%%%%%%%%%%%%%%%%%%%%%%%%%%%%%qQqQ%%q%%QqQ%%%
4451B25%%%%%%%%%%%%%%%%%%%%%%%qQ%%qQ%%%%%%%%%%%%%%qQ%%%%%qQqQ%qQ%%%%q%Q%%%%%
4444B25%%%%%%%%%%%%%%%%%qQ%%%%%%%%%%%%%%%%%qQ%%qQ%%%qQ%%%qQ%%%%%%%%%%%%%%%%%
4437B25%%%%qQ%%%%%%qQ%%qQ%%%%%%%qQ%qQ%%%%%%%%%qQq%%Q%%%%%qQ%%%%%%%%%%%%%%%%%
4431B25%%%%%%%%%%%%%qQ%%%%%%qQ%%%qQqQqQqQqQ%%qJ6j6QQj6J6j6J6q%%%%%%%qQqQ%%%%
4425B25%qQ%%%%%%%%%%%%%%%%%%%%%%%%%%%%%qQ%%%qQqQ%%%q%Q%%%qQ%%%%%%%%%%%%%%%%%
4418B25%%%%%%%%%%%%%%%%%%qQ%%%%%%qQ%%%%%%%%qQ%%%%%qQ%%%qQ%%%%%%%%%%%%%%%%%%%
4412B25%%%%%%%qQ%%%%%%%%%qQ%%q%Q%qQ%%qQ%%%qQ%%%%%%%qQ%q%%Qq%QqQ%%%%q%Q%qQ%qQ
4405B25%%qQ%j6J6%%%%%%%%%%q%%Q%qQqQ%%%qQq%Q%%%%%%%%qQ%%%qQq%Q%%%%%%qQqQqQ%qQ
4399B25%qQ%%%%%%qQ%qQ%%%q%Q%%qQqQ%%qQ%%qQ%%qQqQ%%qQ%%%qQ%qQ%%%%%%%%%%%%%%%%%
4392B25%qQ%%%%qQ%%%%%qQ%%q%Q%%%%%%qQ%%%%qQ%%%%%%%%%%qQ%qQ%qQ%%q%QqQ%qQ%%%qQq
4386B17Q%%%qQ%%%%%%q%Q%q%Q%qQ%%%%%%%%%%qQ%%%qQqQ%qQ%%qQ%%%%%%%%q%QqQ%q%%%Q%%
4379B25%%%qQqQ%%%%%%qQ%q%Q%%%%%%%qQqQ%%%%qQ%qQ%%qQ%qQ%%%%%%qQ%%%%%%qQ%%qQq%Q
4372B25%%%qQ%%%%qQ%%%%%%%%%%q%Q%%q%%%Q%%%%%%%%q%QqQ%%qQ%%%%%%%%%qQqQ%q%QqQ%%
4366B25%%%%%%%%%%%%%%%%%%%%%%%%%%%%%%%%%%qQ%q%Q%%%%%%%%%qQ%%%q%Q%qQ%%%qQqQ%q
4359B17Q%qQqQ%%%%%%qQ%qQ%%%%qQ%%%%%q%%Q%%%%%%%%%%%%qQqQ%%%%%qQ%%qQ%qQ%%%%q%%
4353B17Q%%%%qQ%%%%%qQ%%%%qQ%%%%%%%%%%%%%%q%Q%qQ%%q%QqQ%%%qQ%%%qQq%Q%q%%Qq%Q%
4346B25qQ%q%Q%%%%%%q%Q%%%%%%%%%%%qQ%%q%%QqQ%q%Q%Qj6QqQ%%%%qQ%%%%%qQ%%%%%%%%%
4340B25%%%%%qQ%q%Q%%q%%%%Q%%q%QqQqQ%%%qQ%%%%q%QqQ%j6Q%Q%qQ%%%qQ%q%QqQq%Q%%qQ
4333B25%%%%q%%QqQqQ%q%Q%%%%%qQ%%q%Q%%q%Q%qQq%J6k4J6qQ%qK4k4Q%%%%Qq%%%%%%%%%%
4327B25%q%Q%%%%%%qQ%%%qQ%%%q%%Q%%%%qQ%%qQqQ%qQqQ%%q%%%%%Qq%Qq%%%%Q%%%%qQqQqQ
4320B25%%%%%q%Q%qQ%q%%%%Q%%q%Qq%Qq%%%Q%%qQqQq%%Q%%%%%qQ%%%%%qQ%%%%%qQqQqQ%%%
4314B25%qQ%%%%%q%Q%%%%%%%%%%%qQ%%%%%%%%%qQ%%q%Q%qQ%%%%%%qQ%%%qQq%Qq%%Q%%q%Qq
4307B17Q%qQ%qQqQq%Qq%%Q%qQq%%Q%q%%Q%%%%qQ%%qQ%qQ%%%%%%%%%%%%%%qQ%%%qQ%%%%%%%
4301B25qQ%q%Q%%%qQq%Q%%qQ%%%%%%%%qQ%%%qQ%%q%Q%%%%%%%%%%%%%%%%qQ%%%%qQqQ%%%qQ
4294B25%q%QqQq%%%%Qq%%Q%qQ%qQ%%%qQ%%%qQqQ%%%%%qQ%%%%%%qQ%%%%%%%%qQ%qQq%Q%qQq
4288B17%%%%Qq%%%QqQq%%%%Q%qQ%qQq%%QqQ%q%%Qq%%Q%%%%%q%Q%qQqQ%%%%%%qQ%qQqQ%%%%
4281B25q%Q%%%qQq%%Q%%%%%qQq%%QqQ%%%qQ%%%%%%%%%q%QqQ%%%qQ%%%q%Qq%QqQ%q%%Q%%%%
4274B25%%qQqQ%%%%%%qQqQ%q%Q%%%qQq%Q%%qQqQ%%%q%%Q%%%%%%%%%%qQ%qQqQ%%%%%%qQ%%%
4268B25qQ%%qQ%%%%%qQq%Q%%%%q%%%Q%%%%%%%%%q%%Q%qQ%%%qQq%%Qq%Q%%%%%%%%%%%%qQ%%
4261B25%%%%%%%q%Q%%q%Q%qQq%Q%%%%%%%%q%Q%%%%%%%%qQqQq%%Q%%q%%Q%qJ6q%%qQq%%%%Q
4255B25q%%Q%%%%%%%q%QqQqQ%%qQq%Qq%%Q%%qQ%q%%%Qq%Qq%Q%qQq%Q%%qQqQ%%%%%%%%%%%%
4248B25%%%%%%%%%%%%q%%%Q%qQqQq%Q%%%%%%%qQqQq%%%Q%%q%%%Q%%%%%qQqQ%qQ%%qQ%qQ%q
4242B17QqQ%qQ%%%%%%%qQ%qQ%%%%q%Q%%%%%qQqQqQ%%%%q%Q%%%%%%%%%q%%%%QqQq%Qq%QqQ%
4235B25qQ%%%qQ%qQ%%%%%%%%q%Q%q%%%Q%qQ%%%q%%Q%%%%qQ%%qQ%%%%%qQ%%%qQ%%%%%q%%Q%
4228B25%%qQqQ%%%qQq%%%Q%%%%%%qQqQ%qQq%Q%%%%%%%%%%%%%%qQ%%qQ%%qQ%%qQ%%%%%%%%q
4222B17Q%%%%%%%%%%%%qQ%qQ%%%q%Q%%%%%%%%%%%%%qQ%%%%%%qQ%%q%QqQ%qQ%%%qQ%qQ%%%q
4215B17Q%q%QqQq%QqQ%%%%%%%%%%%%%%%%%%%q%Q%%%qQ%%%%%qQ%%%%qQ%%qQ%%%qQ%%%%qQ%%
4209B25%%%%%%%%%%%%qQ%%Qj6Q%%%%%%%qQ%%%%%%%%%%%%%%%%%%%%%%%%%%%%%%%Qq%%%q%Q%
4202B25qQqQ%%q%Q%%qQ%%%qQ%%%%%%%%%%qQ%%qQ%q%Q%%%%%%%%qQqQ%%%%%%%%%%%%%%qQqQ%
4196B25q%%%%QqQ%%%%%%%%%%%%%%%%%%%%%%qQ%%%%%%%%%%%qQ%%%%%%%%%%%%%q%QqQ%%%q%Q
4189B25qQ%%%%qQ%%%%%%%%qQ%%%%%%qQ%%%%%%%%%%%%%%%%%%%qQ%%%%q%Qq%Q%%q%%Q%qJ6j6
4183B17%QqQ%%%%%%qQ%q%Q%qQ%%qQ%%%%%%%%%qQ%%%%%%qQ%%%%%%%%%%%%%%qQqQ%%%%%qQ%%
4176B25%%%%%%%%%%%%%%%%%%%%%%%%%%%%%%%%%%%%%%%%%%%%%%%%qQ%%q%Q%%q%Q%qQ%qQ%%%
4169B25%%%%%%%%%%%%%%%%%%%%%%%%%%%%%%%%%%%%%%%%%%%%%%%%qQ%%%%%%%%%%%%%%%qQ%%
4163B25%%%%%%%%%%%%%%%%%%%%%Qq%%%%qQ%%qQ%qQ%%%%Qq%%%%qQQj6Q%%%%%%%%%%%%%%%%%
4156B25qQ%%%%%%%%%%%%%%%%%%%%%%%%%%%%%%%%%%%%%%qQ%%%%%%%q%Q%%qQ%%qQ%%%%%%qQ%
4150B25qQ%%qQ%q%Q%qQ%%%q%Q%%%%q%%J6q%%%qQ%%qQ%qQq%Q%%%%%qQ%%%%%%%%%%%%%%%%%%
4143B25%%%%%%Qq%%%%%qQ%%%%qQ%%qJ6j6Q%q%QQq%%q%%Q%%%%%%%%qQ%q%%QqQ%%%%qQqQ%%%
4137B25q%Q%qQq%Q%qQ%%Q%j6QqQqJ6%%j6J6M0k4k4%j6m0P2K4n6j6Q8o4J6j6M0l2J6j6J6k4
4133B17Qj6QQQj6J6j6%Q%qQQj6%Q%%qQqQ%%%qQ%Qq%%%%%%qQ%%%%%%%qQ%qQ%%%%%%%%%%%%%
4126B25%%%%%%%%%%%%%%%%%%%%%%%%%%%%%%%%%%%%%%%%%%%qQ%%%q%Q%%%qQq%Q%%%%%%%%%%
4120B25%%%%%%%%%%%%%%%%%%%%%%%%%%%%%%%%%%%%%%qQ%%qQ%%%%qQ%%%%%%%%%%%%%%%%%%%
4113B25%%%%%%%%%%%%%%%%%%%qQ%%%%%Qq%%%%%qQ%%%q%QqQq%Q%%qQ%%%%%qQ%%%%%%%%%%%%
4107B25%%%%%%%%%%%%%%%%%%%%%%%%%%%%%%%%qQ%%%%%%%%%%%%%%%%%%%%%%%%%%%%%%%%%%%
4100B25%%%%%%%%%%%%%%qQ%%%%%%%%%%%%qQqQQq%qQ%%%%%%%%%%Qq%%%%%%%%%%%%%%%%%%%%
4094B25%%%%%%%%%%%%%%%%%%%%%%%%%%%%Qq%%%%%%%%%%%%%%%%%%%%%%%%%%%%%%%%qQ%%%%%
4087B25%%%%%%%%%%%%%%%%%%qQ%Qq%%%Qq%%%%%%%%%%%%%%%%%%%%%%%Qq%%%%%%%%%%%%%%%%
4080B25%%%%%%%%%%%%%%%%%%%%%%%%%%%%%%%%%%%%%%%%%%%%%%%%%%%%%%%%%%%%%%%%%%%%%
4074B25%%%%%%%%Qq%%%%%%%%%%%%%%%%%%%%%%%%%%%%%%%%%%%%%%%%%%%%%Qq%%%%%%%%%%%%
4067B25%%%%%%%%%%%%%%%%Qq%%%%%%%%%%%%%%%%%%%%%%%%Qq%%%%%%%%%%%%Qq%%%%%%%Q%q%
4061B25%%%Qq%Qq%%%%%%%%%%%%%%%%%%%%%%%%%%%%%%%%%%%%%%%%%%%%%%%%%%%%%%%%%%Qq%
4054B25Qq%%%%%%%%%%%%%%%%%%%%%%%%%%%%%%%%%Qq%%%%%%%%%%%%%%%%%%%%Q%q%%%%Qq%%%
4047B25%%%%%%Qq%%Qq%%%%%%%%%%%%%%%%%%%%%%%%%%%%%%%%Qq%%%%%%%%%%%%%%%%Qq%%Q%q
4041B25Qq%%Q%q%%%%%Q%q%%%%%%Qq%%%%%%%%%%%%%%%%%%%%q%J6%%qQqQqQ%q%Q%q%%%%%Qq%
4034B25Qq%%%%%%%%%%%%Qq%%%%%%%%%%%%%%%%%%%%%%Qq%%%%Qq%%%%%%%Qq%Q%q%%%%%%Qq%%
4028B25%%QqQq%Q%q%%Qq%%%%%%%%%%%%%%%%%%%Qq%%%%%%%%Q%q%Q%q%%%%%Qq%%%%%%Qq%Qq%
4021B25Qq%%%%%%Qq%%%Qq%%%%%%Q%q%%%Qq%%%%Q%%q%%Q%qQ%%q%%%%%Qq%Qq%%Qq%%%%%%%%Q
4015B33%q%Qq%Qq%%Qq%%%%%%%%Qq%%QqQq%%%%QqQq%%%%QqQq%Q%q%%Q%%%%%%qQ%%%q%%%%%%
4008B25%%%Qq%QqQ%%%%%q%Qq%%%%%%QqQ%%%%%qQqQqQqQ%%qQqQ%qQq%%%Qq%%%%%%Qq%Qq%Qq
4002B25QqQqQqQ%%%%%q%QqQ%%qQqQ%%%%qQ%%q%%%Q%q%%%%QqQq%%Q%q%%QqQ%qQ%qQq%Q%%%q
3995B25Q%q%%%Qq%Q%q%%%Qq%%Qq%%%%%%%QqQ%%%qQ%q%%QqQ%q%%QqQqQ%%%qQ%%%q%%%Q%%%q
3988B25%Q%%Qj6%Q%%q%%%%Qq%%%%Q%%q%Q%%%%qQqQqQ%%%%qQqQqQq%Qq%QqQq%%%%%%%%%%%%
3982B25%%Qq%%%%%QqQqQ%qQ%%%q%Q%qQ%%q%Q%qQ%%%q%%%%Q%%%q%%%Q%q%%Qq%%Q%qQq%Q%qQ
3975B33qQqQ%%%%%qQqQ%%%%%%%%%%%%%%%%%qQ%qQq%%Q%qQq%Q%%%qQqQ%%%qQ%q%%Q%%%%%%%
3969B33%%%%q%%QqQq%Qq%Q%%qQ%qQ%qQ%%%%%qQ%%qQ%%%%q%Q%qQ%q%Q%%%qQ%q%%QqQ%%%%q%
3962B25Qq%%Qq%%Q%%%%q%QqQqQqQ%%%%%%qQ%%qQ%%qQ%%qQ%%%qQ%%%qQ%%%%%qQ%q%Q%%qQ%%
3956B33%%%qQ%%%%qQ%%%qQ%%%%qQ%%%%%%%%%%%%%qQ%%%q%Q%qQ%qQ%q%Q%%qQ%%%qQ%%%%%%%
3949B33%%%%qQ%%%%%%%%%%%%qQ%%%%%%%%%%%%%qQ%%qQ%Qj6Q%%%%%%%%%%%%%%%%%%%%%%%%q
3942B25%Q%%qQ%%%%%%%%%qQ%%%%qQ%%%%%%%%%qQq%%%%qK4qQ%j6J6j6Q%qQ%qQ%Qq%%qQq%Q%
3936B33%%%%%qQ%%%%%%%qQ%%%%%%%%%%%%%%%%%%%%%%%%%%%%%%%%%%%%%%%%%%%%%%%%%%%%%
3930B33%%%qQ%%%%%%%%%%%%%%%%%%%%%%%%%%Qq%%%%%%%%%%%%%%%%%%%%%%%%%%%%%%%%%%%%
3923B33%%%%%%%%%%%%%%%%%%%%%%%%%%%%%%%%%%%%%%%%%%%%%%%%%%%%%%%%%%%%%%%%%%%%%
3917B33%%%%%%%%%%%%%%%%%Qq%%%%%%Qq%Qq%%Qq%%%%%%%%%%%%%%%Qq%%%%%%%%%%%%%%%%%Q
3910B41q%%%%%%%%%%%%%%%%%%qQ%%%Qq%%%%%%%%%%%%%%%%%%%%%%%%%%%%%%%%%%%%%Qq%%%%
3903B33%%Qq%%%%%%%%%%%%%%%%%%Qq%%%%%%%%%%%%%%%%%%%%%%%%%%%%%%%%%%%%%%%%%%%%%
3897B33%Qj6Q%%%%%%Qq%%%%%%%%%%%%%%%%%%%Qq%%%%%%%%%%%Qq%%%%%%%%%%%QqQqQ%q%%Qq
3890B33%%Qq%Q%qQ%%%q%Q%q%%%%%%%%%%QqQq%%%%%%%%%%%%%%%%%%%%Qq%%%%%%%%%%%%%%%%
3884B33%%%%%%%%%%%%%%%%%%%%%%%%%%%%%%%%%%%%%%%QqQq%%%%Qq%%%%%%%%Q%q%%%Q%%qQq
3877B33Qq%%%%QqQqQq%%Qq%Qq%%%Q%%q%%Q%q%%%%%%%%%%%%%%%%QqQq%%%Q%q%%%Qq%%Qq%%%
3871B33%%%%%%%%%%%Qq%%%%%%%%%%%%%%%%%%%%Q%%%q%%%Qq%%%%%%Qq%%QqQq%Q%%%q%Qq%%%
3864B33%%%%Qq%Qq%%%QqQq%Qq%Q%q%%Qq%%Q%%q%Qq%Q%%q%%%%%%%%%%QqQq%%%%%Q%q%%Qq%Q
3857B41qQ%qQq%Q%%%%%%%%%%%%%%qQ%%%%%%qQ%qQqQq%%%%Q%qQ%%%%%qQq%%%%%%%QqQq%Qq%
3851B33%%QqQ%%%%%%%%qQq%%Q%%%q%Q%%qQ%%%%%%%qQq%Q%q%Q%%qQ%q%%Q%qQ%%%qQ%qQ%qQ%
3844B41%%%%%%%%q%QqQ%%%q%%%Qq%QqQq%%QqqK4j6QQj6Q%%%q%Q%%%qQ%qQqQq%Q%%%%%%%%%
3838B41%%%%%%%%%%%%%%%%qQ%%%%%%%%%q%Q%%qQ%%%%%%%%%%%%qQqQqQqQ%%%%%q%QqQ%%%qQ
3831B41%%%%%%%%%%%%qQ%%%%%%%%%qQ%q%Q%%%%%%qQ%%%%%%%%%%%%%%%%%%%%%%%%%%%%%%%%
3825B41%%%%qQ%%%%%%%qQ%%%%%%qQ%%%%qQ%%%%%%%%%%%%%%%%%%%%%%%%%%%%%%%%%%%%QqqQ
3818B41%%%%%%%%qQ%%qQ%q%%%%Q%%%%%%qQ%%%%%%%%%%%%%%%%%%%%%%%%%%%%%%%Qq%%%Qj6Q
3812B41%%%%%%%%%%%%%%%%%%%%%%%%%%%%%%%%%%%%%%%%%%%%%%%%%%%%%%%%%%%%%%%%%%%%%
3805B41%%%%%%%%%Qj6Q%%%%%%%%%Qq%%%%%%%%%%%%%%%%%%%%%%%%%%%%%%%%%%%%%%%%%%%%%
3799B41%%%%%%%%%%%%%%%%%%%%%%%%%%%%%%%Qq%%%%%%%%%%%%%Qq%%%%%%%qQ%%%%%%%Qq%%q
3792B33Q%qQ%%%%%%%%%%%%%%%%%%%%%%%%%%%%%%%%%%%Qq%%%%%%%%%%Qq%%%Qq%Qq%%%%%%%%
3786B41%%%%%%%%%%%%%%%%%%%Qq%%%Qq%%%%%%%%%%%%%Qq%%%%%Qq%%%%%%%Qq%Qq%%%%%%%%%
3779B41%%%%%%%%%%%QqQq%%%%%%%Qq%%%Qq%%%%%%%%%%%%%%%Qq%%%%%%Qq%%Qq%%%%%%%%%%%
3772B41%%%Qq%%%Qq%%%%%Qq%%%%%%%%%%%Q%q%%%%%Qq%%%%%%%%%QqQq%%QqQq%%%QqQq%%%%Q
3766B49q%%%Q%q%Q%%q%%QqQqQq%%Qq%Qq%%%%%%%%Q%%q%%Qq%%%%%%%%%%%%%%Qq%Qq%Q%qQqQ
3759B49qQ%%%q%QqQqQ%%q%%%%QqQQ%qk4J6QJ6j6k4QK4q%%%%q%%Q%qQq%%%Q%qQ%%%qQ%%%%q
3753B41QqQ%q%QqQq%Q%%qQ%%%%qQ%Q%j6J6Qk4q%L2Qj6k4K4q%qQQj6%Q%%%qQ%%%qQqQqQ%qQ
3747B49q%Qq%%%%%Q%%qQ%%%qQ%q%Q%%qQqQ%q%Qj6%J6J6k4Qk4M0l2%QJ6q%J6j6j6%QJ6j6Q%
3742B49qQ%%qQ%%%qQ%%qQqQqQ%%qQ%%%%%%%%%%%%%%%%%%qQqQ%%%%qQ%%%%qQ%qQ%qQqQ%qQq
3735B41Q%%%%%%%%%%%%%%%%%%%%%%%%%%%%%%qQ%%%%%%%%%%%%%qQqQ%%%%%%%%%%%%%%%%%%%
3729B49%%%%%%%%%%%qQ%%%%%%%%%%qQ%%%%%%%%%%%%%%%%%%qQ%%%%%%%%%%%%%%%%%%%%%%%%
3722B49%%%%%%%%%%%%%Qq%%%%%%%%%%%%%%%%q%Q%%%Qq%%%%%%%%%%%%%%%%%%%%%%%%%%%%%%
3716B49%%%Qq%%%%%%%%%%%%%%%%%qQ%%%%%%%%%%%%%%%%%%%%%%%%%%%%%%%%%%%%%%%%%%%%%
3709B49%%%%%%%%%%%%%%%%%%%%%%%%%%%Qq%%%%QqQ%q%%%%%%%%%%%%%%%%%%%Q%q%Qq%%%%Q%
3703B57qQqQqQ%q%Qq%Qq%%%Q%%%q%%Qq%%%QqQqQqQ%%%qQ%qQ%q%%Qq%%QqQq%%%%%%%QqQq%%
3696B49QqQq%%%Q%q%%qJ6qQq%Qq%%%%%Q%q%Qq%Q%q%%%QqQ%%q%%%%%%%%%%Qq%%%%%Qq%%Qq%
3689B49%%Qq%%%%Qq%QqQq%%%%%Q%%%%%%q%Q%q%%%%Q%qQ%%%q%Qq%%%%%%QqQ%%%%q%%Q%qQq%
3683B49Qq%%%Qq%QqQqQ%%%%qQ%%%%%q%%%Q%%%%qQqQ%%qQ%%%qQ%qQq%Q%%%q%Q%q%Q%%q%%Q%
3676B57%%%%%%qQ%%qQq%Q%%%%%qQqQ%%%%qQ%%%%%%%%%%%%%q%%Q%%qQ%%qQ%%q%%%Q%%%%%qQ
3670B57%%%%%%%qQ%%%%q%%%QqQ%qQ%%%%%%%%%%%%q%Q%%%%qQ%%%%%%%%qQ%q%Q%%%%%%%%%%%
3663B57%%%%%%%%%%%qQ%qQq%%Q%%%qQq%%Qq%%Q%qQ%%%%%%%%%%%qQ%%%%%qQ%qQQj6Q%%%%%%
3657B57%%%%%%%%%%%%%%%%%qQqQqQ%qQ%%%%%%qQ%%%qQ%%q%Q%%%%%%qQ%%%%%%%%%%%%%qQ%%
3650B57%%%%%%%%%%%%%%%%%%%%%%qQ%%%%%%%%%qQ%%%qQ%qJ6q%J6j6%qQ%%%%%%qQ%%%%%%qQ
3644B57%%%%%%%%%%%%%%%%%%%%%%%%%%%%%%%%%%%%%%%Qq%QqQq%qQ%%%Qq%%Qq%%%%%%%%%%%
3637B57%%%%%%%%%%%%%%%%%%%%Qq%%%%%%%%%%%%Qq%%%%%%%%QqQ%q%%Qq%%%%%%%%%%%%%%%%
3631B57%%%%%%%%%%%%%%Qq%%%%%%Q%q%Qq%Qq%%%%%%%%%%%Qq%%Qq%%Q%q%%Qq%%%%%%%%%%%%
3624B57%%%%Qq%QqQ%%%%qQq%Q%qQq%Qq%%Q%%%%qQ%%qQq%QqQ%%qQq%%Q%%q%Qq%Q%%q%%Qq%Q
3617B65%q%Qq%Q%qQ%q%Q%%%qQ%%qQ%%%%q%Q%%%%%%qQ%qQqQ%qQqQ%%qQ%%qQq%Q%%%qQ%%q%%
3611B57%%%%%%%Q%%qQq%%Qq%%Qq%%%Qq%QqQ%%%%qQ%%qQ%%%%%%%qQ%%qQ%%%%qQ%%%qQqQ%%%
3604B65qQ%%%%%%%%q%%Q%qQ%qQq%%Q%%%%%%qQ%%%%%%%%%%%%%%%%%%%%qQ%qQ%qQ%qQ%%%qQq
3598B57%Qq%Q%%%%Q%q%%qQ%%qQ%%%%%%%%%%%%%%%%qQ%%%%%%%%%%%%%%%%%%%%%%%%%qQ%%%%
3591B65%%%%%%%%%%%%%%%%%%%%%%%%%%%%%%%%%%%%%%%%%%%%%%%%%%%%%%%%%%%%%%%%%%%Qq
3585B65%qQ%%%%%%%%%%%%%%%%%%%%%%%%%%%%%%%%%%%%%%%%%Qq%%%%%%%%%%%%%%%%%%Qq%%%
3578B65%%%%%%%%%%Qq%%Qq%%%%%%%%%Qq%%%%%%%%%%%%%%Qq%%%%%%%%%%%Q%%q%%qQ%%Qq%%%
3571B65Qq%Qq%%%%%%%%%%%%QqQ%q%%%%%%Q%q%%%%%%%%Qq%%%%%%%%QqQq%%%%%%Qq%%%%%Qq%
3565B65%%%%%Qq%QqQ%%%qQq%%%%%%%%%Qq%%%%%%%%%%%%%%Q%%qQq%%QqQq%%%%Q%q%%%%%%%%
3558B65%Q%q%%%%QqQqQ%%q%%%%Q%q%Qq%Q%%qQ%%q%J6q%j6J6q%%%QqQq%Qq%%Qq%QqQ%%q%%%
3552B65%%%%%%Q%%q%Q%%%qQq%%%%%%%%QqQ%%Qqq%%Qj6QqK4Qqq%q%QQqq%QqQqQ%q%Q%%%qQq
3546B65QqQ%%qQqQ%%%%%qQ%%%qQ%%%%%%%%%%%qQ%%%%%%%%%%%%%%%%%%%%%%%%%%%%%%%%%%%
3539B73%%%%%%%%%%%%%%%%%%%%%%%%%%%Qq%%Qq%%%%%%%%Qq%%%%%%%%%%%%%%%%%%%%%%%%%%
3532B73%%%%%%%%%%%%%%%%%%%%%Qq%%%%%%%%%%%%%Q%q%%%%%%%%%%%%%%%%%%QqQq%Q%%qQ%q
3526B73%%%%%%%%%%%%%%%%%%%%%%%QqQq%%%%%%%%%%%%%%%%%%%%%%%%%%%%%%%Q%qQq%%%%%Q
3519B81q%%%Q%%q%Q%q%%%%%%%%Qq%%%%%%%%%%%%%%%%%%%%%%%%%QqQq%%%%%%%%%%%%%%Q%q%
3513B73%Q%qQq%%%%%Qq%%QqQ%q%%Q%qQqQq%%%QqQq%%%%%%QqQq%%%%%%%%%%%Qq%%%%Q%q%%Q
3506B81%%qQqQ%%%q%Q%qQqQq%%%%Q%%%q%%%Qq%%%%%Q%%q%%Qq%%Q%%q%Q%%%%q%%Q%%%qQq%%
3500B73%Q%%%%qQ%qQ%q%Q%qQ%%%q%QqQ%%%%%%%%%%%%%%qQqQ%%%%%%%qQ%%%%%%%%qQ%%%%%%
3493B81%%%%%%%%%%%%%%%%%%%%%%%%%%%%qQ%%%%%%%%%%%%%%%%%%%%%%%%%%%%%%qQ%%%%%%%
3486B81%%%%%%%%%%qQ%%%%%%%%%%%%%%%%%%%%%%%%%%%%%%%%%%%QqQq%qQ%Qq%Qq%%%%%%%%%
3480B81%%%%%%%%%%%%%%%%%%%%%%%%%%%%%%%%%%%%%%%%%%%%%%%%%Qq%%%%Q%q%%%Qq%%%%%%
3473B81%%%%%%%%%%%%%%%Qq%Qq%%%%QqQqQq%%Qq%%Qq%%%%%%%%%%%%Q%q%%%%%%%%%%%Qq%%Q
3467B89q%%%Q%q%%Q%%qQqQq%%QqQ%qQqQ%%qQqQq%%%Qq%%Q%%%%%qQq%%Q%q%Q%qQ%q%Q%qQ%%
3460B89%%%qQq%QqQ%%%qQqQqQq%%%Q%%qQq%%QqQq%%%%Q%%%q%%%%QqQ%%%%%%%%%%qQqQ%%%%
3453B89%%qQ%%%%%%q%Q%qQ%%q%Q%%Qj6%Q%q%%%Q%%%q%Q%%q%%%Q%%%%%%%%qQ%%qQ%%%%%%%%
3447B89%%%%%%%%%%%%%%%%%%qQ%%%%%%%%%%%%%%%%%%%%%%%%%%%%%%%%%%%%%%%%%%%%%%%%%
3440B89%%%%%%%%%%%%%%%%%%%%%%%qQ%%%%%%%%%%%%%%%%%%%%%%%%%%%%%%%%%%%%%%%%%%Q%
3434B97%q%%%%QqQq%%%%%%Qq%Qq%%%%%%%%%%%%%%%%%%%Qq%%%%%%%%%%Qq%%%Qq%%Q%qQq%%Q
3427B97%q%%%%%%%%%%%%QqQ%q%%%Qq%%%%Q%q%%%%Qq%%%%%%%QqQq%%%Q%q%%Qq%QqQ%qQq%Q%
3421B97%q%Qq%%%%%Q%qQq%Q%%qQ%%qQ%qQ%qQq%QqQq%%%%QqQ%%qQ%%%%%%%%%%%%%%%qQ%%%%
3414B97%%%qQqQ%%%%%%%%%%qQ%%%%%%%q%Q%%%%%%%%%qQ%%%%%%%%%%%%%%%%%%%%%%%%%%%qQ
3407B97%%%%%%%%%%%%%%%%%%%%%%%%%%%%%%%%%%%qQ%%%%%%%%%%%%%%%%%%%%qQQqq%Q%qJ6q
3401B97%%%%%%%%%%%%%%%%%%%%%%%%%%%%%%%%%%%%%%%%%%%%%%%%%%%%%%%%%%Q%q%%%%%%%%
3394B97%%%%%%%%%%%%%%%%%%%%%%%%%%%%%%%%%%%%%%%%%%%%%%%%%%%Q%q%%Qq%%%%%Qq%Q%%
3388C05q%%%%%%Qq%%%%Q%q%%Qq%%QqQq%Qq%%Qq%Q%q%%%%QqQqQq%Qq%%Q%%%%%%%qQ%%%%qQ%
3381C05%%%%%q%Q%%%qQqQ%%%q%%%Qq%Q%%q%Qq%%%%QqQq%Q%qQq%%%Qq%Q%%qQ%%%%%%%%%%qQ
3375C05%qQ%%%%%qQqQqQ%%%%%%%%%%%%%%%%%%%%%%%%%%qQ%%%%%%%%%%%%%%%%%%%%%%%%%%%
3368C05%%%%%%%%%%%%%%%%%%%Qq%%%%%%%%%%%Qq%Q%q%%%%%%%%%%%%%%%qQ%%%%%%%%%%%%%%
3362C05%%%%%%%%%%%%%%qQ%%Q%%%%%j6QqQ%%%%%%%%%%%Qq%%%%QqQq%%%%%Q%q%%Qq%%%%%qQ
3355C05J6k4QqQQq%QqqQ%J6q%qqK4k4QL2qk4Qj6L2m0qL2k4J6%Q%q%Qj6J6q%%%Qq%Q%%q%%%
3350C05Q%%%%%%qQq%QqQq%QqQq%QqQ%qQ%qQq%%Q%qQ%%q%Q%%%%q%%%%%%Q%%qQ%qQ%qQ%%%q%
3343C05Q%%%%qQqQqQ%qQ%%%%%%%%%%%%%%%%%%%%%%%%%%%%%%%q%Q%%%%%qQ%%%qQ%%%%%%%%%
3337C13%%%%%%%qQ%%%%%%%%%%%%%%%%%%qQ%%%%%%%%%%%%%qQ%qQ%%%%%%%%%%%%%%%%%%%%%%
3330C13%%%%%%Qq%%%%%Qq%%%%Qq%%qQ%%%%%%%%%%%%%%%%%%%%%%%%%%%%%%%%%%%%%%%%%%%%
3324C13%%%Q%q%%%QqQq%%%%%%%%%Qq%%%%%%%Qq%%Qq%%%%%%%%%%QqQqQ%q%Qq%%%%%Qq%%%Q%
3317C21qQ%qQ%%%%%%qQqQqQ%%qQ%%q%%%%%Q%%qQqQqQq%QqQ%%%%%%%%%%q%%Q%%%%%%%%%%qQ
3310C21%%%%qQq%Q%qQ%%%%%%%qQqQ%%%%qQ%%%%%%%%%%%%%%%%%%%%%q%Q%%%%%%qQ%%%%qQ%%
3304C21qQ%Qq%%%qQ%%qQ%%%%%%%%%%%%%%%%%%%%%%%%%%%%%%%%%%%%%%%%%%%%%%%%%%%%%%%
3297C21%%%%%%%%%%%%%%%%%%%%%%%%%%%%%%%%%%Qq%%%%%%%%%%QqQq%%%%%%%%%%%%%%%Qq%%
3291C21QqQ%q%%%%%Q%qQ%q%%Qq%Qq%%Qq%Qq%%%%%%Qq%%%%%%%%QqQq%%%Q%%%qQ%%%q%Q%%%q
3284C21%%%%%%QqQ%%%q%Qq%%Q%%%%%%%%%q%Q%qQ%%%%%%q%%QQqq%Q%%%%%%%%qQ%%%%qQqQ%%
3277C29%%%%%%%%%%qQ%%%qQ%%%%%%%%%%%%%%%%%%qQqQQqqQ%%%%%%%%%%%%%%%%%%%%%%%%qQ
3271C29%%%%%%%%%%%%%%%%%%%%%%%Qq%%%%%%%%Qq%%%%%%Qq%%%Q%qQqQq%%%%%%%%%%%%%%%%
3264C29%%Qq%%%%%%%%%%%%%%QqQ%q%%%Qj6Q%qQ%%%%%%%%QqQq%Q%%qQ%q%%%QqQq%%%%%%%%%
3258C29%%QqQqQq%Q%qQ%%qQq%Qq%Q%qQ%qJ6q%j6QQ%q%%%%Q%%q%Qq%Q%q%QqQ%%%%%%%%%%%%
3251C37%%%%%%%%%%%%%%qQ%%%%%%%%%%%%%%qQ%%%%%%%%%%%%%%%%%%%%q%Q%%%%%%%%%%%%%%
3245C37%%%%%%%%%%%%%%%%%%%%%%QqQq%%%%%%%%%%%%%%%%%%%%%%%%%%%%%%%%%%%%%%%%%%%
3238C37%Qq%%%Qq%%QqQq%%%QqQq%%%%%%%%%%Qq%Q%q%%%%%%%%%%%%%%%%Qq%%qJ6j6J6qQq%Q
3232C45q%Q%%q%%QqQ%q%%Qq%%Q%%qQqQ%%%%q%Q%%%%%qQ%%%%%%%%%q%%Qq%%QqQ%%qQ%%q%%Q
3225C45qQ%%%%q%Q%qQ%%%%%%%%%%%%%%%%%%%%%%%%%%%%%%%%%%%%%%%%%%%%%%%%%%%%%Qq%%
3219C45%%%%%%%q%Q%%%%%%%%%%%%%%%%%%%%%%%%%%%%%%%%%%%%%%%%%Qq%%%%%%%%Qq%%%%%%
3212C45Qq%%%QqQq%Qq%%%%Qq%%%%%%%%%Q%%qQ%qQqQq%%%%%Qq%%%QqQq%%Qq%%Qq%%qQJ6q%q
3206C45%Qq%%Qq%QqQqQqQq%Qq%%%%Qq%Q%%%%%qQ%qQ%%%qQq%%Q%q%Q%%%%%%%qQ%%qQq%Q%%%
3199C53%%%%qQ%%%%qQ%%%%%%%%%%%%%%%%%%%%%%%%%%%%%%%%%%%%%%%%%%%Qj6J6q%%%%%%%Q
3193C61q%%%%%%%%%%%%%%%%%%%%Qq%%%%%%%%%%%%%%Q%q%%%%%%Q%q%%%QqQq%%%%%%Q%%q%%%
3186C53%%%%%%%%%%%%%%QqQq%QqQq%Q%%%q%QqQq%%%Q%%q%QqQ%%Qq%qQqQ%%qQ%%%%%%%%%q%
3180C53%Q%%%q%Q%%%%%%%%%%%%qQ%%%%%%qQ%%%%%qQ%%%%%qQ%qQ%%%%%%%%q%Q%%%%%%%%%%%
3173C61%qQqQ%%%%%%%%%%%%%%%%%%%%%%%%Qq%%%qJ6q%Qq%%%%Qq%%%%%%%%%%%%%%%%%%%%%%
3167C61%%%%%%%%%%%%%%%%Qq%%%%%%QqQ%%q%Q%%q%Qq%%Q%%qQ%q%QqQqQ%%qQqQqQ%q%%QqQq
3160C61QqQ%qQq%%Q%%%q%%Q%%%QqQk4J6j6L2qj6j6K4%q%J6q%q%Q%%%%qQ%%%%%%qQ%%%qQ%%
3154C69%%%%qQ%%%%Qq%%%%%%%%%%%%%%%Qq%%%%%%%%%%%%%%%%%%%%%%%%%%%%%%%%%%%%%%%%
3148C69Qq%%%%%%%%%%%%%%%%%%Qq%QqQq%%Qq%%%%%%%%%%%Q%qQ%qQqQ%q%Q%%qQ%q%%Q%%%qQ
3141C77%qQ%%%%%%%%%qQq%Qq%Q%q%Q%%%qQ%%%qQ%%qQqQ%%%%%%qQqQ%%%%%%%q%Q%%%%q%QqQ
3134C77%%%%%q%Qq%%QqQ%%%Qq%%%%%%%%%%%%%%%%%%%%%%%%%%%%%%%Qq%%%%%%%%%%%%%%%%%
3128C77%%%%%%%%%%%%%%%%%%%%%%%%%%%%%%%%%%%%%%Qq%%%%%QqQq%QqQ%%%qQq%%Q%q%Q%q%
3121C77%Q%%q%%%QqQ%qQq%%%%%Q%%qQqQ%qQ%%%%%%%%qQ%%%%%%%%qQ%%%%%qQ%%%%%%qQ%%%%
3115C85%qQ%%%%%%%%%%%%%%%%%%%%%%%%%%%%%%%%%%%%%%%%%%%%%%%%%%%%%%%%%%%%Qj6QqQ
3108C85%%%%%Qq%%%%%%QqQq%%%%%%%%%%%%%QqQq%%%Qq%Qq%%%%%%%%%%%%%%%Q%qQ%%qQ%q%Q
3102C93q%%Q%%%q%Q%%%%%%%%qQ%%qQ%%%%%q%Q%%%q%Q%%%%qQ%%%%qQ%%%%%%qQ%qQ%%%%qQ%%
3095C93%%%%%%%%%%%%%%%%%%%%%%%%%%%%%%%%%%%%%%%%QqQq%%%%%%%%%%%%%%%%%%%%%%%%%
3088C93%%%%%%%%%Qq%%%%Qq%%%%%%%Qq%%%%%%%%%%Q%qQq%%Q%q%%%%QqQqQ%%%%qQ%%%q%Q%q
3082C93QqQ%%%%%%%%%%%%%%%%%%%%qQ%%qQqQ%%qQ%%%%%%%%%%%%%%%%%%%%%%%%%%%%%%%%%%
3075D01%%%%%%%%%%%%%%%%%%%Qq%%%%%%%%%Q%qQ%q%Qq%%%%%%%Q%qQqQq%%%%Qq%%%%%%%Qq%
3069D01%%%%%Qq%%QqQ%q%Qq%%%%%QqQqQ%qQqQ%%q%%Q%%%%%qQqQ%%%%%qQ%%%%%%%%%%%qQ%%
3062D09%%%%%qQ%qQ%%%%%%%%%%q%J6q%%qQQq%%%qJ6q%%%%%%%Qq%%%%%%%%%%qQ%%%%%%%%%%
3056D09%%%%Qq%QqQq%%QqQq%%%Qq%%QqQqQ%qQq%%%%%%Q%q%%%%Qq%Qq%Q%q%QqQ%%%%%q%QqQ
3049D17%qQqQ%%%qQ%%%%qQq%QqQ%qQqQ%%%%%%%%%%%%%%%%%%%%%%%%%%%%%%%%%%%%%%%%%%%
3043D17%%%%%%%%%%%%%%%%%%%%%%%%%%%%%%%Q%%q%Qq%Qq%Qq%Qq%%Qq%Q%q%Q%q%Q%q%%%Qq%
3036D17%%QqQ%qQ%qQq%%%%Qq%%Qq%Qq%%%QqQ%qQ%qQ%%%%%qQ%%%%%%%%qQ%%%%%%%%%%%%%%%
3029D25%%%%%%%%%%%%%%%%%%%%%%%%%%%%%%%%%%%%Qq%%%%%%%%Qq%%%%%%%%%%QqQq%%%qQ%Q
3023D33%qQq%%%%%Q%q%QqQ%%%qQ%%%%%%%qQqQqQqQ%qQ%qQq%%Q%%%q%QqQ%%%%qQqQ%%%%%%%
3016D33%%%%%%%%%%%%%%qQ%%%%%%%%%%%%%%%%%%%%%%%%%%%%%%%%Qq%%%%%%Q%%q%Qq%%%%%%
3010D33%%%Qq%%%%%%%%%%%%%%%%%%%%%%QqQq%%%QqQ%%%%%%q%Q%%%%qQqQ%qQ%%%%q%Q%%%%%
3003D41%%%%qQ%%%%%qQqQ%%%%%%%%%%%%%%%%%%%%%%%%%%%Qq%%Qq%%%%%%%%%%%%%Q%q%%%%%
2997D41Qq%%%Qq%%Q%q%%%%%Qq%%%%%%Qq%%%%%%QqQ%%q%QqQqQ%%%qQ%qQqQ%%%%%%%%%%%%%q
2990D41Q%%%%%%%%%%%%%%%%%%%%%%%%%%%%%%%%%%%%%Qq%%%%%%%%%%%%%%%%%%%%%%Qq%%%%%
2983D49%Qq%%%%%%%%%%Qq%%%%Q%%qQqQqQ%%qQqQqQ%%q%%Qq%Q%%q%Qq%%Q%%%%q%QqQqQ%%%%
2977D57%%%%%qQ%%%%%%Qj6Q%%%%qQ%%%%qQ%%%%%%%%%%%%%%%%%%%%%%%%Qq%%%%%%%%%%%%%%
2970D57%%Qq%Qj6Q%%QQj6QqQ%Qq%%qQqQ%%qQ%%%%qQq%QqQq%%QqQ%%q%QqQ%%%qQqQqQ%%%%q
2964D57Q%qQ%qQj6Q%%qL2k4K4k4%J6%%j6J6qq%Qj6J6Qj6Q%%qQq%QqJ6q%Qq%%%Qq%%%%%%%%
2958D65%%%%%QqQq%Qq%%%%%%%%%%%%%Q%q%%%%%Q%q%Q%q%Q%%%q%QqQq%Q%qQ%%%%%%qQ%%%%q
2952D65%Q%%%qQ%qQq%%%Q%%%%%%%qQ%qQ%%%%%%%%%%%%%%%%%%%%%%%%%%%%%%%%%%%%%%%%%%
2945D73%%%%%%%%%%%%Qq%%%%%%%%%%%QqQ%q%QqQq%%QqQ%%%%%%%q%QqQ%%%%q%%Q%%%%qQ%%%
2939D81%%%%%%%%qQqQ%Qq%%%%%Qq%%%%%%%%%%%%%%%%%%%%%%%%%%%%%%%%%%%Qq%%QqQ%%qQ%
2932D89%qQ%%qQqQq%Qq%%%%%%Qq%%Q%%%%%%%%%%%%%%%%%qQ%%%%%%%%%%%%%%%%%%%%%Qq%qQ
2926D89%%%%%%Qq%%%%Q%q%%%%%Qq%%%%%%%%%%%Qq%%%%%%%%%%%%%%%%Qq%%%Qq%%%%Q%%q%Q%
2919D97%qQ%%%%%%%%%%%%%%%%%%%%%%qQ%%%%%%%%%%%%%%%%%%%%%%%%%%%%Qq%%%Qj6Q%QqQ%
2913E05qQ%q%%%QqQq%%%%%Qq%%%%%%%%%%Qq%%Q%%q%%Qq%%%Q%q%Qq%%QqQ%%%qQ%%%%%%%%%%
2906E05%%%%%%%%%%%%%%%%%%%%%%%%%%%%%%%%%%%%%%%Qq%%%%%%QqQ%%q%%%%Q%q%QqQq%%Qq
2899E05Qq%%Q%%%%qQ%%%%%%%%%%qQ%%%%%%%%%%%%%%q%Q%Qq%%%%%%%%%%%%%%%%%%%%%Qq%%%
2893E13%%%%Qq%QqQqQ%%%%qQqQqQ%%qQqQ%%%qQqQ%%qQ%j6QQqQ%%qQqQqQ%%%%%%%%%%%%%qQ
2886E21%%%%%%%%%%%%%%%%%%%%%Qq%%%%%%%%%%%%Qq%%%Q%q%%%Qq%%%%%Q%%qQ%%%qQ%%%%qQ
2880E29%%%%%q%%Q%qQq%%Q%%%%%%q%Q%%%%%%%%%%%%%%%%%%%%%%%%%%%%%%%%%%%%%%Qq%%%%
2873E29Qq%Qq%%%%%%Qq%%%%%%Qq%%Qq%%%%Qq%Q%%%%%%%%%%qQ%%%%%%%%%%%%%%%%%%%%%%%%
2867E37%%%%%%%%%%Q%q%QqqQj6J6%%qK4j6Qq%%%Q%q%Qq%Q%q%%Q%q%%%%%%%QqQ%%%%%qQ%qQ
2860E45%%%qQ%%%%%%%%%%qQ%%%%%%%%%%%%%%%%%%%%%%%%%%%%%%%%%%%%%Qq%%%%%%%%%%%%Q
2854E53%q%Q%%%%%%qQ%%q%%Q%%qQ%%%%%%%%%%%%%%%%%%%%%%%%%%%%%%%%%%%%%%%%%%%%%%%
2847E53Qq%%Qq%%%Q%%%%qQ%%%qQqQ%%%%%qQ%qQ%%%%qQ%%%%qQ%%%%%%%%%q%QQ%j6Q%%%qQ%Q
2841E69qqQ%%%%%%%%%%%Qq%%%%%%%QqQqQ%q%%%%%QqQqQqQqQ%q%Q%%qQ%%%%%%%%%%qQ%%%%%
2834E69%%%%%%%%%%%%%Qq%%%%%%%%Qq%%%%%%Q%q%%%%Qq%%Q%qQqQ%%%qQqQqQ%%%%qQ%%%qQ%
2828E77qQ%qQ%%qQ%%%%%%%%%%%%%%%%%%QqQq%%%%%%%%%%%%%%%%%%%%%%%%%%%%%%Q%qQq%%%
2821E77Q%%%qQqQ%%qQ%%%qQ%qQ%%%%%qQ%%%%%%%%%%%%%%%%%%%qJ6q%%Qq%%%Qq%%%%%%%%%%
2814E85%%%%Q%%%qQ%q%%Qq%%%Q%qQ%%%%qQ%%q%%Q%%qQ%%%%%%%%%%%%%%%%%%%%%%%%%%%%%%
2808E93%%%%%%%%%%%%%%%%%%%Qq%Q%%%%%qQ%%%%%%qQ%%%%%%%%%%%%Qq%%%%%%%%%%%%%%%%%
2801F01%%%%%%%%%%%QqQq%%%%%Qq%%Q%%qQ%q%%%%%Q%%qQ%%qQ%%%%%%%%%%qQ%%%%%%%%%%%%
2795F09%%%%%%Qq%%Qq%%%QqQqQq%%Q%%%qQ%%%%%%%%%q%%QqQ%%%%%%qQ%%%%%%%%%%%%%%%%%
2788F17%%%%%%%%%%%%%%%QqQ%qQ%qQ%%q%Qq%%QqQ%%q%%QqQ%%%qQqQ%%%%%%%%%%qQ%%%%%%%
2782F25%%%%%%%%%%Qq%%%%%%%%%%%%%QqQ%%qQ%qQ%%%%%%qQqQqQ%%q%Q%%%%%%%%%%%%%%%%%
2775F33%%%%%%Q%q%qQ%%%%%Qq%%Qq%%QqQqQ%qQqQ%qQ%q%Q%%qQ%%%%%%%%%%%%%%%%%%%Qq%%
2768F41%%%%%%Qq%Qq%QqqJ6qQqqQQ%k4K4q%qQQ%%qQqQqQ%%%%%%%%%qQ%%Qq%%%%%%%%Qq%%%
2762F49%Qq%%%%Qq%Qq%%Qq%%Q%%%%%q%Q%q%Q%%%qQ%%%qQ%qQ%%%%%%%%%%%%%%%%%%%%%%%Qq
2756F57%%Q%q%%%%%Qq%%QqQqQqQ%%%%%%%%%%%%%%%%%%%%%%%%%%%%%%%%%%%%%%%%%%%%Q%%%
2749F73qQq%%Q%q%%Qq%%Q%%%%%%qQ%%%%%%%%%%%%%%%%%%%%%%%%%Qq%%%%%%%Qq%%%%%Qq%%Q
2742F81qQ%%q%Q%q%Q%%qQ%%qQ%%%qQ%%%%%%%%%%%%%%%%%%%%%%Qq%Qq%%%%Qq%%QqQ%q%Q%%%
2736F89%%%%%%%%%%%%%%%%%%%%%%%%Qq%Qq%%%%%%%Q%q%%%Q%%qQ%qQ%qQ%qQqQ%%qQ%%%qQ%%
2729F97%%%%%%%%%%%%%%%%%%%%%%%%%%%Qq%%Q%q%QqQ%%qQqQ%qQ%%qQ%%Qq%%Qq%%%%%%%%%%
2723G05%%%%%Qq%%%%%%%%%%%Qq%Q%q%Q%%%%qQq%QqQ%%%%qQ%%%%%%qQ%Qq%%%%%%%QqQq%%%%
2716G13Qq%%%%%Q%%qQqQ%%%qQ%%%%%%%%%%%%%Qq%%%%%%Qq%%%%%%%%%%Q%qQ%qQq%Qq%Q%qQ%
2709G29%%qQ%%%%%%%%%%%%%%%%%%%QqQqQq%%%%Q%%q%%%%%Q%%%%q%Q%%%%%%%%%%%%%%%%%%%
2703G37%%%%%%%%%%%%Qq%%Qq%Q%qQqQ%%%%%%%%qQ%%%%%%%%%%%%%%%%%%%QqQq%%%%%%%%Qq%
2696G45%%Qq%Q%qQ%%%%%%qQ%%%%%%%%%%%%%Qq%Q%q%%%%%Qq%Q%qQ%%%%qQ%%%%qQ%%%%%%%%%
2690G61%%%%%%%%%%%%%%Qq%Qq%QqQqQ%qQ%%q%Q%%%%%%%%%%%%%%%%%%%%%%%%%%%Qq%%%%QqQ
2683G77%q%Q%q%Q%QqqQ%%%%%q%Q%qQ%%%%%%%%%%%%%%%%%%%Qq%%%%Q%qQ%%%%%%%%%%%%%qQ%
2677G85Qq%qJ6q%qQ%Q%q%QqQqQ%q%Q%%qQqQ%%%%%%%%%%%%%%%%%%%%%%%%%%%Q%%%q%%%%Qq%
2670G93QqQj6J6%qQqQq%QQq%%%%%%%%%%%%%%%%Qq%%%%Q%q%Qq%%Qq%Q%%qQ%%qQ%qQ%%%%%%%
2664H09%%%%%%%%%%Q%qQ%%qQ%q%%QqQ%%qQ%%%%%%%%%%%%%%%%%%%%%%%Qq%%QqQqQ%q%Q%%qQ
2657H25qQq%Q%%%%%%%%%%%%%%%%%%%%%%Q%%%%%q%Q%qQ%%%%%%%%%%%%%%%%%QqQqQq%%%%%Qq
2651H33QqQq%QqQ%%%%%%%%%%%%%%%%%%%%%%%%%Qq%%%%%Q%%qQ%%%%%%%%%Qq%Qq%%Qq%QqQq%
2644H49Qq%%QqQ%qQ%qQ%%%%%qQ%%%%%%%%%%%%%%%%%%%Q%q%Qq%%%%Q%qQq%Q%qQ%qQ%%%%%%%
2637H65%%%%%%%%%%%Qq%%Q%qQ%qQ%%%%%%%%%%%%%%%Qq%%%QqQ%%q%%%%%Qq%QqQ%%%%%%%%%%
2631H81%%%%%%%%%%%Qq%%%Q%qQqQ%%%%%%%%%%%%%%%Qq%%%%%%Qq%%%%%Qq%%%%%%%%Q%%%%%%
2624H97%%%%%%%%%%%%%%%%%%Q%%%%%qQ%%%%%qQ%Qq%%%%Q%q%%%%%%Qq%%%%Q%%%%%qQ%%%%%%
2618I13%%%%Qq%%%%QqQq%%Q%qQ%%qQ%%qQ%%%qQ%%%%%%%%%%%%%%Qq%%Q%%qQ%%%%%%%%%%%%%
2611I29%%%%%%%%%%%%%%QqQq%%Q%%%%%%%%%%%%%qQ%%%Qq%%Q%q%Qq%Q%%%%%%%%%%%%%%%%%%
2604I45%%%%%%Qq%%%Q%%qQ%%%%%%%%%%%%%%%%%%%%%%QqQqQ%%%%%%%%%%%%%%%%%%%%%%%%Q%
2598I69qQ%qQ%%%%%%%%%%%%%%%%%%%qQ%Qq%%QqQ%%%%%%%%%%%%%%%%Qq%QqQqQq%%Q%q%Qq%%
2591I77Q%%%%%%%%%%Qq%Q%q%%%%%Qq%Q%%qQ%%%%%%%%%%%%%%%Qq%Q%%%%%qQ%%%%%qQ%%%%%%
2585A001%Q%q%Qq%Qq%%%%Qq%Q%%%%qQ%%%%Qq%%Q%q%Q%%%%%%%%%%%%%%%%%%%%%%%Qq%%qQ%Q
2578A025%J6k4Q%%%Qq%%%%%%%%%%%QqQqQ%qQ%%%%qQqQ%qQ%Qq%%%%%%%%Qq%K4k4%%Q%j6K4q
2572A041%J6%l2K4o4M0%k4O4m0M0k4M0qj6j6J6%j6%J6k4K4qq%J6j6QQqJ6j6%Q%%qQqJ6j6%
2568A049%Q%%%%qQ%%%%%%%%%%qQ%QqQ%q%%%Q%%%%%%%%Q%%qQq%%Q%q%QqQ%%%%%%Qq%Q%q%Qq
2562A073Q%qQ%%%%%qQ%%%%%%%%%%%%%%QqQq%%%Q%%%%%%%%%%%%%%%%%%%Q%qQ%%%%%%%%%%%%
2555A097%%%%%%Q%q%QqQ%qQ%%%%%%%%%%%%%%%%Q%%qQ%%qQ%%%%%%%%%%%%%%Q%%%%%%%%%Qq%
2549A121Qq%%%%%%Q%qQq%QqQ%q%%Q%qQ%%%%%%Q%%qQqQ%%%%%%%%%%%%%%%Q%%qQqQ%%%%%%%%
2542A145%%%%%Qq%%Q%%%%qQ%%%%%%%%%%%%%%%%%%Qq%%Q%%%%%qQ%%%%%%QqQ%%%%%%%%%%%%%
2536A169%%%%%QqQ%%%%%%qQ%%%%%%%%%%%%%QqQ%qQqQ%%%%%%%%%%%%%%%%%Q%%%%%%%%%%%Qq
2529A193%%Q%%%%%%%%%%%%%%%QqQq%%Q%%%%qQqQ%%%%%Qq%Qq%%%Qq%Q%%%%%%%%%%%Q%qQq%%
2523A217Q%Qq%%Qq%%%%%%%%%Q%%%%%%%%%%%%%QqQq%Q%%%qQ%%%%%Qq%%%%%%%%%%%Q%%%%%%Q
2516A257q%%%Qq%%Q%qQ%%%%%%%Qq%%Qq%%Q%%%%%%%%%%Qq%Q%%%%q%Q%%%%%%%%%Q%q%QqQ%%%
2510A281%%%%%%%%%%%%Q%%%%%%%%%%QqQq%%%Q%%%%%%%%%%%%QqQ%%q%%Q%%%%%%%%%%%%Q%%%
2503A313%%%%%%%%%%%QqQq%Q%%%%%%%%%%Qq%%Q%%%%%%%%%%%Qq%%Q%%%%qQ%%%%%Qq%Q%%qQq
2497A337Q%%%%%%%%%Q%q%%%Q%%%%%%%%%%Qq%%Q%%%%%%%%%%%%Qq%Q%%%%%%%%%%Q%q%%Q%%%%
2490A377%%%%%%%%%Qq%%Q%qQ%%%%%%%%%Qq%Q%%%%%%%%%%%%%QqQqQ%%%%%%Q%%q%Q%%%%%%%%
2484A409%%%QqQqQ%%qQ%%%Qq%QqQ%%%%%%%%%%%%QqQ%%%%%%Q%%%q%%%Q%%qQ%%%%%%%%%%%%%
2477A441Q%qQ%%%%%%%%%QqQqQ%%%%%%Q%qQ%%%q%J6qQj6QQqQ%qQ%qQ%%%QqQ%%%%%%qQ%%Qq%
2471A481%%%Q%%%%%%%%%%%Q%%%%%%%%%%%%%%Q%%qQ%%%%%%%QqQ%%%%%%%%%QqQq%Q%%%%%Qq%
2465A521Q%%%%%%%%%%%%%Qq%Q%%%%%%%%Qq%Q%%%%%%%%%%QqQ%%%%%%%%%QqQ%%%%%%%%%%%%Q
2458A569qQ%%%%%%%%Q%q%Q%qQ%%%%%%QqQ%%%%%%%%QqQ%%%%%%%%%Q%qQ%%qQ%%%%Qq%%Q%%%%
2452A609%%%%%Qq%Q%%%%%QqqQQqQqQ%qQQq%%Q%%%%%%%Q%qQqQ%%%%%%%%Qq%Q%%%%%%%%QqQ%
2445A657%%qQ%%%%%Q%%%%%%%%%%%%Q%%%%%%%%%QqQ%%%%%%QqQqQ%%%%%%%Qq%Q%%%qQ%%%%%%
2439A697%Q%%%%%Qq%%QqQ%%%%QqQqQ%%%%%%QqQqQ%%%%%QqQ%qQ%%%%Qq%Q%%%%%%%%%%%Q%%%
2432A753%%Q%qQqQ%%%%Qq%%QqQ%%%%Qq%QqQ%%%%QqQqQ%%%%%%%%QqQ%%%%%%%Q%%%%%%%%%Q%
2426A809%%%%%%%J6j6QqQ%%%QqQqQ%%%%%%%%Q%%%%%%%%%%Q%%%%%%%Q%%%%%%%QqQqQqQ%QqQ
2419A865%qQ%%%%%%%%%%Q%%%%%%%%Q%%%%%%Qq%Q%%%%%Q%%%%%%%%Q%%%%%%%%Q%q%Q%%%%QqQ
2413A921%qQ%%%%%QqQ%%%%%Q%%%%%%%%Q%%%%%%%%Q%%%%%%%Q%%%%%%Q%%%%%%%QqQq%Q%%%%%
2406A977%Q%%%%%%%%QqQ%%%%%%Q%%%%%%%Q%%%%%%Q%%%%%%Q%%%%%%%Q%%%%%%%%%%%J6qQqQ%
2400B049qQ%%%%%%%%%Q%%%%%Q%%%%%%%Q%%%%%%Q%%%%%%%%Q%%%%%Q%%%%%%%Q%%%%%%%%%Q%%
2394B113%%Q%qQqQ%%Q%qQ%%%QqQ%%%%%QqQ%%%%QqQ%%%Qq%%Q%%Qq%Q%%%qQQ%q%Q%%%Q%%%%%
2387B185%%%Q%%%%%%Q%%%QqQ%%%%%%Q%%%%%QqQ%%Q%q%%Q%%%%Q%%%%QqQ%%%%%%Q%%%%%%Q%%
2381B265%%%%Q%%%%QqQ%%%QqQ%%%%%%Q%%%%Q%%QqQ%q%%QqQQj6J6Qj6%QJ6j6qQ%QqJ6%%%%%
2375B337%%Q%%%Q%%%%%%Q%qQ%%%%Q%%%%%%Q%%%%Q%%%%%%Q%%%Q%%%%%Q%%%%%%Q%%%%%%%Q%%
2368B425%%%Q%%%%Q%%%%%Q%%%%%%Q%%Q%qQ%%%Q%%%%Q%%%%%%%Q%%%QqQqQQqQqQ%%QqQ%%%%Q
2362B521%%%%QqQ%%%%Q%%%%Q%%%%%Q%%%%%Q%Q%qQ%%%%%QqQ%%Q%%%%%Q%%%%Q%%Q%%%%%%Q%%
2355B617%%QqQ%%%%%%Q%%Q%%Q%qQ%%%%%Q%Qq%Q%%%%Q%%Q%%%%Q%%%%QqQ%%%QqQ%%%Q%%%%Q%
2349B721%%Q%%%%%Q%%%Q%%%QqQ%%%%Q%%Q%%%%QqQ%%%Q%%%%Q%%%Q%%%Q%%%%%Q%%%%Q%%%%Q%
2342B833%%%%Q%%Q%%%Q%%%%QqQ%Q%%%%%Q%%QqQ%%%%Q%%Q%%%%Q%%%Q%%%QqQ%%Q%%QqQ%%%Q%
2336B953%%Q%%%%%Q%%Q%%QqQ%%Qq%Q%%Q%%%Q%%Q%%QqQ%%Q%%%QqQ%%%Q%%QqQ%Q%%%Q%%%%Q%
2329C081%Q%%%QqQ%Q%%%%%QqQqJ6%QqQqQ%Q%Q%%%%Q%%%%%Q%Q%%%Q%%Q%%%%%QQqQ%%Q%QqQ%
2323C217%%Q%Q%%%QqQ%QqQ%%Q%%QqQ%Q%%%Q%%Q%%%%%Q%QqQ%Q%%%%Q%%QQ%%%%%Q%Q%%%%Q%Q
2316C369%%%%Q%%Q%%QqQ%%Q%Q%%Q%%%Q%%%Q%%%Q%%Q%%Q%%%Q%%Q%%Q%%%%QQ%%%Q%%%Q%Q%%Q
2310C529qQ%Q%%%Q%%%Q%%Q%Q%%Q%%%Q%%Q%%%%Q%Q%Q%%%Q%%Q%%%Q%%Q%Q%%Q%%%Q%%Q%QqQQq
2303C689Q%Q%Q%%%Q%Q%%%Q%%Q%%Q%%%Q%Q%%%Q%QQqQ%%Q%Q%%Q%%%Q%%Q%%QQ%%%Q%%Q%Q%%Q%
2297C881%Q%%Q%Q%%%Q%Q%%Q%%Q%Q%%%Q%%J6%%%Q%%Q%Q%%Q%%Q%%Q%%Q%Q%Q%%Q%%Q%Q%%Q%%Q
2291D081%Q%%%Q%Q%Q%%Q%%Q%Q%Q%Q%%%QQ%%%Q%Q%%Q%Q%Q%%Q%Q%%Q%Q%%QQqQQ%%%J6qQ%Q%%
2284D289Q%Q%%QQ%%Q%%Q%QQ%%%QQ%%Q%Q%%QQ%%Q%%Q%Q%Q%Q%Q%Q%%Q%Q%qJ6QqJ6%QqQQ%%Q%
2278D521QQ%Q%%Q%%Q%Q%Q%Q%Q%Q%Q%%QQ%%Q%Q%Q%Q%Q%%QQ%%Q%QQ%%Q%Q%Q%Q%Q%Q%Q%%QQ%%
2271D777Q%QQ%QQ%%Q%Q%QQ%Q%%Q%QQ%%QQ%%Q%QQ%Q%%QQ%Q%Q%Q%Q%Q%Q%QQ%%QQQ%%Q%QQ%Q%
2265E065Q%Q%Q%QQ%Q%QQ%%Q%QQQ%Q%Q%%QQ%Q%Q%QQQ%%QQ%%QQ%QQ%QQ%%Q%QQ%Q%QQQ%Q%QQ%
2258E377Q%Q%QQ%Q%Q%QQ%QQ%Q%Q%J6qQQQ%J6%Q%%Q%QQ%%J6Q%QQ%%J6%QQ%Q%QQ%QQ%QQ%QQ%
2252E697Q%QQQ%QQ%Q%QQQ%Q%J6%Q%Q%QQQQ%Q%QQQ%Q%Q%QQQQ%Q%QQQ%J6%Q%QQ%J6%QQ%QQQ%
2246F057QQ%QQQ%QQQ%QQ%QQ%J6%Q%J6%Q%QQQQQ%QQ%QQQ%QQQ%QQQ%J6%Q%J6%QQQ%QQQ%QQQQ
2240F449Q%QQQQQ%QQQQQ%QQ%QQQQQQ%QQQQQ%QQQ%J6%QQQQ%QJ6%QQQ%QQQQQQQ%QJ6%QQQQQQ
2234F889Q%QQQQQQQQ%J6%QQQQQ%QJ6%QQQQQQQ%J6Q%QQQJ6%%J6Q%J6%J6QJ6%QQ%J6QQ%QJ6%
2228G313QQQQQQQQQJ6Q%QQQQQQQQQQQQQQQQQQQQQQJ6%QQJ6QQQQQQQQJ6%QQJ6%QJ6Q%J6QQQ
2222G817QQQQQJ6%J6QQQQJ6Q%QJ6QQQQQQJ6QQQQQQQJ6QQQQJ6%QJ6QQQJ6QQQQQQQQJ6QQJ6%
2217H329J6QJ6QQQQQJ6QQQJ6QQQQJ6QQQJ6QQQJ6QQJ6QQQQJ6QQJ6QQJ6QQQQJ6QJ6%J6J6%J6
2212H857J6QQQQJ6QQJ6QQJ6QJ6QQQJ6QJ6QQQJ6J6QQQJ6QJ6QJ6QJ6QQJ6QJ6QQJ6QJ6QQJ6QJ6
2207I409QJ6QQJ6QJ6J6QJ6QQK4QQQJ6QJ6J6QQJ6QQJ6J6J6QJ6QQJ6J6QJ6J6QJ6QQJ6J6QJ6Q
2203I961J6J6QJ6QJ6J6QJ6QJ6J6QJ6QJ6QJ6J6J6QJ6J6QJ6J6J6QJ6QJ6QJ6J6J6QJ6J6J6QJ6
2199A0505QJ6J6J6QJ6J6J6QJ6J6QJ6J6J6J6QJ6J6J6J6QJ6J6J6J6QJ6J6J6J6QK4QQK4J6QJ6
2195A1057J6J6J6J6J6J6QK4QK4%J6K4J6J6QK4QJ6J6J6J6J6J6J6J6J6J6J6J6J6J6J6J6QK4Q
2192A1625K4J6J6J6J6J6J6J6J6J6J6J6K4QJ6J6K4J6J6J6J6J6J6K4J6J6J6QK4QK4K4%L2J6K4
2188A2241QQK4K4QM0J6k4L2K4J6QL2K4K4QL2QJ6K4QJ6L2J6J6K4QK4J6J6J6K4J6J6K4J6K4J6
2185A2921J6K4K4J6J6J6K4J6J6J6K4K4J6K4J6K4J6K4J6K4J6K4J6K4J6J6L2QK4J6L2QK4L2L2
2181A3633j6K4L2J6J6K4J6K4K4J6L2L2J6K4J6J6L2QJ6L2QL2K4J6K4L2QK4K4K4K4K4J6K4K4
2178A4361J6K4J6K4K4L2J6K4K4K4J6K4L2J6L2J6J6K4L2K4J6K4K4K4L2J6L2J6K4K4K4K4K4K4
2175A5145K4K4K4K4K4K4L2J6K4L2K4K4K4K4K4K4L2K4K4K4K4K4L2K4K4K4K4L2K4K4K4K4L2K4
2172A6001K4L2K4L2K4K4L2K4K4L2J6L2K4L2K4L2K4L2K4L2L2K4K4L2K4K4L2K4L2L2K4L2L2K4
2168A6937K4L2L2K4L2L2K4K4M0K4L2L2K4L2L2K4L2L2L2K4L2L2L2L2K4L2L2L2L2L2L2K4L2L2
2165A7953L2L2L2L2L2L2L2L2L2L2L2L2L2M0K4M0K4L2M0L2L2L2L2M0L2L2L2L2L2M0L2L2M0L2
2162A9073L2L2M0L2L2M0L2M0L2M0L2L2M0L2M0L2M0L2M0L2M0M0L2M0L2M0M0M0L2M0M0L2M0M0
2159B0305L2M0M0M0L2M0M0M0L2M0M0M0M0M0M0M0M0M0M0M0L2M8M0L2M0M8M0M8L2M8M0M0M0M8
2155B1657M0M0M0M0M8M0M0M8M0M0M8M0M8M0M0M8M8M0M8M8M0M0M8M8M0M8M0M8M8M8M0M8M0M8
2152B3145M8M8M8M8M8M0N6M0M8M8M8N6M0M8M8M8N6M0N6M8M8M8M8M8N6M8M8M8N6M8N6M8M8N6
2149B4809M8N6M8N6N6M8M8N6N6N6M8N6M8N6N6N6M8N6N6N6M8O4M8O4M8N6O4M8N6O4N6N6N6N6
2146B6657N6N6N6O4N6N6N6O4O4N6O4N6N6O4N6O4N6O4O4O4N6O4N6O4O4O4O4O4O4O4O4N6P2O4
2142B8729O4O4O4O4O4P2O4O4O4P2O4O4O4P2O4P2P2O4P2P2O4P2O4P2P2P2O4Q0P2O4P2P2P2P2
2139C1049Q0P2P2P2P2P2P2Q0P2P2Q0Q0P2P2Q0P2Q0P2Q0Q0Q0Q0P2Q8Q0P2Q0Q0Q8P2Q0Q8Q0Q0
2136C3673Q0Q8Q0Q8Q0Q8Q0Q8Q0Q8Q0Q8Q8Q8Q0R6Q0Q8Q8Q8Q8R6Q8Q8Q8R6Q8Q8Q8R6Q8R6R6R6
2133C6657Q8R6Q8R6R6Q8J12Q0J04R6R6J04R6R6R6J04J04R6J04R6J04J04R6J04J04J04J04J04
2130C9417J04J04J04J04J12J04J12J04J12J04J12J04J12J12J12J12J12J04J20J04J20J12J12
2128D1929J20J12J20J12J20J20J12J20J20J20J20J20J20J20J20J28J20J20J28J28J20J28J28
2126D4705J20J28J28J28J36J28J28J28J36J28J36J28J36J28J36J36J36J36J44J36J36J44J36
2123D7761J36J44J36J44J44J44J44J44J44J52J44J44J52J52J44J52J52J52J52J52J52J52J52
2121E1145J60J52J60J60J60J52J68J60J60J60J68J60J60J68J68J60J76J68J68J68J68J76J76
2119E4921J68J76J76J76J76J76J84J76J84J76J84J84J84J84J84J84J92J84J92J84K00J84K00
2117E9129J92J92K00J92K00K08K00J92K00K08K08K00K08K08K08K08K08K16K16K08K16K16K16
2115F3849K16K24K24K16K24K24K24K24K32K24K32K32K32K40K24K40K40K40K40K40K40K48K40
2112F9169K48K48K48K56K48K56K48K64K56K56K64K56K64K72K64K64K72K72K72K72K72K80K80
2110G5201K80K80K88K80K88K88K88K88K96K96K96K96L04L04K96L12L04L04L20L12L12L12L20
2108H2065L20L20L28L28L28L20L44L36L28L36L44L44L44L36L52L52L52L52L60L60L60L68L60
2106H9937L68L76L68L76L76L84L84L76L92L92L92L92M00M00M00M08M08M08M16M08M24M16M24
2104I9025M32M24M32M40M32M48M40M48M48M56M56M56M64M64M72M64M80M80M80M80M96M88M88
2101A09593N04M96N12N04N12N20N20N20N28N28N36N36N44N52N44N60N52N68N68N68N76N76
2099A21417N84N84N92N92O08O00O08O16O24O24O24O32O40O40O48O56O56O56O72O80O72O80
2097A35305O96O88O96P04P12P20P20P28P36P36P44P52P60P68P68P76P76P92P92Q00Q16Q16
2095A51801Q16Q32Q32Q48Q48Q56Q64Q72Q80Q80Q96R04R12R20R20R36R36R52R60R68R76R84
2093A71593R92J008J008J016J032J040J048J064J056J080J088J104J104J112J128J144J144
2091A89761J160J176J176J200J200J224J224J240J256J264J280J288J304J320J320J352J344
2090B11089J368J392J392J416J424J440J448J472J488J504J520J528J552J560J584J600J616
2088B36393J632J648J672J680J704J728J744J760J784J800J824J840J864J880J912J928J944
2087B66737J976K000K016K040K064K096K120K136K168K192K216K248K280K296K336K352K392
2085C03665K416K448K480K520K536K576K608K648K672K720K744K792K816K864K888K944K968
2083C49305L024L072L104L128L200L232L280L336L360L424L472L528L576L624L680L736L792
2082D06873L848L912L968M024M096M152M224M288M352M416M504M568M648M712M800M880M960
2080D81225N040N128N224N304N400N496N592N688N792N904O000O120O224O352O464O584O712
2078E80249O848O976P112P248P400P552P696P856Q024Q184Q360Q536Q728Q904R112R296R520
2077G17601R728R952J0176J0416J0664J0904J1176J1448J1728J2016J2320J2632J2960J3296
2075H77017J3640J4008J4384J4776J5192J5608J6056J6512J7000J7496J8024J8576J9144J9736
2074A107169K0368K1024K1712K2432K3192K3984K4816K5704K6624K7592K8632K9704L0864
2073A433817L2072L3360L4720L6160L7704L9328M1072M2912M4896M7008M9272N1696N4296
2072A978313N7096O0112O3344O6872P0664P4776P9256Q4128Q9440R5248J01640J08632J16344
2070C045865J24864J34296J44784J56456J69527J84185K00688K19344K40527K64681K92343
2069E177560L24184L61040M03928M54137N13311N83528O67488P68672Q91696J042720J229992
2068A2418256J464824J762872K146055K645632L306583M194394N404662P075816R400438J2617443
2067F2436975J6922514K2131169K6821114K7190327J8216223O7037j8082265k7056360k6686604
2067A01960130k1995538j6785316j2478295r258974o931641n257391m043591l151792k486367
2066A9571225j981801j593056j288856j047216q52392o93064n60872m49568l54464k71944
2065A0477992j99200j33967p4481j9240L3016Q3376J32792J82200K32440K84392L38944L97049
2064A1735313M59759N28272O03928O88352P83480Q91600J015576J158920J326080J522575
2063B0713855J755592K034320K370793K780968L286054L914984M707257N718047P025089Q739660
2062F3046619J1022805J4109713J8343997K4219564L2408307M3684156N8457386P5201317
2061C40493864Q6834224P7426959L2510938l2425718p7341539q6748279p5114746n8369859
2060B07265844m3595476l2318194k4127772j8250261j4013728j0924263q638240o920466n609820
2059D2867624m595048l798320l164538k653999k237864j894776j608776j367727j162344r85376
2058A9398856q31152o95143n73641m63673l62687k68544j79352r3424r192P4848J60192K48408
2057A6405496L41095M40153N47576O65839P97784R46889J117439J314785J545688J818863
2056B5941607K145536K540559L023641L621358M370112N320306O542791Q138576J0253388
2055G1897874J3099597J6987324K2364323K9848512M0186248N3913752P0142257Q3596129
2055D02036016Q1182209M7814220j0957580o2998153q4427749p9768175o4596596m9031655
2054A79252537l6481250k7182874k0478109j5654929j2155180r581780p660976o205423n086122
2053C8765894m213350l523922k972663k526872k162544j861815j611224j400529j221840j068991
2052A6202144r37152q22432p21768o32616n52904m80872m15088l54256k97280k43096j90823
2051A0553857j39521q8272l6152J7856P4880J36216K03400K78272L63160M60912N75288P11096
2050A3110992Q74735J074777J322880J635192K034256K552208L235264M150647N396561P115078
2049D2502590R503921J2808341J7229192K2577153K7392319K7772189J8561323o7514j8696847
2048A59582667k7908700k7530016k2716176j7369756j2950839r648735p262598n547264m304976
2047B4343607l393688k715254k202473j809145j503231j262184j069967r14953p88680o84816
2046G999216n98648n26576m65847m14305l70295l32464k99785k71400k46615k24872k05728
2045D042681j88784j73753j60343j48360j37600j27920j19176j11264j04088r7552r1584q6128
2044B496129q1136p6544p2320o8424o4816o1496n8408n5536n2872n0384m8064m5904m3872
2043A716353m1976m0200l8520l6952l5472l4072l2760l1520l0344k9224k8176k7176k6232
2042A283729k5328k4480k3656k2896k2144k1448k0776k0128j9520j8936j8376j7840j7320
2040A010881j6832j6368j5904j5472j5048j4656j4272j3888j3544j3192j2864j2544j2232
2039H24065j1936j1648j1376j1104j0848j0592j0360j0120r896r672r464r256r064q872q672
2038F71185q504q320q152p984p824p672p520p368p224p088o952o816o688o568o440o328o208
2036E47529o096n992n880n776n672n584n472n392n296n200n120n032m944m864m792m704m632
2034D57081m568m488m408m352m280m208m152m080m024l960l904l840l784l736l672l624l568
2033C88433l520l464l416l376l320l272l240l176l144l104l048l016k976k936k896k856k816
2031C34857k784k752k704k672k648k608k576k536k512k480k448k416k384k360k328k304k264
2030B92081k248k216k192k168k136k120k088k064k040k024j992j968j952j928j904j880j872
2028B57289j840j816j800j784j760j744j720j712j680j672j648j632j616j600j576j568j544
2026B28577j536j512j504j480j472j456j440j424j416j392j384j368j360j336j336j312j304
2025B04545j288j280j256j256j240j232j216j208j192j184j168j168j144j144j120j120j104
2023A84225j104j088j072j064j064j048j032j032j016j016j000r92r84r76r68r60r52r36r36
2021A64985r28r20r04r04q96q88q80q72q64q56q48q40q40q24q24q16q08q00q00p84p84p76
2019A46329p68p68p52p52p44p44p28p36p20p12p12p04p04o88o88o80o80o80o64o64o48o64
2017A30729o40o48o32o40o24o24o24o08o08o08n92o08n84n92n84n76n76n68n68n60n60n60
2015A17545n44n44n44n36n36n28n28n28n20n12n20m96n12n04m96m96m96m80m88m80m80m72
2013A06305m72m72m64m64m56m56m56m48m48m40m48m32m32m32m32m32m24m16m24m08m16m08
2011I6625m08m08m00m00m00l92l92l92l84l84l76l92l68l84l76l60l68l68l68l60l60l52l60
2009H7873l52l52l44l52l44l36l44l36l36l36l28l28l28l28l20l20l20l20l20l12l12l12l12
2006H0281l04l04l04l04k96l04k96k96k88k88k96k88k88k88k80k80k80k80k72k80k72k72k72
2004G3649k64k72k64k64k64k64k64k56k56k64k48k56k48k56k48k40k48k48k48k40k40k40k40
2002F7817k32k40k32k40k32k24k32k32k24k32k24k24k16k24k16k24k16k24k16k08k16k08k16
2000F2665k08k08k08k08k08k08k00k08k00k00k00j92k08j92k00j92j92j92k00j84k00j84j84
1998E8089j92j84j84j84j84j84j84j76j84j76j76j84j76j76j76j76j68j76j68j76j68j68j68
1995E4001j68j68j68j60j68j60j68j60j60j60j60j60j60j52j60j60j52j60j44j60j52j52j52
1993E0337j52j44j52j60j44j52j36j44j36j60j36j52j44j28j44j52j28j36j44j44j36j36j36
1991D7041j36j36j36j28j36j36j36j28j28j28j36j28j28j28j28j28j28j28j20j20j28j28j20
1989D4065j20j28j20j20j20j20j20j12j28j20j12j20j20j04j28j12j12j20j12j04j20j12j20
1987D1361j04j12j20j12j04j04j04j20r6j04j28q8j28j04q8j04j12r6j04j12j04r6j04j04
1984C8809j04r6r6j04r6j04r6j04r6r6r6r6r6r6r6q8j04q8j04q8r6q8r6q8r6q8r6r6q8q8q8
1981C5857q8r6q8q8q8q0r6q8q0r6q0q0q8q8q0r6q0q8q0q0q0q8q0q8q0q0q0q0q0q8p2q0q8p2
1978C2993q0q0q0p2q0q0q0p2q0p2q0p2p2q0p2p2q0p2p2p2q0p2p2p2p2p2p2p2p2p2o4p2p2p2
1975C0465o4q0o4o4p2o4p2p2o4p2o4p2o4o4o4p2n6q0n6p2n6p2o4o4o4o4o4o4o4n6p2o4n6o4
1972B8225o4n6o4o4o4n6o4n6o4o4n6n6o4o4n6n6o4m8o4n6n6o4n6n6n6n6n6n6o4n6n6n6n6n6
1968B6225n6n6m8n6n6n6m8o4m8n6m8o4m8n6m8n6m8n6m8n6m8n6m8n6m8m8n6m8m8n6m8m8n6m8
1965B4441m8m8m8n6m8m8m8m8m8m8m8m8m8m8m8m8m8m8m0m8n6m0m8m0n6m8m0m0m8m8m8m0m8m8
1962B2833m0m0m8m0n6m0m0m8m0m0m8m8m0m0m8m0m0m0m8m0m8m0m0m0m0m8m0m0m0m8m0m0l2m0
1959B1393m8m0m0m0m0m0m0l2m8l2m0m0m0m0m0m0m0m0l2m0l2m8l2m0m0l2m0l2m0m0m0l2l2m0
1955B0081m0m0l2m0l2l2m0l2m0m0l2l2m0l2m0l2l2m0l2l2m0l2l2l2m0l2l2l2m0l2l2m0l2l2
1952A8889l2m0k4m0l2l2l2l2l2l2l2l2l2l2l2l2l2l2l2l2l2l2l2l2k4m0k4l2l2k4l2m0k4m0
1949A7801k4l2l2k4l2l2l2l2k4l2k4l2k4l2l2l2k4l2k4l2l2k4l2k4l2l2k4l2k4l2k4l2k4l2
1946A6817k4l2k4k4l2k4l2k4l2k4k4l2k4k4l2k4l2k4k4k4k4l2k4l2k4k4k4k4l2k4k4k4l2k4
1942A5913k4k4k4l2k4k4k4k4k4k4k4k4l2k4j6k4l2k4k4k4k4k4k4k4k4k4k4k4k4k4k4k4j6l2
1939A5081j6k4k4k4k4k4k4k4k4j6k4k4k4k4k4k4j6k4k4k4k4j6l2k4j6k4j6j6l2j6k4k4j6k4
1936A4321k4k4j6k4j6k4k4k4j6k4j6k4k4j6k4j6k4k4j6j6k4k4j6k4j6k4k4j6k4j6k4j6k4j6
1933A3617k4j6k4j6k4j6j6k4j6k4k4qk4j6k4j6k4j6k4j6j6k4j6k4j6j6k4j6j6k4j6j6j6k4
1929A2961j6j6k4j6j6k4j6j6j6j6k4j6j6j6k4j6j6j6k4j6j6j6j6j6k4j6j6j6j6j6j6k4j6j6
1926A2361j6j6k4j6j6j6j6j6j6k4qj6k4qk4j6j6j6j6j6j6j6j6j6j6j6j6j6j6j6j6j6j6j6j6
1923A1785j6j6j6j6j6j6j6j6qj6j6j6j6j6j6j6j6j6qk4qk4qj6j6j6j6qj6j6j6j6j6j6j6j6
1919A1233qj6j6j6j6j6qj6qj6j6j6qk4qj6qk4j6qj6j6j6qj6j6qj6j6j6qj6j6j6qj6j6qj6j6
1916A0673j6qj6qj6j6qj6j6qj6j6qj6j6qj6j6j6qj6qj6j6qj6j6qqj6j6j6qqj6qj6j6qqj6j6
1912A0129qqj6j6qj6qj6qj6j6qqj6qj6qj6j6qqj6j6qqj6qj6qj6qj6qj6qqj6qj6qj6qj6qqj6
1907I585qj6qqj6qj6qqj6qj6qj6qqj6qqqj6qj6qqj6qj6qqj6qqj6qqqj6qqj6qqqqj6j6qqqj6
1902I033qqqqj6j6%j6qqj6%j6qqqj6qqj6qj6%qqj6qqj6qj6%j6qqqqqj6qqqqj6%j6qj6%j6q
1898H537qqj6%j6qqqqqj6qqqqqqqj6%j6qqqj6%qj6qqj6qq%j6qqqqqqqqj6%j6%qqj6qqqqqq
1892H041qqqqqqqj6q%j6q%qj6%j6q%j6qqqq%j6qqqqqqqqqqq%j6%j6q%j6qqj6J6j6qqqqj6%
1887G601qqqqqqqqqqq%j6qqq%qqqqqqqqqqqq%qj6%qqqqqqqqqq%qqqqq%qqqqqqqq%qqqqqq%
1881G121qqqqq%qqqqqq%qqqqqq%qqqq%qqq%qqqqq%qqq%j6%qq%j6%qqq%j6%qq%qqqq%qqq%q
1874F697qqqq%qq%qq%j6%qq%qq%qqqq%qqq%qqqq%qq%q%qqqq%qqq%qqq%q%j6%qq%qq%q%qqq
1868F305%qqq%q%qqq%qq%q%qqq%q%qq%j6%%qqq%qqq%q%qq%qq%q%j6Qj6%q%q%qqq%qq%q%qq
1862E961%q%qq%qq%qqq%q%q%qq%q%q%qq%qq%q%qq%qq%q%qq%qq%%qq%qq%%qq%q%q%qq%qq%q
1855E633%q%q%q%q%qq%qq%%q%q%qq%%qqq%%qqq%q%%qq%q%%j6Qqq%q%q%qq%q%q%q%qq%%q%q
1849E345%q%q%qq%q%q%%q%qq%%q%q%q%q%q%q%qq%q%%qq%%qq%q%%q%q%q%%q%q%qq%%qq%%q%
1843E081q%q%q%q%q%%q%q%q%q%%q%qq%%q%qQj6%%q%qq%q%%q%%q%q%q%%q%q%q%%qq%%q%q%%
1836D841q%%q%q%q%q%q%%q%q%%q%q%q%%%qq%q%%q%%q%q%%q%q%q%%q%q%%q%q%%q%%q%q%%q%
1830D617%q%q%%qq%%q%%%q%q%%qqQqqQqq%%q%%q%%q%%q%q%q%%q%%q%%q%%q%q%%q%%q%%q%%
1823D417q%q%%q%%q%%q%%q%q%%%qq%%%q%%qqQq%%q%q%%q%%q%qQqq%%%q%%q%%%q%q%%%q%q%
1817D225%%%q%q%%q%%q%%q%%q%QqqqQq%%%qq%%q%%q%%%%q%%q%%q%%q%%%q%q%%%q%%q%%q%%
1810D057q%%%q%%q%%%q%q%%%%q%q%%%q%%%q%%q%%q%%%q%%q%%%q%%%q%%%q%%q%%%q%q%%%q%
1804C897%%qqQq%Qqq%%%q%%%q%%q%%%q%%%qQq%q%%q%%q%%%%q%%q%%%%%q%%q%%q%qQ%j6%Qq
1797C753%%qQj6%Q%%%qq%%%q%%%q%%%q%%%%q%%q%%%q%%%q%%qQqQqqQqq%%Qq%%%j6Qq%%%%q
1791C625q%J6j6Qk4%qK4m8J6J6J6l2%qQJ6qqQ%qq%%Qq%%q%%%%q%%q%%q%qQ%%q%%%q%%Qqq%
1786C521%%%qQqq%Qq%%%qqQ%q%%%%q%%%q%%%%q%%q%%%%%%q%%%q%%qQq%%%%%q%%%q%%%qQq%
1779C409%q%%Qj6Qq%%%%qq%Qq%%%%q%%%%%%q%%%%q%%%qQq%qQq%%%q%%%%q%%%%%q%%%%qQq%
1773C305qQq%%%%qQ%q%q%%%qQq%%%%%q%%%q%%%%%qQq%%%q%%%q%%%%%%q%%%q%%%%%%q%%%%q
1766C201Qq%qQqQq%%q%%%%%q%%%%qQ%q%%%q%%%%%%q%%%%q%%%%q%%%QqqQ%q%%%%q%%%%%%q%
1760C113%qQ%q%%qQq%%%%%%q%%%%%q%%%%%%%%%q%%%q%%%%q%%%%%%%%q%%%%q%%%%qQ%q%%%q
1753C025%%%%%%%%%q%%%%%%q%%%qQq%%%%%q%%%%qQ%%q%%%%q%%%%%q%%%Q%j6%Qq%%%%%%q%%
1747B953%%%%q%%%%%%q%%%%%%%q%%%%%qQq%%%q%Qq%%%q%Qq%%%%%q%%Qq%%%q%Q%q%Qj6QqQq
1740B881%%%%%%%q%%%%q%%%%q%QqQ%q%%qQq%Qq%%%%%%q%%%%%%qQq%%qQ%%%q%%%%%q%Qq%%%
1734B817qQ%q%%%%%%%q%%%%%%%%qQq%%%%%q%%%%%%%%qQq%%%%%%%%%q%QqqQq%%%%%%%%q%%%
1727B753%%%%%%q%%%%%qQ%q%%%%%%%qQq%%%%%%%%%q%%%%%%%%%q%%qQqQ%q%%%%%%%qQ%q%%%
1721B697%%%%q%Q%q%%%%%%q%%%%%qQ%qQq%%%%%%%%qQ%j6Q%q%Qq%%%%%%qQ%q%%%%qQ%%qQ%q
1715B641%%%%%%qQ%%%%q%%%%%%qQqQq%%%%%%qQq%%%%%%%%q%%Q%q%%%%%%%%q%%%%%%%%%%%%
1708B601q%%%%%%%%%%q%%%%%%%%%%qQ%q%%Qq%qQ%%%%qQq%%%%%%%%q%%%%%%%%qQ%q%%%%%%%
1702B553%%qQq%%Qq%%%%%%%%%q%%QqqQ%Qq%%q%%%%%%%%%%%qQq%%%%%%%%%%%qQq%%%%%%%%%
1695B513%%%q%Q%q%%%%%%qQ%q%%Qq%Qq%qQqQQj6%%%%%qQ%%%%q%%Qq%%%%%%%%%%%q%%%%%%%
1689B473%%%%%%%q%%%%%%%%%%%%%%qQ%q%%%%%%%%qQ%q%%%%%%%%%%%%%%%%q%%%%%%%%%%%%q
1682B433%Qq%%%%%%%%%%q%Q%%q%%%%%%%%%%%%%%q%%%%%%%%%%%%%qQ%q%%Qq%%%%%%%%%%q%%
1676B401%Qq%%%%%%qQ%%%%qQq%%%%%%%%%%%%%%%qQ%%%%%%q%%%%%%%%%%%%qQq%%%%%Qq%%%%
1669B377%%%%%%%qQ%q%Qq%%%%%%%%%q%Qq%Q%q%Qq%%%%%%%%qQ%%q%%Qq%%%Qq%%qQ%%%%qQq%
1663B345QqQ%q%%%%%%%%%%%%%%%%%%%%%q%Qq%Qq%%%%%%%%%%%%%%%%qQ%q%%%%%%Qq%%%%%%Q
1656B337q%%qQq%%%%%%%%%%%%%%%%%qQqQ%qQqQq%%%%%%%%%%%%qQ%%%q%%%%Qq%Qq%%%%Qq%%
1650B305%%%%%%%qQ%%%%q%%QqQ%q%%Qq%%%%%%%%%%%%%%q%%%Q%q%%Qq%%%%%%qQ%%%%%%qQ%%
1643B289%%qQ%%%%qQq%Q%q%Qq%%%%%%%%%%%%q%QqQ%%qQq%Q%q%%%%%%%%%%%%%%%%%%%qQ%%%
1637B273%%%%qQq%%%%Qq%%%Qq%%%%%%%%qQ%%%%%%%q%Q%%q%QqQq%%QqQq%%%Qq%%%%%%%%%%%
1630B257%%%%%%%%%%q%%%QqQ%q%%%%%%%%%%%%%%%%%%%%%%%%%%%qQ%%%%%%%%q%%%%Qq%%%%%
1624B241%%%%%%%%%%%%%%%%%%%%%%%%%%qQ%qQ%qQ%%%q%%%%%%%qQ%%%%%%%%%%%Qq%%%%%%%%
1617B233%%%%%%%%%%%%%%%%qQ%%%%q%QqQ%%%q%Qq%%%%%%%%%%%%%%%%%%%%%%%%%%%%%%%%%%
1611B225%%%%%%%%%%%%%%%%%%%%%%%q%QqQq%Qq%%Q%q%Qq%Qq%Qq%%Qq%%%%%Qq%%QqQq%%%%%
1604B217%Q%q%%%%%%%%%%%%%%%%%%%%%%qQ%%Qj6QqQ%%%Qq%%qQ%%%%%%%%qQ%%%%%%%%%%%%%
1598B217%%%%qQ%%%%q%%Q%qQ%%qQ%q%%Qq%Q%%j6J6Qk4QqJ6qQ%%q%%%Qq%%%%%Qq%%%%%%Qq%
1592B209%%%%%%%%%%%Qq%%%Qq%%%%%%%Qq%%Qq%%%%%%%%%%%%%%%%%%%%%%%%%%%%%%%%%%%%%
1585B209%%%%%%%%%%%%%%%%%%%%%QqQq%Qq%Qq%%%%%%%%%%%%%%Qq%%%%%%%%%%%%%%%%%%%%%
1579B209%%%%%%%%%%%Qq%%%%Qq%%Qq%%%%%%%%%%%%%%Qq%%%%Q%qQq%%%%Qq%Qq%Q%%qQq%%%%
1573B209Q%%%qQ%%%%%q%Q%%%%%%%%%%%%%%%%%%%%%%%%%%%%%%%%%%qQ%%%%%%%%qQ%%%%%%%q
1566B209Q%%%%%%%%%%%%%%%%%%%%%%%%%%%%Qq%%%%Q%%%%qQ%%q%%%Q%qQqQqQ%%qQ%%%%%%%%
1560B225%%%%%%%%%%%%%%%%%%%%%%%%%%%%%%%%%%Q%%qQq%%%%%%QqQ%%%%qQ%%%%%%%%%%%%%
1553B233%Qq%%%%Qq%%%%%%%%%%%%%%%%%%%%%%%%Qq%Q%q%%Q%qQ%%%%%%%%qQ%%%%%%%%%%%%%
1547B241%qQQj6J6q%%%%%%%%Qq%Q%q%Q%q%Qq%Q%%%%%%%%%%%%%%%%%%%%%%%%%%%%Qq%%%%%%
1540B249%%%Q%%q%%QqQ%%%%%%%%%%%%%%%%%%%%%%%%%%%%%%%Qq%Q%%%%%%%%%%%%%%%%QqQq%
1534B265%%%%%%%%%Qq%%%Qq%Q%%qQ%%%%%%%%%%%%%%%%%%%%%%%%%%%Q%qQqQ%%qQ%%%%%%%%%
1527B281%%%%%%%%%%%Qq%%%%Q%%qQqQ%%%%%%%%%%%%%%%%%%%%%%%%%%Q%%q%Q%%%%q%%Q%%%%
1521B297%%%%%%%%%%%%%%%Q%%%%%%%%%%%%%%%%%%%Qq%%%Q%q%QqQ%%%qQ%%%%%%%%%%%%%%%Q
1514B321%q%Q%q%Q%%%%%%%%%%%%%%%%%%Qq%%Qq%%Q%%%%%%%%%%%%%%%Qq%%Qq%%%%Q%%%%%%%
1508B337%%%%%%%%Qq%%%%Q%%%%qQ%%%%%%Qq%%%Qq%%QqQ%%qQ%qJ6j6J6q%%%%%%%%%%%Q%%%q
1502B353Q%%%%%%%%Qq%%Qq%%Q%%qQ%%%%%%qQ%%%%%%%%%Q%qQ%%%%qQqJ6%q%%%%%%%%%%%Q%%
1495B385%qQ%%%%%%%%%%%%%%%Q%qQqQ%%%%%%%%%%%Q%%qQq%Q%qQ%%%%%%%%Qq%Q%qQ%%%%%%%
1489B409%%%%%QqQq%Q%%%%%%%%%%%%%Qq%%%Q%%%%%%%%%Qq%%%%%%%%%%QqQ%%%%%%%%%%%%%%
1482B433%Q%%%%%%%qJ6q%%%%%%%%Q%%%%%%%%%Qq%%%%QqQ%qQ%%%%%%%%%Q%q%QqQ%%%%%%%%%
1476B465QqQqQ%qQ%%Q%q%%%%%%%Q%%qQ%%QqqQ%%qQ%Q%%%%%%%%%%%%%%%%%Q%%%%%%%%Qq%Qq
1469B497Q%%%%%%%%%%%Q%%qQqQ%%%%%%Qq%%%%%Qq%Q%%qQ%%%%%%%%%%Q%%%%%%%%%%%%%%%Q%
1463B537%qQ%%%%%%%%Qq%Q%%%%%%%Qq%Q%%%%%%%%%%%%Q%%%%%%qQ%%%%%Qq%Qq%%Q%%%%%%%%
1456B569%%Q%%%%%%%QqQ%q%%Q%qQ%%%%%Qq%Q%%%%%%%%%%%%%%Q%%%%%%%%%%%QqQ%%%%%%%Qq
1450B609%Q%%%qQ%%%QqQ%%%Qj6Q%%%Q%%q%%Q%%%%%%%%%%%%Q%%%%%%%%%%%%%Q%qQ%%%%QqQ%
1444B657%%%%%%%%%%%%Q%%%qQ%%%%%%%Q%%%%%%%%%%%%Q%%%%%%Qq%Q%%%%%%%%%%%Q%%%%%%%
1437B697%%%%%%%Q%%qQ%Qq%QqQqQ%%%%%%%Q%%%%%%%%%%Q%%%%%%%%%Q%%%%%%%%%%%%Q%%%%%
1431B745%%Q%%%%qQ%%%%Qq%Q%%%%%%%Q%%qQ%%%%Qq%Q%qQ%%%%%%%Q%%%%%%%%%QqQ%%qQ%%%Q
1424B801qqJ6qQ%%%Q%%q%Q%qQ%%%%%%%Q%%%%Qq%Q%qQ%%%%Q%%%%%%%%%Q%%%%%%%%Qq%Q%%%%
1418B849%%%%Q%%%%QqQqQ%%qQ%%%%%%%Q%%%%%%%%QqQ%%qQ%%QqQqJ6q%%%Q%%q%Q%%%Q%q%Q%
1411B905%%Qq%Q%%%%%%%%Q%%%%%%%%Q%%%%%%%Q%%%%%%Q%%%%QqQQk4QJ6%k4K4%%%%q%%%Q%%
1405B961%QqQqQ%%%%%%QqQ%%%%Q%%%%%%Qq%%%Q%%%%%%Q%%%qQ%%%Q%Qj6Q%K4j6J6j6qJ6%qQ
1399C025qK4k4Q%%qJ6%qQ%qJ6q%Qq%Q%%%%QqQqQ%%%%%Q%qJ6q%%%Q%%%%%%%Q%%%Qq%QqQ%%%
1393C081%Q%qQ%%%%%QqQ%%%%%%%Q%%%QqQ%%%%%%%Q%%%%%Qq%Q%%%%Q%%%%%%%QqQ%%%%%Q%%%
1387C153%%%Q%qQ%%Qq%Q%%%%QqQ%%%%%Q%%%%%%%Q%qQ%%%%Q%%%%%Q%qQ%%%Q%%qQ%%%%Q%%%%
1380C225%%Q%%%%%Q%qQ%%%Q%%%%%%%Q%%%Q%%%%%%%Q%%%%QqQ%%%%%QqQ%%qQ%Q%qQ%Qq%Q%%%
1374C305%Q%%%%%%Q%%%%%QqQ%%%%%Q%%%Qq%%Q%Q%qQ%%%%%%QqQ%Q%%%%%%%%Q%%%QqQ%%%%Qq
1367C385Q%%%%Q%%%%%Q%%%%%%Q%%QqQqQ%%%QqQ%%%%Q%%%Q%qQ%%%Q%%%%%%Q%%Qq%Q%%%%%Q%
1361C481%%%%%Q%%%%Q%%%%QqQ%%%Q%%%%%Q%%%%%%Q%%%%Q%Q%%qQ%%QqQ%%%%QqQ%%%%Q%%%Qq
1354C569Q%%%QqQ%%%Q%%%%QqQ%%QqQ%%%QqQ%%%Q%%QqQ%%%Q%%%%QqQ%%%%%Q%%%Q%%%%%%Q%Q
1348C681%%%%%Q%%%%%%Q%%%QqQ%%%QqQ%%%Q%%QqQ%%%Q%%%%Q%%Q%%%%%Q%%%%%%Q%%%Q%%%%%
1341C777Q%%%%Q%%%Q%%%%%Q%%%%%Q%%Q%%QqQ%%%QqQ%Q%%%%Q%%%QqQ%%%%Q%%QqQ%%%%Q%%%Q
1335C897qQQ%%%%%Q%%%Q%%%Q%%%%Q%%%%%Q%%Q%%%QqQ%%QqQ%%%Q%%%Q%%%Q%%%%Q%%Q%%%Q%%
1328D017%%%Q%%%%Q%%%Q%QqQ%%QqQ%QqQ%Q%%%%Q%%%Q%%%%Q%QqQ%%%Q%%%Q%%%Q%%%%QqQ%%Q
1322D145%%%Q%%Q%%%Q%%%%Q%QqQ%%Q%%%Q%%%%Q%%QqQ%Q%%Q%%%Q%%%%Q%Qq%Q%%Q%Q%%%QqQ%
1315D281Q%qQQ%%%%Q%%Q%%Q%%%%Q%%%Q%%Q%%%%Q%%%Q%%Q%%%Q%%%Q%%Q%%Q%%%Q%%%Q%Q%%%%
1309D425%QqQQqQ%Q%%QqQ%Q%%%Q%QqQ%%Q%%Q%%%Q%Q%%%Q%%%Q%%%Q%%Q%Q%%%Q%%%Q%Q%%%Q%
1303D585%Q%Qq%K4qqJ6q%QqQQqJ6qQ%%Q%%%Q%Q%%%Q%%Q%%%Q%%Q%%Q%%Q%%%Q%Q%%Q%%QqQ%%
1296D737Q%%Q%Q%%Q%%Q%%Q%%%Q%%Q%%Q%QqQ%Q%Q%%%Q%%Q%%Q%Q%%%Q%%Q%Q%%%%Q%%Q%Q%%%Q
1290D921%Q%QqQQ%%%Q%Q%%%%QQ%%%Q%%Q%%Q%Q%%Q%%Q%%Q%%Q%Q%%Q%%Q%%Q%%Q%Q%%QqQ%Q%Q
1283E113%%Q%Q%%%Q%Q%%QQqQ%Q%%Q%Q%Q%%%Q%%Q%%J6%%%Q%%%J6q%Q%Q%Q%Q%%Q%%QQqQQqQQ
1277E313%%Q%Q%%%QQ%%Q%Q%%Q%Q%%Q%%Q%%QQ%%Q%%QQqJ6%%%%Q%Q%%Q%QQ%Q%%%%QQ%%Q%Q%Q
1271E529%%Q%Q%Q%%Q%Q%%Q%Q%Q%%QQ%%Q%Q%%Q%%Q%Q%Q%%QQ%Q%%Q%Q%Q%%Q%Q%Q%Q%%Q%QQ%Q
1264E769%%%Q%Q%Q%Q%Q%%QQ%Q%Q%QqQQ%Q%Q%%Q%Q%QQ%Q%%Q%%Q%Q%QQ%%QQ%%Q%Q%Q%%QQ%Q%
1258F017%Q%QQ%%QQ%%QQ%%Q%Q%Q%QQ%%QQ%%Q%Q%Q%Q%Q%QQqQ%QQQ%QqJ6QqJ6%Q%%%QQ%%QQ%
1251F281QQ%Q%%Q%QQ%QQ%%Q%Q%QQ%%QQ%Q%Q%QQ%%QQ%Q%J6%%Q%%J6%Q%%Q%QQ%%QQ%QQ%%QQ%
1245F569QQ%Q%Q%Q%QQ%Q%QQ%Q%Q%Q%QQ%Q%QQ%Q%QQ%QQ%Q%Q%QQ%Q%Q%Q%QQ%QQQ%Q%QQ%Q%QQ
1239F897%Q%Q%QQQ%Q%QQ%QQ%Q%QQ%QQ%QQ%%QQQQ%%QQQ%Q%QQ%QQ%QQ%QQ%QQQ%Q%QQ%QQ%QQ%
1232G241Q%QQQQ%Q%QQ%QQ%J6%Q%QQ%Q%QQQ%QQ%Q%J6%Q%QQQ%QQQ%QQ%QQQQ%QQ%QQQ%QQ%QQ%
1226G609QQ%J6%Q%QQQ%QQQ%QQ%QQQQ%QQQQ%QQQQQ%%QQQQQQQ%QQ%QQ%QQQQ%QQQQQ%QQ%QQQQ
1219H025%QQQ%J6%QQQ%QQQQ%QQQQ%J6Q%QQQQQqJ6%QQQQQQQ%J6Q%QQ%QQQQQ%QQQQQQ%QQQQ%
1213H441QJ6QQ%QQQQQ%QQQQQQQQQ%QQ%J6QQQ%J6%J6%QQQQQQQQ%J6%QQQQQQQQQQQQQQ%QQQQ
1207H905Q%J6QQQQQQQQQQQ%J6Q%J6%J6%QQK4j6L2%qJ6QqL2%J6%%J6J6%J6%QQQJ6%J6%J6%Q
1202I313QQQQQJ6%J6%QJ6QQQQQQQQQQQQJ6QQ%J6%J6QQQQQQQQJ6QQQQQQQQQJ6QQQQQQQJ6%Q
1197I817QJ6QQQQQQQJ6%J6QQQJ6QQQQQJ6QQQQQJ6QQQQQJ6QQQQQQJ6QQJ6QQQQQQJ6QQQQJ6Q
1191A0353QJ6QQQQQJ6QQJ6QQQQJ6QQJ6QQQJ6QQQJ6QQQJ6QQJ6QQJ6QQJ6QQQQJ6QQJ6QJ6%J6
1186A0881QJ6QJ6%J6QJ6QQQJ6QJ6QQJ6QQJ6QJ6QQJ6QQJ6QQJ6QJ6QJ6QQJ6QQK4%J6QJ6QJ6Q
1182A1409J6QQJ6QQJ6QJ6QQJ6QJ6QJ6QJ6QQK4QJ6QQJ6QJ6J6QQJ6QQJ6J6QJ6J6QJ6QQJ6J6Q
1177A1953J6QJ6QJ6QJ6J6QJ6QJ6J6QJ6QJ6QJ6QJ6QJ6J6QJ6QJ6J6J6QJ6QJ6QJ6J6QJ6J6J6Q
1173A2489J6J6QJ6QJ6J6QJ6J6QJ6J6QJ6J6J6QQK4J6QJ6QJ6J6QJ6J6J6J6J6QJ6J6QJ6J6J6J6
1170A3041QJ6J6J6QJ6J6J6J6QJ6J6J6QJ6J6J6QL2QJ6QJ6J6J6J6J6QJ6J6J6J6J6J6QK4QJ6J6
1166A3609J6J6J6J6J6QJ6K4QJ6J6J6J6J6J6J6J6J6J6J6J6J6J6J6QK4J6J6J6J6J6J6J6J6J6
1163A4161J6J6J6J6J6K4QJ6J6J6K4QK4QK4J6J6J6J6J6J6J6J6K4J6J6J6J6J6J6J6J6K4J6J6
1159A4745J6J6J6K4J6J6J6K4J6J6J6J6K4J6J6J6J6J6J6K4K4QK4J6J6J6K4J6K4J6QK4J6K4J6
1156A5369QM0J6QK4J6K4QK4K4J6J6J6K4K4J6J6K4J6J6J6K4J6K4J6K4J6K4J6K4J6J6K4K4J6
1153A6041J6K4J6K4K4J6K4J6J6K4K4J6K4J6K4J6K4K4J6J6K4J6K4K4J6K4J6K4K4J6K4K4J6K4
1149A6737K4J6K4J6K4K4K4J6K4K4K4J6K4K4J6K4K4J6L2J6K4J6K4K4K4J6K4K4K4K4J6K4L2J6
1146A7481K4J6L2J6K4K4K4K4K4K4K4K4K4J6K4K4K4K4K4K4K4K4K4K4K4K4K4K4K4K4K4K4L2J6
1143A8281K4K4K4K4K4L2J6K4L2K4K4K4K4K4L2K4K4K4K4K4L2K4K4K4K4K4L2K4K4K4L2K4K4K4
1140A9137K4L2K4L2K4K4L2K4K4K4L2K4L2K4L2K4K4L2K4L2K4K4L2K4K4L2L2K4L2K4K4L2K4L2
1136B0065L2K4L2K4L2K4L2K4L2L2K4L2L2K4L2L2K4L2K4L2L2K4M0K4K4L2L2L2L2K4L2L2K4M0
1133B1065K4L2L2L2L2K4L2L2L2L2L2L2M0K4L2L2L2L2L2L2L2K4L2M0L2K4M0L2K4M0L2L2M0L2
1130B2145K4M0L2L2L2L2L2M0L2L2L2M0L2L2L2M0K4M0L2M0L2M0L2L2M0L2L2M0L2M0L2M0L2L2
1127B3305M0L2M0L2M0M0L2M0L2M0L2M0M0L2L2M0M0M0L2M0M0M0L2M0M0L2M0M0M0L2M0M0M0M0
1123B4577M0M0L2M0M0M0M0M0M0M0M0M0M0M0M0M0M0M0M0M0M8M0M0M0M8L2M8M0M0M0M0M8M0M0
1120B5953M8M0M0M0M8M0M0M0M8M8M8M0M0M0M8M0M8M0M8M8M0M8M0M8M0M8M8M8M0M8M8M8M0M8
1117B7457M8M8M0M8M8M8M8M8M8M8M0M8M8M8M8N6M0M8M8N6M8M8M8M8M8N6M8M8M8N6M8M8M8M8
1114B9097N6M8N6M8M8N6M8N6M8N6M8M8N6N6N6M8N6M8N6N6M8N6N6M8N6N6N6N6N6N6N6M8N6N6
1110C0905N6N6N6N6N6N6N6N6O4M8O4N6N6N6O4N6N6N6O4N6N6O4M8O4O4O4N6O4N6N6O4O4N6O4
1107C2889N6O4O4N6P2M8Q0M8O4P2O4N6O4P2N6P2N6O4O4O4P2O4O4P2O4O4O4O4P2O4P2O4O4P2
1104C5081O4O4P2P2P2O4P2O4P2P2O4P2P2P2O4Q0O4P2P2P2P2P2P2P2P2P2Q0P2P2P2P2Q0P2Q0
1101C7505P2Q0P2Q0P2P2Q0Q0P2Q0Q0Q0P2Q0Q0Q0Q0P2Q0Q8Q0Q0Q0Q0Q0Q0Q0Q0Q8Q0Q0Q8Q0Q0
1097D0193Q8Q0R6Q0Q0Q8Q0Q8Q8Q0R6Q0Q8Q8Q8Q8Q8Q8Q8Q8R6Q8R6Q0Q8R6R6Q8Q8R6R6Q8R6Q8
1094D3201R6R6R6Q8R6R6R6R6R6R6R6R6R6J04R6R6J04R6R6J04R6J04J04R6J04R6J04J04J04
1091D6049J04J04J04J04J04J04J12J04J04J04J12J04J12J04J12J04J12J12J12J04J12J12J12
1089D8521J04J20J12J20J04J20J12J12J20J12J20J12J20J12J20J20J20J20J20J20J20J20J20
1087E1201J20J20J28J20J28J20J20J28J28J20J28J28J28J28J28J20J36J28J36J28J28J28J36
1085E4113J36J28J36J28J36J36J36J36J44J36J28J44J36J44J36J44J36J44J44J36J44J52J36
1083E7289J44J44J52J44J52J44J52J44J44J60J44J52J52J52J52J52J52J60J52J60J60J52J52
1080F0761J68J52J60J60J60J68J60J60J60J68J60J68J68J68J68J68J68J76J60J76J68J76J68
1078F4569J76J76J76J68J84J76J76J76J84J84J76J84J84J84J76J92J84J84J92J84J92J84K00
1076F8761J92J92J92J92J92J92K00K00J92K00K00K00K00K08K00K08K08K00K08K08K08K08K08
1074G3369K16K16K08K16K16K16K16K16K16K24K24K16K24K24K24K32K24K24K32K32K32K24K40
1072G8481K32K32K40K40K40K32K40K48K40K48K40K48K48K48K48K56K48K56K56K56K56K56K64
1069H4153K56K64K64K64K64K64K72K64K72K72K80K72K72K80K72K80K88K80K88K80K88K88K96
1067I0473K88K88L04K88K96L04K96L04K96L04L12L04L04L12L12L20L12L20L20L12L28L20L28
1065I7545L20L28L36L28L36L28L28L52L36L44L44L44L52L44L52L52L60L52L60L60L60L68L60
1063A05489L68L76L68L76L76L76L76L84L84L84L92L84L92M00L92M00M00M08M00M08M16M08
1061A14057M16M16M16M24M24M24M32M24M32M40M40M40M40M48M48M48M56M56M56M56M64M72
1059A23729M72M64M80M72M80M88M80M88M96M96M96M96M96N12N04N20N12N12N28N20N28N28
1057A34697N36N36N44N36N44N52N60N52N60N68N68N68N76N76N76N92N84N92N92O08O00O08
1054A47225O08O08O24O24O24O32O32O40O40O48O48O56O56O64O72O72O72O80O88O88O96O96
1052A61593P04P04P20P12P28P20P36P36P44P44P52P52P68P68P68P76P84P92P92Q00Q08Q08
1050A78209Q16Q24Q16Q40Q40Q40Q56Q56Q64Q64Q80Q80Q80R04Q96R04R12R20R28R36R36R52
1048A97553R52R60R68R68R84R92J000J000J016J016J032J032J032J056J048J072J080J080
1046B15841J088J104J096J128J120J136J144J144J160J168J176J184J200J208J216J224J232
1045B35569J248J256J264J280J280J296J312J312J328J336J352J360J376J384J392J408J416
1043B58169J424J448J456J464J480J488J504J512J536J544J552J568J584J600J608J624J640
1042B84201J656J664J688J696J704J736J736J760J776J792J808J824J832J856J880J888J904
1040C14401J928J952J960J976K000K016K040K048K080K096K112K136K160K168K200K216K240
1038C49729K264K280K312K328K352K376K400K424K448K464K504K520K544K576K600K624K656
1037C91401K680K704K744K768K792K824K848K888K912K944K976L016L040L072L104L144L176
1035D41033L208L248L280L312L360L392L424L472L512L552L584L624L672L712L760L800L840
1033E00785L888L936L984M024M072M120M184M216M280M328M376M432M488M544M592M656M712
1032E73617M776M832M896M952N016N080N152N216N280N352N416N496N560N640N712N792N864
1030F63649N952O016O112O192O272O368O448O544O632O720O824O920P008P120P216P320P432
1029G76745P536P648P760P872P992Q112Q232Q360Q488Q608Q752Q888R016R160R296R448R600
1027I21513R752R904J0072J0232J0392J0568J0736J0912J1104J1280J1472J1664J1872J2064
1026A073537J2272J2488J2704J2928J3144J3384J3632J3864J4112J4376J4632J4912J5168
1024A251153J5464J5744J6048J6344J6656J6984J7296J7648J7984J8336J8704J9072J9456
1023A476889J9848K0248K0672K1088K1528K1976K2448K2912K3408K3904K4432K4960K5504
1022A769817K6056K6656K7248K7864K8504K9160K9824L0520L1240L1984L2744L3536L4344
1021B159497L5184L6056L6944L7880L8832L9824M0848M1904M3000M4136M5312M6536M7784
1019B693737M9104N0448N1864N3312N4832N6400N8032N9728O1488O3320O5224O7208O9280
1018C453977P1416P3664P5984P8431Q0960Q3609Q6376Q9263R2281R5431R8737J02192J05808
1017D588129J09600J13576J17743J22104J26713J31535J36600J41961J47552J53488J59720
1016F048721J66311J73272J80600J88360J96585K05271K14497K24279K34648K45689K57407
1015H335640K69896K83224K97409L12559L28784L46120L64712L84648M06064M29104M53896
1014A2212056M80656N09544N40792N74648O11360O51296O94744P42160P93952Q50695R12920
1013A9574823R81376J056817J140175J232473J334991J449143J576633J719440J879952K060951
1012C4006774K265834K498590K764146L068424L418662L823839M295050M846148N494569O262586
1011G2744622P178595Q279506R613499J1244397J3257554J5768801J8936993K2983550K8220726
1010B08228243L5095515M4254858N6643618P3642093R7234657J30120704J75409364K34748886
1009A055377938L02005675L48728232L10919965J30451837j30451837l10919965l48728232
1009A357383613l02005675k34748886j75409298j30120737r7234690p3642093n6643618m4254875
1008B43323741l5095465k8220743k2983516j8937026j5768769j3257570j1244397r613491
1007H8202764q279498p178611o262569n494569m846153m295037l823840l418674l068423k764127
1006C8771263k498609k265816k060951j879952j719440j576633j449135j334991j232473j140167
1005B1613096j056817r81367r12937q50686p93953p42152o94744o51288o11368n74632n40792
1004A3202360n09544m80656m53896m29096m06064l84648l64711l46113l28784l12568k97407
1003H888873k83209k69896k57416k45680k34648k24272k14488k05279j96576j88369j80600
1002F388440j73255j66312j59721j53487j47560j41952j36600j31536j26704j22113j17735
1001D811465j13569j09591j05808j02192r8736r5433r2271q9264q6385q3599q0960p8424p5984
1000C599249p3664p1416o9280o7200o5224o3320o1488n9720n8032n6400n4832n3312n1856
998B793505n0456m9096m7784m6528m5304m4136m3008m1896m0848l9824l8832l7872l6944l6056
997B194921l5184l4344l3528l2752l1968l1240l0520k9832k9152k8496k7864k7240k6648k6072
996A770081k5504k4952k4424k3904k3408k2912k2440k1976k1528k1088k0664k0248j9848j9456
994A457729j9072j8696j8336j7984j7640j7296j6984j6656j6344j6040j5744j5456j5176j4904
993A221401j4632j4368j4112j3872j3616j3384j3152j2920j2704j2488j2264j2072j1856j1672
992A038289j1472j1272j1104j0904j0744j0560j0392j0224j0072r904r752r592r448r304r152
990H84393r024q880q736q616q480q360q232q104q000p864p760p648p536p424p320p216p112
989G48081p016o912o816o728o632o536o448o360o272o192o104o024n952n864n784n712n632
987F41097n560n496n416n344n280n216n144n080n016m952m896m832m760m720m656m592m544
986E55593m480m424m384m320m272m224m168m128m072m024l976l928l896l840l800l752l704
984D86201l672l624l592l544l512l464l424l392l352l312l280l248l208l176l136l104l072
982D29089l040l000k984k936k920k872k856k824k792k760k736k704k680k656k624k592k576
981C81537k544k520k496k464k448k424k392k376k352k328k304k280k264k232k216k200k168
979C41529k160k128k120k088k072k056k040k008j992j984j960j936j928j904j888j872j856
977C07537j840j816j808j792j768j752j744j728j712j696j680j664j648j640j624j608j592
976B78425j584j568j552j536j536j512j496j496j472j464j456j440j424j416j400j400j376
974B53297j376j352j352j336j320j320j304j296j280j272j264j248j240j240j224j208j208
973B31457j192j192j168j176j152j152j136j128j120j120j104j096j088j080j072j064j056
971B12361j048j040j032j024j016j008j000j000r84r84r68r68r60r52r44r36r36r20r12r20
969A92809r04q96q88q88q80q72q64q64q48q56q40q32q32q32q16q08q16q00p92q00p76p92p68
967A73545p76p60p60p52p52p44p36p44p20p28p20p12p12p12o96o96o96o88o80o80o72o72o64
965A57073o64o56o48o48o48o40o40o32o24o24o16o16o16o16o00o00n92o00n92n76n92n76n76
962A42881n68n68n68n60n60n52n52n44n44n44n36n36n28n28n28n20n20n20n12n12m96n12m96
960A30577n04m88m88m96m80m88m80m80m72m72m64m72m64m56m64m56m56m48m48m48m40m40m40
958A19833m40m32m32m24m24m24m24m16m16m16m16m08m08m08m00m00m00l92m00l92l92l84l84
956A10401l84l84l76l76l84l76l68l68l68l68l60l60l60l60l60l44l52l52l52l44l44l44l44
954A02073l36l44l36l28l36l28l28l28l28l20l28l20l20l20l12l20l04l12l12l04l12l04l04
951I4689l04k96l04k96k96k96k88k96k88k88k96k80k88k80k80k80k80k80k72k80k72k72k72
949H8105k72k64k64k72k64k56k72k56k56k64k48k56k56k56k56k48k48k48k48k48k40k48k48
947H2217k40k40k40k40k40k40k32k32k32k32k32k24k32k32k24k24k24k24k24k24k16k16k24
945G6929k16k16k16k16k08k16k16k08k08k08k08k08k08k00k08k08k00k00k00k08j92k00k00
943G2161j92k00j92j92k00j84j92j92j92j92j84j84j92j84j84j84j84j84j84j76j84j76j76
941F7857j84j76j76j76j76j68j76j76j68j76j68j68j68j68j68j68j68j68j68j60j68j60j60
938F3945j60j68j60j60j60j52j60j60j52j52j60j52j60j52j52j52j52j44j52j44j60j44j52
936F0385j44j52j36j52j44j44j44j44j44j36j44j44j44j36j36j44j36j36j36j44j36j36j36
934E7137j28j36j36j28j36j28j36j28j36j28j28j28j28j28j28j28j28j20j28j28j28j20j20
932E4177j28j20j28j20j20j20j12j28j20j20j12j28j12j20j12j20j20j12j12j20j12j12j12
930E1457j20j12j12j12j04j20j12j04j12j04j12j12j04j12j04j12j04j04j04j12j04j04j04
927D8953j04j04j04j04j04r6j04j04j04r6r6j04j04r6r6j04r6r6r6r6j04q8r6r6r6r6r6r6
925D6177r6q8r6q8r6r6r6q8q8r6q8q8r6q8q8q8r6q8q0r6q8q0q8q8q8q8q8q8q0q8q0q8q8q0
921D3153q8q0q0q8q0q8q0q0q0q0q0q0q0q8p2q0q0q0q0q0p2q8q0p2q0p2q0p2p2q0q0p2q0p2
918D0457q0o4q8n6q0q0p2o4q0p2q0o4q0o4p2p2p2p2p2o4q0o4p2o4p2p2o4p2p2o4o4p2o4p2
915C8041o4p2o4o4o4p2o4o4o4o4p2n6p2o4o4o4n6p2n6o4o4o4o4o4n6p2n6o4o4n6n6o4o4n6
912C5881o4o4n6n6o4m8q0m0p2m8p2m8n6o4n6n6n6n6o4n6n6n6n6n6n6n6n6n6m8o4n6m8n6n6
908C3929m8n6n6n6n6m8n6n6m8m8n6n6m8n6n6m8m8n6n6m8m8n6m8n6m8m8m8m8m8n6n6m0n6m8
905C2169m8m8m8m8m8m0n6m8m8m8m8m8m8m8m8m0m8m8m8m8m8m0m8m8m8m0m8m8m0m8m8m0m8m0
902C0585m8m0m8m0m8m0m8m0m0m8m0m8m0m8m0m0m0m8m0m0m8m0m0m0m0m0m8m0m0m0m8l2m0m0
899B9145m0m0m8l2m0m0m0m0m0m0m0m0l2m0m0m0m0l2m0m0m0l2m0m0m0l2m0m0l2m0m0l2m0l2
896B7841m0m0l2m0l2l2m0m0l2m0l2l2m0l2l2m0l2l2l2m0m0l2l2m0l2l2l2l2m0l2l2l2m0l2
892B6649l2l2l2l2l2m0l2l2l2l2l2l2l2l2l2l2l2l2k4m0l2k4l2l2m0k4l2l2l2l2k4l2m0k4
889B5569k4m0k4l2l2l2k4l2l2l2k4l2k4l2l2k4l2k4m0j6l2k4m0k4k4l2l2k4k4l2l2k4k4l2
886B4585l2k4l2k4k4l2k4k4l2k4k4l2k4k4l2k4l2k4k4k4l2k4k4k4l2k4k4k4k4k4k4l2k4k4
883B3689l2k4j6k4l2k4k4k4k4k4k4k4k4k4k4l2j6k4l2j6k4k4k4k4k4k4k4k4k4k4k4k4k4k4
879B2865k4j6k4k4k4k4j6k4k4k4j6k4k4k4k4j6k4k4j6k4k4k4k4j6k4j6k4k4j6k4j6k4k4k4
876B2121k4qk4k4k4j6k4j6k4k4j6j6k4k4k4j6k4j6j6k4j6k4j6j6k4k4j6j6j6k4k4j6j6j6k4
873B1425j6k4j6j6j6k4j6k4j6j6k4j6j6k4j6j6j6k4j6j6j6k4j6k4qk4j6j6j6j6j6k4j6qk4
869B0793j6j6k4j6j6j6j6k4j6j6j6j6j6j6j6j6j6j6j6j6j6j6j6j6k4qj6j6j6j6j6j6k4qj6
866B0217j6j6j6j6j6j6j6qj6k4qj6k4qj6j6j6j6j6qj6j6qk4qj6j6j6j6qk4qj6j6qj6k4qj6
862A9633j6j6qj6qj6j6qj6j6j6qj6qj6j6j6j6qj6qj6qj6j6qj6j6qj6j6qj6qj6qj6qj6j6qj6
858A9081qj6qj6j6%j6j6qj6qj6j6qqj6qj6qj6qj6qj6qqj6qj6qj6qqqj6qj6qj6qqj6qqj6qq
854A8545j6qqj6qqqj6qqj6qqqj6qqqj6qj6%qj6qqj6qqqqj6qqqj6q%k4%qj6qqqqqqqj6qqqq
849A8017qqqqj6q%j6qqqqqqqqqqqj6%qqqj6%qqqqqj6%qqqj6%qqqqqqqq%j6q%j6%qqqqqqqq
843A7537q%qqqqq%qqqqq%qqqq%qqqq%j6%qqq%qqq%q%qqqqq%q%qq%qqqq%qq%j6%q%qq%qq%q
837A7137%qq%qq%q%qq%qq%%qqq%q%q%qq%%qq%%qq%q%qq%q%%qq%%q%qq%q%q%%q%q%q%q%q%%
830A6849q%q%%q%%q%q%%q%%q%q%q%%%qq%%%q%%q%%qqQ%q%q%%q%%Qj6%%qQq%%q%%%q%%%%q%
824A6673%q%Qq%%q%%%%%q%%%%%q%%%%q%%Qq%%%%%%q%Qq%%qQ%%%qQq%%%%%%%qQ%q%QqQq%%%
817A6609%%Q%qQqQ%qQ%%%qQ%%%%%%%%%%%%%%Q%j6J6%%%j6K4qQ%%Q%qqJ6qQ%%%%Q%%%%Q%%%
811A6657Qq%Q%%%%Q%%%%Q%%%Q%%%Q%%Q%%%%Q%%Q%%%Q%Q%%QqQ%Q%%%%QQ%%Q%%Q%%Q%%Q%Q%%
805A6809Q%%QQ%%Q%Q%%Q%Q%%QQ%Q%%Q%QQ%%QQqQQQ%%%QQ%Q%QQ%Q%Q%QQ%Q%Q%Q%QQ%Q%QQ%Q
798A7089Q%%QQ%J6%%QQ%QQQ%Q%QQ%QQQ%QQ%QQQ%QQQ%QQQ%QQ%QQ%J6%QQQQ%QQ%J6%QQQQ%QQ
792A7465QQQQ%QQQQQQQ%J6%Q%J6%J6%J6%QQQQ%J6QQ%J6QQQ%J6QQQQQQ%QJ6QQQQQQQQQQQQQ
786A7921QQQQQJ6QQQQQJ6%J6QQQQQQJ6%J6QQQQQJ6QQQQJ6QQJ6%J6QQJ6QQQJ6QQQJ6QQQQJ6
781A8441QQJ6QJ6QQQJ6QJ6%J6QJ6QQJ6QJ6QQQJ6J6QJ6QQJ6QQJ6J6Q%J6J6QJ6QJ6J6%J6QK4
777A8969QJ6QQJ6J6QJ6QJ6QQJ6J6QJ6QJ6J6QJ6QJ6J6QJ6QJ6QJ6J6J6QJ6J6QJ6QK4QJ6J6QJ6
772A9529J6J6QJ6QK4QJ6J6QJ6J6QJ6J6J6QK4J6QJ6J6J6J6QJ6J6J6J6J6J6QJ6K4QJ6J6J6J6
769B0097J6QJ6J6K4J6QK4QJ6J6J6K4QJ6J6J6J6J6J6K4QK4J6J6QJ6K4J6QK4K4QJ6K4J6QK4K4
765B0737J6QK4J6J6J6J6J6J6J6K4J6J6K4QK4J6J6J6K4J6K4J6J6J6K4J6K4QK4J6K4J6J6K4K4
762B1385QK4J6K4J6J6K4J6K4J6K4K4J6J6J6K4J6K4K4J6K4J6J6K4J6J6K4K4J6K4J6K4K4J6K4
758B2073K4J6K4J6K4K4K4J6K4K4J6K4K4J6K4K4J6K4K4J6K4K4K4J6K4K4K4K4K4J6L2J6K4K4
755B2817K4K4J6K4L2J6K4K4K4K4K4K4K4K4K4K4K4K4K4K4K4K4K4K4K4K4K4K4K4L2J6L2K4J6
752B3625L2K4K4K4K4L2K4K4L2J6L2K4K4L2K4K4K4L2K4K4K4L2K4K4L2K4L2K4K4L2K4L2K4L2
749B4529K4K4L2L2K4K4L2L2K4K4L2L2K4L2L2K4L2K4L2K4M0K4K4L2L2L2K4L2L2K4L2L2L2K4
745B5505L2L2L2L2L2K4L2L2L2L2K4M0L2L2L2K4L2L2L2L2L2L2L2L2L2L2L2M0L2L2L2K4M0L2
742B6585L2L2M0L2L2L2M0L2M0K4M0L2L2L2M0L2L2M0M0L2L2L2M0L2M0L2M0L2M0L2M0L2M0L2
739B7769M0L2M0M0L2M0M0M0L2M0M0L2M0M0L2M0M0M0M0L2M0M0M0M0M0M0M0L2M0M0M0M0M8L2
736B9073M8L2M8M0M0L2M8M0M0M0M8M0M0M8M0L2M8M8L2M8M8M0M0M0M8M0M0M8M8M0M8M0M0M8
732C0513M8M0M8M0M8M0M8M8M8M0M8M8M8M0M8M8M8M8M8M0N6M0M8M0N6M8M8M8N6M0M8M8M8M8
729C2097N6M8N6M0N6M8M8M8N6M8M8M8N6M8N6M8N6M8M8N6M8N6N6N6M8N6M8N6N6M8N6M8O4M8
726C3857N6N6N6M8N6N6N6N6O4M8N6N6N6N6O4M8O4N6N6N6O4N6N6N6O4N6N6O4O4M8P2N6N6N6
723C5801P2N6O4O4N6O4O4N6N6O4O4O4O4O4O4O4N6P2N6P2O4O4O4O4O4O4P2O4O4O4O4P2O4O4
719C7969P2O4P2P2O4O4P2P2O4P2P2O4P2P2O4P2Q0O4P2P2P2P2P2P2P2P2Q0O4Q0P2P2Q8O4P2
716D0385P2Q8P2P2O4Q8Q0P2Q0Q0P2Q8P2Q0Q0Q0Q0Q0Q0Q0Q0Q0Q0Q0Q8Q0Q0Q0Q0Q8Q0Q0Q8Q0
713D3089Q8Q8Q8Q0Q0Q8Q8Q8Q8Q0R6Q0Q8Q8Q8Q8R6Q0R6Q8R6Q8R6Q0R6R6Q8R6Q8Q8J04Q8J04
710D6041Q8R6R6R6Q8J04R6R6R6R6R6J04R6R6J04R6J04R6R6J12R6J04J04R6J04J04J04J04J04
707D8913J12R6J12J04J04J12J04J04J12J04J12J12J12J04J12J12J12J04J12J12J20J12J12
705E1425J12J20J12J12J20J12J28J04J20J12J28J12J28J12J28J20J12J28J20J28J20J20J28
703E4161J28J20J28J28J20J28J28J28J20J36J28J28J36J28J28J36J28J36J28J36J36J36J36
700E7145J36J36J36J36J44J36J36J44J36J44J44J36J44J44J44J44J44J44J52J44J44J52J44
698F0409J52J44J52J52J52J52J52J52J52J52J60J60J52J60J60J52J60J60J60J60J60J60J68
696F3993J68J60J68J60J68J68J68J68J68J76J68J68J76J76J68J76J76J76J76J76J76J76J92
694F7945J68J84J84J84J84J84J84J84J92J84J92J84J92J92J92J92J92J92K00K00J92K00J92
692G2289K00K08J92K08K00K00K08K08K00K16K08K08K08K16K08K16K16K16K08K16K24K16K24
689G7113K24K16K24K24K24K32K24K32K24K32K32K32K32K40K32K32K40K40K40K40K48K40K48
687H2465K40K48K48K56K48K48K56K56K56K56K64K56K56K64K64K64K64K72K64K72K72K72K80
685H8441K72K72K80K72K88K80K80K88K88K88K88K88K96K88K96K96K96L04K96L04L04L04L04
683I5113L20L04L12L20L12L12L20L20L20L28L20L28L28L28L36L36L36L28L44L36L44L44L52
681A02641L44L44L52L60L52L60L52L68L60L68L68L68L76L76L68L76L76L84L84L84L92L84L92
678A11129M00L92M00M00M00M08M08M08M16M16M16M16M24M24M24M24M40M32M32M40M48M40M48
676A20785M48M48M56M56M56M64M64M72M72M72M80M72M80M88M88M96M88M96M96N04N04N12N12
674A31809N12N20N20N20N28N28N36N44N36N36N52N52N52N60N60N60N68N68N84N76N84N84N92
672A44481N84O08N92O08O08O16O16O24O24O24O32O40O40O48O48O56O56O64O64O72O80O72O88
670A59145O88O96P04O96P12P20P12P20P36P28P44P36P52P52P52P68P68P76P76P84P92P92Q08
667A76257Q08Q16Q32Q16Q24Q40Q40Q48Q56Q64Q64Q80Q80Q80Q96R04R04R12R20R28R36R36R44
665A96385R60R60R68R76R84R92J000J008J016J024J032J032J056J048J064J072J080J088J096
663B15841J104J112J120J136J136J152J152J176J176J192J192J208J216J224J240J248J256
662B35881J264J280J288J296J312J328J336J336J352J368J376J392J408J416J424J440J448
660B58945J464J472J496J504J512J536J536J560J568J592J592J616J632J640J656J672J688
659B85681J704J728J728J752J768J784J808J816J832J856J872J888J904J928J944J960J984
657C16937K000K024K040K056K080K104K120K144K168K184K208K232K256K272K304K320K352
655C53801K368K400K416K448K480K496K528K552K576K608K632K672K696K720K752K776K816
654C97737K840K880K904K936K976L008L040L080L104L144L184L224L256L296L328L376L416
652D50729L448L504L536L576L624L664L712L752L800L848L904L944L992M048M096M152M200
651E15529M256M312M368M424M480M544M600M656M728M784M848M920M984N056N120N192N264
649E96065N336N416N488N568N648N728N808N896N984O064O160O248O344O440O536O632O728
647F98089O848O936P056P160P280P392P496P632P744P880Q000Q136Q272Q400Q552Q696Q832
646H30401Q992R144R296R464R632R800R968J0144J0336J0520J0712J0912J1112J1320J1536
644I83289J1744J1976J2200J2440J2688J2928J3192J3456J3712J4008J4288J4584J4888J5192
643A170585J5528J5848J6192J6544J6904J7280J7664J8056J8472J8896J9336J9776K0248K0728
642A422057K1224K1744K2272K2816K3392K3992K4592K5224K5888K6568K7264K8008K8768K9560
640A773369L0376L1240L2120L3048L4008L5016L6056L7144L8288L9472M0712M2008M3360M4776
639B290993M6264M7816M9432N1152N2936N4824N6800N8880O1064O3376O5808O8376P1080P3944
638C112745P6984Q0184Q3576Q7184R1024R5088R9424J04040J08967J14225J19856J25872J32336
636D431505J39271J46729J54752J63399J72769J82879J93857K05767K18729K32863K48288
635F490808K65201K83743L04144L26633L51495L79064M09704M43880M82104N25025N73359
634A0835160O28032O90080P60840Q41872R35120J042992J168456J315232J488031J692856
633B1398671J937417K231743K588951L026521L567902M245011N101884O200058P626807R507488
632F7432453J2023993J5442116K0147964K6687155L5766196M8077080O3544858P9215607Q5673383
631D54010805O7149300J6572502m4145508q0655730q4854248p1770167n5301118m1214877
631A59790959l0567568k2851379j7308013j3301746j0370183q192647o549543n290268m310462
630D1049150l537014k917920k415673k002839j659080j369072j121152r06297p17416n48871
629B3853816l96088k55281j23263K736J25167K46344L68417M93542O23962P61999R10295J071746
628B7683392J249735J448240J672057J926974K220154K560528K959357L431023L994105M672791
627E3818356N499082O515815P780889R373854J1405459J4031903J7476718K2063415K8264441
626A76229932L6770035M8572264O5020921Q7670521J17345223J50978296J74344417J55446476
625A012378085O5220253o5222361j55448453j74346525j50980470j17347364q7672630o5023095
624B61557440m8574537l6772292k8266779k2065820j7479197j4034465j1408110r376622p783750
624F5795868o518792n502224m676069l997539l434671k963182k564601k224471j931568j676959
623C0305792j453490j255352j077782r16816p69056o31601n01848l77479k56272j36065j4743
622B2915288J09982K40545L79641N30456O96704Q82871J094535J338642J624063J962280K368345
620C4143352K862272L470982M231377N194551O432360Q047361J0187565J3068772J7006175
620A04644767K2454123L0037492M0501403N4344929P0530149Q3388562P9261924M3380496
619E28543845j6290782o5994718q4198143p7851152o2450378m7249331l5150824k6228389
618A13130128j9801967j5177279j1818060r344911p496641o094479n015194m173061l507569
617C0700967k975512k545447k194361j905063j664720j463376j293520j149248j025921r19887
616A3563912q28216p48568o78992o17992n64248n16720m74519m36929m03336l73192l46088
615G575112l21632k99520k79448k61207k44593k29400k15496k02744j91031j80240j70273
614D979528j61071j52552j44649j37320j30488j24127j18208j12672j07480j02640r8088r3824
613C496409q9816q6040q2496p9136p5984p3000p0176o7512o4984o2576o0320n8152n6104n4160
612B515953n2296n0536m8848m7248m5720m4248m2864m1512m0248l9024l7848l6736l5656l4624
610A918545l3632l2688l1776l0896l0048k9240k8464k7712k6984k6288k5616k4968k4336k3744
609A522153k3152k2592k2056k1520k1016k0520k0056j9584j9144j8712j8296j7888j7496j7120
608A243001j6744j6392j6040j5704j5384j5056j4760j4448j4160j3880j3592j3344j3072j2816
606A037609j2576j2336j2104j1872j1648j1432j1224j1016j0824j0632j0432j0248j0064r896
605H81305r720r544r392r232r072q912q776q624q480q336q216q072p944p816p688p568p456
603G36457p336p224p104p008o888o800o680o584o488o400o296o208o112o032n936n856n768
602F25737n688n608n536n456n376n304n232n160n088n016m952m888m824m760m688m632m576
600E38953m512m448m400m344m280m232m176m128m072m024l968l920l880l824l784l736l688
599D69537l648l600l560l512l480l440l384l360l312l280l240l200l168l128l096l056l024
597D13049k992k960k928k888k864k832k792k768k744k712k680k648k624k600k560k536k520
595C66401k488k456k440k408k392k360k336k312k288k272k240k224k192k184k160k136k112
594C27401k088k072k048k032k008k000j976j952j936j920j896j880j864j848j824j816j792
592B94449j776j768j744j728j712j696j688j664j656j632j624j608j592j584j568j552j536
590B66321j520j512j496j488j472j456j456j432j424j408j392j392j368j360j360j344j320
589B42121j320j304j296j288j272j264j256j240j240j216j216j208j192j184j176j160j160
587B21129j144j144j120j120j112j104j096j088j072j072j056j056j040j040j024j024j016
586B02801j000j000r84r84r76r68r60r52r52r36r28r28r20r04r12q96q96q88q72q80q64q56
583A82345q56q48q40q40q32q24q16q08q08q08p92p92p76p84p76p68p60p60p52p52p36p44p28
581A64145p20p28p20p12p04p04p04o96o80o88o80o80o64o72o56o64o56o48o48o40o40o32o24
579A48585o24o24o16o08o08o08o00o00n92n92n84n84n76n76n76n68n60n60n60n52n52n52n44
577A35169n36n44n28n28n28n28n20n20n12n04n20n04n04m96m96m96m96m80m88m80m80m80m72
575A23529m72m64m72m64m56m56m56m56m48m48m40m48m40m32m40m32m32m24m24m24m16m24m16
572A13345m16m08m08m00m08m00m00m00l92m00l92l84l84l84l84l84l76l76l76l76l60l76l60
570A04401l68l60l60l52l60l60l44l60l52l44l44l44l44l36l44l36l36l36l28l28l28l28l28
568I6481l20l20l20l20l12l20l12l12l04l12l04l12l04k96l04k96k96k96k96k96k96k88k88
566H9457k88k88k88k80k80k88k72k80k72k80k72k72k72k72k64k72k64k64k64k64k56k72k48
564H3185k64k56k56k48k56k48k56k48k48k48k40k48k40k48k32k40k48k32k40k32k32k40k32
562G7553k24k32k32k24k32k24k24k24k24k24k24k16k16k24k16k16k16k08k16k16k08k08k16
559G2489k08k00k08k08k00k08k00k08k00k00k00k00j92k00k00j92k00j92j92j84k00j84j92
557F7921j92j84j92j84j84j84j92j76j84j84j76j84j76j76j84j76j76j76j68j84j68j76j76
555F3769j68j68j68j68j76j68j60j68j68j68j60j68j60j60j60j60j68j60j60j60j52j60j52
553F0009j60j52j60j52j52j52j52j52j52j52j52j44j52j44j52j52j44j44j44j44j44j44j44
551E6569j44j44j36j44j44j36j36j44j36j36j44j28j44j28j36j36j36j28j36j36j28j36j28
548E3425j28j28j36j28j28j28j28j28j28j20j28j28j20j28j28j20j20j20j28j20j20j20j20
546E0545j20j20j20j20j20j12j20j20j12j12j28j12j12j12j12j20j12j12j12j12j12j12j12
544D7889j04j12j12j12j04j12j04j12j04j04j12j04j04j04j12j04j04j04j04j04r6j04j04
542D5449j04j04r6r6j04j04r6j04r6r6j04r6r6r6r6r6r6r6j04r6q8r6r6q8r6r6r6q8r6r6q8
539D2449r6q8q8r6q8q8r6q8q8q8q8q8q8q8q8q8q8q0q8q8q8q8q0q8q8q0q0q8q8q0q0q0q8q0
536C9497q0q8q0q0q0q0q8p2q0q0q0q0q0q0p2q0q0p2q8p2p2q0q0p2q0p2q0p2p2q0p2q0p2p2
532C6849p2q0o4q0p2p2p2o4q0p2o4p2p2p2p2p2p2o4p2p2p2o4p2o4p2p2o4o4p2o4o4p2o4p2
529C4465o4o4p2o4p2n6p2n6p2n6p2o4o4o4n6o4o4p2o4n6o4o4o4n6o4o4n6o4o4n6o4n6o4o4
526C2313n6o4n6o4n6o4n6n6o4n6n6o4n6n6n6n6o4n6n6n6o4m8n6o4m8n6n6o4m8n6o4m8n6n6
523C0361n6m8n6n6n6n6m8n6m8o4m8n6m8n6m8n6m8o4m0n6m8n6m0n6o4m8m8m0m8n6n6m0n6m8
519B8593n6m8m8m8n6m0n6m8m8m8m8m8m8m8m8m8m8m8m8m8m8m0m8m8m0m8m8m8m8m0m8n6m0m8
516B6969m8m0m8m0m8m8m0m0m8m8m8l2m8m8m8m0m0m8m0m0m8m0m0m8m0m0m8m0m8m0m0m0m0m8
513B5489m0m0m8l2m8m0m0m0m0m0m0m0m8l2m0m8m0m0m0m0m0l2m0m0m0m0l2m8l2m0m0m0l2m0
510B4137m0m0l2m0m0m0m0l2m0m0l2m0m0m0l2l2m0m0m0l2l2m0l2m0m0l2m0l2l2m0l2m0l2l2
506B2889m0l2m0l2l2l2m0l2l2m0l2m0l2l2l2l2l2m0k4m0m0l2m0l2l2l2l2k4m0l2l2l2l2l2
503B1737l2l2l2l2m0k4l2m0l2k4m0k4l2l2l2l2l2l2l2l2k4m0k4l2l2l2l2k4l2l2l2l2l2k4
500B0673l2l2k4l2l2k4l2l2k4l2l2k4k4m0l2k4l2k4k4m8j6m0j6k4m0k4l2k4l2k4k4l2k4l2
497A9689l2k4k4l2l2k4l2j6l2l2k4k4k4l2k4l2k4l2k4k4l2k4k4l2k4k4k4l2k4k4l2k4k4k4
493A8777l2j6l2k4k4k4k4l2k4j6l2k4k4j6m0l2j6k4k4k4l2k4j6l2k4k4j6l2k4k4k4j6l2k4
490A7929k4k4k4k4k4k4k4k4k4k4j6l2j6l2j6k4k4k4k4k4k4k4k4k4k4j6k4k4k4j6k4k4k4k4
487A7137k4k4j6k4j6k4k4k4k4j6k4k4k4j6k4k4k4j6k4j6k4k4k4j6k4k4k4j6k4k4ql2ql2j6
484A6385k4k4j6k4j6k4j6k4j6k4k4j6k4j6k4k4j6j6k4k4j6k4j6k4j6k4j6j6k4j6k4j6k4j6
480A5697k4j6k4j6j6k4j6j6k4j6k4j6k4j6j6j6k4k4j6j6j6k4qk4k4j6k4j6j6j6k4j6j6k4j6
477A5033j6k4j6j6j6k4j6j6j6k4qk4j6j6k4j6j6j6j6j6k4j6j6k4j6j6j6j6j6k4j6j6j6j6j6
474A4417j6j6k4qk4j6j6j6j6j6k4j6qk4j6k4%l2j6%k4qk4j6k4qj6k4qj6j6k4qj6j6j6j6j6
470A3793j6j6j6j6j6j6j6j6j6j6j6j6j6j6j6j6qj6j6j6j6j6j6j6j6j6j6qj6j6j6j6j6j6j6
467A3249qk4j6qj6j6j6j6qj6j6j6j6j6qj6j6j6j6qj6j6j6j6qk4qj6j6qj6j6qj6j6j6j6j6q
463A2689j6qk4qj6j6qj6j6j6qj6qj6j6qj6j6j6j6j6qj6qj6j6qj6j6qj6qj6j6qj6j6j6qj6q
459A2137j6qj6j6qj6j6qj6qj6j6qqj6j6qj6j6qj6j6qj6qqj6j6qj6qj6qj6qj6qj6qj6qj6j6
455A1593qj6qqj6j6qj6qj6qj6qj6qj6qj6qj6qj6qqj6j6qqj6qj6qj6qqqj6j6qqqj6qj6qqj6
451A1049qj6qj6qj6qqj6qqj6qqj6qj6qqj6qqj6qqqj6qj6qqj6qj6%j6qj6qqj6qqqqj6qj6qq
446A0513j6qqj6qqj6qqqqj6qj6qqqj6qqqj6qqqqj6qqqj6qqqqj6qqj6qqqj6qqqqqqj6qqqj6
441I969qqqqj6qqqqqj6qqqqqqj6qqqqqj6qqqqj6%j6qqqqqqqj6qq%j6qj6%j6qqqqqqqqqj6%
435I449qj6qqqqqqqqj6qqqqqqqqqj6q%j6qqqqqqqqqqqqqqqqqqqj6%qqqq%k4q%j6%j6qq%j6
429H937qQj6qqj6%qj6%qj6q%j6%qqqqqqqqqqqqqqqqqqqq%j6q%qqqqqqqq%j6q%qj6%qj6%qj6
424H473%qj6Qj6j6Qk4%q%j6%j6%%j6%qqqqq%j6%qqqqq%j6qq%qqqqqqq%qqqqq%qqqqq%j6%q
418H065qqqq%qqqq%qqqqqq%qqq%j6%qqqq%qqq%qqqqqq%j6%qqq%j6%q%qqqq%qqq%qqqqq%qq
412G633q%qq%qqqqqqq%%qqq%qqqq%qqq%qqq%qqq%qqq%qqq%qqq%qqq%qq%qqqq%q%qq%qq%j6
405G225%q%qqq%qq%qqqq%q%qqq%q%qq%qqqq%q%qqq%qqq%q%qq%qqq%%qqqq%qq%%j6%qq%qq%
399F857%qq%qq%q%qqq%qq%qq%q%qq%qq%qqq%%qq%qq%q%q%qqq%q%qq%qq%qq%q%q%qq%qq%q%
392F513q%qq%qq%q%qq%q%qq%q%q%qq%qq%q%qq%%qq%%qq%qq%q%%qqq%q%q%q%qq%q%qq%%q%q
386F193%qqq%q%q%q%q%qq%q%q%q%qq%q%q%q%q%q%q%qq%%qq%%qq%%qqq%q%%%j6%%qq%%q%q%
379E905qq%%qq%q%q%q%q%q%q%q%q%q%q%%%j6%%qq%%q%q%qqq%q%q%%%qqQqj6%%%j6Qqq%%qq
373E633%%qq%%%qq%q%%qq%q%%q%qq%%q%q%q%%q%q%%qq%q%q%q%%q%%qq%%q%q%q%q%q%%q%q%
366E385q%%q%q%q%q%%qq%%q%q%q%q%%q%q%%q%%q%q%q%q%q%%%q%q%q%%q%q%q%q%%q%q%%q%%
360E153qqQj6%%q%%q%q%%q%q%%q%q%%q%q%%q%%q%q%q%q%%qQqq%%q%q%q%q%%q%%q%q%%q%q%
353D929%%q%%q%q%q%%q%%q%q%q%%q%%q%%q%q%%qqQq%%q%q%%q%%qq%%q%%%q%%q%q%%q%%q%q
347D721%%q%%q%%q%q%%q%%q%%%q%q%%q%%%j6%%qQq%%q%q%%q%%q%q%%q%%%q%%q%%qq%Qq%q%
340D537%q%%q%q%q%%%q%%q%%%%qqQq%q%%q%q%%%%q%q%%q%%q%%q%%q%%q%%%q%qQq%q%%q%%q
333D353Qqq%%%q%%%qq%%%qqQ%q%%%q%%q%q%%%q%%q%%q%%q%q%%%q%%%q%%q%%%q%q%%qQq%%%
327D193q%qQqqQq%q%%%j6qQ%%q%%%%%qQqq%q%%%q%%%%q%%q%%%q%%q%%%qqQq%%q%%%q%%%q%
320D033qQq%%q%%%q%q%%%%q%%q%%%q%%%q%%q%%%%q%%%q%q%%%q%%%q%%q%%%q%%q%%%q%%%%%
314C889q%q%%%q%%q%%%q%%%%q%%%q%%q%%%q%%%q%QqqQq%%q%%%q%%%%q%%q%%q%%%%q%%%q%%
307C745%q%%%q%%%q%%q%%%%q%%%q%%%q%%%qQq%%q%%%q%%%q%qQq%%q%%%%%q%%%q%%%q%%q%%
301C609%%%%q%%%q%%q%%%%q%%q%%%%q%%qQq%%%q%%%%q%%q%%%%q%%%qQq%%q%%%%q%%%%q%%%
294C489q%%%%q%%%%q%%%%q%%q%%%%qQq%%q%%%%q%%%q%%%%%q%%%q%%%qQ%q%qQq%%%q%%%q%%
288C369%%q%%%q%%%%%q%%%%q%%%q%%%%q%%qQq%%%%q%%%q%%%%q%%%%%%q%%%q%%%%q%%%%q%%
281C257%%%q%%%q%%%q%%Qq%q%%%q%%%%%q%%%%q%%%%%%q%Qj6%Qq%%%%q%qQq%%%%q%%%%q%%%
274C153q%%Qq%q%%%%%%q%%%%q%%%%q%%%%%qQq%%%q%%qQq%%qQ%q%%%%%q%%%%%q%%%qQq%%%q
268C049Qq%%%%q%%%q%Qq%%%%q%%%%q%%%%q%%qQ%qQq%%%q%qQq%%%%%%q%%%%%q%%%%%%q%%%%
261B961q%%%%%%%q%%%q%%%%%%%q%%q%%%%%%q%%%%qQ%q%%%%q%%%%%q%%%%%q%%%%%%q%%%q%%
255B865%%%%%%q%%%%q%%%%qQq%%%%%qQq%%qQq%%%%qQq%%%%q%%%%%%q%%%qQ%q%%%%q%%%%qQ
248B785q%%%%%%%q%%%%%%qQq%%q%%%%%qQq%%%%%q%%%%qQq%%%%qQq%%%%%qQqQq%%q%%%qQ%%
242B705qQq%%qQ%q%%%%qQqQqq%%%%%%%q%Qq%%%q%%%%%%q%%Qq%%%q%%%%%%%q%%Qj6%QqQq%%
235B625qQj6QqJ6j6%J6q%%j6Qq%%Qq%%%%%%%%q%%%q%%%%%%%q%%%%%%q%Qq%qQ%%j6Q%%qQ%%
229B561%qqQQqQl2M0Qm0%%J6m0M8j6k4M0l2J6%j6Q%q%j6J6%qQ%q%%%q%%%%%%%q%%%%%qQ%q
224B497Qq%%qQ%%q%%%%%q%%%%%%qQq%%%%q%Q%q%%qQq%Qq%qQ%%q%%%%%%q%%%%%%%qQq%%%%q
217B425QqQq%%%%%%q%%%%q%%%%%%%%%qQq%%%%%%%q%%%%%%%q%%%%%%%%q%%%%%%%%%q%%%%%q
211B361%%%%qQq%%%%%%q%QqQq%%%qQqQ%q%%%%qQqQq%%%%%%q%%%%%%%%qQq%%%%%%q%%%%%%%
204B305q%%%%%%%q%%%%%%%%%%q%%%%%%%q%%%%%%%%qQ%q%%%%%%q%%%%%%%%%%q%%%%%%q%%%%
198B241%%%%qQ%qQq%%%%%q%%%%%%%q%%Qq%%%%%%q%%Qq%%qQ%q%%%%%%%%%q%%Qq%%%%%q%%Qj6
191B177Q%q%%%%%%%q%Q%q%%%%%qQ%q%%%%%%%q%%%%%%%%%%%%q%Qq%%%%%qQq%%%%qQ%q%Qq%%
184B129%%%%q%%%%%%%%%%q%%%%%%%%%%%%qQq%%%%%%q%%%%%%%q%%Qj6Q%%%qQqqQ%%qQq%Q%%
178B081q%%%%%qQ%%q%%%%%%qQ%%q%%%%%%%%%%q%Qq%%%%%%%%q%%%%%%qQ%q%%%%qQ%%%qQq%%
171B025%%%%%%q%%%%%%%%%%%q%%%%%%%%%qQ%q%%%%%%%%qQq%%%qQ%q%%%%%%%%%%%%%%q%%%%
165A977%%%%%qQ%qQq%%%%%%%qQq%%%%%%%%q%Qq%%%%%%%%q%Qq%%%%%%%%q%%%%%%%%%%%%%%q
158A929%%%%%%%%qQq%%%%%%%%q%%%Qq%%%%%qQ%%%q%qJ6q%%%q%Qq%%%%%%%%q%Q%q%%%%%%%%
152A889%qQ%%q%%%%%%%%%qQq%%%%%%%%q%Q%%q%%QqqQq%Q%q%%%%%%%%%qQq%%%%%%%%%%%qQq
145A841Qq%%%%%%%q%%%%%%%%%q%Q%qQqQq%%%%qQ%%q%%%%%%%%%%%%%qQq%%%%%%%qQ%%q%%%%
138A801%%%%%q%Qq%Qq%%%%%%%%%%%q%%%%%%q%QqQ%%q%%%%%%%%%q%%%%%%%%%%%%%%%%q%%%%
132A761%%%%%qQ%qQ%qqQ%%%q%%%QQqq%%%%%%q%Q%%%%q%%%%%%%%%q%Qq%Qq%%qQ%%%%q%%%%%
125A721%%%%%qQq%%%%%%%%%%%%%%q%%Qq%%%%%%%%%qQ%q%%%%%Qq%%%%%q%Qq%%%%%qQ%%q%%%
119A681%%%Qq%%%%%%%%qQ%%%%q%%%%%%%%%%%q%Q%%q%%%Qq%%%q%%%Qq%%%%%%%%q%%%%%%%%%
112A649%%%%%%%%qQq%%%%%%%%%%%%q%%%%%%%%%%%%%%%%%qQq%%%%%%%%%%%qQq%Q%q%%%Qq%%
106A617q%Q%%qQq%%%%%%%%qQq%%%%%%%%%%%%%%qQ%q%%%%%Qq%%qQ%%qQ%q%Q%qQqQq%%%%%%%
99A585qQqQq%%%%%%%%%q%Qq%Qq%%%%%%%%%%q%%Qq%%%%%%%%%qQ%q%%%%%%%%Qq%%%%%%q%Q%q
92A545Qq%%%%%%%%%qQ%qQq%%%Q%q%%%%%%%q%QqQ%q%%%%%%qQ%%%qQq%%Q%qQ%q%%%%%%%%%%q
86A513%%%%%%%Qq%%%%%%%%%q%Qq%%%%%%%%%%%%qQq%%%%QqqQ%%%q%Qq%QqQqQq%%%%%%%%%%%
79A489%%q%%%%%%%%%%%%%%%%qQqQq%%%%%%%%%%%%%qQ%%%%qQqQq%%%%%%%%%%%%q%%%Qq%%%%
72A457%%%qQ%%%%%%%q%%%%%%%%%%%%%%%%q%%Qq%%%Q%q%%%%%%qQq%Q%q%Qq%%%%%%%%%qQq%Q
66A433%%q%%%%%%%%%%%%%%%qQq%%%%Q%q%%%%%%%%%q%Qq%%%%Qq%%%%%%qQ%%%qQ%%q%%%%%%%
59A401%%%%qQ%%qQ%q%%%%%%%QqQq%%%%%%%%q%%%%%%%%%%%%%%%qQ%%qQqQqQqQq%%%%%%%%%%
52A377%%qQ%q%%%%%%%%%qQ%%%%%qQ%q%%%%%%%%%%%%%%%q%QqQ%%qQq%%%%Qq%%%%%qQqQ%%qQ
46A353qQqQqQq%%qQ%%%%qQ%%%%q%%Qq%%Qq%%%%%%%%qQ%%%%%q%%%%%%Qq%%%%%%%%%%%q%Q%%
39A329%%qQq%%%%qQ%%%%%%qQq%%Qq%%%%%%%%%%%%%%q%Q%%%%%q%%%Qq%qQ%Qj6Q%%qQ%%%%qL2
32A329m0%%%%K4j6%qJ6q%%%qQq%%QqQ%%q%%%%%%%%%%qQqQ%%qQ%%%q%%Q%%q%Qq%%%%qQ%%%q
26A273%QqQq%%%%%%%%%%%%%%%%%%%%%q%%%Qq%%%%%%%%%%%%qQ%%%%qQq%%%%%%%%%%%%%%%%%
19A257%%%%%q%%%Qq%%%%%%%%%q%%Q%%%%q%Qq%%%%%%%%%%%%%qQ%%qQ%qQ%%%q%Qq%%%%%%%%%
13A233%%%%qQ%%%%%q%%%Q%q%%%%%%%%%%%qQ%%qQ%q%%Qq%%%%QqQq%%%%%%%%%%%%q%%Qq%%%%
6A209%%%%%%%%%%%qQ%qQ%%%%%%qQq%%%Q%%q%%%%%%%%%%%%%%%%q%Qq%%%%%%%%%%
0A193
##$PREDICTED PEAKS=	(X Y T A)
(2.0176897733580640981,  , 0.10000000000000000555, <1-a>)
(2.0176897733580640981,  , 0.10000000000000000555, <1-b>)
(2.0176897733580640981,  , 0.10000000000000000555, <1-c>)
(4.1149388872863621458,  , 0.10000000000000000555, <5-a>)
(4.1149388872863621458,  , 0.10000000000000000555, <5-b>)
(1.2500949462464046036,  , 0.10000000000000000555, <6-a>)
(1.2500949462464046036,  , 0.10000000000000000555, <6-b>)
(1.2500949462464046036,  , 0.10000000000000000555, <6-c>)
##$PREDICTEDCOUPLINGCONSTANTS=	J(A,B)	$$ (Hz)
8.11(1-a, 1-b)
8.11(1-a, 1-c)
8.11(1-b, 1-a)
8.11(1-b, 1-c)
8.11(1-c, 1-a)
8.11(1-c, 1-b)
11.33(5-a, 5-b)
6.23(5-a, 6-a)
6.23(5-a, 6-b)
6.23(5-a, 6-c)
11.33(5-b, 5-a)
6.23(5-b, 6-a)
6.23(5-b, 6-b)
6.23(5-b, 6-c)
6.23(6-a, 5-a)
6.23(6-a, 5-b)
7.38(6-a, 6-b)
7.38(6-a, 6-c)
6.23(6-b, 5-a)
6.23(6-b, 5-b)
7.38(6-b, 6-a)
7.38(6-b, 6-c)
6.23(6-c, 5-a)
6.23(6-c, 5-b)
7.38(6-c, 6-a)
7.38(6-c, 6-b)
##END=		$$ NMR SPECTRUM
##END=		$$ LINK
