##TITLE=	Document 17
##JCAMP-DX=	6.0	$$ MestReNova 17.0.0-41178
##DATA TYPE=	LINK
##BLOCKS=	5    
##ORIGIN=	Mestrelab Research S.L.
##OWNER=	ctheodore
##$MNOVA/METADATA=	(DOCUMENT,BASE64)
eyJuYW1lIjoiRG9jdW1lbnQgMTciLCJwYWdlcyI6W3siaXRlbXMiOlsiMiIsICAgICAgICAgICAgICA
gICAgICAgICAgICAgICAgICAgICAgICI0IiAgICAgICAgICAgICAgICAgICAgICAgICAgICAgICAgIC
AgICBdfV19
##TITLE=	
##JCAMP-CS=	3.7	$$ MestReNova 17.0.0-41178
##BLOCK_ID=	1
##ORIGIN=	Mestrelab Research S.L.
##OWNER=	ctheodore
##ATOMLIST=	
$$ AN	AS	NH
	1	H	 
	2	C	 
	3	C	3
	4	O	 
##BONDLIST=	
$$ AN1	AN2	BT
	1	2	S
	2	3	S
	2	4	D
##MAXRASTER=	32768
##XY_RASTER=	
$$ AN	X	Y	Z
	1	1220	4553	0
	2	16994	-4553	0
	3	32768	4553	0
	4	16994	-22767	0
##END=		$$ JCAMP-CS
##TITLE=	
##JCAMP-CS=	3.7	$$ MestReNova 17.0.0-41178
##BLOCK_ID=	2
##ORIGIN=	Mestrelab Research S.L.
##OWNER=	ctheodore
##$MNOVA/METADATA=	(ITEM,BASE64)
eyJhbmdsZSI6MC4wLCJwb2ludHMiOlt7IngiOjU0MTIuNDQ4MjQ4OTIxMTU5LCJ5Ijo2MDk0LjA4MTQ
5MjM2NDUzOX0seyJ4Ijo1NjgyLjMxMjcxMzAzMjIyNCwieSI6NjA5NC4wODE0OTIzNjQ1Mzl9LHsieC
I6NTY4Mi4zMTI3MTMwMzIyMjQsInkiOjYzNTEuMTUyOTY5MTUyMjQ0fSx7IngiOjU0MTIuNDQ4MjQ4O
TIxMTU5LCJ5Ijo2MzUxLjE1Mjk2OTE1MjI0NH0seyJ4Ijo1NDEyLjQ0ODI0ODkyMTE1OSwieSI6NjA5
NC4wODE0OTIzNjQ1Mzl9XSwieiI6Mi4wfQ==
##ATOMLIST=	
$$ AN	AS	NH
	1	C	3
	2	C	 
	3	O	 
	4	H	 
##BONDLIST=	
$$ AN1	AN2	BT
	1	2	S
	2	3	D
	2	4	S
##MAXRASTER=	32768
##XY_RASTER=	
$$ AN	X	Y	Z
	1	1216	4541	0
	2	16949	-4541	0
	3	16540	-26085	0
	4	32768	4391	0
##END=		$$ JCAMP-CS
##TITLE=	Predicted 1H NMR Spectrum
##JCAMP-DX=	6.0	$$ MestReNova 17.0.0-41178
##DATA TYPE=	NMR PEAK ASSIGNMENTS
##DATA CLASS=	ASSIGNMENTS
##BLOCK_ID=	3
##ORIGIN=	Mestrelab Research S.L.
##OWNER=	ctheodore
##CROSS REFERENCE=	STRUCTURE: BLOCK_ID=2                                     
NMR SPECTRUM: BLOCK_ID=4                                     
##.OBSERVE FREQUENCY=	500
##.OBSERVE NUCLEUS=	^1H
##NPOINTS=	4
##XUNITS=	PPM
##YUNITS=	ARBITRARY UNITS
##PEAKASSIGNMENTS=	(XYWA)
(2.1884182571685735219, 0.0021215886808931827545, 0.0063811396864656977357, <1>)
(2.1884182571685735219, 0.0021215886808931827545, 0.0063811396864656977357, <1>)
(2.1884182571685735219, 0.0021215886808931827545, 0.0063811396864656977357, <1>)
(9.7850072624614661265, 0.00055663828970864415169, 0.017455203377952699384, <4>)
##END=		$$ NMR PEAK ASSIGNMENTS
##TITLE=	Predicted 1H NMR Spectrum
##JCAMP-DX=	6.0	$$ MestReNova 17.0.0-41178
##DATA TYPE=	NMR SPECTRUM
##DATA CLASS=	XYDATA
##BLOCK_ID=	4
##ORIGIN=	Mestrelab Predictor, Modgraph NMRPredict Desktop
##OWNER=	ctheodore
##NUMDIM=	1
##$MNOVA/METADATA=	(ITEM,BASE64)
eyJhbmdsZSI6MC4wLCJheGVzIjp7IngiOnsibWF4IjoxMi41MDAwNzgxMjU0ODgyODMsIm1pbiI6MC4
wMDAxOTA3MzYwNTUzODE1OTYxN30sInkiOnsibWF4IjowLjA0MTM4MjU1NTEwNzA2OTc5LCJtaW4iOi
0wLjAwMzc2MjA0NjE4MTk4OTIwNTZ9fSwicG9pbnRzIjpbeyJ4Ijo1MzIxLjAsInkiOjU4MzUuMH0se
yJ4Ijo4NzIyLjAsInkiOjU4MzUuMH0seyJ4Ijo4NzIyLjAsInkiOjgyMDguMH0seyJ4Ijo1MzIxLjAs
InkiOjgyMDguMH0seyJ4Ijo1MzIxLjAsInkiOjU4MzUuMH1dLCJ6IjowLjB9
##.OBSERVE FREQUENCY=	500
##.OBSERVE NUCLEUS=	^1H
##.SOLVENT NAME=	DMSO-d6
##.PULSE SEQUENCE=	
##.ACQUISITIONMODE=	SIMULTANEOUS
##$ORIGINAL FORMAT=	Predictor
##$MNOVA/SCALES_VERSION=	9
##$PARAMETER FILE=	(datafile, ASCII, /Users/ctheodore/CHE233L/Part%20B%20-%20Section%20II/acetaldehyde/1h.jdx, 0)
$$ 
##$PARAMETER FILE=	(parameters, ASCII, , 0)
$$ <?xml version="1.0" encoding="utf-8"?>
$$ <PredictorParameters>
$$     <Title>Predicted 1H NMR Spectrum</Title>
$$     <Origin>Mnova: NMR Prediction</Origin>
$$     <Name>Mestrelab Predictor, Modgraph NMRPredict Desktop</Name>
$$     <Version>1.7, 1.22 (5.076)</Version>
$$     <Nucleus>1H</Nucleus>
$$     <Solvent>DMSO-d6</Solvent>
$$     <From>0</From>
$$     <To>12.5</To>
$$     <Frequency>500</Frequency>
$$     <LineWidth>0.75</LineWidth>
$$     <Size>65536</Size>
$$     <DEPT>0</DEPT>
$$     <ProtonatedCarbons>0</ProtonatedCarbons>
$$     <ExcludeLabile>true</ExcludeLabile>
$$     <FastPrediction>0</FastPrediction>
$$     <ProtonDecoupled>0</ProtonDecoupled>
$$     <Reference/>
$$     <Options>
$$         <Settings>
$$             <Predictor Name="Mestrelab Predictor">
$$                 <Settings>
$$                     <Model>/Applications/MestReNova.app/Contents/Resources/data/1H.mbst</Model>
$$                 </Settings>
$$             </Predictor>
$$             <Predictor Name="Modgraph NMRPredict Desktop">
$$                 <Settings>
$$                     <Algorithm hoption="2" hsolvent="1" usnucleus="1">Fast Increments</Algorithm>
$$                     <JsAlgorithm>Fast Increments</JsAlgorithm>
$$                     <NMRSOAPDIR>/Applications/MestReNova.app/Contents/Resources/NMRPredict</NMRSOAPDIR>
$$                     <NMRTEMPDIR>/private/var/folders/3f/5b3_td5j7k3f1lyt31390d3jfxj842/T/NMRPredict-1574477954</NMRTEMPDIR>
$$                     <NMRUSDATABASEDIR>/Users/ctheodore/Library/Application Support/Mestrelab Research S.L./MestReNova/NMRPredict/NMR1HDatabase</NMRUSDATABASEDIR>
$$                     <Databases>ABCDEFGHIJKLMNOPQRSTUVWXYZ</Databases>
$$                 </Settings>
$$             </Predictor>
$$         </Settings>
$$     </Options>
$$     <MoleculeID>{5f893437-8b5d-4237-b1d6-40abc61624eb}</MoleculeID>
$$ </PredictorParameters>
##XUNITS=	HZ
##YUNITS=	ARBITRARY UNITS
##FIRSTX=	6250
##LASTX=	0.095367431640625
##DELTAX=	-0.095367431640625
##XFACTOR=	1
##YFACTOR=	2.843796900678679849E-11
##FIRSTY=	1.9451571020567826054E-08
##MINY=	7.194806084243055011E-09
##MAXY=	0.061070073395967483521
##NPOINTS=	65536
##XYDATA=	(X++(Y..Y))
6250F84nOoMk%lRnjk%mN%Oj3RoQjljjkNl%jJLkkKjMkjKj%jjMJpLJ%lMjKmjKkjJjJkMmMJlK
6244F79kkJNpMKMj2KQj1J2omMlLjmM%jkLLjn%%MjJjJlMmJjKlKMknNlKmjJLkMkl%NpMLlJjl
6237F71LljNjm%OpjLKjKkKjKoLLkkKmj%Nj%%jmL%JlJ%%kLJkLlKnLJlNlkMj%l%NoKLkkO%oj
6231F66KmLmOmKKk%lJNpMl%MkkLkMlkJ%lOlKklMkJKnKLkjlKjLlKkNnLJkKlJJNqKK%qOKlj%
6224F62jJ%mJNpRJkkjOqLKlJJoK%%MkkKjKkJmjNLnJkJkLlKjJ%jLnKjMjk%kkJ0j6OKjLkJ%J
6218F59jLj%kKJ%j%mK%jJjjMjlLjkJLJlJkKljjKMpNlKjNlKlJjjlMJnLKl%lKLmNmLjjJmKkJ
6211F53KlMLlk%%KmJKkJKk%kKkjOmJ%nL%kMkLm%KLmjKkJlJLklNlMl%OnOpkOnJJlJj%JmOkj
6205F49jK%mJJKlJJ%%JJljNmOmkJLnKKlKkKKjlMkKmJMmMjoLjPoklO%jNj2OJnOkJjJkLljLk
6198F47jj%JKjlLJj%Ljk%J%kLjj%%JjMkkLjJmkNjjJlJ%%%jLJlJj%JKkmJjJ%%JlM%lLlKlJK
6191F45Kl%kKJlMpL%MmKjKjl%LjkJLJlJkJKj%kjkNkj%LqNlNmNn%JjL%%%l%Kj%JjmJJL%lKk
6185F38%JLj%mKm%KJK%j%%jJKnMmLoOJjjlOkjmMKjjpOk%JmLJJj%k%LjjjMKj0OkNnkLMnJ%K
6178F37KqNj%PklmLk%nKNmlOqLJ1rJ4j7%kJ3j5J0oK1rk1RqJ7pK2l9J1Rj%LnkMJPj1LkkKJJ
6173F33JljKLmkMJJl%lLkLoPnLKoLJoQj%nlQNj0LrK5j3K0j2qNj7J0pkJ1mlLKNpMlljLKn%M
6167F31kkLMkl%J%lPoMqLQpJ%kNlJKnMjKojMkjL%JJKnpNOklJoP%kLjjjkNj%j%%%%kMm%JkL
6161F28jkJjjMlJmJKk%%%JjMjmLKJmKLnjKmQnMnLnMjLLnKKn%KmMkJJjJ%kJkJKkJlLnMlJjJ
6154F22jKlkOJnJkKK%mKnO%Jl%jNmJKmKj%kL%mNmLkLJj%MpK%kKjJJjnMk%MljK%KjjJlJMmj
6147F18KJjnNKkjjjNnJJ%jJJjmQnjMqLJ%kNoMjkKlKJJ%jlK%KjkjJLKklLljJ%J%jK%lKJ%l%
6141F14%jOkjlJ%JjKlNlj%KJkjKlPnJjjjLKk%jLlJjKjmK%j%JKkjjJ%KmNjk%MnLjJm%KJJk%
6134F13JlJMklNjKmLlKKlJNoJjNkoLjJl%JJKmLllLjLJmKLoL%JkKkLoLJlMk%jJJ%%JkKmNkj
6128F11oPmnJ0Jj0%J0kpJKOojKNplPrP%JJnMJnJJ%KlJjKkJj%Jm%N%Mo%jlN%nK%LlLlNmK%J
6121F09koMNrNjQj4JKjLKM%llJ%JJlmNmM%jLmLl%L%l%JjJJlJMjJlJK%l%%jlNKqN%kkMlKkJ
6115F02jJlMlNlJ%Jkj%%%MnNljLlNljJlJ%JJkKmL%JKmMjlMqLjOoLlL%j%kMjj%jJJmMLkoMJ
6108F02LJpKLkjkL%m%PmjM%jnLJjJlKKkjlJL%ljKKmMkLoPoOnJKJmjKLjjKkJjkOljMnjNmKO
6102F07j0N%oJjjO%jjmN%lLJmjL%kKljKKkKlMpNkMkNoLl%MmlLkLJoM%LmK%koNLoOl%%K%Mp
6095E94kKkLKkjJNkllNkjJLkjlNjK%jjLqNjJJk%JjLkk%JjJ%k%jJlLJJlOkkKNnlJMjnkLjK%
6089E94NqLjjLlJm%K%LjlNmKlJKMoL%kjK%jJjjjKkKMmjLkn%NJmOoMJpKOkjMljlmQmKkMmlK
6082E88NkkkLkKJ%Jk%K%llMkKjjKKmLjJmJJkLJLlknRmkNj4J3Lp%J1oLj2QmkMkkNoQpOpM%J
6076E89KnOkkjlKL%jMnJJkJkJKLJqL%Kk%MJo%Kl%NnKlJ0nKlj4J8oJj1J0kkJjPJnKmJ%J%kO
6070E90kkJ%LmKkK%lNlJjpPkjLJJqRnPlNj1NQj3JJJkMJoOj%LpKJk%%%%jOkmMjmNnL%%lNlJ
6063E86kNnk%JJjlPjj%jkRrOpJJNnjKMk%lLnLkjLlNlJkJKKnLLjlJLJqLJmKMJlnKLjkK%jk%
6057E81J%J%MmmKMkjJKmL%Jl%%KjkJJ%JljKlLJl%JPqNqQJmjjNqKKlKKKlJjKlKJmM%%jjJjL
6050E84lj%MlJlLjKkKjJ%%kK%%lLlJ%j%MmmMMo%%NJjmJlMjkJMpO%j%j%%jKkKmLJmJLlMjjj
6044E79Jl%LKm%LKklK%JjkLj%%%%%K%l%LJjpJJMk%jKlMJjjL%n%%J%k%LnLj%JKkLlnLJjJj%
6037E76KjL%LpJLJm%Om%%jjJjKJNp%LpKKNkl%JlK%K%nNjoM%kJKk%KJpLKlKkKKnKJjK%jkNj
6031E78MlkJkjJKJjKnlJ1ljKj1MJLokOllKMlKkj%L%jjLkkKj%jLkj%%JLkkJLkjKkJJL%jkKl
6024E74k%%NjpKNnJkKmL%JM%jnMkkKKoMjkNjJk%LlKj%Jk%LmMkL%kjJ%%KoKkL%JljJJmNlMj
6018E73mJK%LnLLmJOqKLoNnMmKKjmM%JJl%NjmMkjkMl%jLjJj%%l%KlJMlkKjjJjLJk%JkLJlk
6011E69JlMoMJkLkJ%lQmkMkKkjJKnKK%oOjKmKlJJJlLjKjj%JJ%%KkmK%LlkMkLlKjoLJJlMjl
6004E67MoNKoMmOlLnjOklNn%MlJjjNklKkMlLmK%KlLj%Jj%LKmjjJMpMkKj%jMlLnkNlLMojkJ
5998E67LmNjlKnLJjKkMlJ%kJLmK%%k%JKmK%%KmKKkjL%%lKjKmL%KkjJLkjJ%%%rQ%kLJmK%lj
5991E65KKnMlK%KjkKkKLlkK%kJnNJlKkjL%j%%MkjlJK%KkjK%jkL%jKJkkkkLJjMmmLJjkNlL%
5985E67k%jJL%mKL%mLo%L%JJ%LmmMjllOK%klLlQjj%LnKqO%jJ2j5LpNj5K8k0OJKk%NLj0J0o
5979E65%%KnMkLlKkLlLkjkL%JjlMklKLlkJNjJoLKlJjjkJ1j1lM%oK2j0%jkjJ8l0J3kJjoJ0K
5973E68o%MKj%mJJMrQmNoK%jjKJmJlNKnLmLlNjjNlJmLkKmK%J%nNkjLkKmLLkjLJnLj%%mNj%
5966E65kjKKlKKkj%%kJLkl%OoNjl%JJjK%j%KlLkjJ%j%Kk%lNklLOokOkJjjk%JJk%JJjKkM%n
5960E62K%JlMkjjMl%KJkMlklM%%j%JjJkKlK%kMmLJkkPn%%%%N%oLqNL%Jk%ljNoKKjj%Ljj%L
5953E65%lJjMmJ%KkJkj%jKjjJj%J%kKMqP%KrM%NoM%k%Pj0OlnjQk%k%j%JjKK%kKk%j%JJJmL
5947E62mOqMjjL%%j%jJKJnMjkKjKjLlKjjLjJoLJlLJkjjkOkNmJkjjJ%JjK%kjKJk%JkKnOlJk
5940E58%NnLnKKKJJnKlJJLjjLmMjkMkj%JNrJljMKl%KMmK%nMjlLjmKKkKJmJLJmjJJLmLJKjl
5934E60J%kLk%kM%mL%kNkkJkjM%kjOnNKoklLmOlJL%kMn%Jk%JkMkKjkLkKk%J%kK%JJkl%j%N
5927E61%lNokMjLjklO%kJMloJ1nmOjj%%mNJoKLlKjJjkLk%%K%LmK%JmJjL%lkJJ%J%jmMmJN%
5921E61jNqj%LnLLlLlkKKK%Nq%KmJL%%jJjKJlLk%kL%kK%j%KjkJjJlKl%OjKJoj%LK%KlJnLn
5914E55OnLOpJnOJlJKKnJ%jLJjkJ%jNoK%jjK%%%jKkJjJKl%lM%%%JjJJkKnLLkJk%j%lNl%Mj
5907E61JjoMj%lMJmLKkMjjjnNLo%Lj%jJ%kjLLjlNjlkLj%JJJmJ%%%jMlKljJMlJ%%jmP%ljKo
5901E54KKjKmPnkNkJKoLOnJJkjJL%jjLkjkJjLkkKjJJ%j%J%%J%jKk%lK%KkL%JlJkjJ%KJnNm
5894E58Kn%NlLlJJKkJj%KmL%jMkk%%%jLKlJl%JJ%%JjlMoMJ%jjjNkkOo%mMKMpJN%qM%JjkJK
5888E60kJlJJLjlJJkKJkKLrNJLmLkmOmKj%KlMmJmLLKkkLJmjJM%j%jqMNj3J%%Rj3J7p%NmkN
5881E60LoMmJ%KJ%nKLmK%KlKKoLMknKlN%kMmLm%KLJm%MjkNj0MNJqJ5qkjmMp%J3j1KJnQm%L
5875E61mKnMJkKK%%k%LlMlJlJ%Ml%mKkMkLlNpN%JlJJ%jjKl%%JkLJ%mOmKlMkKoL%KkKjJ%jK
5869E62lLk%%%%LlJjLoLjQj0Nkj%LmL%KoQlj%nPlkKlKjkOlOnJLkjjjJjjOnLj%LoMJKmjKmM
5862E62k%JJk%K%kK%%lLkMk%kmMJjkjKJl%JKkJNJoJmQqMnRjkkMkLmKJkJLokQkmkMJ%JKjjk
5855E61kLjN%lJnLk%JKjkjK%J%%Kk%LkoNKmjJOnj%JNLq%JK%mJLlJJ%lLJj%j%JJj%%%lMlNj
5849E65jljQmjJjjJJmM%lMpKjOl%KJJklJKjk%KKnj%M%jKJJm%JJkKkJLkj%KnMjJj%MmnJOJj
5842E65%kKmK%JKmJJl%JLkJjKKnJl%J%jNmjOl%jJlJLjkJjJKJ%Lm%jKmK%KjMlJk%%J%%mNjl
5836E62JMjjjlKJkNlJLkJnJNj0kMKOjn%%nOLkJK%kKnOm%%J%KJkjJjJjLjkjK%mK%%lLkKKjK
5829E67klQmjjjkL%MmjNmlkRj1QlMjk%KkL%%Lm%LmL%mM%%j%jjKjkJKj%jM%l%%mK%L%JlNn%
5823E64JJk%JLqNjlMj%kNjNn%%KlJKj%kJJJjjK%JnJjLl%K%jjJJkjM%jJnL%jKKmN%kkNoNlJ
5816E67nJNJoPqNN%oKOnlNnLlL%jkKjlMj%%kLkjJlMLnJLlkK%jKk%J%%JKjjLjjJkJmLKkLJo
5810E65PoNLnlJOnMjnJJJjkkKLkKmOlkLj%%%%kMlMnMKnKJkjjK%J%Nk%oKLl%LjklPmm%OKKm
5803E70lPqNlj%Lk%KJlkMjJlJjK%%KJKjmMJjmLJjjKnMlOnKkjJLkjKmMLllJ%OpLkJkjjJ4j3
5797E68jNnJMoMJjJjJLkJjmJK%%kLMl%JJJllLJmlOkLJjkjJLMqKjMk%jJkPqQj1JJOKnmlJ3p
5790E72KjqMNnOjnMNoJKjnNPmqQnljMQj0R%jmNojj1RqKJ7qmKPJ0j8J1J0l3JL0k6L1lk2PJ1
5785E87Ll6J3J6k5L9j9RkklrKjOnkQJlKoJ1j1jKK%JlLklJlLJNmnKLmOnjKJ0qMJ1j9KMK1ll1
5779E64M1k3l3L3k1J1Rj2j5K9j4K4Ol3%K7j6N%Kj4lJ0R%j0l%oRpL%MrQoPmoPNMjnMn%lNnJ0
5774E82pJKmNmLkjmMkP%nNmPnKJlMj1LK%J%KmMmjjRoJoO%%mL%mLLnMJnMJljNkkNmkJKK%kk
5768E75%K%mP%mKjkJNrPjQonk%MNpMlL%nMKkkMjjk%L%j%KjjkL%klPjoLj%%Nj%mM%jjKL%jj
5761E81Jm%MlNjk%lLQn%km%%jMKkjJJ%ljLjLmJJ%lLlKmKKjLKnKkL%jKj%jJ%jJ%JkK%LmKmM
5755E84%K%pOjKknOKkmKkLkMllLj%%%KlKKljJjJmLL%%JmNlK%nJLjJkLkKk%%%KKmLmJJMlpM
5748E82%%J%%%KJlKKlkJJLkLl%JlKjkJLkjjKjMkJJjjJkj%JkMkkJJKjJ%%OnjmJMjJLkjjj%j
5742E84jKKJ%JkJkLKnK%jkMJkjOnJpOJlKjLk%JmKk%KKlK%jKKjJljPoKjlMkLjmMmLLo%OLlK
5735E94%o%OlJnMJjmLLnJLjlL%k%LjJjJJmKKJK%%l%Mm%mKLk%lJMmjMmlJOLoKLklMKkK%lMm
5729E93%JjJkJJljLjLmMk%kOnMnLJljNjLkljKlOJkkJ%knNJl%NlJ%Jj%jjNnJ%MKoJLjkj%%L
5722E96kLlKkJkMkKkKKlKjmLKJljLklKKmL%kKkjlMlJ%%MjjM%kjMllLNmJjKjjkKJlLkkK%Lj
5715E98lMjj%kKKoQn%jMkjLkjKJlKjkLjKqKNj%J%j%%LjoOkPqJMkj%J%kMkJlNl%Kj%JKk%kN
5709F04klMkJmL%%JnMjMmNlJJoMK%klNjlMlkMoNmJ1mpKNk%LlJJlK%jjMlJkLjK%JjjmL%kLK
5702F07lkMKnLlKjLkMmJj%Kk%Ll%j%KJjoNjk%OjjJoNjJjkJLlMlK%jmMjMjjlLjj%K%lJJM%l
5696F07JkLLoKk%J%KKlKnKjMjlOlKk%JkKmOkjjLjjKmMmNmLmLkK%JlPo%%kLKmLjjkKKLjJp%
5689F07LkNlKJNrRj1RmjLj%kMrMOpLMmKLQj8NmNK%ljkPmJKkKlkOj%%%k%kJ%%J%%Mo%KmML%
5683F16LoJLmjlQJrJ2Koj0J1%NqPljPj2j%jPmlPjkjMmOj%kKoKNkjKklkJJNnMjNlnPjoJM%K
5677F21r%MmMjLLnPnlJ%LJKmMk%Jm%L%k%KJJmJJ%JJjJlLJkkKjjJkLJnNk%jQMpLrKKnPnlNj
5670F20KkkOl%jlM%lMLJj0QLkj%JlkL%jLjkLkLkjL%%Jl%kKJJnLKmJJKoNKm%JKJk%%k%LjJn
5663F21OkmPmLjNnk%NkmPoNnJMkLJjmMjkJjLJnLJklNl%lL%kK%%%MknM%JjK%%j%lNkkPnjMJ
5657F33jnJL%kkLjJjLjkJLkJk%J%jLjkKjj%%kOmLnJjJKLkLkJj%lNjLllK%jLlkMlJjJJkLlJ
5650F32kJLjjLKk%%lLlLjkKlLMljjJ%%%KkKlL%%JLjJ%l%JmNj%mKjL%jJlNpPlJLlLLn%JLlj
5644F39%j%JjmOnMjjJJjKmOmLlj%MJJkK%lKkLjkJ%%KlMjnJKNkMpJkkLNjjKnjLjkKJkKkJK%
5637F44lNmNlJjjjKjLlK%%k%NlJ%JlK%mN%jLJ%mLjkNnKkLrJ0mKkPpNrJ1onPlJ%j%jLJjJJK
5631F52klKKljJ%JjJKlJKkjLkK%%lKKkKnLJmMkLJnMmK%kOljJlPjjk%%%KkLm%JkMjkJK%nN%
5624F53%%KjJkJJjMmmLj%KkkN%%%lJJjJMoMjj%%KjNnlPnM%nQoJlQn%J%jnQlK%L%mKJjjNlJ
5618F61jkKlNnjKJjOljjKlK%jNnJMmj%kNlKkNmK%J%JrJ3lrNKLrRjk%%JL%jjJlLnKLklLKkj
5611F63%K%kNkjjjJKlLKnMjjKJnKlLKnNmPlJKrPLjnLKKkkLkjKkjJjK%jJ%J%%JnKLjJjnLkP
5605F73m%jM%mNJk%lMjlMjl%KK%%jKjmLKnMjlmRJjmLkLJjJ%%%kjK%kKjJkNkK%kkjLMmJjJJ
5598F77%MjoK%%JkL%mjK%K%JjlOolQm%MpPjKmNpLLkLkLnjJK%%JJkJkKjLlJrJ2j%lLJjLK%o
5591F81KJnOMJmj%%o%J1pNm%jNj8J0j3K1k3J7J3pkjJjJOrO%kjkkMJjkJjLkkJ%LlOJ%kJlLl
5586F87MoL%Kk%lPl%lOjjKLjqqK0j0oK7k4MQj1J6qlpKRj4RPnKj%J%lMmKjJKn%RrJpQPpL%m
5580F91MkJljNJjpOJjKKJmJJ%MnKoPk%jO%mmMKk%LoM%kJJLlJj%JJ%jJmjLlLJmPjJmJ%JjKk
5573G00%JJmKMjmJNn%MJJoNJk%NjqNlJ%J%kJkOnKkLkKkMlJKkjJ%LjkMkjKj%lKMlJJnLjjKj
5567G06Ljk%JLmLlKmJ0oLjKkKnKL%%l%JJMp%MjjJkMj%%jKJkK%kJ%jJkjLJ%lKMmkjLJ%KkjL
5560G16LoJMlNoJ%OKnJjNnoMKoNJlL%lLkMkjMmKkKJ%mNnKjJJ%mN%%kJjJLjlLjL%lkMj%lJK
5554G21JjJ%KlOnnMKjkRqPnmPl%JkLKlLjJnNjJjJJj%%JjkM%%nLjJ%LoOl%J%kK%LlmLjNrPK
5547G31Jl%JkKMmLj%kLj%jK%LjjkJKnM%%%LmLkjLlJLkLklNnLJkLjj%KoJOkklNjlM%MlQn%k
5540G39RrJjoQjLoPnL%k%%kJMlKmLlNKJnkKk%NkJLm%lLKkKkNjlJLlJ%MJqjJ0p%KnkQjnNL%
5534G49JkKjOlpPknMjMnLmNn%jKLljOnL%KkjJJKoLMj%lMj%kPllMjkJKlKk%Kj0QkRj0P%j%%
5527G56jNoKjKkNl%pRjk%JJJ%KnMkLkJjJjKLJnLkLnMkKkJKnMJlJmP%kj%%lLLj%%JklLLmLk
5521G63jJLjjkMKJmMjjjKjkKL%jjJk%LJjlKjJkKJkjNk%jKj%%lLK%j%jNj%JKllL%jLl%J%Lm
5514G73NkKjlLjLJljkLMkl%JKnL%LjlLKnMkjLlNknRj0OnJKNKn%mPj%L%jjJJjJkJkKLJl%Jk
5508G84J%%KJkkjJNmK%J%jJ%kK%KmjKjKMmJkNkmOoPpLmJLjKLnMjJLmKjJkLlOmKKklLJkkK%
5501G94jJK%KmJ%Ljj%J%LlLnKkLK%%%nLjNlkLjmKNlkKkN%JjLk%%%mMJKlJJj%%kNlkKJ%kJP
5495H11mjjMkkJJ%KjLqKjJLlNl%Moj%MlJ1j1mJ5Okj0PkNrnRnMJmJJkLkJKlKjJ%jmMmKOm%J
5488H14KjKlKj%%JJ%jMoMNqQlmQnkKjJ5j7%KKPqJ1nk%MmjLlOmlLm%JMjjLlKjlLjJMkJkkjL
5482H25NkJnJKjNkOknJMkkK%k%jOllO%jkkOLmoP%lKJlKlKLmOoMjJjJ%kMkjjMnN%l%%MJ%jk
5476H37JK%nJ1ljjjjK%Jk%mOjNkljjJKJjjNnKLlMklLjJ%jjLkNkKjj%kN%mJ%JK%jLljkQm%l
5469H47Ok%jJK%lJKK%oLMklJKqRnJMLJkLnMkJ%jj%LjKjJjJljLjLLmKkKjjkMjJkMlKjLjjkL
5463H64JJ%mMkkJJMqJ1n%LMoOo%j%LJjJ%j%JlNjJjJjJjJjKL%pRn%K%lJKjkKjKJ%pNj%KJjj
5456H74jMLmLl%MLoM%nKKJ%lLKlLJk%KlKKJ%jjjKJjkMoL%kJJL%k%MmjLJJ%%%kJJJJKoNJmO
5449H95mLnKlN%MlKJqNMmM%%lLkJj%KJ%JljJLpNkMoJLJLlJ%PnlLkLkJkK%LljMj%J%LK%pOk
5443I07%MljmM%JLl%LKnLjj%%JLjJlJJ%jjKJJlNmMoLM%kjJjkKMkKmM%mNmNkjOqNOj0Nj0J7
5437I28pJ%JKjljMl%%kNlNl%kKLjJKoNlKjMjMoNpMJkKlJMJmOoL%LJnLjLknNNlkJ%kK%jMkL
5430I38jkK%jlLKjKl%%JLkLlLmK%KjJjNjj%%LnLkKjJkMljP%kj%%J%lMJlMmOmMjjlJLJnJPn
5423I50%jMJk%KkJJ%LJ%oMkKkLMJklJ%J%Ll%%jjN%lLK%kKmJNmKjMqLPjKp%L%JjJMljKj%JK
5417I71lJKmL%%KlK%%jNj%Kk%lLKmM%kMmL%jjKkOklJM%jKo%jNJLJqRklJKjjJjL%kJJjJ%Jj
5410I85j%%LjjJJ%LlLkOnj%KJ%kPpO%kjLlJNl%%Jj%KKk%JNnJjJNm%%Lkk%KlOlJJ%%JlKJjm
5404I99LLjK%LlKKjk%%%lLLkQkmJjKKKrQlJlLLkLmKmOnNjJJlLlKjKL%JmKklQj%Kk%kMMpNM
5397A030lm%OkmOjl%%JjlQjKj1J5MqJlQrJ2j8OlKOj4J6KLNj7OoJJ1qNKjpRJkjjJRkmKjJjJ
5391A043jkNmNjkjL%L%lJjLjjNKjpJ7j4oMMJ9k4lJJ2j8K2j8j2J1jJ1oJ2lLpQmKJ3j8PlLKJ
5386A060lKJJJ%jMrPrPnMM%nkPJlKKjnLjMjmNK%%JjMmJKlMlnMLlPmkJM%lKLJjjKJj%LljK%
5380A078%JJ%kjLLnJJK%JJ%%lMjLj%KlLkMk%%Mlj%JPj3OljPJJnMJJjlNKjjJjjNnMkJkLj%J
5373A099MnMmJJ%LKljJLkKjK%kLjJ%LmJ%L%%JmKQpKKqJ1lKnLjJlKJ%jLkJJ%MJlJjKjJKKnK
5367A121KjM%lJmMjJMlJKkJMlK%%%j%L%kMlj%%jJ0nMlLKlljJMKkjJ%K%j%%KJ%JKoLKLkJkK
5361A146jKjKkLK%nOJmKLmMmKjMjlMJjl%PlkL%JpQjjKJ%LjmMKjKjjJmNLmLj%%jLjkLJlNlL
5354A171%JLkjLmMmK%KjjJ%%kPJnJJJMpKMoPmJLkNjLkJ%KlJJ%Jj%LjJLljK%KKnLkJKjJ%JJ
5348A196KmKJ%%jMkJKkKjkOjJmQlLnmRmJ5j3n%J0pLN%nPjmJKKK%jKmKJ%%MmOl%Jk%KJ%K%k
5341A221%%JLkLjJk%K%NoKKjOoQnpKJ2j2PLpjRm%OjlMNloQj%kKjMkjjLNpLLkJmNkJ%M%lJJ
5335A250%%MKlkJKKlK%MkMmjKjKKLoJ1rKKJlMmPm%MnJJLJj%%MlkJNJm%Nk%%MjjL%JnOkjkM
5329A280K%JJjJmL%L%jMlKLmKjLkKlJJ%%LLlLk%MlKjLkjL%jJKLlkOlKjKkLKkLm%N%%kLkKk
5322A309PnlKN%mLjk%K%LJNj0NLqNQljkJLjJK%Jj%%jKJ%KJJlJJJjMJk%KLlkNJLlJ%kK%KmP
5316A345mNlJklRmKLkMJlL%lJ%Lj%LkK%LkkN%kLlLkJKKkL%JkNmK%J%jJKjKLjlLNpOlK%Kk%
5309A375KjKkOmNLllKJ%Mk%jkNkkLNl%LJlLj%%LJJ%jjOlkKMKoLLlJLjMkjKJlLJ%NJljOmlQ
5303A417mOJnK%JjkPlmRnKkJK%%%LJKjkLLnOkJkKkKLlLMkJJ%%kLkNjLljLMm%KMlLlMMLNj4
5297A448NpJ8ooKKrRmNJlOkLJlJJJjJjMJJKm%%%%MjLJ%Lk%%%KJMpNjJkRqQkNqMnNoJ8j1kL
5290A487JJMqJ0nJ%%JMKmLJLoOk%%KjMlKLlLMnlN%mNNKoKMlKNljLJpOKmKLjJ%LjjLnNJnRp
5284A523OKjK%LjKjMnKKJ%%%kLkLKjjKKJKlM%%MjjLKKqQkLLKnK%mKJ%M%JnjJ0nMJl%NNnj%
5278A570KJKlLK%jJjNkjJKJ%lO%JMj%%nOJKjJKKlkO%%kMkJ%J%NKjj%KkMkLLk%K%KjjJJKKk
5271A617KMl%%%LJKj%LJj%%Lk%MnKLjLlOkKjjN%Nk%%jMl%MjK%KJ%MkJNnMLnkjRoQnOkkOnJ
5265A664JJKJJjJKJjJ%NjlOmMkKJKKJ%kKkNk%KK%MJmOoLNjLlK%lMLmOkKjkOkJKJJklLK%LK
5258A718jJkL%JKjLK%JKkJKjMJ%j%%KJJK%MjJMnLjPnJJOpQpMMl%MkJnJ0m%%KJNn%PlL%jLK
5252A771kJLK%lMNoLjLkKMKkjKMKnNk%KMjK%KjJNoNnRmJNLmjlJPmjP%KlK%%%MJjMlL%JKJK
5245A828jjK%KjM%lLLJJJJKkMmLKkMJJ%LkLj%LkJ4qLLpJPKjLnM%%KmKNkJ%KKKlKK%LjMnKO
5239A889kj%LJl%LRljJJ%M%KkjMJKJJ%JJ%%JOkKKKlMlL%%LKkLkLKJlMjMJJkLJJJLlMJ%kJL
5232A950%%%LKmNOnLjKPqN%%LLjKkNJjK%LlkOkLLjjNkP%k%jKM%JJ%JLjkNKkJLJlOkJL%KkL
5226B017%KMJnLJkP%%jMkKJOjjJM%LnQKkKoNKnJ3oNj%Jj%NMkjLLjjkN%KLKkJ%KJLkNkJJK%
5219B086KjLKJNKkkNj%JMJLK%kMklLPpOKLnKKOmNlKk%PJlMKJJlLKNj%%MJjLKJjJJjJKjN%J
5213B162KKMjjOmLkJLLJ%%jOmNLmLMnJ0pMMJKkMLlMjLLlKNnKMjM%%LJJJJKmMLkLJLMlMkLK
5207B244JKkK%QnOmKMjkKjNjN%%%Pk%JMLJJKlNlN%%KMj%KJMkjMKL%KjjOKkLLLLkJLjN%%jK
5200B329NkLMmlRmRk0J6jJ6j2jJ3nlNlOLMkk%O%kJ0lKkNJ%%M%lNMnNNnMLNmLJ%KKLk%RkKJ
5194B414J%J0ooPJ6j2ONKj5lJ2J4j0lPlkQ%N%NqJ0JJkjN%JOjKlNjLKOnJLM%K%NnNL%NoJ0m
5189B496LMj%KLMmMJKKJKNj%KJ%%JJQkjMLKmNL%JJKNlN%jMjL%KNJ%KJKLkLLKkLMMkPn%KLj
5182B597NM%jMkNjMLlP%lOlLM%NnRjJKkNK%MkNKlLL%JLKL%M%MlNjMlOjPlKJM%K%JNjJM%MK
5176B710%MLlNkLJMLmQjKJMJKJOj%KNlKLLjjO%LjKK%NkMO%%LkJNJO%%%M%M%OjL%KJKM%KJL
5169B827KRlmQMl%LLPnLLjPjJJLMKj%KLLjN%KKKLjMKLLNjKL%JKL%KJKKJKKLJMjNJJKKKJlN
5163B951QkLLMJ%KLjlPO%KJKKK%NK%N%KK%N%KNjNJLKLJLkNJO%kN%KMKKJLkML%KJLNJKkJ0m
5156C086LKJLJOmNKOkJPJJKjKOJNJNkJNLjRmMKjPjMJN%OjMlLKJMLNjMjQj%JMMJQkJmRJJMN
5150C238nJ4lLjK%jPjOLjLLLNJLJ%MKKLjMLMM%KLJPjKNJ%MKPlNLKjOK%JJ1mNjJ1Lj1J2j0J3
5144C382kQqJ1kkOQLJmMOLlOQjkNLMLjLLLjNO%%MLMNmLKMPjKPjKMJJLLKLJN%PMlOLKJJN%O
5137C547NK%MMJLlOONkKNjMKNK%NKKKMJNJKKLKRkM%PKMkOKJP%KMjPJJLPjRmKMQJMlMPL%O%
5131C730P%KKMN%KLKLLLMKJJ0%MKJNL%PlMNNJJM%LPJM%OLOjMLMKJNKjOPlN%NPkONjNKNL%O
5125C927MJOKKMLOJJLLOMjMNJKLLKLJQMMjNKKJJ0KJKMQjNJOKLKRNoOMMJKMkQQJJLPOKNjMN
5118D142KMJNKMMNKN%LLNNJKNL%OP%MNKMMJNMKNLPkQKLMN%NKOM%JOMMJKJ0kMNLOKMLPJNMj
5112D368NKOMMOMKLOLKMMKO%NQ%NMJMOJNOKNM%NPMNJMLJNPMLJOKNKQMKMOkRKNMRjMLKQ%PM
5105D630LLOJPLOKLKP%RjJ0JLNNKPMMNL%OLOOPKKNPkQRPOj0J6NpJ5Qk%LJ2L%LRmJ1KMKR%P
5099D888P%LPLLRJLNMJPLOPPjMLNJ0LNMKJPLKJ0PNJRMjPPQlJJ5j0J9mJ1J1KmMJ0kJ2MOMJJ0
5094E156KjJ1ONNKMKPMQPLjMJ1JLORPlNQ%J1OKOJRKMNJ0PMKPjQKJ1NKQNLLJJ2J2LnPOPNRK
5088E452MLRNKQMNPJOMOOPONMNORJNPNJQMJ2mJ3MNNLNJ1jJ4jLQMQQ%OONPPKQOPMLNQNOOQL
5082E794PNNPLPNNROKROMNNQNNORPLLJ0OJQNOR%J1OMOONJ3jOMQROMRKRJ2%NQQRJPMJ1MNMJ0
5076F170jJ1QLQNNJ0MPPKOJ1LOLJ2OKROPPMQROOOROKJ0OORRNQLJ0OOMPONJ2NQJ2jJ2jJ6KM
5070F542J5%ORQQ%J5NOOPROLJ0NJ0PPNMRRQNJ0LJ0QMPRQNQRQPNRQNOJ2OONRPNJ1PRPKJ5NJ0
5065F969OQQMJ0QOJ0LJ0POJ0RPQJ0KRRJ0NRJ0NOJ1QOQPJ0NJ0ROJ1OROPJ2RNQQOQRJ0QRNJ0
5060G390POJ1J1QQOJ6%OJ5NQQRPLJ5PJ1PJ1PJ0NJ0J4PQRPPQJ3NPJ6PPOQJ3QRJ6%J0J1J0OP
5055G826J2J1QJ0J2NQQJ2QJ2PRLJ2RQJ2J3OJ2%PJ5J1QJ2J1OJ2J1PJ3RJ0J1OPJ3QJ1J4OPJ4
5050H252NJ3PJ0J3J1OJ1J0J2PJ0J3RJ3QJ2RPJ1J2J2QJ0PJ6PJ2RJ5QPJ3OJ0J2J4QPJ6J3POJ2
5046H696PJ2K1%J9J1QOJ4J1J3J2QRJ0RJ6PJ2J5QJ2J0QJ3J3RJ3J1J2OJ3J3J3RQJ8RJ3QRJ8J1
5042I173RJ3J2J2OJ7J1J4NJ5J0RJ6J2J3RJ4NJ7J4J1J3J5ORJ8J1RJ6J0J2J1J5J4J0J2J0J5J0
5038I633J3J5J1J2J5J2J2J2J5J2J2J3J3RJ1J9J2QJ9J0J1J4J5J3J2J3J4J3J5PJ5J4J3J0J9R
5035A0095J1J5J6J0J4J5J3J4K1PJ4J2J3J6RJ7J3J4J6PJ7J8J4J2J5J2J2J8J1J8J3J4J7J5J1
5032A0579J6J3J6J3J8J4J0J6J7J0J9J2J6J5J4J4J5J3J5J7J6J3J5J6J5J4J4J4J7J2J8J8J6J4
5028A1084J4K3MK0J3J1K3J5J5QK4J2J4K1J4J7J4J8J7J4J3J3K3J3J8J7J5J7J8J5K1QK2J7J9
5025A1644J3J3K1J6J4J9J7J8J5K0J3J8J8J8J6J6J3K2J7J9J8J8J5J5J7RK6J7K3J2K4RK5J1K4
5022A2243K4QK1J7J9J5K0K0J6K0J8J6K1J5K1J5K2J8K0J7J9J8J7J9K1K0J6K5J9J4J6K4K0J9
5018A2873K4J4K1J8J8K0K1K1J7K0K2J7K0K1J8K3J9J6K1K4J4K6J8J9K5K0J4K7J6K8J8K2J7K4
5015A3556J6K7J8K2K0K1K2J9K5K0K2K2J8K4K1K2K2K4J8K1K6K4J9K3K0J7K1K9K1K6K0J8K7K0
5012A4291K3K5K2K6K0K2K1K1K8J6L0K4J8K6K1K6K4K0K9K1K4K3L2K0K7J9K2K9K1K7K6K7J9K8
5009A5098J4K8L1K1J8L2K4K4L1K4K3K0K8L1J7K6L4K4J8K5L1K2L1L0K2K4K4L1K2L1K9K3L7J7
5005A5965L1K3L3J9L8J5L4K3L6J8K7M0K4J1N0ML4M6KM7L9J9J5M7K2N2KJ9M3J9K4L3L1L6K7
5002A6948K4L0L2L0K7L3K3L2L1L0L2L2K6L7K4L0L4L1K8L3L4K6L4K8K7L5L3L8K9L1L2L2K7L3
4999A7986L2L7L8K5L2K4M2K7M7L9J1N7L0J7K1O4K0K3M6M4J9L3N2L8K0K4L6L7L8L2L2L7L7L4
4996A9131L3L9L6L5L4L6L2L7L6L5M4L3L9M0L1L6M1M2K9L8L9M0L4M0L7L5L7L7M2L9L7M1L9L7
4992B0391L9L9M1L1M5L8M3L8L6M8L4L5N2L7M0M4L7L8M2M2M5M3L8M2L6M3M3M7M0M5M1M5L5M7
4989B1780M2M7L8M7M2M3M6M3M3M5M1M8M3M3M9M1M6M9M2M7M6M6M2M8M9M7M2M8M6M9M8M6M9M2
4986B3313M8N4M5M8N2M1N0N1N3M3N2N2N1M6M7N4N1M8M6N7M6N0N2N4N0N2N2N2N2N0N4N2N2N3
4983B5023N7N0N7N1N8N0N2N8N5N1N7N3N7N3N9N4N7N4N9N4N5N7N5N7O2N7N5O0N7O2N1O5N6O5
4979B6933N7N8O3N8N8N8O5O1N5O0O7N7O7O3O0O5N6O6O3O1O3O4O5O4O7O1O4O5O6O2P2O3O6O9
4976B9062O5O7O2P5O4O9O7P0O9O6O8P0P0O9P1P3O8O9P1P1P3P1P2P3P1P7O9P7P0P0Q3O5P4Q3
4973C1464P2P9P0P7P8P7P6P6P7P9P8P8P5Q4P3Q0P8Q1P7Q5Q1Q1Q0Q2Q2Q2Q4Q3Q4Q3Q6Q1Q4Q8
4970C4175Q3Q5Q6Q4Q9Q6R0Q9Q5Q9Q4Q9Q9R1R1Q8Q9R1R2R1R5R3R1R2R4R4R6R5R2R7R3J01R2
4967C7161R1R9J03R4J00R9J00J00R7R6J04J00J02J04J00J05J01J04J01J07J07J01J05J08J09
4964C9698J05J07J07J09J07J09J10J10J10J13J10J09J15J11J12J18J12J13J16J18J12J14J20
4962D2265J19J18J19J18J19J18J19J30J19J16J27J24J16J33J18J33J25J23J30J24J24J31J30
4960D5098J34J27J27J34J33J34J29J34J36J32J37J37J35J40J36J37J43J38J39J41J47J39J40
4958D8227J44J47J41J45J52J47J41J54J42J52J54J46J52J52J52J54J49J62J52J60J56J59J62
4955E1702J53J70J54J59J66J57J76J58J64J69J63J66J77J72J67J65J75J73J72J75J77J74J81
4953E5565J80J73J83J82J76J85J84J84J84J87J87J86J89J86J90K00J87J90J98J97J90K02J99
4951E9884J99J94K06K01K06K01K06K08K07K07K13K05K14K12K14K20K08K25K14K28J99K31K25
4949F4727K29K27K27K22K33K24K32K31K36K39K39K32K38K43K39K44K45K47K45K47K52K49K52
4947G0199K54K55K56K58K59K61K60K61K69K67K67K70K70K75K68K78K77K77K80K81K87K86K83
4944G6398K91K88K92K93K97K96K98K98L03L05L08L05L09L09L14L12L19L21L13L22L29L23L28
4942H3471L29L32L36L36L39L38L42L43L46L48L51L52L56L56L60L62L61L67L69L71L71L75L79
4940I1590L79L78L87L89L89L91L97L95M02L98M06M09M05M15M15M19M21M20M28M29M35M31M43
4938A00971M36M44M46M50M53M55M59M65M60M70M68M73M82M81M81M88M91M94M97M99N04N09
4936A11376N13N14N19N23N25N32N34N37N39N49N46N53N57N62N66N67N74N77N86N86N85N95
4934A23515O01O02O05O14O14O23O30O28O37O41O43O51O56O63O62O70O74O87O85O91O94P03
4932A37789P07P14P24P23P28P35P45P49P51P60P66P75P72P88P96Q03P96Q11Q18Q27Q36Q30
4929A54743Q47Q53Q60Q66Q77Q82Q88Q98R03R14R19R29R37R43R54R57R72R78R85R95J005J010
4927A75115J025J029J043J049J059J069J076J094J095J109J119J131J138J150J162J177J181
4926A93821J196J205J219J226J240J256J263J275J291J302J314J332J336J355J366J383J396
4924B15776J414J423J433J450J467J488J497J515J528J545J559J578J591J613J632J643J661
4922B41813J685J697J718J735J754J779J792J812J834J855J873J893J918J940J958J989K010
4921B73055K023K053K079K104K126K148K175K204K229K251K283K314K335K365K394K426K455
4919C11019K486K519K545K582K614K645K679K713K752K792K818K861K895K935K979L013L053
4918C57900L101L137L183L228L268L318L363L407L462L506L561L607L658L716L771L823L883
4916D16892L935M001M060M118M178M249M311M382M445M520M592M659M743M809M896M973N056
4914D92819N142N223N311N403N493N590N687N784N887N989O099O206O316O437O553O673O796
4913E93408O924P059P186P333P471P620P764P926Q074Q249Q416Q588Q758Q952R132R338R532
4911G31730R741R954J0173J0406J0637J0882J1132J1390J1659J1932J2227J2519J2829J3143
4910H90354J3479J3816J4172J4540J4925J5320J5734J6160J6609J7076J7551J8058J8579J9137
4908A115510J9702K0291K0924K1569K2261K2965K3708K4499K5320K6178K7091K8041K9046
4907A427105L0099L1215L2394L3625L4955L6332L7801L9367M1029M2790M4656M6654M8794
4906A926816N1055N3515N6108N8918O1920O5174O8652P2425P6523Q0922Q5755R0987R6693
4905B845463J02942J09793J17308J25595J34756J44894J56171J68740J82806J98595K16386
4904D503449K36523K59407K85515L15479L50010L90045M36719M91484N56178O33138P25420
4903I183367Q37003R73152J140920J349853J613076J948848K382925K952213L710042M734381
4902C0825780O139076Q087828J0803287J4541914J9439669K4990669K8848205K5733733J0852730
4901A80262891j0662407k5542806k8656032k4796662j9243165j4342254j0599795p879772
4900C8539998n925685m514820l483473k717672k139394j695217j348121j072245q49163o65585
4899A4128623n11807l80520k66211j64594p2284J3515R5116J74547K53640L34180M17863N06551
4898A4528619O02171P06948Q23426R54645J104287J276883J478098J715156J997298K336652
4897B7524183K749074L255899L885880M678540N688858O994424Q706155J0984697J4064540
4896H8532250J8288270K4148415L2314887M3559322N8290842P4987236Q6587648P7210092
4895E03918962L2428453l2314813p7096092q6472894p4871386n8173452m3440033l2193264
4895A31785481k4024025j8160655j3933191j0849099q565750o848583n536931m519787l719490
4894C5627970l081002k564693k141681j790541j495227j243443j025777q34733o64393n09857
4893B0276623l67088k32569j03195K3931J51564K82520M19731N66470P26393R03857J104096
4892B3752333J333587J600441J915107K291141K746445L304978L999320M874347N992849P443822
4891E9254370R355249J1912930J5388266K0174988K6826437L6048508M8493932O3927383P8970627
4890C70352690Q3592924O2352308J0765666m7494687q0572197q2964204o9626083n3537466
4889A92868951l9928460k9679987k2260601j6930354j3076675j0255760q160085o579213n368620
4888D0629196m428212l687745l097229k620637k231631j910625j642959j417468j225541j060497
4887A7306652r16984p90804o78463n77124m84335l98006l16247k37310j59490q1077k60Q4987
4886A2751539J76972K78471L92896N24555O79003Q63560J088056J365882J715588K163300
4885B1999822K746317L518570M558757N981825P952967J0696839J4472220J9416343K5018825
4884A16362485K8912205K5771264J0758985j0946769k5959638k9101766k5210204j9610137
4884G0976425j4669108j0897461q158042o192110m775040l741695k977205k402943j965065
4883A5197756j626370j360862j150118r80909q43588p31053o37984n60375m95146m39917l92855
4882E978579l52491l17675k87484k61148k38087k17793j99863j83954j69776j57109j45757
4881C447442j35536j26309j17965j10385j03495r7204r1448q6186q1336p6887p2773o8975
4880B278943o5460o2203n9166n6357n3730n1276m8986m6843m4829m2950m1177l9511l7935
4878A628520l6464l5064l3746l2499l1319l0194k9134k8126k7170k6261k5392k4567k3780
4877A244804k3026k2313k1628k0976k0349j9752j9171j8630j8097j7598j7111j6643j6203
4876I93307j5760j5357j4954j4559j4212j3836j3510j3169j2849j2548j2239j1959j1681j1411
4875H05263j1150j0902j0654j0413j0198r968r757r547r345r156q952q780q601q421q254q094
4873F53071p934p776p625p482p339p199p067o929o808o680o561o440o328o212o100o000n895
4871E36696n790n692n596n500n404n319n228n152n054m980m895m820m738m668m592m525m452
4870D50291m382m314m254m187m120m062m010l932l887l828l773l716l662l615l560l506l460
4868C84023l412l365l321l269l231l184l143l094l061l015k979k936k901k860k824k788k752
4867C31888k716k682k652k612k585k550k516k487k458k424k396k367k341k310k282k258k227
4865B90025k202k176k153k128k101k079k052k033k008j985j959j937j922j894j874j858j836
4863B55828j810j798j775j753j736j725j694j684j665j642j630j610j592j583j558j546j529
4862B27498j514j498j486j467j455j437j428j407j396j381j369j354j342j329j319j300j287
4860B03729j277j269j252j240j227j220j209j190j189j170j157j153j143j130j116j111j098
4858A83578j089j081j065j069j047j041j028j021j014j008r92r88r75r69r62r60r38r33r33
4857A64465r21r17r05q91q90q80q74q68q64q52q45q40q31q24q18q13q02q01p91p85p77p72
4854A45904p65p63p49p55p38p35p36p26p14p15p08p04o97o91o89o80o76o66o75o56o56o44
4852A30366o55o34o34o29o37o21o14o13o03o10n96n93n90n88n80n74n74n68n76n56n60n49
4850A17212n50n43n45n34n35n27n29n25n18n15n11n08n06m97m99m94m87m96m80m80m78m75
4848A05980m71m66m67m60m56m59m52m50m51m37m42m38m35m32m27m29m25m19m19m08m19m09
4846I6309m09m01m07l96l97l98l85l94l84l89l84l75l84l71l72l75l64l64l65l58l62l56l54
4844H7565l53l51l49l44l45l42l44l34l37l35l29l32l24l30l24l22l18l17l21l10l11l15l06
4842G9972l07l10l04l00l01k94l03k93k92k91k90k91k84k84k87k81k82k79k79k71k77k69k72
4840G3331k74k61k67k69k61k62k61k62k53k57k58k53k50k55k41k52k49k44k45k40k43k40k38
4837F7496k40k35k35k34k30k32k32k28k30k25k24k25k24k23k20k18k22k12k20k15k14k12k10
4835F2336k11k12k07k08k06k07k03k02k04j97k04j98j98j97j96j99j89j98j90j87j94j94j86
4833E7749j84j91j87j84j85j79j82j81j88j72j80j79j76j74j76j74j74j74j73j69j74j68j67
4831E3658j69j70j63j68j64j65j62j64j61j62j61j57j59j60j57j55j53j53j57j54j53j48j55
4829D9988j52j50j48j51j45j52j44j48j41j50j46j38j48j40j40j39j46j28j44j38j39j37j39
4826D6685j31j38j37j37j32j29j38j26j36j28j30j29j29j28j33j25j26j26j25j26j25j21j26
4824D3704j26j20j23j19j23j26j12j25j18j14j19j17j18j15j19j15j14j16j17j14j08j20j07
4822D0999j16j02j17j08j11j11j06j12j09j04j09j10j03j06j08j01j10j00r9j07r8j08j07
4820C8537r4j06r8j02j02j00r5j03r7r8r7r5j02r6r4j02r0r5r4r7q9r4r7r7q6r2r6q7r2r5
4817C5655q9q5r4q9q6r0r4q4q7r0q6q8q2r1q5q6q3q3q7q7q3q0q4q2q8q5p5q0q7p9q0q2p8q2
4814C2764p7q0q2p9p5q1p9p9p6p2p6p8p8p5p5p7p5p2p5p3p4p6p6p0p3p1p5p4o9p6p0o5p6p1
4810C0214o6p3p4o0p5o7p3p0n9p1o7p6n9p4o4o8o8o3p0q0n5o7n4o8o9o5n5p4o6n8o6o3o2o5
4807B7950o2n9o5o1o2n8o1o4o0o4n6o1o3n7n8o2n7o1n8o0o0n4o0o1n7n6n5o1n6o3n0o0n2n5
4804B5941n9n7n9n2n1n9n4n1n4n1o0n3m8o0n9n3m9m8o1n3m9n9m9n3m3n5m8n0o0m5n6m5n3n2
4801B4133m7m6n4n0m9m8m8n0m8m8n1m9m8m9m5n0n1n0l9n1m9m2n0m6m8m3m6m8m6m6m8m0n4m1
4797B2515m5m5m4m3m4m4m5m5m2m7m2m6m2m2m6l9m7m8m2l5n3l5l9m4m2m1m1m4m1m0m0m2m3m1
4794B1056m1m1m1m1m0l9l7m3m1l6m1l9l7l9m3l2m5l5m4l7l9l7l7l7l9l8m1l8l8l4l9l8l6l9
4791A9734m2l1l5l7m0l2l8l4l8l8l5l4l5l7m1l5l6l0l0l8l7l6l8l2l4l7l2l4l3l5l3l5l1l6
4788A8535l1l7l1l2l5l1l5l2l5l1l4l1l1l9k7l6l3l0l1l0l1l4l2l3l3k9k9l3l4l2k9l2k7l1
4784A7444l1k9k8l4l2l1k9l4k5k5l1l4k7l3k4l3l3k8k7k9l0l0k8k7l2k6k9k9k7k8k9k9k8k7
4781A6448l3k5k9k7l0k7k5k5l0k8k7k7k9k7k7k5k7k7k9k6k8k5k5k7k4l2j9l3k6k3k8k8k2k7
4778A5531k2k2l0k9k7j8l2j7k5l0k8k2k7k3k6k1k4k8k6k0k8k4k4k5k5k1k5k1k6k6k4k1k3k5
4775A4696k4k5k4k1k4k5k4j9k7k2k4k4j8k7k0k5k6j9k2k6k0k1k1k5k1k0k5k5k0j9k0k6j8k1
4772A3928k4k3k4j8k4k3j9k1k3k4j7k4k0k0k2k2k2k0k1j9j8k1k4j8j9k2j7k3k1k4k1j7k1k0
4768A3212j7k3k0k0k2j7j9k2k0j8k0k1k1j5k0k1j8j7k3k1j8j5j7k6k0j8j4k0k6j8j4k0j8j7
4765A2556j9j9j9j9k0j7j8j6k0k1j7j7j8j9j8j7j7k1j7j6j8j7k0j5j7k1j5j6j8j9j8j7j7j9
4762A1944j7j6j7j8j7j7j6j4k3j3j9j9j1j6j4k7qj7j8j2k8oj9k3rj7k1j9j0j5j9k1rj6j7j6
4758A1350j8j6j8j3j8j5j5k1j2j6j4j6j2j6j8j4j6j4j8j1j8j5j8j6j0j6j8j5j6j3j3k0qk0
4755A0823j3j3j8j6j2j7rj6j5j5j6j7qj3j9j3j5nk6j5j9qj0j8j6qj4j9j0j7j3j3k1rj9qj4
4752A0296j2j3j7j3j6qj7j3j6j1j6j2j5j5j3j1j4pj7j4j5j2j2j2j7mj5k0j2j5qj3j5j1j1j5
4748I819j1j5j0j5j4j1j2j7qj6j0j1j4pj6j3j0j8qj5j1j0j9j0j4j2j3pj3j4j2j2j2qj5j1j5
4745I360qj4j1j3j5j0qj5rj2j2j1rj6oj2j5j2j3j1j0j3qj4qj3j1rj4j2j0j1j4lj8j2oj1j9
4741H912nj5j0j2oj5rj1j2pj4qj5pj2j2oj4j0j3rj0j2rj2j1j1oj5nj7nj4rj6oqj3j2pj2j1
4737H469rj1oj1j1rqj4j0j4mj1rj2mj6j0j4j1jj1j7%j1j3pj2j1j1nj1qj3pj2rj1rqrj2qj0
4733H049j0rpj4j0qj0rj0j0jj6mj2j1qj2pqoj2j0j1qj0qlj1j1j0pqj1j1nqrj1mrj0j2ropo
4728G640j3j0oj4rooj2rppj2j0ppj2pj0oqrnj4nj1qqrmroj2j0oj3lrj0orrrrpmj2mrj0oro
4723G202rnj4omrrj1nj4Lpj7lnj2qrmrproj1oj1norqpprpqnprqoj0nppj1oj0lj1nmj4lj0n
4718F783nrj1mj0npqqnnrj0omj4kkj8%nqj0qmqqnppj0lqqrkonorj0pkrlj1j1%porqmj2loq
4713F389pmnj0qnqj0Jj1mqjpj1jpj2%lj1j1Krj6j0jjj4oRj6ronmqrokqnpnlj0onj0lqkrqn
4708F041nmj1pkj0joqoonmpmrrJj0qookj4Jpjj3j3njkjjj9Lj3kj1pknpmjj0j0%lrqmonono
4702E709rmnmlqmj0Kj3pjojqmqpookpmooolommqlppnmnqrKooj0%plppkpnoknnrnololplon
4696E364omnkpmr%rjonmoj0molllj1JopoKj2KprmnoloJj4jjj0mnjplmqmkoqjnlnponlmkpm
4690E061ojnnmplqmn%opljqnlqllkomollpmmonrmKmmomqnkjjj0lopjklj0knmlmon%pmokom
4684D770jonlnkmj0JooJomnkmnomnkjnnnolkj0Jllr%qMj3knmjnpKj0llJj0ojlnJqklnnnkl
4678D519mlqjlnlmjrpKpkllmmlpklmlojqKj0koKrn%jpnjkopMj0komjmlokkloJolmolkpJmo
4671D272oJjqnl%no%lllmlnmlojmok%onl%rjqkKkp%kp%j1LmollnmklmlmnkmjjnnmjknpJkk
4665D048mnklllomKojpjpKojlokpk%oljpmljKojojnpL%onmmolmKno%knLpjmm%lnmkJqlllj
4658C835konjjmkmmlLj1lJlnoOomrkMpLpMonoMj2j1J3qKomnko%jnjnjjlnjmjllo%kljno%k
4652C650qjJnkjJj0kljoJqJnKjqJnkmkJlmmlokJr%%kkknkljmjlnjljnmKo%klmlljmljnkjk
4646C472kklmlkmkjlmljjm%kolljpNmn%%mnm%JnnkmKok%o%ljnJkoKlml%mnkkJnjrLoLmmJp
4639C302JloJkmJnkjpKkklmkoLjpLp%Kjpjp%%oKmjo%%nkjkJmo%jom%lpJkm%mJm%kljlkkl%
4633C152ml%mk%lpj%nJKnkqLjKj0%%nlj%mmkn%jKkp%kkk%oKmmjl%lmJmpLlLpJnkKnk%njlk
4627C008ljJlnljjoLjkol%kkmmKjnLllpLjkmJmjmkkJoLnkJoKmmJ%oKmJnkm%jlmkkKnKql%%
4620B874Jn%jjkpkmJkk%KjlpJlljKkpjmPonj%nLqLnLKnjolLpmJJokkKKp%poMjmLK%j2Lj1J6
4614B764j5pMQnqqK1j6kQnlJ0k9LK2j5jj1kQpqNkoQrMklnkl%jJolJlkk%%mkjoJ%%JpkNpjp
4608B646J0j2jLNj7Oj7J6kkk1RK1j9J2j8PmpOpqJJ0oj1Pknk%%knjKojmKLko%kkLpmJ%j0J3
4603B570r%%Kqjjk%%kmm%Jj0JLjpj%lMj1OMj2K%%lljLnmjkMpLmklJjjljKp%nJjJkm%jjmMn
4597B465%kljKojjJnk%jjnljMkmNj1KkKlqJ%Ln%nJjlJljjjllKkk%m%%nlM%jklkJn%jlmMkl
4590B368%Jm%nl%K%oJjm%kKlmjlJKpKqMkJoLjknMmk%lkJjjj%llKmjKj%okmOmjlJl%l%kkJk
4584B279kkmNll%kMqMJpqJjLkoOn%jkkKmlkMlkk%mJJkjklJlkkLnjj%l%nJjMmll%%jk%klmM
4577B193k%kljkJ%lkmLKmmkJ%lJljkjmLl%nLllLjjp%%lkJkkNnJn%jljKljmJkLll%%kkjjkk
4571B107jNj0JO%qNnko%KjjKm%mlLjlJlmKkJl%k%qOlLrMJkJoJjjkkjjkjlNolJNllqPnJlJk
4564B033KqMJm%kpNJJmjJqNlKlmlLmJ%%kjj%oNoKmLoKl%l%NrJjkkjJjKoJLknKjkLj2J3j6P
4558A966j0J1qOOj2kJlJJmKoj%KnMpjJJJJn%joMjn%kJJjlkj%JlKoLoNkm%Ln%%koMjj%%jll
4552A899%%%KmkMpKKknjKjlkLo%%j%KnJ%oMknKklJ%lJl%%kLoJJkjjjj%JkpjL%%nJkMJmJmK
4546A841jojkLk%JlLkolLJkmjMmKmJoLJnLjjmKkJkJ%ojlMklLmkKmJkjMl%j%%lJmLkJnKmNp
4539A777jj%%jjj%mK%llNkkJm%nMkJl%mjLljJkkkj%jkKlLmJk%Kn%%jjkK%lpJ0j4MLJmJKmn
4533A718Lk%%l%KmJj%JjkJrKkJk%kjjJlMlJoKj%J%oJlMlKkLnlKjoJjLmj%Lj0LkLm%Np%MmJ
4526A668jjlKjjjKnJjjjjjkjKkklPkjjjn%%L%nkLknJMlmJLoJmL%nJKkJoRpNnkKlJm%KkkkJ
4520A616lKm%jL%jm%KknKjjkKm%KlJmJKKqLlj%kLJpL%oOJpnNmkJJ2j0jLLj0%%MloOm%Lr%J
4514A567Lkjjj%lJlJj%jLmjlMqMkLnJkOnKoKKmJjKloMloLLnMj1JMJpMQj2J0oKjmmKKpL%Kl
4508A523%%kJljLnJk%lNl%mNk%oL%%mLpOqL%JJpKMqOkmklQmjlNjjmMjnjlLJoLl%%LkmJ%%k
4501A478JkjkJnN%kjjKlJkmLMnmPj1%%J%Kk%lKoOjkKlLojM%KkllKklkMlm%j%%Lk%lK%%jkJ
4495A438jkmLjkJlKjJJrNKoJ%nNjk%%kJjjkN%kjJlklJjlMLpLpNkk%K%mjJJlJKl%m%Lkjjj%
4488A396kjLjkJlJLqLjkLjmMmj%jKjnKJkJlLlMomOJqMlLknRp%%jk%%MoL%%mLnLlLllKjJ%l
4482A358J%%oOlj%%kjjKJjljj%jj%jJjKmJlJmMlkkLLqPlJljJJmMk%nLlKJjk%l%%k%KKmjKl
4475A322KjJ%lmJjJMqjMjj%klMm%kJJkJlJmLJjoLK%kmJ%JKkjJpLLlJkKll%KlKJkjnNJkk%j
4469A287kkOnkNn%JmKMmmMpJKjjjMlkNj3LLmmNNnLllKjLmKmLLnJlJkljKJk%JlkM%%l%%jJK
4462A257nKJnkMjJn%kLjjkljO%kjlPmkmKJ%jlJjjkLjm%NjJmKkkmKMj%jjKmkMJnMj%Lj0NnM
4456A225jlJ%lLklKKoMjl%nOm%JMlnK%jJlJk%ljKjl%KjjLKlljLkJKl%jkJmL%JlOq%%Kjk%%
4449A192jKmmN%kJnK%%jK%lkJlK%jJjj%jmKKjmKlJKlLJmk%jJ%lNklLoMjKkLm%kJkj%MjjoJ
4443A160%J%%JjnMLoJkKnOloNlKJ%kl%jLklJLkkJ%kKkJmKMnKkJkjjK%kJ%k%lk%kNnJ%jJmJ
4436A131kJ2qj0PMKrRj1QmnKJJ%k%jKlKl%%KmMlNpMmKlkKJlJkJjkJKmkJLn%LmJjMmjJjlK%
4430A107KjpOKolP%mJmMlLjjjjjj%JJkKnK%%kJkLnLmjKKmjMl%jjkK%KoJLl%MmMkl%%kJJ%p
4424A077LLnjJKkjL%%oJMjoKLjjkLknMjJmJLm%JknM%%JJlLmKmJjKJ%%lNj0N%%qJ0JJ%k0J1
4418A058Njkj7K1j3%J6kj4%L%jJmJklM%jJlKLmMllJkM%nJ%kLj%JllNmKkJlKjKqPlLKj1J8%
4412A050k2K3lj1j2QJ0j3jJ0o%QrOJj1On%L%j%mJJmOqPJkjlkjkJL%j%ljKKo%K%nMjNm%Lko
4406A013KJjkj%%OrMJJ%kkjLJjkKljkJjkKMnlK%%K%kk%JKoNljKmMnJKJKlk%kJJmmLL%%klj
4400I91MlJmOpLKjj%JJ%%jlJmMkjkK%jlNkJkj%lLkLljK%jnMjjlMLnKJnKj%k%NqMjkJJNoLq
4393I69OKkkkLmMnJljM%lKnLkjLlKJJm%kJjLjkjK%nMlJJnOJkjJmKlK%kJJJkjLoMrN%NJj1Q
4387I56kmkNpNlJjjLkkLlJj%%Jm%kJjNn%%JM%mNqLmMlLjlKj%ljMkj%KoKmOk%NojLnPoKj%k
4380I30Nm%jJKmkMmLkKlJnNmKlLpOjjLkjJmLmLKmkKj%J%lKJjj%kLJllNlJJm%lM%jjJJlMj%
4373I15lKkLmjlLJjkLj%jlJKkkKKlLnKlJNokJNk%JnM%mjKLjjnMKoMJnjNqj%NmL%Jk%Jjjj%
4367H94%jjLlkKLjlkNmkK%%kLmkPk%jlkKJ%LpKjJkQnlll%%J1mmpJ4pnOKl%jJJl%%JjnOk%J
4360H78lmJMjjjMoLkLnKlLjjM%lJjjJJkk%Jj%jJLoKKjJJ%KnjjJlMnKlKjJ%JmJKlKJkkj%%L
4354H61mJJkK%LlkLkmNlKnKJ%kJ%MpJJKmjKlJMmLJll%KjjjMnL%mKjjKkJjLk%k%KkJJjklL%
4347H44%nJJJlJJ%jJ%kjLnJLlLnMjlJ%Jj%Mk%lJJLrkL%MmJ%mKK%lJKlJJ%%jKk%mL%nMkMpJ
4341H25JKl%%NlJmJ%%kKkjLjKljjJPnKoKjkkjMlLlKjmKJLkk%LkjJjmK%jJkLKoJjLl%K%kj%
4334H10J%jJkLkkkj%KJl%LlJ%KknLMmjJjMmJKjjjjKkKmJKJmKlj%L%Jl%j%%J%jJjk%Kjk%jJ
4328G95LjKn%j%NmN%plLJJpjPljJKjkJkMk%JjJlJkjjjNl%%KkkKjlOMqKlJjOkmNkmLkKjKp%
4321G79kO%koLLj1J1J%Nj4Rkj1J3%kmkLMkjl%jLjklJJKk%%%LnJJlMKmk%LjJlJjJnMkjJNmj
4315G68jOjlOj1LlOp%kLPkkoRkqJ0KmmMqKM%mMljJlLnN%jLlKmj%k%MjJlJj%jJ%jmK%Ll%J%
4309G56jmQoJJ%kJpJ0mKkJJjL%mK%klJjKJpKLlMkLnjLkJKnLk%%LjlkjNnKjJ%%jKkLmMl%kj
4302G41LmLkMnMkj%jJjLmKjkLJn%Mm%jJJjjJLlKlJjjKmJjlMjjK%LmJ%jJnJKJlLjJlJJk%N%
4295G35Kj3LQj3J1klKjJl%K%lKlJLlJ%jjkNnOlj%%jjJLoLjMnj%kKjjOpJKJoNJpMjlOlKkJJ
4289G20kjl%K%MlKjjjM%joMJk%jLlJKjLnj%JJjoMk%lNmMlJ%%kJJJjj%kKjjjKj%j%J%PqjNj
4283G10JjlkMl%NlnLkKJj%kKk%jJ%%%JJn%%%%KjlL%kKjkK%%jJkKkKljjNjjqL%LjLkJj%l%j
4276F93PkJnJ%kKj%k%Nmj%LJmlN%pKMmLJm%MlkkMkMlLnKLkjJlkKK%lkOlpKLRj1NJJpKOpjk
4270F81OnMkkkJKLlKm%jMmMllK%kLj%%kjNmMjkLnMkJjN%lqKkQlpOMJknLKoL%mNllJjNnMl%
4263F73j%JLnOnMoNk%%%k%j%LkKJkJj%%mMlJjJmKJJ%oJOkoJ0pJjMmjJjL%%nKj%jjMkLJlJK
4256F68j%mMn%K%JkJmKjjM%jj%kKkK%LomOMoLnJ%MmjOjlnOn%%NmJlMk%Jk%KKl%%J%kMljk%
4250F53%jPl%jmMjjJjj%JJj%jjJ%lK%nJNpN%jJjK%nMnM%jkLkMoJNpKJjJKl%jjjNljJJj%lN
4243F47ljLJkJkkKlkKLknKjK%MlJ%qRkJnJnJ3r%%LjjjkjPmjj%kL%lMjlJKmOj%%%jKoPnJJK
4237F38llLlLjlKklNjkOkl%K%%LpK%Ln%mNkLmNpMlNmKlJJJj%JkjKKoMjkLlMn%%Lk%%Nm%%k
4230F24LmKjMmJl%KmjkOl%MlNp%O%koQqJ%kL%KpQoLl%OkoLJj%jmR%mL%%Kj0LOj0MPNqjkJl
4224F14oK2j7o%LoOJ4nj4J6Kj2K6J8r1J04l0J1ql6J0Klnnj8L1nrJKrJ5%jmQoOjoKMmNpLLj
4219F13mMlNrPjjj0J2mkLnrK2j9KOOQj8m3P6Kj9K1m6j0J9J3pj6OJ0j4J6mJj1OJ1j6R%mNLj5
4214E96OQonLMOj7OjNnJ1mmlKQj0jJ1q%%KlmJRnnkMkOmLqJ1pmNkjLlMjqOLjjK%klOnljPKj
4208F00jnLMkjJpMMqMKo%KlMNnK%mKKlJlkKlPl%L%%mKllMj%Pj1Ol%J%%mMJnLk%Lk%JK%j%J
4202E92lJlJKkl%NlKnLJk%kMmKKJm%Kl%JkMlKLkjlJoMMkkJ1q%mLlmMMjoLmPj%JkkKJkkLkM
4195E84m%%MlJ%kLnKkKjjKmkLMn%%lLOl%kj%%LJpOnOlKlkJ%lLMlm%KJ%%K%mJJj%LlMmjJjm
4189E69PjJkkj%L%JJqMkMnJJlPlmJMnOlMpMoMMnKljKkjMjKl%JjkNjj%JkjJKj%jkkJJKKlkK
4182E67KlJ%nLKjjjjjOqQjo%NlJjK%k%jNjlJoNKmKlK%lKlJjOnJK%n%kNNnJlLkKmJkKmJKjJ
4175E57kJjJNp%OpOj%jjLJKj1%KJ1j2PMj1J0pmjLLjj%JJjkkOmkJK%lK%JJlmNlKJljJlLjJJ
4169E51JlJKjk%JkKkNojPl%MmjKl%MjjkJkJNmjkJlOm%kMj%JkjLJLnk%MkjMoJJ%jlMkJkKKk
4163E45KoNnM%%JkJjkKlMkjlNJJJoKJjkKjl%PmkjMkKlKj%%JkkL%kKj%lLLljLlKjjLKlmNmJ
4156E39j%KkjNmmOJkJpNjMLmmLk%JjjkKjJjlMJmJjJ%J%%lLJj%jkNkkMkjkNmJkLkj%J%Lkjk
4150E31MLrLkNJjmKJkllJLJkkLk%%LjnPklMkjMjlMnJLnLmJLlkN%ljNk%oK%JlLLjjKoMjKmL
4143E26%lNjpOjjMojNjkLmNl%KoNjkJlJKjJJljKJKn%JjjKk%Mj%kjjJLjkJLkjK%LpMJJpJOq
4136E16NoJMkJLm%%jLmJK%jJ%kjJ%lL%lMKkk%JmLjPlkJkLoKK%kKlKKm%lQjJj1MJmMj%KlNk
4130E14lJJ%Jk%JjJjKlK%JkjkLoNkMJ%llKkMl%JkMlLkklQlJoOmLjkJ1j2MLqOJm%KpQk%KlM
4124E12jKpLlKjJlLk%LkjJ%j%jLkLJm%jjPpLmOmlMJmMk%JJplJ0kJkkOqNqLQnoKJO%knPJmm
4117D99N%%JkL%k%%%%JJpLJmJKkKmkKJkKN%qjMKKnLqLJj%%KKjkjLljNjj%kjM%kKkLnM%Kjo
4111D94LLjnL%%kkLjJ%kjjNMnK%mjJkJmMKJljKkLnJKLkkJJJmjMkkKljOk%klNkjMlLk%LmJ%
4104D91JmLjjKLkJlKnjNjJLqLkKLlLoLkj%Om%JKlmL%mPllOkjMpMjkKlKKk%KjJkJjLmLnLKl
4097D85K%KjJklLjJj%jlJLkK%l%KJlJjNlOorRJlMnKj%KoLJ%oOJlkLkLjklMkMlKkkMnMJk%J
4091D81KkKk%jK%mMk%%kJJjLlkJKkKlKmPkJJmKkMoLkLmJ%K%%jJKmjKkjMkjJ%lKjj%%%LKlm
4084D72LLkk%kPknMlK%kJKj%mKNnkO%knNjjKJlLmjL%lOnJKJjJjnMkJJlk%%LkNklLjjlN%jJ
4078D73%jJpNkMkjJLp%%%PoJJ2j8LjOMoKLoM%lL%lLkJ%%lkJJ%%KjKnJKlJ%J%%lL%oQlLkmO
4071D70kmJ%L%Jk%%lkOlKnjkJ2pjJ0mKmJpOl%L%k%J%jjlK%LlJjKmjOnK%%LkjJlLjkNmlMlJ
4065D61JJkK%%lKjkj%KJklNkNmKJ%mjKjJlMJlKlJmKJjj%LJmKLkjJJMmmMj%%oPKjoNl%K%kJ
4058D58KjLp%Mo%OkJlJKjmO%n%%jJ%%NmK%jkJLmj%%jMkNmkMlKk%%kKMlKJmk%MjKlmMKoNlk
4052D50MlkMOkrKLJmjPpMJk%j%K%KlkKkLmjLlLKjjkJJ%JkKJnMkjK%%j%%J%%mPqLN%j1PjKj3
4045D38QJKLlkKJl%NlLoLkjLj%lL%jJJKmKjMkjkjJjjMljLKklJ%KljKJJlLlJKmJMmkLKKoL%
4039D47k%KlJjJjjKLlKlKjjJk%MmKj%LJp%NjmJjLmNjj%JkKJ%nRnnN%kLnOqLMn%MlkLLjlJk
4032D40kLk%%kK%jJ%Km%%%Lk%KJk%Jk%kKkKkJKjKnMJlLmJ0qMKj0Lkj%Okj1J0RkJrj2L0j9J
4026D36OpjLJkKlMpL%jLlJkM%kjK%Ln%kLlMmMlJjJj%kkPnN%j%JJqjK0k2PpJ7j6LPLkkpMjj
4020D31%jJ4j2kJ1qnOJjnNkK%JlkLKkkjMlk%LlLjm%OKpmOK%mLjlMlKjK%k%JmOKkkLllOkjK
4014D32%%lJ%%lNjjJlLklKJKmjjMj%KmnQkmkQlJmKJkKKkKmLNoK%jNmmM%%%Km%mOljMkJkjN
4007D29lJLmkKnRmlPmkkKKjkJJklLOq%JJjLkKoNkPmlkOj0RJpKKOj2MJ0j2JNllNnOmjL%kKj
4001D22OlmJ%JLmJOmlJ%KjmkLJnMKnMm%KLlJj%kO%llMjOlkrJ0KjjJklkNpKjM%jJ%k%NmJJj
3994D20j%%K%%%oPmLjkmMJmNjkJ%jlLJk%lJOmLkjJ%J%LkkJkLllNj%nO%jJ%j%mOmLjlLkjL%
3988D17jk%Mm%MkjKkL%jk%%%j%KlLklOmOllLnNk%JOj6POj%jjLrKOn%JjJkNmK%lMkkLlLkJk
3981D11LjkKmNpOjkJK%jjkj%NNrMl%PqJJmMjJlJkJLjJMrKJNmj%KlKJJKkmJMnJLmjLm%J%Kj
3975D08Kk%%JkKLjl%lKMkkLL%lnJJOqmQJpkJ2qMjNj0%NMlnPojPlJj%lJj%JKnKNnjLjJjjJK
3968D08%%mL%JLn%JlK%jMnMljKJmjNl%mLkQoJKjkKj%NokMjkLJJlKkjKlLjMoJKKlkKJjj%JK
3962D06%JmJjLkk%JjjkJjL%jk%jJMjlMj%lKJ%kLJmJMjkjK%KljLjlKMoMkKmMlK%l%lLLkKl%
3955D00JkkJJKjklL%jJjoLKoJ1k%mJjL%kKJ%Kl%KJkjj%KjjJKkLkJ%kkJlLJjKjkLmNn%MlJk
3949C95KkLjlKLn%j%kPkjNoj%KKmKJkKjKmKKljLmMJpMJkLjJOojkL%j%Kj%%jjkjK%mL%JLmL
3942C95j%jKmLlJJPomKjjLkM%lLkJ%lNoLkKJJlMmK%KmLkjJLj%%%jmKJJnjMjjjMkKl%KmjMJ
3936C92nMjPmnKKkNkKJoJJJkLmMoOoK%j%MjjkMpNjkJ%j%JJKkoNMnKkN%pJjLjKMoJmJMKKj2
3929C82LJkLRmqQmJK%lJ%JkjLkkKJjkJjjJjJjLlLlJJ%%kKKqPkKmKoLJ%jLKlKlPoJ4mnKqOk
3923C88ljmOKLnlJK%mLjKkKl%kkLJjJ%K%kN%nLjjjNnJjKmKl%NJoNlNl%mLKmJJk%OlkmNjjJ
3916C82lNk%%Km%NklNkJkkKkjKJNl%JlMnkMmRpNj%mK%%kOpJK%%lMnkOj1P%mNj%JJjkjM%lL
3909C81Jj%jKljJK%%mMnJJKKmK%mNkJLlLlJkLLkmNo%JMj0NJkKm%OllMkjKkMLmjjJkMkKl%K
3903C79j%j%kK%J%mNl%K%KkJ%%lLjNokjL%Jl%J%lMjJnNjnPjKnKl%NkJjJnLJkKkK%%KmMk%j
3896C75%JKjj%jlMjMnjLKm%JLkjkNn%KkJjJkJJJjlJMjJmLj%mNmjLjNlmN%lMj%%ljLjl%LmK
3890C71JJj%Jj%j%Njk%jLk%JmMk%%k%KllJ0pJPmjnJMKlmKNo%Ml%j%LkJJlKJlLjnOoLlMJj%
3883C69%jLkmLK%%lKKnK%LoM%lLj%LMolOnlQnkJkRl%NnKoOmJjj%%lNmMj%j%K%lLJjKkkLk%
3877C68lKKjlJJ%lLkKKl%%OjMpJjL%mklLNkk%KJjKlLm%MnMmJj%JKlLnPmKkJKkJJkKlkKJlJ
3870C65mM%lOmK%lMlJKJjkJM%mJmLmJNkjlLJjkK%KnKjJnO%LljjMmMoLLmJJ%jkK%Kjo%PnKJ
3864C64kJj%%Kj%KKnLJkkK%LmLkj%mOk%jK%Ml%jLpPk%JkJJoK%%J%MmKjKJmJjJm%K%%%kLjl
3857C59MjJmOKmqOLoMMpOo%QnKnM%LjJllJLmNkJJrO%mPmMKpKjkJJJjkjKl%NnM%%mKjLlKkl
3850C55M%%%JkPo%%Kkj%%kKJLkkMnJ%J%J%JpM%kNj%KKklnMKnNl%LkjNk%kkJJKklPmmMMqOl
3844C57LpPl%LjjKkkkKkL%NmJ%kjK%%jJjmMkJKklNlL%%J%mKKljL%joN%%k%Nr%J1n%M%%oJM
3837C59oOlJJjmOmJ%lM%jjkOnLjklMnLjkMkjmJ0JoKkJjKNnKmllKJ1oKj2J2J0j6LlJ1Lk2K4
3832C65l5M0mj4LlMojJJ3rMJjlJkmMJjLoJJKn%mKNnJLjK%jkMjlLjjjjNmLr%J6j0%qK6k4J2
3826C56KJ0j6JlrONkLj4J5pM%MqkNoQ%nKJmOkKoOkkmLLJnKJNkkLj%%JkoRjjmJjkOkMmLKnk
3820C48lOmNk%JkKnNlKmJk%MkKklLKJkJj%jjJ%%KLnMjj%Jk%kLJlJnLkMKlJj%%J%kMloJKOk
3813C48KnMJpMJjLmjKJJ%kkMJKlj%JjjLkKkLpNkJjMljjKjjJkMjkLkjjLkJkNkKj0MNjqJ2nl
3807C44O%kK%m%kOoM%kLJjj%kJ%%kKj%j%KJkJKjjj%%jjLlMjjKlKJmOlmlPlJkK%mMkkK%JLn
3800C42MjJljL%JkJ%lL%lLkjjJMKnMnMk%MoMl%LmKlMklLJlLjjJk%jOmlQj%mKoJJJ%kMJKlj
3794C42KkJk%%jKjkKKjjKjJjJjj%J%jMm%K%kkM%kkMmNjJ%kjjOljjkQmmNk%lKkJ%JjjKnNjj
3787C39JkJJjjK%JKnkL%%JjKjL%kkjOmJkJkJLj%llKNjJmL%kJl%%%jPokKNmJ%kJ%kNmKKl%j
3780C37KJjKjjjKkLkj%%%%KkJjkKnO%k%LnkKKKmjJ4qm%mJ1mJmOpjKM%Jm%lMkJKkJkKLklNl
3774C38LmJkJjj%LlKjJlJjKjjKlLkK%lNnjMmK%LJ%lkKjPnjJjJkLjKmKjj%LkMj%nLjmNjLnk
3767C31%NlJkNlJJLn%JkkMJkLklK%jNkjjOolNljMkJ%LoM%%k%jLlNmjjKJj%MlmMJj%JjKjLn
3761C34%j%KjJl%Nm%K%jLj%%oPlKmLlOqKmOmlPJJk%JkKlLk%JjJjKkLKmLjlNlJkkMjjjjLnL
3754C33LmJjjLjjjL%kLjkkJkRoqRMnJ%kLlK%lJjJK%Kl%LmjK%LoM%%lJJ%KkJlNn%MnL%KlLo
3748C28Nm%L%%jjKlnO%KjjJl%kMmMjK%lMlMjnMj%%%%JKkkKj%J%jjKJmJJlKJ%kKKnLkkMJJk
3741C30%%jnK%LKJoKJL%kJjJjjkL%%JmKkLkkjJMKlkkJ%MJ%lKpO%JjjjLpP%%l%%jLJl%kKkJ
3735C26lLMOj1jj2QQLn%%KKl%JJlMk%klLJkNkjmMjOmLl%%llNjJJk%LJklJ%OkqNMoNoNJKj0
3728C22JJ1j2K%OrJ1onRkjOkp%OlkjNnKjjJKJjKkMnlM%kK%KqNJj%NjjlKnLPj2JLkOmkLmNm
3722C23JNqMKjkMlmKlM%kKJ%J%jkLlKkLKm%%KklLkJJOlNmlLn%KmQpKmM%lNnP%oN%JmkLJjj
3716C24lLl%Lj%kLjKj%jLjnNk%jJNm%jJjJJlKJk%JLnL%lKjk%Nn%KK%%kLlKkMlkJNn%KlMqM
3709C22%%MkmLjjJK%nKJjKj%Jj%%%%kJJjKk%Lkj%jL%nJLmJLjJKLl%kljLKlOjqRo%LmLkM%l
3702C21JJmKlPoL%k%Lkj%JJKmK%%l%LjJ%kJJ%%JlJjMl%KkjOn%%L%lkJLoQmJjkMlK%mJjJJk
3696C18KjJJlLJlKj%KjmkO%JkJj%L%oOljJj%JKJljjJKKjJnL%knOljKkKJLl%jkMk%KJnMJmL
3689C20j%JllOjkJJKnNk%%JkMkmJjLkKJ%jl%jNLpPqMJNrljN%Mlk%J6j6LJkLmLJl%%kJK%j%
3683C18%%jjLKkKl%KnMlL%jmjMKjL%m%LJ%KmNrOlnJ1oMnRpmPpJMLpPqO%JpKLnJKJkjLjLlk
3676C16NlkJKmLLmJmKK%kMjKjjj%%LnkNjJ%KkJjpLNoMjkK%KlJjKJkjLjlJMjlJJ%KmJJjkKm
3670C13LjOoJlMkKJJlJjLnJKk%%%JjmNKkjkLkkNKmK%JkmKKjKmOoJ%L%lKLmLj%lJkKJjkNn%
3663C13JLjjJ%%kjNoKJJkLl%%k%RmkLmLkJkkK%%%KlNmJlMnLJlJlL%%JkJJ%kJ%JM%ljJjjLk
3657C14kJ%KjjKLkLlmKKJoLqJ0oOkK%ll%Lj%JlMlJlPlKjmMmKKmM%kJMpNoLOl%kKkjJj%j%%
3650C11L%jJmNkJlLknMlMmPmKjKk%mLlJOlkK%KmKl%K%LJnNkj%LkJnMKk%k%kLjJkJjL%knOl
3644C09JjMklMlK%LnN%mjN%kkLmjMJnOmJjJkLjlKNklMJk%nKKmMlNoJRpk%lNjnJ0mjkPqNpJ0
3637C15kolJ1kRj1kNj3N%OQj1PnnKKJJkkLKkK%mjJJjJKjkjNKnLmLkkLJJmJoJ0oKLjjJqOJ%
3631C11oJ3j2J2l0M1qk5QlJ6pj%OlJqJ1j0NNr%KKnJNjklNj%jlOjJ%lLqNj%JjjLklKLjLjrP
3625C09JlJmKKjKkLlRnMj0KL%Mmk%%Lkj%JKkk%%LlJ%jKjjJ%LlJjjJ%KkMnJ%%mNKljJkLk%k
3619C05L%mLklJ3krNj%J%%mLJlKKlLmK%%%k%K%KjJKlnN%%kLkjjK%%JkJ%jjLkjL%%lNojNkj
3612C06KmPlKnOkoO%ljMkJLoMkj%M%jj%J%%jkKpLOmmMlNlLlKkKJJlLJjkJKlKKjnlMMkpOJl
3606C05lMjkJN%%ljjLJJJmj%Mn%KjLl%nN%%Mll%JOkjkK%JkNjm%KlJjKJKqOjoJMJknO%mJjK
3599C04Lm%Ll%JKj%%%lOmK%mOmNnMJmKKlKjjJ%ljKjkK%KpMKkKLkNqKJjlJ0j0LlMkl%jKLoO
3593C05jjKjkJKjJ%jNmk%Lj%l%LjLoKJjJmMj%lLkNlLkkJJkJ0pKmjOnj%J%NkOjpoJJ0pKmkO
3586C04jnN%%%%jJjKkJLlKMoMkjkK%KkjLk%JjkLLmjjJkNmjJ%QpKlOpLkMLqKoOmJ0plL%%On
3580C03jLkJkJjKjJJjLpN%mKJ%jKk%JJLmj%Nn%%KnMjjKjj%jJJkJmMJjmMjj%kNlL%jMoJJKk
3573C02JlOnjKKLmmM%jKjKlkLJjLJnlJKkKKjnJ%%JkKNlJlNnlRnLkjKkjKKkjJ%kKJKlKkjJk
3567C00K%LjpOJJj%JjmLjlLjjJj%%LlLjMl%jJLkj%K%lMnmKKjLlLlLj%kJ%%%%jJ%jLkNlJlk
3560B99M%lLJlLl%jjMknPmK%mK%M%mLJmKKpPrQoQj0RmJ%J%nNmNkJkjKjKj%J%%JLlJlkLJnJ
3554B98Nk%lLkjJKKKoj%%KK%jl%LjjLjnKLJjlKjlL%NqK%LlKnOlJKk%%kLkK%KkmLKoLMk%nM
3547B99%lKKJKl%%kjMJoLKj%jNm%jMklKj%jjL%lJM%m%%JlKLkKkjKk%Jk%MlJ%LnL%mMjjjJK
3540C00JkJjJpLLpJ5mjmoO%PJ0j8lRj1OlJ0oLlMnnKLJl%%Lk%JJjMkkKKpNlLjJlJjKjJnLJ%
3534B98MjmLMqkOj0J0j0OOnKlRj6LP%lJJnRljKoMlLkjKjjKjJKkKnN%KrJJ%LkL%jKl%JlKKm
3528B94LkOm%mMMlkjMjMkqNKqOKlMj%ljNkJoNkjkL%%J%JkjJLkKljKmLjkLjJLkLmJjKjl%Lk
3522B95KlKK%ljMkL%JmLnOkjJmPoMl%%NlkKJj%jMnJLlKlK%mLJjmMlOlljNKllL%jkL%LpLkM
3515B98KnLoPjOj0Mj%nLRolNljKkJ%JkJjLlJjjLmKKl%J%jLnMmL%J%JlLmJKjJLmjj%J%JoMm
3508B90MPj1J0jmJK%mNmKlL%kOmKlKmMJjjJkJj%kJjJ%KlOkmLJj%KlJLnJMljkJK%kLnNjNlk
3502B97k%kKjLjKjkkMJ%%kKmJLl%KJJKnJ%jjjM%kkK%%kMJJl%%%nLjL%oOkjjLnNnOnNKpLjK
3496B96lN%JnJLjlLkjKkJJjk%NJnLjKklKM%mlOljMlJKlJlJJmLJmKK%m%NK%kKj1QoQm%KPrK
3489B95J%KmJ%kkNlJJ%J%mL%K%JoPlmOlKjJKm%JlMljJ%lMmJjKLjl%lLjKPqJ%OoKMlj%mMmL
3482B94jjjMkKjJ%%jjJ%KlJMmKkJMmjLkjlKOqLmOjjj%%Mn%lKKjKJjLJoJmjQl%%kMoKKJJ%m
3476B91Kk%JJ%%lM%lL%m%MkMllKj%KkKlNlLKnKjnNmLK%Jl%KJj%JkmMK%JlJj%jJkJJJkk%Jj
3469B90JJKkMoLkLjNqMJoLjJjJjlOJ%k%jJkKjJ%MqNnQj0LRoj%KjK%%KjjmK%J%KnLkL%m%JJ
3463B93MnJj%lNkkL%%kMkjKoP%kkJkMl%Jk%J0omkLJ%jkQkkmNKj%pLNkk%%%%LlJ%kJJJlLjj
3456B92%kJMl%LmKJkjLjnMkJkMKlJjJJjlMLpNjjl%LmMLkjoLKJj%LlKJ%mjLjJ%lM%k%Ll%lL
3450B92KJnOmMoMjlkMKjKJjm%lNkMMoj0PKJjpPnN%jKlJKkLm%j%KNoKmMJknJ0moMlnPPl%mJ
3443B90KllPmKrQlK%JMOj8JJ5mnJ9j4j2J3qK6qoMk4J3l9L0J4Qk2J2JpMoLNoLlNlkLkKlLjj
3438B90%JnLJ%JmMkLkJjKpQjNj0mJ9j4lJ7Lk5N0o4M3j1oj4pM2ol1KJ1mmPkJ8mrMjjJoOpJJ
3433B89%NjJrRnjLJLmKmoJ1lnOlkPo%lOnJ1njpKL%OkjjkMmpQ%Mjkk%KMlkjJJjlMLljJJj%L
3426B94klOoKlJJLkKkkN%lmjPkJ%lmOMm%mNlLKkpO%JkjNm%JnLlLkKJ%kKk%LkLJmjKJKm%jN
3420B93kmjNLmoMKkKjJkKjKKk%kkMlMjlMk%KmP%pLJ%%qPlJKmJLlMmL%KkLm%JkkPokPnJjKK
3413B92kkjLJlJKjkKK%jlJkLkMlMlkOmMoKKjjLnKKjnMkj%LjKmLJjjJkKjjMlKjlKJlMjJmKj
3407B88JmNlLkKJkJlMJljjL%jjMknLjOkmlPkjKlJKnQkjkKkJ%jLkkLjMkJ%lj%Mmj%L%mK%%L
3400B91kj%LkjK%Kkl%MkLqKmNKoJ0mj%jjMkMjnP%ljNmJkKLnjKlLlKJlNk%K%jj%%%jLlLjlj
3394B87MkkRmjqMJJkqjOJkNJPrJQj3J2nJJpMK%lKJ%JkJkKJkkMlLmLJjjLm%j%%jK%JjkMkjL
3387B91mLnJ%mJ1mOmn%NNj0JLmjMK%Llj%KjMkjJjljlNJ%jm%NkMjlkKlL%Lo%L%jJLjmKMqJj
3381B85L%kM%jJJnMJlKLkjkOkJnJ%KkJlJKmJLkLj%%kKJnJK%jj%J%JjMm%%KJ%kJlJJ%%KkKj
3374B90%J%jkM%k%%kjLJkoLLLmJJ%%jKjkJ%%ljL%k%%KjjLJjkJJmNoMjKJkmPjmM%jJlLoNLN
3368B97lljjlkKK%JkJ%JJj%%KnMkjkKjJj%KkNo%MljK%jKkJKkKlJLj%kMoLjnM%Ol%kOoM%nK
3361B88kL%%jlJKLlJ%j%jJ%JlNkJjkJMjlKJkjKlJMoL%KKrLJj%j%MlkMJjMojN%kMlkLoLK%m
3355B86JjLj%JkjMj%KJnMjKk%lK%kJLjl%J%KnNjJlKKlKj%kLjnLPo%Pj0j%OKk%jlMkKlMlLk
3348B89jkLMl%jJJm%MlkL%%%mLLkkmNLJ%kKjKkLnjJJJ%j1KRJoK%%ljJ0%Oj1oPNnJnMjjj%j
3342B86kPlmNKm%K%KlKlMljjNmNj%kjKlMLnjmKLkJPJpkJ1j7RjNmnJ1j0KKQnnnNkMoN%ljjj
3336B83OJmKKlkOmJJLpJJlOnKJkPrjmLJ6rnKnQ%nRj0%RoOoKKmmJPJl%LmKJmKLlMlk%L%k%j
3329B87%jJ%LmLNqkNLnpNjLRj3Qj0NpJ0njOjj0J1nPnNl%lKJLnnKMlLMljkMlKJkLkjJKmLmK
3323B87%JmPm%%%j%LkkJMljJlOkmNj%jkM%JlLoPmLrQJjjnMMjLl%mmNlLkNl%KkOqjLJj%lL%
3316B87kNkkjLkMlK%ljK%%%j%KKm%JMnJmJMnjOoNLpkPmPnkOk%mKJLlmOkKJlLlJkKkKnMj%K
3310B88JlMmjJlN%%jkKJj%jJkLJjmNmLkKLrJNnNk%OknKJk%J%JkLjlLmKk%LlJKlLj%Kk%KJl
3303B86LlMmLjKKkmMkJ%jKkj%kMk%%mNK%%mKlKkjMkKkJj%jKj%jKJoPmKJmMnOKkjKjJj%j%j
3297B87M%jJkJlMlKoKJ%l%KlmJ2jloJ1qPnRrQoNlMqKJkL%LnJKlMm%%jJjJKlJ%JlNm%jJJKk
3290B88k%JJkjMmj%JlLJ%kJ0rPqNJLn%Kl%J%JlLk%KKjjkLmNmJkLnK%KJ%%KnKkJKmLJlJj%k
3284B84%MmMmLlK%JJLnMJnMMpKkMoNmMmJJnKNl%LnLlLLk%JJlJ%Lk%%mNnJ%%KmOmKkjJ%kjM
3277B88mKmRojMKjpOlMJmNkpMjK%JkJkLjlNkJ%JJlkMMlljKKm%LJljJKJpKJLjj%%%jK%%%%%
3271B88%mRn%lKkOkJJloPmJjNk%Jj%jL%lJj%k%O%jmJ%lLkNmK%j%kJLJlLn%%MjKljKmJQn%L
3264B91j%mJ%lNjoN%KlLjLl%j%KJljKlKkKKkLkkKJjjlNl%LkjMmjM%klNkKkkjjLOpJ%MmLpN
3258B87%JJlJLJljmQnLjJkj%jJ%JJJk%LlkM%KnJjkKOpLJ%%lKkJ%JMl%kJlOkMkqLkLJjLkjM
3251B91lOq%JNp%Mj%%mOmLlJLqOkMnKJNmKkkKl%MlJkKjLlnPj%jlOkKJMrMMjj4J5knMjpOJr
3245B81OKJ%oLMJl%jkLklOnLjMojLKKklKJjlKKojP%%mLMojPj1OJ0k4K5k5MJ6pJ0lmQlrLNo
3239B87J1j2lKPmj%JjMnKlOkl%JJ%JkjJkK%jLJn%QpLnjMNp%PpJMJnKj%kjPoKmjJ%OlJnMJJ
3232B88lNkJjJ%JlLkJjk%%JMlJJoPjmJLnNlNmMklNkm%NojMJnMljj%N%lKmPpMKkKkMm%L%j%
3226B89jjLlJJ%%KkKJkJKl%JLnj%MjkjKjKJnLJl%jJMkk%LLpPlkjjKKl%%JLljKlKKk%kjNmK
3219B89kMk%lOlk%Lj%jKnLJJjj%KlMjJjJKl%KkKnKmJ0lNloMpLOlkmQmNnJKlLlnKK%lKJKkJ
3213B89%kKjjLlLjklMKkKjjkLLpNk%LmMJnOlmK%j%LljKKLl%JLkkkJLn%KmKJjKKmNmKKmOnk
3206B87LmJLljL%%jJ%kLjJlK%J%jKjkKlMjoNmRo%Mm%MkKmjJKjJnOk%jLjJlMlJlLkj%Omk%%
3199B87JJMkJnkOoM%l%LnPmMkk%j%LkLkjJmLJ1j1J0olmMJJlMmNlKlK%jjJk%J%lKjKj%KKlJ
3193B89JJkJoQn%JlKJkLmKNKmj0PQj2J1m%oKnJ2n%kLkO%ll%Kj%JmN%lJJjjJ%%Lkj%%JkLJl
3187B88kKJnQnKKnLKoOnO%jkKjmlQjlJPlKqPnOk%lLljjJNknMJJkJJkkM%Jjk%JkKJmjJjLmM
3180B90%lKlKJ%kJPmlQlqQpQkmJkKKj%LjklKMklKJJk%%kOkjjjNmjJJJmJjkLKJ%kJ%%jJkKK
3174B93jlKnNLo%%mRqKNj%kjPrLKKn%NlJ%nKLl%KkKJLpKL%kjjKKkKjjKjKkkJKkjK%kJ%jjL
3167B91j%mKPJojkMJlRnlmNmL%K%Jk%J%jkLmNkK%KmK%jlkNk%L%mKj%%kOljJLlj%%JJlK%%M
3161B95jJqRnjMn%MkKlJJjj%M%kJjj%lN%kM%ljjKk%jKmLJk%LJkjPllJJKk%Kl%JjlJkOmjOo
3154B89KjJ%LmJjkMjjjKJ%lJLjlKk%MmK%KmkOlkLJj%kO%oKOoj%PpJKMn%kKMk%j2J2JrQj0K1
3148C05j1mPmKqLKmKL%pLJ%jKKk%j%kKkL%mPljKj%KlLmKMnlNnNjKljlPoLNkj1jJ7qjLJLlk
3141B91%NpKK%klQMr%JmLMmK%%kKkKnM%KjmLmNjJj%lK%lNjl%NkkLkK%kM%nRpJMolOlKk%%%
3135B91%kKL%jjJlKMoMmPkjjKklLLknKNlKmJ%L%lLjJlKn%L%lMJJjkkkLJNjkjOpjLkJk%M%l
3128B92K%%Jk%JlM%J%j%jKmjNlNmlLJJlmJJLmJjLk%MkkJJjMmNpNJJjmlQrRo%jLlK%Kj%jKj
3122B93jKjj%JLkJnLlLlLlKJkLj%%jjKjjKlKJKlKkKjjkQnKNrLkmJJMjLkJmMjLnJ%MojJK%%
3115B93lKkLjJjjkOmM%mJ%%Jj%KjNlKmjKJJklLkKjKmK%JQj0klOJKJklkMkJL%kllPjKjmLmL
3109B93%K%lKJjJj%JkJJk%k%K%Lkk%KLoJL%rQNj1MLKlJlJKJ%jJj%KlkLjkKkMjjJJkJkKkjK
3102B94l%MKoJkPjjkLmKkJKJjJmRj1MMkj1J0KpOJoOlLkpJ1jpQmkKjjLlLlJJ%%J%jLoLjjKl
3096B92JKMoJjK%kJ%Ll%LJjmKjlNojKpJ1llkJ1k%oOm%LjnNLojKPn%J%kJ%%JLnjkPmMjJjLn
3090B94JNnjL%k%lKNm%LjjjL%%kkNnlLjMpRnmMJJkJjJj%JKjjkLjjL%%%%jkjKJ%jjOoJNnKJ
3083B98mPokMKm%%JKjOoJljMmjJJNpPlkK%%KlJLlklPnMnKKjKkJ%jjjNpJ%JlM%Kj%jkL%kj%
3076B93OllLkMkJkjLj%LoJMLnnNnQjlLllOkNk%mJj%LlJkKjjJKNp%JkKkkNmKKjJmK%%jJJkN
3070B99jLlnLnRojjKQojj%L%KKnk%MjJ%kJjK%k%JjjJjLkJjJKjmKlJKKmJKjJk%%JjKKlLnKj
3063B95%kQoLmPmkkNkJJLlkJJJ%nKkNlK%mKKmKJ%%jlLjKkLlJJJjJjJjJk%%%%JkLjJ%%LmKL
3057C02j5RJjLmjPkjj%KlKJlJmLlOJmJKpQlm%kJ1o%KmPnOlLqJ0n%JlKmLlOjj1J3mKOrLlJ0
3051C07lkJ0k9J3K%jQKj5J0J1j9%OpNL%%%kl%%OjkKkL%lMKkjlK%nNkJKj%pJO%lnnJ7%mrJ8
3045C10j2J0ppJ3pj2K5j3J1j8OoJRMj4J5poJ2rKkk%RrjKJjNkrMLMj%Lj2NQjqLlMjjJkjJ0o
3040C00LoL%kK%lOmjJmQnjjQm%KnLlJk%JMlKkMmJjMk%%%kkLKjLmKk%Lk%mJK%mOnNnNJm%Om
3033C00LjKn%MLlqPjKmJMjjjj%l%LJ%jjNj%kKkJ%k%lMjmO%jKjkKm%J%nM%MnMjjkK%L%Kjl%
3026C00%jjjMkJMJpPjn%JlJNkKjKjkK%kJ%jJjkLk%JMoLjkJ%kMnJjLJlJMnLkjNnjLjJOmjoK
3020B97PmLojOlNJkk%JlLJJoLJjj%jJMljJJJnNlM%mLKmKlNnMmKjKjlK%KoMKmLLl%jkMjjKo
3013B97J0nKJklMlJ%Jk%kLKkJkJ%%kJ%OqPoMk%%Ml%%lKJnLJLmJ%KjlKKkNkmlJJ%J%L%JlJj
3007C02KkJK%jKljkKLlMlLmKkkM%jJkMj%j%KlJjjjJj%NkMjnNlOnlKLmjNmMlMmNjpPj1PlKK
3000C05mLlKLl%KmLj%LkJmKjKJlMlJ%%%lMjjkLJjk%PoJKnLJj%jLlLn%NkJOoJJoJ0mnLmKkK
2994C03KlLk%KmLKlJkKj%kjLJjklQoOjkjPj1J0l%jjJ%kLkJmQoLk%lKMnMMplM%j%LkJkJKjM
2987C08jmKjkOoLlNpLjL%kLkkL%KmJJNoj%%KmJL%kjJOnjKmNrJ0knPnLjjKk%KlLk%JJJjjLj
2981C06%lJKjPok%jKLlJJkkJKlKJkJkK%%lKjKkL%nOjoOkkJjJQrjM%K%k%%jjLjKk%%KljNoL
2974C05KJmJjJKjJJlJkJJJlJJ%mKJ%j%%JJrPKnRoKNpNmkLkkMlOmKjKkNljkK%%jjJjJ%K%k%
2968C06kOlLkjKk%j%jKlJKkJ%jMlK%mOjnK%kJ3qJJqMkkOpNkjN%mMmK%jLkk%J%jJLkJ%mL%%
2961C07KkJkjK%jL%mLlLlJLj%jLkJNnk%mMk%OpLjLjLknOklJ%Ljjk%Kk%jLmQpOp%NJ%l%KJl
2955C06%KmJKjJkJK%KmRqOkJOj3qJ3%OoLjKj1O%lJL%j%lPqMkKjjkLJk%JJkKn%NlJKjjKlJL
2948C10%k%Nm%PnoOmkOJ%j6J7ooPJ0j7J1qOJklLjjJKjkKLnLjKl%jNmMjmJJ%Jkk%MkMoLjjN
2942C12JloPkM%mL%kKKmjJNmpPknO%kNpN%%mKKk%%KjJKnLJjJmNjkMllMmMljL%qPKJjkL%m%
2936C09JLnKJ%KKn%LjkLoPkoLOnjKkJ%%kkMlNnLkKKjlJJjKkK%mKLKjjMn%jLlJJmPn%jPoLk
2929C11jJJLjJkJnlLLmkMjLjkJjKj%j%KnMLoNklM%Kj%%KkJKjkJJ%k%jLlj%K%mKLkM%m%Mkj
2923C12MjLrNlMlMJp%%KjJlJLmN%kJ%oPjj%JKlJlJjJNm%JjLnJJLnNmJ%%jJ%Kk%%KlKKKmkK
2916C13njNoNKLmMkj%mNJ%%%%%lKJk%JJj%j%LklLl%JJk%%MlNqOmLnOlOnMlJjK%%KkkJnMlL
2909C14%LlLnOlmMJlMnMkkLKmjK%%LnMlKmNl%jJlOnOnLlKjMlKl%NmjM%nMJJ%KLj3J4j3jJj
2903C10%LlPnKjKkjJLkJjJjmLLkKjJkk%K%J%kjJjL%kKJkK%lL%kKkNlJQj8%LNlLRpoNkLnmP
2897C15kKjMmKkKkK%jLpKMj%Ll%mKLklPj%nLLnJkJLlK%JnOlNnMljkJ%LkJjkJOmKkmNmJJ%J
2890C16%kJ%MjJlj%L%nKLjKmLlJKPnk%%lkKJjLlLmLMnLk%mKMnjL%KljLJlMlkMjKkJlK%kM%
2884C19kKkJjjMlK%jj%mOkJ%Jkj%j%K%K%jJ%Ml%jkPnlJ0oK%pLKmQqKKK%k%%%jmLjL%jKjJk
2877C19jJj%%KJk%k%jKnL%LkmMjK%jLk%%L%lJ%jKOmmLLqLNm%%LnJLoKL%lK%kKmNjJl%Jj%K
2870C20JjjkJjJKkJkLm%Mk%NmkLKkj%%JjkLJNlmOmmJ%JjMkJKl%Jj%jkKJ%JlLlMjl%KJ%Jm%
2864C18MkLkk%LkJkL%Jk%KjKmJjK%qQ%mMljKMj%JmLkJjOnKoN%lJMnJJKmOk%mKjjQlJkjLpJ
2857C20KljL%K%mKkjOMloNKj0JQnJJ2k1JOJ5qJ2rj1KO%qQljKlLLk%mjNkKj%%kKmLJ%J%lJk
2851C21LLpOlKj%kLnQlK%qKkQj6Rj6J0JOoJ2Kjjk%MJm%oLJKpMnR%JmLmMl%JkKnL%JKKnNlL
2845C28%%lkkLLlNkJkJjl%L%MJrMoO%pO%j%%Njk%j%kK%jnQmK%KjKlJj%%JjJ%JJjjJlNjjKj
2839C28JjkJ%kLlJJk%kRj2Nj%JLpNJkjKjJJj%%MmjJkLlKjLJkKjmMKm%%JjjJJJkKLnK%lKLl
2832C27jK%jlMjjJ%j%JKnKj%JkJLlMk%%LjkjLKl%k%OmlMl%%KJlLJ%l%jLkjOm%%KKj%%jk%J
2825C29%KlK%%%klOLj0JkM%%KkJlMJ%kkKjJjKlM%jKmLkKmLKlJjJJ%JjMljKjLjlJjkjJJjKK
2819C32k%jjmLK%jMnK%j%j%MljJk%jJK%%%MljLJlJmNjKj%lKL%m%LkkLKoKL%%oOjmMl%%Lmj
2812C26KKjKmJLmKKkjkK%Kj%jLmKJJMl%%%kJjKpPjkJjPmjKjjKkKmPmjMpNjlKLooJ0j1PKoL
2806C27qMRklJ0oJJmJKJkK%J%jjLjkJJlkNkJkJjKkjKKkjJjjJ%jLJmjkMJKKmPmJmJ1j4NNok
2800C31Mm%LjkJJJKmKjnP%%jKnJkOmjLjkKKjl%%kK%%%kM%JlMmKjK%KjJ%oNJjmJJjPoMnJ%K
2793C35lKKkKkjKlJLJkkKkJj%%LljKKkjMmJMnJJK%%lLmJ%J%J%JJlmP%kJjKkmKKKoKMnLj%J
2787C36%K%l%JJJl%lNkKjjkM%kKlL%kJlOlNm%kjKJlLjKjkLnLlMOoJ%jjkjMnKKnJK%MlLJmK
2780C37%jkjLjKk%JmjOJlLlKJkKjjj%Om%jLoNkKjj%JlPoQlmLKrL%K%jLnJJjLljJLk%%%jjL
2773C37jJJlKKj%LoL%LmKLjloMLj%%mM%jL%jjk%%JJ%nMJqP%LlJkjJM%JlJjlJJJJj%MmkLjL
2767C41kKK%pOlKlKJlKjJk%KnLMkJJmj%j%OkjkL%jkMnNKjJ%klMjkLlkjKKj%%J%J%%LmK%j%
2760C41j%KlkKKjMn%MnjL%kJ0j0JOjlkmOPLpllPjPqPj0KkJlnPLlJjJjLj%K%kjJlJ%%KjKjK
2754C44Kl%kOlJmKJmL%LlOp%jk%Lj1PJ3j2%kKmKPPrJLmMkojNKJlJ%LrOJj%lLj%%j%Lj%%MJ
2748C48koNjkkNn%NkKnMjJmKJkLmJLqMNJoMkLjmOjJoJMlJLlJ%%JlJNo%jMlJjJKlOrLOoMKm
2741C44KmLmMKnjLlJLl%NlkNmjLJ%lMnL%%Lkk%JKkK%jLlkJkKJ%jkLkjLJjjMnMkOnkJ%%jJM
2734C50o%KK%%KqjOKqQoMoRmPrlOkJKk%mMjJjJkjJKKmLKjjkKkLkKmMjJkKJKoM%nOlJJlJjM
2728C50k%k%%%LkkKlkPnjL%%lO%k%%kjL%mKK%JkjMKkkKkjJJJlJNlJJjkK%mKJkLj%kM%kLnk
2721C45KK%JKqL%kjLJj%LjjMl%JJjKmKlL%%jKl%K%LjJkk%Kj%KmLkLjlMl%kKJj%JkMnQn%%O
2715C56qOj%%pKPn%%Jj%jKjjK%l%KJj%jMJmmJ0mKlj%LKnNlKJlkKJj%kL%oMjJKjJKmLmJJ5j0
2708C56ojOoOjlLlkLjK%%%LljKlLj%Ljn%Lj%LkJJlLJlJlNjkj%K%jjkKmQ%MqpJL%%QqOk%lL
2702C53kOn%JnNJJjKl%K%JlJkMk%j%K%MllKKkLlKK%mmNjmLJ%jKm%KjkJ%NjJnLklKLjjJjLl
2695C53%KJ%JnMkJ%kKKlNkkK%K%mNlmLL%mJLl%kMKljjJLKmJoKnRkLm%JjOoO%mK%jj%KjKlJ
2689C58pPJmLlLJjmLKlKjJnJMj%Jj%KkKjKkMmmQjl%j%JlKlNkM%l%K%jmO%mKjjK%%J%nKLjJ
2682C60l%KKnM%l%%KjLoNjJLlkLkjjL%kkNJmMlNqPJoMJpJ1mmkNKokMjj%LJjjkJjKkMljJL%
2676C62lLkj%J%%kJ%%JjjJJjOn%Lk%Jj%jKlkOmL%JLklLmKMljkLlKlLjMjlmLLoNjLjlMjoJL
2669C61KjlMlKMmKoLMoKLljNkLrJ0oPkoQmlQm%Lj0PjLmJnOMlnOj%nNoJMkJ%%pNJkQqNrNKl
2663C61jLrOLJ2j0LLRqoMkj8jJ4rj1K9k4K3J1k0k8L4L9n0K8l7L2k4M9m4J0%j4j8K7J7k3oJ2
2658C66MrN%JkJnkRlKmLlOmKkj%JKjmOrNNlNKqlJlPKloJ0lMQk3QJ0j3J4J9j9l5K9k8ML4Ml3
2653C50J4J4j8oL0j0j5lQJjRmmJ5j4J3qNoKm%jOrkLKpJ1JnJj%jLm%KlOmNkkPrJOoJ0mmmOk
2647C68OKkj2MJ0j1K%QnLjkKlJOj2QKokPmjJj%MKl%KjkjKnjNLjmkLN%nJkL%JkKMJnKoNnOO
2641C80nll%JJMmNj0Oj%%KnQj0P%KjmMkjNm%JlKlMl%JJlNklNmjL%JmL%kKkKQqk%QqMnKNmP
2635C79j0NKmNoLkjKNpKl%MKkjjJjKJlLl%J%kjkOjJmJJJmL%Okl%jkKLpJ4j1JmLOpJOkjk%L
2629C75jjJj%KmMj%kjKJ%JlJ%%%JkLjJmjNmjOlJkK%KkJJkL%%lKKjkL%lK%%jkKjLlmM%jJ%K
2622C77%jkKj%jKkL%mMl%LmNkKlmLJkKJj%%KJJkKl%%LJn%Nj%ljMmJ%lNMoMoNkJklNJj%%j%
2615C77%JJjjKjkJjLjlNlkLkK%kLk%J%J%KLkkKmKmmRpK%L%KLqjPjmKkjLMoK%K%%kLk%J%jm
2609C76L%LmJ%KkKjLk%lLkMlK%KkkKJlJkL%k%%kOlkojJ0J%KmJJljL%%JnKKJmNlJKnOo%jL%
2602C81%JKlNnMlLnLJmjNKjlJjJkjjNnJ%j%M%KloNKjjlPmK%%Kkj%kKK%nLlQlj%%kKM%jkJL
2596C88o%KMmLm%j%KJjJJjjK%%j%kJkNmkJJj%KjmRkJJ%kj%jJjJJnL%LkLjkkL%%JkLjlkKLl
2589C84MjkLl%KlOkjkKj%KkJjjKnJPplJJ5j0klMMjLloPjJkMnjK%%kK%Kj%jkJkMJJkkKmMjK
2583C89JlJlKkMj%%%JJkjLJomOOoJMkmJLJnKKjmMkkKK%kJJ%%%kOnJMklNmKJjlLkKk%KJm%N
2576C93l%KKlj%Mlj%%k%%MlkMkjMkKKm%%jK%%%%%lPl%kLoMJj%%%KoJKNmNm%jKJjkN%jkKjk
2570C92%kNlJkLlj%LkPoJmkQlkjKJ%j%%JKpLMJjjjlK%JjKlMljKOmMkj%kKJj%JlkJLJmKPpJ
2563C95JJ%jmJ1nklQj3J0pjOMj0RjKjlkKmMmN%nkJLJKkJnKKlLMkjjJlM%JmMJllJJMlKj%%J
2557C98j2RQrLoLONj1LNjLLj0JlKMnjjMkJjKkjK%j%LmJLjLpJKjjjLKnNpJ5j0nJ0lPj6QkL%
2551C99KmJ%MpKMnlMKmLlLjJL%jlJKkJ%lLkKKnLkMJlJ%lN%KnJjKq%J1nnJNK%kj%NnKlKJkJ
2544D00OpMl%KkNmJmOnJLjJl%KJkL%kjLk%KlKJj%kLjJ%jLlljMlLLKjoK%Mlj%%jLkj%kK%mO
2538D04kMmjO%lkJLmLjmMj%%jLJ%KmMmkLJkJJJmN%ljjL%lKJLnMkjJkJkLkLnJJjQjnlKMnNJ
2531D09mkOnLnKJjKJ%j%J%%KkKkj%K%JJl%jLnKkNJkMmjLjlLn%OmJLjmKK%mOkKmKkQolJJkK
2525D08jJLj%JjJk%oQl%jKKl%LjLmJkOn%KJkJjLk%lJJ%%%lMJjlMjKmlLNmJpPm%NlkKJ%lJK
2518D10JK%lJmNnMmLjM%kLLoKJJoJMjlM%mJJnQpM%jKlLJmPrKQrPMj4J4LLj3pL%Pkjj%JMnj
2512D11KkJlLKklK%JJjMljKJkkJLjjkLljNmNpOkkjLkNmOlMKjnnRp%MjkLJkjlPk%KnLJkJlK
2505D15KljMmLKl%jKJJk%JJjklQoJNlJk%%%mM%jl%M%MoK%RpJ%k%%Mkk%KkKKl%jJ%JkKjmKK
2499D18jJj%%JjjK%kMjJmJjLkJjK%kM%lJ%KKnOklKmOkoJ0nkJKmJjNm%LMnmLKklMlLkLjJnL
2492D19jNnLJKoMnLKk%JkL%%lJjK%JJ%LoMkMkjllLMlLpRpJLkNnM%jlJJKnNkJj%J%jKkLmj%
2486D21MkLkjkLl%LjLljNKojkKkLJjLLkm%OnLljJlNKljJKkMmLJkJJjkjKLJnJJK%jkkKkJ%M
2479D30oMnN%mNpOjkKjkMlKkNkJmOkjkOjjJlKJnJMjjj%OrNLklKkLjLlkKKkkKnNjmKkN%jLn
2472D27%LkKlL%KjlKj%%M%joKJKKkJkJ%knNNkJm%JkLJklQjljjkOKljnLlK%jKLjJjKklNkNj2
2466D24LKMjKMqkJ0Mj6KjJ3j4JK0k6J1j1J0K%p%PnMjM%%LlkjMKmK%nMlJJJLo%NkkJKJ%jJk
2460D35JknNK%nJ2rLJ1k1Oj3J8olJ2oJlMlQlm%%qOMnOoJNjmJMjMpOJqKLlJjLkLKmkLmRpNm
2454D37Kk%lJJMmKmPlkjKKJ%kKjlNkKj%mLjJ%jKjJJlJLjj%JJjj%kLnMjjjPnlQnKlKkKJ%kJ
2448D40%KlNj%%jKj%J%njOk%jLJjJ%lK%lKjLmjJMkjJKjmMJlKmOoMJjJkLkKjj%MlkMnLJljM
2441D46j0RkmQmJJkjNmjJ%%%%Pj1NMmLlKlLjkMmLKlkLjJmLlMj%JkMmJ%KJllOmLk%jLmNnJM
2435D48n%NmoJNKkLOqLjkL%LnNmJ%kM%j%l%LjmLjJjLoLMjJnLJjKjJmJJk%%JMJoL%jOoJLkj
2428D49n%Ro%QpKNpKKklJ0pJKkkL%jJjJKl%KkJKkJ%Lk%jJkMmNlk%%%KljNoLJlKJjjjJ%KKo
2421D49NK%%Jo%jL%KlKK%mLj%Mjkl%L%JlLJlkKKkLkKkmPmlKLJm%LkKKkkKmN%%lMj4J5rJ1l
2415D58%%kKKllKL%j%j%kJ%jJMnJ%NnKkKm%j%%M%J%lKjjLmMJkKmLJkjNnpOLRqMpQr%KMk%M
2409D63jlJJJkK%%lKLo%LJlKkJj%Mlkj%LkOlJkLn%N%mMLoJNkKjjMj0O%jK%%%rJ1lkKJJljL
2402D65JkkLljkPlkjLKl%JJJlKjjMoPj%kJlLLl%K%LkmJMlJj%jmNK%%n%J%OlmMLnKJklKjNl
2396D66jJjJ%%KJlLljMlLljNj%mKLlkLKJl%Jj%%lQn%lJjNpJ1lQj0lJ%OmjLJjlKkjMkJkK%%
2389D70%%%kJlLkKMkJlJKJj%jjJkJ%LljjKkM%lNmjmkJ1pJNpJ0pkL%KkKj%N%qK%J%m%Oj%jK
2383D73jJkJ%%KLl%jLJjjkLlJjK%JkjjKJLnKJ%kjJJnKjNrQlO%nj%jQllLmJOjnNKoJKKmKJm
2376D74kKKjJlMlLnNlJ%JLnJ%%JKKjKoMj%%JJm%jNlJ%%NllJKkJ%JljP%lJjmJjJJKmK%%jLJ
2370D81lJKLqMlKlkOLlkL%LljJLnMJoQjJj4LP%jj3RN%nQlnQrMkMJkjLk%JjLnOnMlLkLmMkK
2363D85MoJmMjjjNmKL%%nLlJK%M%j%%j0JNRnnkN%MpkNjkkMLJmKk%LoLjjLkLjJ%JkOoMKrMj
2357D86KlKJMjnKjMrKJLjK%jLmPnNnLjjJkjJLlKkKm%K%Kjj%Kj%j%MlJkNoMkKkJlKLjnNlJL
2350D93lKKnJJ%k%MlNkkjjkLKKK%lKnKjKjK%mKKkKJk%%LlJ%jjMnLJJlJmRj0NLkk%KKllPjk
2344D95kLlMmLlOqOkJmMmlOkj%%Rm%jJj%k%LjLm%kLJJmLKkkjMKjKnMkL%mJlKMjmMjJnNlM%
2337E01jKmKllPkJjpJ0m%jJMmKKkJjj%JmLjjKJkMlJkJJJjjNpjPjjjLljjN%%JJmmPk%NlJnK
2331E02J%%%%%K%Kjl%%jM%k%lKlMk%J%kK%JJjlKJjMlJk%KnK%KjjkMj%%LmJMlJLj%kLlKj%J
2324E07lJKkkOlJ%kLjk%%JkLjJ%jMkjNoKJkjkJLkMkkMk%KnLjOnmKK%%MkjMoKlkLQj2RmOqK
2318E08kJ0opQ%jlJMmKJ%%%JjkJKJkM%ljkN%lL%J%%jJlLkLmJ%JkLL%qJNJoLKMr%%%%JNqOj
2311E14%kMlNjlOkjl%JJJjjKLlKjJmMmLLjkj%JJjJKJk%jjj%Kj%jLJllKMlKLo%JjJNlLmK%L
2305E24nMjkj%JkOljj%MmKKkk%L%jJ%Jlj%lMLnN%j%k%Kk%KkNj%NjmlKLoKJJLnjjKjKkJ%%j
2298E21kKjMJjnO%llOjjjOljLkMnjMJmMnM%kL%nMnL%kMmOoNm%KmJKoJ0LpjKkJjNjljLjKkJ
2291E27KlJK%llNJjjLjJLoKJmJKlLkjL%MnJoQjKJ%mPkoKljQmKljKlJMmKjkKJ%%%Mj%m%KjL
2285E33kKjlL%JmKKkKKmKJJnRpLj%%NnJjJKnJ%LJlJJOlj1P%KoNoOk%%jKJkjKKlJ%JkLjkkO
2278E38oPmjJKJkJ%JMn%NoKKkJjLlKJKlJj%mjL%KkjKjJ%J%jJjKLljj%Nlj%JkkM%kJk%PoMj
2272E42JNj2OLm%jNlJLqRrJ2ooLnQjllQkj0J6rj2rQK3j1LLrkOJ2lrQJkoJ%KjM%kJ%lLJkjK
2266E46JkJmM%JlLjkK%%MmKlKJ1okJqjJ7j9L0j9J0nk0K3nKjqrQlLOlNmmkkLKLJnQkLqLoQj
2260E51lL%KjJppJ5%okPlJJ%K%lkKnO%kk%Om%JJjNoKkKM%pKJK%%mPkkJk%KJ%jMkJkJkjLNk
2254E59nJmJMmNmLkJJl%MKjj%JJnNnLkL%Lj0LNoML%jmJMnKLlMlLkj%KmM%KoKJ%%jJjkJMnM
2247E60KkLmNj0NMpLKK%%k%l%jNoLnQnkNQj1QmkMmLjkJKNljKlJKJmLj%lLKlLJkj%j%J%KjJ
2241E66%jl%KKJjKlJl%Ml%LkKkJm%RmjlL%LjnM%J%KkjKmKjJlNjjJKlLjjLlLm%%j%JKkMlkK
2234E68%NnKjjJ%mK%KjJLm%JLmQnLNj1%jLKjJJ%JlKJljJLjjLjlNllOmMmMoLmOjjjLnOkKoQ
2228E78kjjOqK%nOLoMMpjKM%kKlkLKjJk%jKLmMlJJ%lKjkJ%L%lKkLJm%KLoLJJjJjJj%%KlMn
2221E77%Mj%OqKPpkJNjm%%oJ0kkL%lLjMl%%jJlKLnkL%NjkKlkNlKj%JkLkNkLqQjjJjm%lQl%
2215E84Plj1J4olNKmnNlNlPmjjJJJk%jJ%kL%%jjLlLJ%JJljJjJjLk%kLJ%kKkK%%jJj%L%kjk
2208E87L%kLJJnJL%kKkNlkKKj%JjjjKJmLKljJJJ%LkmJJ%JjmNK%lJ%k%jJJjJ%NklLNjmoRoO
2202E99k%jKlLjLjj%j%K%lJJjLm%LJjkJ%JkK%mKjLjJoP%%kJjJK%LqMlKLjkLKmLlJjPjllKL
2195F05LqMj%jJJjkJKjjKl%K%K%%jklOJljKJmK%LnK%%jLKjjkK%KlKMnKOJnKnOKnj%JKoJ%M
2189F10%mkL%LJmkM%k%L%JjK%mLJn%Lk%L%k%kMKlJjNmkKLkkLk%%JJ%kKkNm%Kj%nMKjLlJlj
2182F10NkJ%%JlL%%K%mKlLJlJJjMnLKjjKkKkjK%%kKJljK%lPpOmNmJJjjOojN%lLlM%k%KLpK
2175F19j%%KNljkNmkKMnj%KlJNJ%mkOnK%%lOnJ1opQ%LJrLRrrJ2qJ1pnRJmO%qKKJk%L%kJ%j
2169F25%J%jjJLlJKl%LmLkNLmmMlOjjlLnLL%j3OJ2opRoQ%qJKNlKq%OmKLkK%%KlJ%k%LlJKL
2163F36pLK%jj%%kNnQj0M%jpJ2nLKmMnKJJjpP%MnN%jMj0PjkMjkjJ%ljMjL%KJkkKkK%JlLj%
2156F39pQjKjKkOnKrJ2kloLK%%K%%KlJ%kJ%nRojQmk%%LjjNnK%mMjJ%MjkKkJkN%jkKKjnJKK
2150F48%JjlLklLKkK%jk%J%M%k%kKj%mOllONj0JKmOkMl%JlMJpMMj%K%k%%%%LmLk%%JkLkMk
2143F53jkKKoLLlkJL%lN%Kjm%%kJMpQl%NmMmLljLmJJLkjJJ%%%Okjl%jKkLlOmJ%%j%MnkMLo
2137F55PnjKK%kkNJjm%L%%k%JKlMjkPjlLmKmNmJ%L%kjKjKKljKkLmLjKj%K%j%jLlKLqM%mL%
2130F64jNmKkJLlj%jNljMJm%KLlLLrOmKjlMNjmJJJkKjLklKJKl%MjKkn%Nj%JKnlPJnKJlJkK
2124F71Km%JJMoNJn%JMpRjjKlKKlJkKkNkmJ%Lj%K%nNkkMk%Ll%%jJjJLKl%J%lLkJlO%KoMlM
2117F82lKoJ1rOk%kJOoMlkL%jKKljKjJk%KkJLl%%%NmLnKJJk%KjKjKljN%llL%LlK%lL%kK%j
2111F86JkLnkPkOoLjjJKnMjKmMKjjKj%kLkJmMkJoQKnKJLoL%jMlKjjK%%k%LjkOnJJJ%qPjLm
2104F93M%KjkJkOokKKkJL%nJMl%KJ%mlMLJpNj%jL%jMlKjkj%NlKJmKJ%lM%MpPlmLoJ1qMNKp
2098G03kLlKKl%Kj%mLKjkLjJK%klJK%%KmJ%KJLkJj%%lJNoJLlMlMMoKjlLjkNknMmR%oLJ%oO
2091G11kNkjKj%Ll%%%mMmLjJjLlQrJJKKJlJlLjKJKmjjjL%N%mLlLkjNpMkLoMMjkLjmLjKjJK
2084G21kjLk%%k%LkjKJJ%lMlkJLkKKpjO%j%OnkMlNmMmMjkkJpJ4j1ONn%LmNn%jM%jjLnLK%l
2078G23LlN%jkKjKJJlKjjkJJ%%NlKmPmj%lJMpJ0klOpJmJ3poQPj7pK7k2L5k5lKJpPJj%Ln%K
2072G31%J%%JJ%KmKKmKmMJjJJ%lMmNm%Kj%jJlLM%knKlOj0QKMQnrPKmlMJlkKOj1Rm%%jNoQp
2066G38KjJjLoNLnOmkOnOlKmL%JmMMo%LnKJOmjKjl%%Lj%JKLJr%J0oJlLJkjMnLjKkMljJLJk
2059G50jLk%kMJnLKkjLKnJPlkjLljJ%%MkjJ%KmjMlKOoK%k%MnLlL%MmkLJkjKKlkMJjK%LmJl
2053G57OmjLJlMlLkjMKnkKkkMKkJl%PLnjl%jQLpKlmOJ%Ll%lOl%K%jkOoJjJjjNk%%KKmLkLm
2046G66Kj%JKlK%lKJjkKMkJlJ%LoJKL%mMK%kJl%JL%Lm%%KnM%JkkLj%JlNlJJjLnPkjlK%K%j
2040G76jMlLkKl%NjkJJjK%KlmOljj%KNknMjPnLmjKjkKK%j%j%LkJjJJJkLk%L%jkkKLk%%%Kk
2033G85JJjJJjlMjJlKjjKJJKrPMn%LlK%jjKjkMlJjJJ%MjlNlJj%%JKnM%jlKKMnLnNllOk%%J
2026G95jkLj%%OnJKJqRqJ3nLj3PmKPkKmJKmLkQoJLj%lMj%kKkK%%KoL%%Lj%j%jMlLmKjKlL%
2020H05jLKKlpLMjJlLkmLlJMJ%JlNmMoJOlLJkJkL%jLlkKkJjLjKjJKlJkjMJkJLrOjjKMkJqP
2013H17jlOkKoKKmN%lK%jjLJlKjJ%LJlJj%LlK%JjJMp%%LjL%JnLKkj%KjkJMkl%MKlkMk%L%M
2007H31nlL%kMnO%l%jJJ%jJ%M%JjkJJnNj%%%NkkjJ%%%JJ%JjJnMkJjLJjkkMJ%LljJMlNoPj6
2000H26J0MlLljOnLLpL%kJL%jkKJmL%KkjKkJLjLojLKkKmNmJLkJkJLJkjJKlLJjnMnPklOJmM
1994H49k%lOmkLkL%%%L%l%kKkNjKlMoLJL%mKj%MjkJkJKKl%jKKjjlJ%Oo%jMjMjOj0LkNmJKJ
1987H59JljMJlLlLjjKm%K%KjkMkJ%Lkk%%KLkMjnkOmLlKJjjLoLMkljMMoRqNlNlKlMl%KJlK%
1981H69jL%j%Jjm%PpO%lmKLjJJkLKnjNjlMnJL%mPKmmMkLkNmPpLoJ0pLqJ5okQlkLoKPqKlM%
1974H79Kk%MkkKjkMj%KlMoL%L%%mNlLmLjM%nlOkLKlMkljoJ6qlLj0QkMJlQkKnJJLkNnJjKJm
1968H88NLmLkkKklMJLqM%MmJkK%jJkN%mJJ%JmNJJjJjKjl%LnMjNKmPoJJjjJmPj%jjMl%%%J%
1961I03%JjkNl%mMjMjjJ%kJjMjJ%kNmkJJMJoMJlLjLnKJKnOnOoJK%JjKkLKlKl%KlLkJLKnKj
1955I14kMLnjjQmj%%K%K%jlMLnL%jkKmLKnOKkJjkKj%jKmLJKJmKjJK%KlLjJlKKj%k%NmJ%jM
1948I29jJklLjJ%%kLjK%%LmkKkMNoJlQ%kqPKkMjnKJ%Kj%KjKj%jkNkjJkKjKJmKLkKkjMnNJk
1942I39k%KLjKk%jjNjjKnJLkJjOj0OmOJJ%kKJlKJoLPqNkjLmL%jK%jJ%JlJM%JnJNJkLlkjMk
1935I52KLnJ%%%Lk%mKLnL%MPpljNkKJlNpLMoLKlLJlNm%j%MJmM%lJ%JNnKjkKlJ%jM%%JJmKJ
1929I65LjKlKKlJKnNJ%Kj4OPoPjkJ%KjmKKk%MjJ%%jlN%j%%mL%J%%MlLk%JJkK%MnKjK%nNj%
1922I79%%mRoOn%OpjJ1jlKkmNkKjlMl%LKkNmkJjJjOk%nNJ%lN%%%lNmJ%KjjjMjj%Mk%lN%nJ
1916I91LL%nKMoLLpMKLoMljKj%LJjjMjnKMmJLjJlNjkJJK%J%%jJmMKJmMl%LLnlMMlkNoOo%K
1909A007kMK%%lLLnKk%J%%K%m%MLl%LkJkJMkkK%KmKMjJkJLjnPkJJlK%jK%lMnjPoK%Njl%Mn
1903A020MKjJoMmKLlJjL%JjKjjJKjJjJkJLl%LjLk%KjmNlKjKj%%JKKp%OjmNJkMj1J1lKkpLP
1896A038jNpJmOMmKLkJjJlLoRpMJLnlKPqNkjKjkMKmLjKjjjKk%JL%jjKkKN%kkLJLjkkkMjjK
1890A052jjMlmJ2mlMkj%lPoKJKl%Okj%LJllJLKnPkjkKj%JKKKkoL%JNmjPmoNKKjlJJLkkLnO
1883A068%k%LlJJ%J%MnjOo%Q%KokM%jJ%OloQlLoJnONj0ORrnOnNnOJ0j5KPqrJ2KK5nj5KNj8
1878A072QOjpJ%Rj4J4pNm%jJjLjjMjJkNjjjLk%JmQmjQj0JmJ3j4J2qLlMJ8qOk2Pj3LMjJ0j3
1872A080nL0j0K3k3Rolj3LJ2JmMpJ3njplONKpRpNKjlJMj0NlQm%RmjMrPNqMkOqK%%MkmjJ3r
1867A106J0r%PkJmKnNLj%kLkJ%kKLmKmL%kMkMoO%MpLKjk%OlJKl%MmjNmLKpjNLKlLKrQ%JlL
1860A128JlOoNmJjKk%KK%jk%kJKJL%jLkJJjKKkJKmkJKlMk%KjK%lNkKmK%LJKkLkoNnJ0m%%n
1854A138QnK%JjMklNKmJJJJj%L%lKKl%LKjlKJmKjKJ%%jJjNklOl%j%JM%jj%JJJkKNmjM%nJM
1847A164kjMJmLjLklKM%j%%kOlnMM%jjJjkJJLkKJmJjNmLLnNkkOjkKlKJkL%%OrLJJ%KnNkkO
1841A184nMmJL%jLjJjjkOkKlMkj%jKJj%%LkKJK%jLoPnLjkLjjJkJOnKKoJkLKJNn%JKkMj%kK
1834A199JJlKJ%kKmMjjNk%KkkLLmjJMkjNkJJJmMnNjLmPokL%mLMkjPmOjklkJN%Jk%jKKkK%j
1828A217JjKlK%JJlPlLjl%JjK%KkKKlJKLjnNjkMnJ1nj2J7JkrLlNMjKoKmLLkPo%JLkNl%%Kj
1822A237kLkLjJ%kM%jjJKk%KKkLjk%JLKljj%LJjLlj%%LmMKlNJmJMmnRmKkLjMlL%%lKKlJJK
1815A258jJk%%%KKLjjjjJ%LKnKJLKkjJjJk%K%MkJ%%kNlJkmPlNjKlLKkLjk%J%KlKkKkOjjlN
1809A280mK%Ok%MpjMjLJKkJkMlJ%KlLkJ%Rr%OL%pjlJJ2oLoPJpKLjL%j%jJLjjjMmNlKjKj%%
1802A300LJ%%mJJKJlMjKjkLjLJnNl%jMnOkj%MKoKJ0j1RnRok%jJL%lMjkMlJ%MljNm%MklOmN
1796A324j%kK%JKlJMljKMokNjN%jJj%J%LnMMmJj%%kOjkLmNJllLJMl%JK%JlLkJJJkJJKkLjK
1789A347lJJjLkLlNm%JKKkLjJkjMmLojP%jmKjOL%k%JKj%jJL%%%jKmOmKMkKjKmKK%jkjNJjk
1783A366PmNmjNn%MjLmKKlLnJNlLJNklJ2j1nQ%nLLjkOmKkKJJkJJ%%%K%LlJjjKJkLkKkMoQk
1777A392%jjMJmNkPnpjRkQj2NMj0ON%Pq%KNjmlMLkLKjjj%LlJ%jKJJkJj%%MjnKQpRj1MlP%J7
1770A432l9L0j4NJ0j5RjLMqjMjQpJJLJlLjkNj%KjkLJjJkKJKmKj%KjLlM%nL%lNpPRm%jnJ1J0
1765A454l8K9qJkjNlNKkKJJ%JmNLqLNm%%%MJnMjJ%kNkjKjJkK%LkNkmLMkOpJKj1RRqJKJJk%
1758A462MJlLjkJNlLlJLJ%oLJjjOm%MmP%kLm%JL%k%JKnKNkLjkL%jN%kjKmM%LJ%jJl%NJ%%k
1752A490JkKJJlQlMl%jM%rQlKpOKkOkLjmKMkkLkjJjRnJ%JKjjNLokNjLlLJjLmMjJKJmMj%jj
1745A516OjJl%KlLJJkJJNoNLp%KJkJLjKlKkPk%JKjjLjKlKLjlO%KoKKjJjLj%KJmKjNk%Lk%K
1739A547%LkmPJjmMJJlMJjjMjKmKKJlMjJJ%k%LJ%%JJ%%JlJKjNn%JLj%JJlLkKOjlkKMjlNKL
1732A582KqM%MlKn%OnMOrMMkJjJJmjOmKJ%JjKK%Kk%lPnJKJJ%mNKkJjLJj%JmK%OjKLn%LlMJ
1726A609PrNpNnP%klO%jJLjJ%%jJJ%lKJJK%JJJnP%oOJKmKK%lMmMLjlLJ%jJJJ%lPmjKLmjNl
1719A635%LL%%J%%jLjJJKk%%K%kL%jJJ%MJjkNJjjMmJNjJnM%J%jKk%%Ql%%mJ0lmMjJk%OkJk
1713A669KKjj%JK%Kk%LLnJ%LjMjK%jjLjKJjKkLlLlNkKkM%%jLJkkLLjLkKj%KNpOj1NJKmOjJ
1707A703%J%JjK%KKkKl%LJ%%j%%KK%K%K%jJkK%K%%lMkM%jKKlLlQjjmLjPnlPlJJkJM%jNklK
1700A736LJjkLlL%%L%JJjJ%kJKKJJJjKmKjOljNmJJ%MkKKk%L%njPmnQJMj%JKlNnKKMlKjKjJ
1694A773LnNlMkJKJ%jKJlJ%OlKjJJ%KjjL%jL%jMjKljNnJNjMj0LLOlJJkLkLkLJLkjLMmMjjK
1687A811jKJk%%L%%MmpQ%kOjK%%LkKnJNjLmL%KNp%j%LJ3j1NrMPnJ3qkJ7k3MLpJ3LlKmKJJK
1681A845k%kPjjMj%JJ%JjNlKJkLjjL%%jKJkMkOnlLLJ0nm%rQOKj0NJ8j9J0j3NRpKLOknJOlj
1676A877MLmPpLjLKnLJOJn%LlMKJlLJmMjjKMJj%JJJ%jJMm%KmJQ%kpPL%kMnMJKjKLmL%JjjJ
1669A918JLjkNnO%%MkJjJNmJOnMkjKkKjjOlK%LjjJMJKkKMmK%%%KLoNjLjJjLkJKJjLkJjJKJ
1663A962%%Lj%Lk%%jOlLKlLJkLlKLkLJJmQmJjjLMlJNlJOj5PKOjJKlJOnNkjJKjKjLkMmKJJJ
1656B004jLLlMmJKjM%jKLkjL%KlKKKlJ%NjjOljJjJ7j5Oj0P%JMkMlLJJkJ%L%Jj%JLLm%Jj%M
1650B047KLmLnNj%NJj%%KjLJmL%JjMJjNmJJJMm%KjLOpNkMmNKjJJ%jOk%jjJJKJjOlmNKjLJk
1643B093%K%KJjJJjjL%LKK%j%J%JMjjLmNlLlLKLmJjKkL%L%JKlKNlKLlLJlLL%nPJ%K%mNJJ%
1637B142JkMjJlJOkLkJMnL%%KJjL%KKlJNoLmOKK%jlNKKMmK%ljN%MljLkKjNjkJKkLO%kLlK%
1630B188JJjKLkMk%%KKMkKjjlJ3qlLMRoJ%mLMmJNLk%J%%OnJNl%MlLJKKlJLkKMmKjMjM%%%%
1624B239JJ%KLkLlLJkO%kLKklMMOm%kRqOmMJ%JjLjlQmkN%KJLk%%MlJKMJnJL%LJkMkJKj%KN
1618B297jkMjJkLLJJKjLkQj0PljMMlMmKKJjKjKJjK%KJ%KKlK%JLlM%KjJjPjmKkLKjK%MK%Ll
1611B347jRlkLMnPj0PK%JLJnOLlpQ%K%KJkMjL%JJ%KlL%M%kNjJ%%KKmQk%KjKJ%jNJLjjKkNl
1605B403%NjjOkkL%JJM%%jJLl%OoNMlMlLJKLjKlN%KkMJ%jKKLkJJJjJJK%JjLLKmLJJj%LJlL
1598B463%Ol%KJnJ1nRmlOJnOmNJkKJNmKNKljLJMjjL%KlLKJkMJ%JjN%kJJJKjKJNlJKjjMKKK
1592B529j%QmJlJ4qlLLj%kM%%jO%lLMkNlLkOlJJMkOlL%%KlNJjNjkN%lJPkJJlLLlJ1o%lJ5q
1586B588o%J3qmK0j3J1j4K0rjlOJLk%Mj%PkJjLJkJLL%JLjKkJNkKJkN%LkjNlPjLjMj%pRjjK
1580B647OrJ3j5NKM%LlJOJmOJ%%LkOjKK%%LlM%JjMkJNmJOkOlJKjN%kLjPj%KMnJJ%QmJKKkM
1574B717lMlKN%lPk%jO%kPj%kMJMJ%%jL%K%jJN%%%JL%K%LLnK%KLLjLLk%LKkLKkQl%jMMmMl
1567B785PnJPkKjJKmQnLLKJM%jLmMKjJL%LkKJjLKJKLj%NmNJjM%KLlJK%KJnRJ%lMkP%mP%%%
1561B861NkjOoMKJjNJ%JJKJKKJ%%LJ%jMLj%KNJkNlKkOJJjjKNlKJNkK%lJJ2jrQKJ%MJnLLJj
1554B937KJ%P%kKLkLjLJ%MKJnOjK%KQnK%LMkMjKJJM%%%J%JLNjJkNJ%LmLNlJjNLjMJjJ%JKN
1548C024J%%K%%LLk%MK%jKOkJM%lOkOLk%L%MkMkL%LkLkPjKkMMkJJNjKLoJ0lJNlJMKKkJNjj
1541C105L%KJLlKJL%KkJ1mjOJnP%JNjjMjLjMJK%KKJlQkKjNK%KLkMKk%KnN%JLOJkKKJ%JLJK
1535C194jNkJM%JKLKJjPmKKjLK%N%jKMkOmJ%MJjNKjJ%LJJ0nQqM%J%N%MOm%%M%OnKMlLM%LJ
1529C286K%%KKKJjMLjJQmJLJMlKJN%%LJ%kOJL%Lj%KMlJOJJLLLOj2OKkMjNlNk%PLlNlOjMj%
1522C379MK%%JKLLMKn%NJLjNLmNJK%LjMkOjKjKJM%KMkQjKlMlKKJLKNmLLK%QlLjKKjKKLjKL
1516C483KkMKNlJJJOk%MN%LJJkMjLLkPjjMKKjMLkjOjjOJjO%LjNkLMKjQmKjQkKJJ%KKK%NkK
1509C588KJMJJJKL%KNjJMjLjN%J%LJQlKKlQOmJ0j0QnLjJ1jKkM%PnKOJkLJLjLJLLkNk%Pj%N
1503C697Kj%NK%L%LJLlKKM%PkLM%%PlOj%JPlKKJ%NKL%OlK%MlNJMmQ%KKJkMNkNKjOkLM%jMj
1497C810L%LkJ0%LlLKKKOmLMKkNnNlRJLKKJmQLLMlJLKKKjMNjjJNK%KMKK%MM%%%OjJMKjKLM
1490C935JPkjNjNKm%Q%%KMMllK0rlK5LOk6J0qJ8Mj6K2k1QOKP%j1J4JqRLKkMLjOkKOKJJNJ%
1485D043JM%K%QkJMJNmJ1oKPklnJ6RKrk0J7J8j0JNJ0Nj6J8j1ROJmmPJ3%NjJnMKNL%jKN%KK
1479D154NNnLQlKNjlLLOnO%J3j2J2JmPLjjPjKMLkO%OlNOkKLJKjLN%NlQKkN%KMJLJ%LPjJMK
1473D289KJLLLjMKJKjQ%MkOmONlLPMkLjJMMkOlOLJKJNNlN%P%jMMJ%NLKJL%LJM%MKKOJkOLk
1466D434NJOkK%NKMJJNjLJOJ%J0lLJJ%NKMpJ5NklNmJ2oRjNLL%MMlMLKJ%O%LNjMjOJN%NM%J
1460D584KLjNLJjQJLJN%JO%%PlPKKOlPkQKjNNlMjLNJPkPlLNJJKPmNLLLKKJL%MP%JPkQkKKL
1454D748JJMMJMKM%MLN%MLkLOjQkLO%NKjMjJLKRJKjLPKJNKjNLKJN%NJJ%KJ1mJPKLPmKKLJQ
1447D918KJNLL%OjO%OKKKLMj%ONKPk%MKOjKPlMLkJ0jOMKJKMMJJ%OMKJNKNKkLPMkNMLkOJO%
1441E095MNLJJNJMM%MLLJjJ2LjkJ1LoOMPJkMMOlLNOLKJKLMJNJMjNLMKOjMKPkjQNJNjOLJMK
1435E282LKMKLKPJ%NKLLKJ3rOP%%J1lL%NPjMMKjPLKLLKNMKJO%MNKLL%Q%QKJPjLLMJMjPLLJ
1428E477PJMLNkPOlJ1%JQ%JMKJPkjJ2KLLLJOKKLM%QLJMNJLNJMLMKKNNL%MOLKLNMKMKKMMN%
1422E687OKLJPLNKkJ1mRlJ2kNMK%P%QJKQKjNMLNLKLKLMMNJMMLLKMOKOLKJLOJNR%JMMMKOKO
1416E912jP%NMOkMMMJPLNQjmRMOJMNM%LJ0kM%R%NMLMMKLLNLO%NLLKQLKMOLOJPjMKLOLNJOJ
1409F144N%QJPL%J0mJ5K%PpJ5lPOjOLMMKQkNMMKMNMKOKPJNLOKNKMNLLOMOKKNMKMMLLQLMKP
1403F393MMLPjMONKMNJRKMMKMNLQ%MOJMNMLMOMKMPMKKNNJQKPKJNQJPLNKNMNMKMNMNLJ0KJO
1397F662LLQJNO%J0%NMR%O%OMNKQKMPLMJPPjPKMPOjLJ0JOKPKMOLKOQLKKRLOMLPlJ1MRnNJ0
1391F936KPjJ3kRNkOQmJ5oJ0MRKlJ0KQKNQJNNOLLLOQKPJR%MPJ0kOLNKQMPjROMMMRMJMNOJ1
1385G222lPoQJ3JMQKLJ4oOQJJ0oJ5K%K0mPLMLPMOJRMLRN%J1KQKOMOjONONRLMMKkK4JpJ1MK
1379G499J2jQMMMNNPNJ1NlLJ0PLLNQMJROPLNOKNPQLNRKMNPNOKRJNNLMRKQQNKQLQ%J0KOJQQ
1373G830MMOQ%RPOMORKLOOOOOMLPPJJ2NNNNOLNPPNNNLOQPKPMPLPJ0JMLQNRKPQOKOPNMRONM
1367H190MQLOJ1KOQNNJ4%KPQJJ2MOPJJ0JQOOOMPOQLLROPNQLNPQLROONKRKQQNRKOJ1KNQPRK
1361H560LPNJ2NQRjMJ2NMOJ0NOLPQNMJ1MPOONNOOJ0NNNPMPRQMPKQOJ0PPNNRMOOPNRQNMQMJ0
1355H949NJ0OMOPMJ2LJ1NPKJ0MJ0O%QJ2PPMQLQQNOPQPJ0LJ1MQKRJ0PMNJ0NLJ1RLJ2QKRMPN
1349I320RROONOPRPQPOORKJ4jJ1J0PNPOJ6J%J1J3OPLQQPQPRLQQRORRQMJ0NRMRJ0NOROOJ0P
1344I745NJ1NQNPJ3KRNPJ2MJ3RLNQQJ0OPRKJ5JJ6mJ2MJ6MQRNJ0RJ0MQQQOPPRPJ2NJ3OQMJ3
1339A0158MJ1KJ4NJ1KQJ2QNRPJ0OJ1PORRPJ2MPPJ4LJ0RJJ0J7mJ5J0PPQJ2LJ1RLJ1RJ1KJ3P
1334A0549NRJ3QROJ0QQOJ4PQOJ2PPJ0J0QPMJ0J4POJ2PQOJ1PRPJ2J2NRQJ0POJ3RNJ4ROJ2MR
1329A0985J0J0OQQJ1J3MJ1RJ0RPJ1J0ROJ1QJ0QRJ1J0ROJ0J2QQRNJ5J1NRJ1J1RPQJ3MJ2J0J3
1325A1409ORQJ0J1J0OJ0J1RJ5KJ2RJ0NJ3J1RRJ1J0OJ4J2KJ2J0RJ1J0J1J0MJ2QJ2J3QJ2NJ3
1321A1809J2RPJ3RRJ4MJ1J2PJ3J1J0QJ1QJ0RJ3J2J0J2MJ3J0J1J3NJ2RJ2J3jJ6J4OJ3QJ0J7
1317A2228KJ4J0J2J5NQJ0J0J1J5QRRJ3J1J3QJ3J0J0J2RJ2J2OJ7PJ1J1J0J2J1J0J3J1J0J3J2
1313A2643J0OJ5J0J3QJ4QJ3PJ3J4PJ3J1RJ5JK1RJ1ORK1J1QJ2J2J2RJ3J3J2J0J4J0J0J1J3J5
1309A3092QJ2J0J6J2J1J0J2RJ3J4J1J0J1RJ3J6J1J2J0J4RJ5RJ3J0J3RJ6J2J6PJ6OJ7J1J3R
1306A3537J4J5J0J0J2J3J3QJ4J8J5RJ0J1J2J4J1J4J4J2J1J5RJ4J2J2J1J3J3J3J5J0J1J5PJ8
1302A3985J2J1J6QJ8J1J6J0J5RJ6J2J2J7J1J0J8PJ6J3J5J2J3J2J6J0J5J2J0J9J0J7J2J2J8
1299A4446NJ4K2J0J3J6QJ5J7RJ7J2J1J4J1J8J5J1J3J5J6J1J3J7J6J2J3J1J8J2J3J7RK0RJ7
1295A4936J2J8J0J6J1J7J5J0J9RJ8J8RK2RJ5J4J8J1J7J6NK1J9J7J3J4MK4JJ5J5J8K6ORL2J0
1292A5489J0J2K1J7OJ7J9J4K1PJ9RJ8J5J4J4J9J2J9J0J7J7J4J7J3K2QJ9J4J8J2J7J9J2J8J4
1288A6033J5J3K1J2K0J3J5K1J1QK5J5J7K4QJ2J5L0J6J0J9K4KJ4K2K0PK1J7J5J2J9K4LK4J3
1285A6610K6QJ6K3J1J7K1J3J9J6J4J5J8J7J1K2J8K1J3J8J5K0J4K2J4J7J7J8J9J9J4J4K2K0
1282A7192J3K0J4J6J9K0J3K5J5J7J4J9K6PK1K0J8J5J6K6J4J9J9J8J3K1J9J9J7J6K2J9J5K0
1278A7797J9J8K1J8J6J6K0K2J8K0J4J7K1K2J5J9J8K1J7J9K1J4K5J9J3K3J8J7K4K1J2J7K5J6
1275A8433K5J4K2K3J4K2K1K2J5J7J8K9J0K1K1K4K1K1J6K2J8K4J8K1J9K0J8K1K0K4J8K0K0K1
1272A9113J9K1K3J8K1K1J9J7K6J8K3K1K0K0K3K1J8K1K2K4J7K4J8K4K2K0J8K2K4K5J6K0K5K5
1269A9829J6K1K5K1K5J8J7K8J9K6J3K9J8K2K7K2K2K1K0K2K3K6J8K4K0K5K2K3J9K6K3K3K3K2
1266B0578K5J9K6K3K0K5K4K2K2K3K5K3K3K4K3K4K1K4K7J9K5K5J9K6K7K4K5J8L0K3J8K8K5K8
1262B1381K2K0K2K8J8L1J9K9K5K2K6K4K7K2K6K1K7K7K3K6K7K1K4K6K8K5K7K7K4K3K5K5K9K6
1259B2223K5K3K8K3K8K6K7K5K6K5K9K5K4K7K9K2K9L0K2K7K9K3K7K6K8K8L0K4K1L6K2L1K4K4
1256B3116K8K5K8K7K5K8K9L2K9K2L1K4L6K4K7L0L1K5K8K5L2K9K8K7L0K8K8K9L0L0K7K4L2K6
1253B4070L1K8K9L3K6L0L0K5L3L0K9K8K8L0L2K7L0L1L1K6L4K8L6K5L2L0K7L2K6L6L0L2K8L4
1249B5087L1K9K7L8K8L3L1L0L4L0K8L5L2L1K9L0L4L4K9L5L3K9L3L2L7K7L2L3L3L0L2L1L6L1
1246B6164L7K6L7L1L8L0L4L0L6K7L4L4L8L5L0L4L6L3L2L4M4K3L9L1L5L4L5L8K6L8L6L4L5M0
1243B7318L2M0L1L4L5M0L0M0L7L4L0L8L7L5M0L3L8L6L4L7L9L3L5M0L4L9L6L5M2L6L6L3L8M1
1240B8546L6L9L8L5L8L7L9M0L6M2L2M2L8L6L4M5L3N0K4M3L3N5L9K9M1M0M7L0M3L9M1M0M1L7
1236B9858L9M1M3L9M5L8L5M6L5M2M3L9M4L9M3M2M1M4L4M5M2M5L9M4M0M1M7L7M5M5M2M0M6M1
1233C1269L8M5M6M1M3M3M2M5L9M4N1M0M5L9N2M3M0M5M6M4M0M9M5M6M4M7M7M6M0N0M4M5M9M2
1230C2774M9M8M4M5M6M7N0M4M9M5M9N0M4M6M9M5N0M5N0M5N0M8M9M6N1M8N0M6N3M7M6N2M8M8
1227C4396N3M8M9N0M9M8N7M8N3M0N6N4M9N1M8N2N4M8N4N2N0N7N1N5M7N5N0N0N9N0N0N3N5N3
1223C6144N1N8N1N6N5N4N4N5N2N3N6N3N2N9N4N3N8N5N6N6N4N7N8N4N7N5N5N6N5O1N9N8N6N9
1220C8029N8N4O3N7N3O0N6N8P2M9N5O2O0N8O1N3O4O2O0O4N5O1N9O2O3N9O2O4O2N7O3O2O2O4
1217D0063O1O2O4O1O3O2O5O0O6O7O1N9O7O5O3O6O3O8O6O3O5O5O5O8O0P1O7O8O3O7O8O9O6O2
1214D2259P0O8O4O7P4O2P6P0O5O5P1P0P1P0P3P0O8P0O6P5P3O7P6P1P2P0P4P1P1P1P3P4P1P5
1210D4653P1P1P8P1P9P0P6P5P6P5P3P5P7P4P9P6P4P4Q1P7P7P5P9P7P9P8P7P8Q3P2Q6P0Q9P7
1207D7252P9P5Q7P9P9Q3P9Q4Q0Q3Q1Q1Q6P8Q4Q6Q2Q1Q7Q0Q7Q1Q6Q6Q5Q2Q9Q1Q8Q4R0Q5Q4R1
1204E0085R0Q6Q5Q8R0Q9Q4R1Q9Q9R0R0Q9Q6R4Q9R5R0R0R0R3R2R4Q9R8Q9R7R5R3R5R2R2J01
1201E3089R6R0R5R5R8R6R9R7R6R8R8R9J01R3J00J02R8J01R6R9J05R8J00J04J00J02J05R9J01
1198E5950J04J04J05J04J03J00J10J05J02J10J03J07J02J12J04J11J12J02J07J14J08J07J08
1196E8394J07J16J08J15J13R7J29J08J10J15J08R9J31J13J11J09J26J06J25J13J15J11J18
1194F0997J18J22J17J21J16J22J18J22J16J22J19J22J22J23J19J23J22J26J25J23J22J25J24
1191F3786J25J25J28J27J28J28J26J28J33J24J32J31J29J27J31J34J28J29J37J31J37J27J44
1189F6775J34J29J38J31J39J30J39J38J39J44J33J37J39J46J37J42J39J43J38J48J43J42J43
1187F9966J46J42J50J40J49J46J42J51J49J47J48J45J53J52J52J50J49J54J47J56J56J52J56
1185G3398J57J54J57J58J59J54J57J58J60J61J58J63J59J60J57J68J66J63J60J68J60J68J65
1183G7088J62J70J71J67J73J72J63J72J74J71J71J73J79J70J74J76J78J76J77J73J82J77J79
1180H1068J79J80J81J82J83J80J87J88J77J87J88J90J82J88J90J93J81J99J87J91J93J95J93
1178H5362J95J90K00J98J95J97K02J97K01J96K05K02K03K03K05K06K00K07K01K15K04K15K12
1176I0011K07K13K12K15K12K14K14K16K13K22K22K15K18K22K19K24K20K27K23K23K29K23K28
1174I5042K28K29K37K29K31K28K36K35K38K31K41K35K39K43K35K45K41K45K43K44K46K48K48
1172A00517K46K49K52K55K48K57K51K53K58K55K61K56K65K58K68K52K67K67K74K62K68K69
1170A06208K71K72K72K70K71K79K78K75K80K82K77K81K85K85K85K84K90K85K92K86K96K90
1167A12394K95K94K96L01K99K96L05L03L02L04L07L04L12L08L11L14L15L12L16L18L15L21
1165A19142L23L26L19L23L29L22L34L22L38L34L36L35L39L43L32L41L48L43L46L47L49L51
1163A26522L52L48L56L57L57L59L62L60L63L64L69L67L68L72L74L72L79L74L81L83L82L83
1161A34604L87L89L90L85L95L95L95L98L96M02M07M08L99M12M10M10M13M17M14M21M24M22
1159A43493M23M28M25M29M40M27M43M36M43M39M40M53M48M50M49M54M57M61M61M59M68M66
1157A53292M69M70M73M79M77M78M82M86M86M88M92M96M93N01N03N05N01N12N06N12N13N24
1155A64138N19N15N29N28N26N34N37N37N43N40N44N53N48N52N54N63N63N60N73N66N76N75
1153A76173N77N81N83N87N96N89O00N95N96O08O07O13O16O17O20O23O28O29O32O36O40O44
1151A89590O44O53O51O56O59O65O65O69O76O74O82O83O89O91O92O99P04P03P08P16P17P19
1149B04605P29P23P36P32P46P42P49P51P56P64P60P66P78P76P80P87P88P99Q01Q01Q10Q05
1147B21484Q19Q18Q28Q24Q44Q38Q39Q51Q53Q63Q65Q58Q77Q84Q79Q90Q95Q95R04R07R19R18
1144B40552R24R30R36R44R45R51R59R60R67R77R78R89R88J001J007J008J016J019J028J031
1143B60110J045J048J055J055J067J071J078J084J090J105J106J109J116J127J137J132J151
1141B78686J155J165J167J178J180J193J190J212J208J235J219J240J237J260J260J275J273
1139B99333J283J297J299J315J323J322J336J348J354J364J370J383J389J399J412J419J425
1138C22371J439J446J460J464J482J485J497J510J511J531J538J549J558J575J581J592J601
1136C48190J612J629J638J649J663J670J687J695J707J725J729J744J756J773J784J798J804
1134C77253J826J838J843J867J874J896J901J920J933J945J966J976J996K000K019K042K049
1133D10144K066K085K097K116K129K149K165K182K198K219K231K251K266K284K308K320K341
1131D47551K364K375K399K411K435K456K476K491K520K537K549K580K599K624K637K665K684
1130D90353K708K734K750K783K794K826K848K869K896K925K944K972K997L025L049L073L104
1128E39650L135L150L192L219L231L275L301L331L359L390L420L449L486L513L545L583L608
1126E96837L647L679L712L749L782L821L849L894L925L969M004M038M082M117M157M200M241
1125F63703M279M325M365M406M458M492M539M589M634M675M727M774M823M865M928M968N026
1123G42576N077N127N181N233N293N349N401N460N519N574N632N705N758N823N887N950O016
1121H36561O077O141O217O291O353O429O500O573O643O728O799O879O959P035P123P201P289
1120I49798P373P465P545P643P729P825P915Q017Q112Q210Q312Q414Q520Q624Q728Q841Q955
1118A088026R066R181R301R416R537R664R788R917J0047J0180J0309J0451J0588J0734J0875
1117A237080J1024J1178J1324J1483J1642J1802J1970J2135J2303J2484J2657J2835J3026
1116A392943J3207J3399J3609J3795J4001J4212J4419J4634J4862J5080J5309J5548J5783
1114A580801J6030J6276J6531J6792J7060J7332J7601J7889J8181J8475J8774J9082J9401
1113A810225J9724K0050K0398K0741K1083K1457K1822K2198K2597K2985K3395K3810K4237
1112B094722K4674K5122K5584K6048K6535K7031K7536K8052K8591K9135K9695L0279L0865
1111B453869L1475L2097L2744L3399L4069L4771L5483L6218L6980L7744L8557L9380M0221
1109B917007M1095M1989M2921M3865M4860M5865M6909M7988M9097N0242N1420N2647N3907
1108C529812N5207N6550N7942N9381O0865O2406O3995O5643O7345O9119P0944P2840P4811
1107D366860P6851P8970Q1167Q3445Q5820Q8283R0848R3510R6280R9172J02179J05301J08576
1106E557262J11974J15529J19237J23123J27149J31398J35820J40454J45312J50391J55731
1105G013380J61329J67197J73376J79857J86684J93875K01435K09418K17836K26725K36128
1103I167240K46053K56573K67717K79535K92063L05395L19570L34650L50737L67870L86204
1102A2573607M05802M26771M49264M73403M99352N27275N57392N89898O25047O63110P04410
1101A8495331P49308P98193Q51504R09811R73675J043786J120942J206059J300187J404571
1100B8853367J520628J650084J794887J957444K140513K347487K582370K850021L156395L508703
1099E2361899L915862M388930M941749N591671O360890P277664Q378777R712220J1341512
1099A14271174J3351761J5858144J9018988K3054663K8276157L5128450M4255768N6598786
1098C49813891P3531858R7030537J29782552J74883432K33974109L00948320L47478868L09850618
1097B017294185J30189462j29552816l09211877l46835672l00298444k33315521j74213513
1096F54055804j29099107r6330718p2813111n5858193m3490205l4334575k7450335k2193014
1096A72486546j8117156j4911428j2354930j0288787q597092p194080o015262n011628m145230
1095H5850953l386315k711091k100193j537464j009054n02750p303M88062R94079J521982
1094G7600906K083999K693938L367926M125278M989743N990971P166791Q566160J0253263
1093A26838975J2313715J4863057J8059697K2123815K7366022L4230269M3359257N5691139
1092C54845946P2596474R6045374J28717742J73699874K32628572K99415196L45815992L08302625
1091B012067795J29170829j29809308l08943333l46461152l00066775k33289191j74371757
1091F48297108j29403217r6747223p3317286n6433991m4127063l5026502k8194251k2988002
1090A62059573j8964183j5812556j3313469j1309107r684547q354984p257090o342951n575992
1089F5444694m927934m376718l905010l499025l147737k842235k575341k341134k134769j952192
1088C3742599j790116j645718j516626j400881j296811j202938j118060j041116r71195r07517
1087B0851621q49361p96198p47442p02677o61488o23520n88476n56048n26019m98167m72282
1086A3829943m48211m25776m04855l85320l67035l49933l33896l18852l04715k91423k78918
1085I921009k67127k56013k45530k35619k26237k17379k08977k01020j93470j86294j79488
1084G503855j73021j66863j60998j55424j50091j45026j40176j35560j31138j26917j22875
1083E895766j19014j15310j11768j08368j05111j01992r8985r6105r3342r0675q8130q5668
1082D681298q3301q1024p8831p6712p4684p2714p0830o8999o7225o5539o3888o2299o0766
1081C754486n9282n7848n6463n5118n3818n2558n1345n0164m9018m7913m6831m5801m4779
1079C083548m3806m2858m1930m1032m0156l9324l8492l7700l6916l6170l5431l4715l4025
1078B580993l3354l2693l2050l1430l0825l0233k9654k9099k8551k8015k7500k6992k6498
1077B194099k6015k5547k5092k4643k4204k3776k3364k2958k2557k2176k1795k1430k1061
1076A889481k0713k0359k0036j9697j9380j9057j8758j8447j8160j7866j7585j7311j7034
1075A645078j6772j6513j6258j6011j5762j5530j5293j5064j4842j4619j4403j4192j3985
1073A445834j3784j3587j3387j3189j3017j2823j2639j2471j2290j2126j1949j1797j1629
1072A281146j1465j1317j1163j1015j0862j0717j0581j0440j0301j0169j0038r907r774r654
1071A133743r529r407r289r174r056q946q828q726q617q508q409q301q201q106q009p912p812
1069I86913p726p629p543p454p368p282p195p115p032o949o876o794o717o643o563o497o418
1067H67112o352o279o208o144o081o004n946n878n811n754n696n629n573n514n459n399n343
1066G68042n282n234n176n126n071n015m970m916m866m821m769m720m679m628m579m538m491
1064F85161m450m408m360m318m281m235m197m154m116m078m035m000l964l920l888l854l815
1063F15088l778l745l711l680l636l612l579l544l512l476l448l420l388l355l326l301l265
1061E55312l244l207l187l150l128l104l072l050l026k993k967k949k915k894k872k845k821
1059E03888k799k775k754k725k704k686k661k639k622k595k573k556k531k516k496k469k455
1058D59332k433k415k399k373k357k338k327k299k285k264k251k232k211k200k178k161k148
1056D20461k130k116k098k082k064k049k038k019k004j994j973j961j945j935j915j902j892
1054C86344j876j857j850j834j824j805j798j779j771j756j742j737j716j710j697j676j676
1053C56240j661j645j637j627j616j600j589j581j572j561j544j539j526j519j500j503j488
1051C29532j476j461j461j444j440j426j415j408j397j395j379j369j366j351j346j340j328
1050C05730j314j313j295j297j286j279j268j260j250j243j246j226j212j219j199j195j193
1048B84435j182j183j164j158j154j152j133j135j125j123j108j103j099j094j082j078j074
1046B65288j062j060j051j045j042j034j027j021j016j009r94j007r91r84r80r74r70r62r57
1045B46102r55r43r42r33r33r23r20r10r11r00r00q93q92q74q79q74q67q68q56q54q45q54
1042B26376q36q29q30q26q20q23q04q08q04p93p99p92p83p82p73p78p64p65p58p57p51p52
1040B08949p40p41p36p31p34p22p23p12p12p11p04o99p06o91o93o84o82o81o79o71o73o61
1038A93463o64o59o58o48o51o42o46o40o34o35o30o24o25o15o20o14o15o07o01o07n94n97
1036A79637n92n86n92n82n79n80n75n71n68n71n64n61n57n60n49n54n43n50n43n39n38n34
1034A67249n32n33n26n24n24n15n18n19n08n10n11n04m97n08m95m96m95m92m89m84m86m80
1032A56103m81m76m75m75m68m71m71m62m65m60m58m53m58m50m51m50m45m46m35m46m37m36
1030A46034m30m37m28m28m28m26m21m21m20m14m14m18m09m12m07m07m04m02m02l98l99l95
1028A36914l93l95l90l87l92l88l77l82l81l81l72l82l74l70l71l70l71l64l65l64l64l58
1026A28623l55l62l52l56l53l55l46l50l48l45l45l41l39l42l41l34l38l39l28l29l29l34
1024A21062l27l27l19l32l21l18l24l12l17l17l16l13l11l12l07l10l06l09l02l04l01l03
1021A14154k99k97l06k90k94k92k93k94k89k88k91k83k84k90k83k84k81k81k78k82k72k80
1019A07823k75k72k73k76k72k65k72k68k63k66k67k66k61k65k60k55k64k54k59k55k58k58
1017A01999k47k55k47k54k50k47k49k48k44k47k43k42k42k42k39k39k41k35k38k37k34k30
1015I6649k43k28k27k33k29k29k32k23k28k32k16k29k23k20k27k21k18k25k15k16k18k19k14
1013I1484k20k12k13k13k09k10k14k14k06k06j98k17k04k08k06k00k05k02k05k01j98k03k00
1011H6720j95j95k02j91k02j94j92j95j94j89j95j89j92j90j89j90j88j84j90j82j82j90j83
1009H2327j83j85j79j80j83j80j83j80j75j81j75j77j75j77j74j80j68j76j73j72j72j67j75
1006G8257j69j74j66j67j63j72j65j71j66j65j66j60j67j59j64j62j61j60j60j60j57j60j60
1004G4483j57j59j56j60j53j57j54j55j54j56j48j55j50j53j49j50j52j48j53j46j44j50j49
1002G0975j45j48j45j43j48j44j43j48j38j43j43j45j39j44j42j39j36j42j39j39j37j39j41
1000F7705j43j31j38j24j37j34j45j25j34j35j28j36j37j21j36j29j34j30j26j34j25j27j27
998F4669j31j28j25j24j29j23j27j26j24j29j19j23j23j27j19j23j23j22j19j17j21j23j20
995F1824j19j20j20j17j19j14j22j16j15j17j19j13j15j11j31r5j23j11j11j03j31j05j15
993E9162j08j10j13j12j08j10j11j12j10j08r9j14j08j08j08j05j06j11j06j02j11j03j03
991E6676j07j06j02j04j03j00j10r5j05j00j03j03j05r8j03j03r3j05j07q6r8j00j00j00r8
989E4142r1j08r5r5r4r9r4r5r9r7r1r8q8r7r8r3q9r7r1r9q7r5r2q9r1r5r2r1r1r1q8q8r2q9
985E0963r2q6q8q8r3q9q8q2q9q9q7r0q7q0r3q3q0q5r6p0r2q0r3q0q1q6q0q4q4q0q5q2q0q5
982D8056p8q0q4q4p9q1q1p4q7p2q8p3q0q0q2p9p6q0q0p7p6p8q0o9q6p7p4p4q0p7p6o9p6p8
979D5391p7p0p6p6p6p3p2p3p8o9p4p2p4p0p6o6p7p3o8p4p2p0p1p1p1p0o7p6o7o9p2o5p3p5
976D2938o4o5p2p1o5o3q2n5p0p5o1o0p2o8p4o0o6o2p0o5o9o1o9o5o4o9o5o0o4o6o4o5o5o4
972D0688o2o3o4o2o3o7n9o4o3o2o1o2o1o8n6o3n9o4n6o2o0o4n7o5n9o2n8o2n7o8n1o0n7o0
969C8607o5m3p1o1n3n6o1n6n4n9o2n6n4o0n5n8n4n9n3n8n7n6n5n6n8n5n3n9n6n4n3n8n3n2
966C6684n6n5n5m8n8n7n1n6n2n5m8n7n2n5m9n3n1n4n1n2n5n3m9n4m5n6n3m7n1o0m7m6n3n2
963C4898m7n6m5n3m9n0n0n2n0m7m8m9n2m9m9m9m8m7n2m8m7m9n0m7n0m2m8n3m5m8m8m8m2m5
959C3246n3m5m8m7m4m7m2n2m5m7m8m3m7m4m3m9m3m8m6m4m3m6m5m3m3n0m1m5m0m8m0m7m9l9
956C1702m5m6m2m1m4m4m4m0m9l9m2m4m4l9m6m4m0m0m4m4m3l5m6m0m0m5m1m0m1m1m1m0m1m5
953C0262l6m6l7m4l9m1l7m1m1l9m0m3l4m4l7m0m1l9l3m3m0l1m9m4l5l2l8m9l4m2l2m1l9l2
950B8929l8l7m1m2l5m0l7l7l9l4l9l9l6l5m0l5l9l7l7l8l2m1l6l2m2l5l4l5l9l3l6l8l2l9
947B7670l3l8l1m3l2l1l7l6l5l5l8k9l6l8k4m6k7l6l3m6k5l2l9m1k6l5k9l9l1l5l5l2l1l4
943B6502l5l7l3l1l4l2l3l5l3l0l7k7l7l2l1k9l7l1l4k9l6l0l1l1l3l1l1l1l2l7k7k9l2l5
940B5399l0l0l1l3l1l1k9l5k9l0l0k7l8k6l1l2l0k9l5k7k7k8l3l3k8l1k9l1l0l0k9l2k8k9
937B4367k9k9k9k8l0l4k6k7l2k5l1k6l3k7l0k5k9l1l0k6k6k9k6k8l0l0l1k6k4k9l0k5l2k5
934B3399k8k9k6k9k6k5l3k3l1k6k4k7k8k5l2k4l0k6k6k9k5k8k6k5l1k3k8k3k7k6k6k5l0k3
930B2486k9k5k9k0k9k5k7k4k3l0k2l2k2k6k4k6k5k2k8k6k7k3k8k1k8j8k9k8k2k3k8k4k4j8
927B1631l2k5k6k9j2k7k6k0k7k3k9k3k3k3k2k6k5k0k7k5k4k0k6k1k7k1k4k4k8k2k1k3k5k3
924B0812k4k0k5k4j8k5k5k5k4k0k0k4k4j8k7k1k5k2k5k1k1k3k3k0k6k2j9k4k1j9k5l2qk6j7
920B0029k6k8j7j7k6j9k8j4k5k0k0k1k3k0k4k0k3k0k2k3k1j7k5k5j9j9k3j9k0k1j9k4k2k1
917A9298j7k2k0k1k1j8k1k3j7k4j7k1k4j8j9k3j9k1j7k2k1j9j7k3j7j9k2k3k0k2j0k7k0j3
914A8620k6j6k0j7k4j9j6k2j8j9k1j8j9k0j9k1j8j7k1j9j9j8j9j6k4j5j7j7k6j8j9j6k0k0
911A7966j5k2j8j7j9j7k0j9j7j8k2j9j1k0k1j7j7k0j5k1j9j7j5k0j7j8j8k0k0j4j5j7k1j8
908A7352j5k1j3k1j5j9j5j6k3j4j7k0j7j2k3k0j3j7j6k0j7j9j5j8j4k0j4k0j2k1j3k1j4k3
904A6764j3j3j8j7j5k3j5j8j3j5k1j7j6k0j0j3j7k2j7j6j4j6k0j5qk5pk2j0k0k4j0j4k0mk6
901A6180qk0j8j7j5j6j7j2k0j6j4j3j6j8j3j8j3j7j4j6j5j3j7j4j5j5j8j7j3j1j7k0qk0j6
898A5640j1j9j1j4k1j4qj6j7j3j4k7oj5mk2k2qk1k3Ok2j9pj3k2k2j3j1j5j0j6j6j1j8j1j3
894A5101j7j9j0j3j8j3j1j2j4k0j1j1j8j3j3j1j7j7j1j6j2j3j7rj5j8j4j1j1j6j7j2j3j6q
891A4614j8j3j0j6j1j9j4j2j3j4j2j2ok8nj6j2j4j4j3j4j3j6j0j3j2j3j4qj9j4rj3j5j0j8
887A4131j0j3j1j4j2j5j2j3j0j9rj5pj5j6j2j1j2j7pj5j1j3j5qj6j4rj4j5rj4mk0qk3qpj9
883A3639j0rj4j4j4oj4j2j6j2pj5j0j3j2j4j2j0j3j0j5qj5j0j7rrj1j5j6rpj6rj0j3j1j2j4
880A3176rj1j3rj3j4j0j3rj3j4rj4rj0rj8qj1k0Kj3j8pk1qoqj7j1lj8j2j2j1pj1j3j1j0j4
876A2711j0j1j0j0j2j0j2j5j1nj0j4rj1j1j2j2qj0j4qj1j1j0j1j4rj2j0j4rqj0j6mj1j0rj2
872A2295j1oj9kk0mj0j4j0rrj1j2j1pj3qj4j1nrj4mj8rj3qroqj4j0j5oj1qj2j0pj3j0rj2q
868A1846j1qj1qj1j0j0rj1qj0j1j2oj1j0nj0j2qj0j3j1lrj5rj3pj2oqj5j0rrnj4oj0qj0rj0
864A1423rj1rpj0rrpj5oj1j0nj2rrj1oj3ooj2qqj0j1j1j0ppj3nj1rj0qj0kj7nj1rrqrj1rn
859A0988j2qqj0qj0pqpj3npj0j1rpqj2opj2oj2pj1rnrrj0nj0qrrqorj1lj4prpqj0qnj1j0o
854A0552j2roj0qonj6oqj1jrlk1q%poqj1j0j3omqj1pj0nj0roooj4ppqnpj3ooqrqqqroqoj2
849A0115lj3krj0opj5ornormlj2oj7%j2nKk0mrj1mrjj0j0mj1j0kj0lj1j0kj0qqpnrqmqj0p
844I733j2jj1qnnj1nprpnj1kj0nj2pmrqqqkj1mqpqpoj0nqqqkj2loj1noqpj0pqlpoj0mpron
839I329rppmqqqoqpmj0moppnroj0noqqlqmqqpmrooppqmj4nnlj0pomj0qlmqj2lnj0mqmoqpn
833H914rmj2jqmolj3lqmqoqmnqpoorj0Lj0mppmqpmqpomnj0nj2jrmpkkj2j0mnplqqnnq%j0o
827H541pkornoqpmpmoooqlrolpmpqnmnj2Jrnompplppmopmlj0nnrq%pJj2qnmonj1lmrkqplp
821H162omonqonnnrm%j0q%rp%oqnmnnqonlpoonomnkpqolponpLj3krrJnmj2nlqlnqJprkqnn
815G803nmnpmponmkpojrnnlnopolono%pj0%qollmqj2jlpjoqmoqMj1mmompkop%rnlnoolnpj
808G472j0konlmmnoolonlnqpkpjnpkqokknpoloonjqqMj0j0nOnj3Jj4Okj1%j1Nj7Oj0nkrp%
803G184oqJoqjmqmkjrmklj3jkmqlmnnmpJj1mkmqKq%j2lnlpkkJj0j1%rKKj0nj1MnopolKj1o
797F906jmoojlolmmj0jnlnojmnoJqkjj0oKpnmnnlkolnojrKmqj0%mJj0kqJmjj1mJj0%krkko
791F645momlplnjmqJnnn%npmpKqkj1K%nkomkmpj2JKqmlpjnkmnmlpo%mnqJlmojj1nMlnmoll
785F382qnLj0lKqq%n%pkmmknllonJqnklkkonlmmnkmqMj0mjpjjqmrRj3KmkqjqrjjJopJkloo
778F132Jqkmkj1MnlJj1JoljpnJpJqlnn%lplnjmlllj1NmlkrJqkMj6%J%nnp%r%%rKlrj%pn%o
772E905kojnlkmpMr%nmkonJmllmooklklljmojnoKnoKmplmmklllmNrrm%jkp%qJnllkon%joj
766E677njq%jnnjnlllkmkmkqJmlmnjkplllll%nnlnLj2LnjlknjkqMpkolmJllpLrklJojoJom
759E462jkojmljkolmjjpnlkknklqKkjn%knkrL%j3jOj0Kj4Qj1jKj1LknknjpKmmlkk%rKnjnJ
753E277p%o%loKmnko%njmnl%koMq%mknJnnkl%j1Oj2Qnn%o%mJmopKljj1%jnm%Kpk%jokmklo
747E086JkolJkomljlkmmklJloJljqJoLojmJoojjnjJmnqMnjjno%mjkmk%nlkklljkkmklljmk
740D907jnlojljnk%knKok%ln%nKonmOoknmjnJjmnj%jpKn%monKnjl%mlkkkljnLon%jnkjol%
733D733n%mKlkkj0KJllljrjJ%nlmMmplMqkMo%j3Mkkm%nlll%klllLomjljjm%jojllmmJ%mkn
727D572%lkJomJ%pKnmKl%j2jJjJkqJn%okJmkknKnj%ol%jnlkKlp%jKpkk%%pkkjoJ%nkklkkk
721D421kjKq%oJlljnKllnkMmpjMolnjlkk%%llmkkJknjjjoklOq%ljjnnJkmkkJjok%Jqkjljl
714D273k%nm%JmpNrLjjrLJ%j0NrjmKmJllkjn%ok%lKomJMlpmK%n%kml%lKnpjNkJorkM%loqJ
708D131QlKj0Jk7J8JKJl4J4J0jj5mJ2j4J4j4nlNMkpmj%Jp%kjnjKn%ljmlKjkkqLm%pJmmNjK
702D030qkqPM%j1P%rNk1RKj3J7oj6Mj5J7j6K%Kj4KpMlJjnJ%JonJm%kKKj3KkknLmJmlKqJmj
696C911Llmj%jlNmpjkl%llKrNrKJj0jOlkjkkjpKjJrjKjmkm%koNmn%jJkmk%knLln%lNnkkJl
690C795jmlKmkknJKmoMnjjl%joK%%qMklo%jKml%jmkjk%j%omKlJkp%j%kjknLkmJpMm%%oKjo
683C676kJkjLpJojLpJnnOnk%kjk%klJkk%kpMnjmKlknMnJJo%l%l%nLnLnlKm%k%lm%jlK%lk%
677C571pLqNJojkqLkjmjkJljjKnmKkmj%lkJnk%lj%Jmj%klklLl%kmjmjMmlJlkj%kkl%nNpLl
670C462Oj2JlJJjqmjPrkLkknKlljLojk%KmnJljjKnJkmlKlkjjlklK%Jkk%kn%j%kkjllJj%qP
664C365njlJmj%jkkn%mNmJm%l%m%%jmjmMjn%JoJm%KlljJnjJjllkKpkLJjkloNkLr%Nmj2P%P
657C276k0RmJ%pMmmJj%klK%ll%%mnJlLlkjjljmL%kjoJJmkJl%jlklKmjOomNojOpj%pJPoj%m
651C177nKJkoLjlll%JlKlkklKpKjl%kl%mLj%mmkOpkLlJmjJmLn%jkmMmLmlkJj%jk%m%m%jjl
644C085%jkjjjJlJllkJkoKkkMo%ljOnmJmKmlNljknOpjMklpMkJkoJm%MjqMnkJ%lMokj%JKmj
638C003mjJjkk%jnjjNllkMlmNmkm%jlkMkoLk%lk%lJnKjoK%jkjJ%j1Po%%mMnkLljJj%ljlKl
631B922jl%kjmLJjnKlJj%mkk%%l%kjkKljk%nKl%JJnKrJK%ljkmKLk%kjmJJm%lj%%nKkJo%kK
624B845l%JllkLjmKl%%nJkl%%l%KoNjoJjkjJLpKkoMjkLj0JNkmlJjJkkkk%JjoKjJmJkJmkJm
618B769NojJlkKKlk%jnkKklLkjKnj%nJjMlkljJkk%jkJmjKmK%nJJkjkJojLjjkMojjkkNjolK
611B701JjoJKrMk%%lLlknKMj0Qkkj3Qj%jKjjoLokJJKnjk%KnLlJm%Jl%%lKnjJ%%%lLj0%J%j
605B635jlJlJkljjJJoKmLjKj0J%lRj1LMpMj2JOJlKmpPj0QlkJmjJlJklPo%KoJJkkNr%kOp%K
599B575knkLKoJl%%jKnmKLmJKnlOj1MjjJn%jKj%pNnKl%lJkjJ%kjjJnKlKkMqMm%nPmqNJl%l
592B509Lp%mMKoMoLkkm%%NoNpKm%Jm%jLm%k%nJ%jklMlJjkJJlkJlK%kjLj1Nl%jkklL%%klJ%
586B450%%lLpJlkjK%MnjqOpJ2qJrPkmLmJlK%k%joLkjkJKjoK%%llJ%mMjl%jkkjMlk%jj%jkL
579B394oJk%jmNmkPnklLjl%%jnKjjkKm%KlmKkj%kJ%j%%kkJjlkLJ%kllKJJpKJpL%%ljJjjjk
573B334NpkKkOj2JO%rMjmJlMljjkjj%KnKlNkm%%jlKkLmlK%lLjljjLmk%kNmlKjl%%nQnJo%K
566B283mLm%jjmKKmj%KnjKoPjlJmJkjKl%MqJKpPkljjl%%K%jkjllKOqMjkljJ%KrKlLkL%mmo
560B221J0omMJ%jjlL%kk%jkKkklJJmJlk%J%jK%n%j%JjkkJkKJnkOpNmJlKkpPjj6J2KnNnmNl
554B181lkJ%nLkjOmlM%oOokMjjoL%oOllM%pKKoKk%mKjJpPl%lJKnJJlMqLlMjKrPoKJmjkMkm
547B131LmJKk%knKKkjj%jk%JlJjjkj%lKkKkJnJj%KjjoKJJlKk%LqMljjJjjlLj%l%KnjJKoKK
540B089lmjjK%KnkjLmLjJnLnkMllLJm%lMkjKjlklNlj%KknNjjmKj0Rj2QLjmkM%llkNljKmjJ
534B041kjL%kk%kjJLlljkkKJlJjkk%JJmK%llKJJjjlLlJk%pRqMJkmJljOmKonN%%kjK%llOn%
527A997%jj%mLmK%lLJmkkMlJmJjljJ%%jKjklJjlKjkKkOpnMk%j%JkjJlkKkJj%jJmPnJjjmMm
521A953JMmkOpLm%lKm%kKLknKlLkJkJk%kjKlkKlRj0kKNlJmMlj%lj%kLjjlj%Mm%KmmLlK%oO
514A917jqOlJklLkkOkkjKkMrNpJMqOnkkjJ6j5%J5j8NJ3j8jjQj1Kj0PLoJ0pMkmMk%Jl%lJjj
509A879jJkjLmJjk%jK%%KlkJk%%pPoRo%JjpRj4J0oj4J5jOj9J6j0%LojKJNqL%MnkKlJNqMkk
503A845j%LllK%%mM%kKkkjJNoK%njkjKkjKmK%jJljJ%mLpOlJ%lJjjKpNljJJmkLk%%lMm%Jjj
496A808JK%mKjjk%JllKkLm%lLjl%%KnNmKnmLjMJlJjJjl%%k%JjlJkJ%%kkkkLkK%l%jkOkk%%
490A773j%kJk%jMmkjJn%JJLnlJLjklmMJlOj1J1oOnmL%jkKoKJjj%KkkjJJ%%jj%mLnKkJKlJl
483A737JjjJ%jlJJlM%o%J%mN%jJnNo%JlKkkMlKkjjJkKkljOkjljJJjlLjkkLjjkNllJmMm%Jj
477A706%lKjKkjmLnOnOmo%jM%LnjKnjPn%j%KkJjj%oM%l%J%jkJKnjJLloOkJlKl%%KjjJ%jkj
470A673Km%%kKmL%k%k%KljJl%lMLoJjJkMlKnJJlkK%%l%L%oJKkmKkMkJj%nMJkKmKjlkLkMqM
463A642jk%Kjk%jRj0PMj3JlmQjKlmj%L%mK%mjKKkljKJmLlJlLk%%%j%mNJmk%JJJkkjOk%mNm
457A615nJmLqjQkjjKJkjJkJjlNnLjn%jLjlLjjlJ%kjJNn%j%%JJjKjkLm%jJnMLll%kLoPko%J
450A582jOk%koNmMm%jJkLpJLj%mJjlK%jkM%l%%Lk%lKjkLlJKnKlj%k%KKmkKlKoMnKKjjOjmJ
444A555lKlNmkjkMk%%jj%mKJkJjkjKLllKJlj%LnLm%%jKKm%jkKmkNnNnLm%jQqOlJo%K%k%Ln
437A522mMM%nKkkKJlLmL%%jlJLnjJk%%jJlKkKklJK%j%kKjnLJ%kJnKMmmLMqJ%LmkKMp%N%Jm
431A498j%lKKkJnMljjJkMpOlMjnLpL%lOkm%KKkJjkKmJ%jkOmJoKLklMmKl%jJjJJnKKlJlKj%
424A472jKnLmKkjKkkMl%Jl%JMnJjjKjKjm%L%jlKmM%KpMrNlNjNlnjKLloNljJkJ%KmKoLJk%%
418A446lLj%mjN%mKkJKLqKlMjJjJlkLrNKnK%LkllJMkqOOj2J0LLorQjkJpKjKkKljKmLjj%jK
411A424kjK%l%kLjkNjmJl%%jNlmkNmKkJk%LjklLrRrPOj3RlLj0N%JqMKLjjjK%mL%kkjlMkLm
405A399Om%JmLlK%mmNnNjlKljJlNoJk%JKjlLKpMmPmJj%%mjJL%mJJj%Llk%JJpKK%jjJlkKJK
398A379pNl%JJm%PpJj%JKkjlj%J%jkK%lJMm%kKkJJkjKlj%KlLlkLkjJKmL%jmKjJl%KJlKlMl
392A354jJ%jk%%LlLnjJJk%JjlQj1KNrmRKnkMjlJJKnM%jj%nN%Km%jJkKlKk%mKjL%jjkjKj%l
385A329Lj%jj%j%kOl%%JpNmNmmJQojkJk%MmNnMlMljnLLkj%k%k%J%lJlMjjLjkjjLjklMkLj%
379A312kJjkLJj%nKmKNpOmj%mLkLlNqK%j%L%mJlMoKKlLjk%KmKjOoKlj%KljK%jKkKkkjJ%jj
372A288jMljkKLnLjlJ%j%mMJlKkKkjLnMkJ%mKMm%%JmLkJk%mKJLoKjJJnJJnLKoLkJkJkjQpk
365A264MkkMkKkLLnlMjoMlL%%l%j%JjJJkJkkK%jJlKJoKJj%J%lLm%JmJKjLnJlMmJNKj0Ro%M
359A253J%j0LoONokJjLjm%LlKkKjJKkklJ%Kk%J%%nLjKlLj%KnKKpJL%jl%JjJkMmj%lLkLKoL
352A231lLjjmMlKJjoM%%J%Kl%jj%Lk%KmkMkkMnMlJ%JlJL%jmjMmj%%%nLLjlNplMNJnoOmL%j
346A212J%lMnLjJkJjjJKmMmNnK%mjNnKJkMnLJm%mLKkjLkl%%l%%%No%KoPlKm%Nj0PlJJkLk%
339A195lJJjJ%%mLjJ%mLjkJjLkj%JjlLLlKl%jKk%kJjk%jkNmkNmLlRoojRljmLkkKMm%lLJlk
333A174KjKJkj%lJLmLlJLmKkmMkKjkK%jjjMk%jl%JkLlL%LonOlKpJ0mKnKmMjJKkkKJ%mL%%j
326A162JkLnKnMjJkJnK%JkMjjjLokMJlNpMkoO%k%LKn%Nj0QnrJ6pl%MjJl%MkojLNl%kKkJm%
320A142NkjMmlkKjJ1nn%kOokOrJ%kPPj7ONlqRjo%J1kRl0%K5J7k3J0j2OjNj6pJ5lk0J4jrJ3
315A133jkJ0pk%jJlM%m%j%%j%PojJjjnJM%%mjQqQoJ0qpjRkMJ6m0J8%Qr%k4M4j3l7K0J6j3J3
309A126Jj2KJ1Mj0kJPmrKkJ4j0m%M%ljLnKLrJ0jmMkrQmj%lJ0pkJLlmMKjo%OmkKkmNJ%JmmO
303A105LljjJkMmKJl%Kjl%NoLkKkkL%mJjKkJjlLJLklLllNlLlKmjJjJJknN%kK%m%%jJNllKm
297A085Jj%Mm%J%KllKJ%k%%k%JLlJJKnJjKlLm%Nl%JjjlNmLJo%Ln%JLkPqLmKnOjm%NkjJkJk
290A072%Lk%%kLjJl%j%jJJk%%LJoLJkLl%NnJm%%%jK%mLmLmMKllMl%KJJlkkJKLl%jJjKJkJj
284A062kJ%mKkjLlLJkjkKKmJKnK%kOjo%kjNkOmkjJKjmKmkM%Mn%LJoMlK%%NnkKkJkNk%k%kL
277A048lJKJl%m%JJkLljJJk%JklL%JjJkj%k%JKKkLj%pN%j%KpNlJmMKkkLl%kLjKlMjkkJJkJ
270A033%jjJKkjkkM%lKkKnLkMj%jLpNk%jLJ%mLLqmJ2j5QnJQpjJKjnOmJlLJKnLKljJjlKLlM
264A023lJjj%kKJllLJJkjJJJkJmlNn%J0j6OkRJjqOpNmJOpLJpMlNmJJ%lj%mPjJ%l%LjkLjlK
258A008kj%K%lKKkKoN%kMljl%Ll%LnLLJmpNjMk%jLmjKkjJMnKKjlJKmjJ%JjJ%j%kOoJ%%lLk
251I94JkmO%kKlLjkLkkK%lMkJjkllMJ%JjJLk%jmL%kjL%mMjkMjk%k%JjK%m%mN%jlLlMm%%j%
244I79%%%KkJkKj%lN%mKJKrRljMjqNKJljjjKJjj%jjKjKjkj%nNK%kjkJJjJjjKj%l%JjMkKjk
238I69%kJmQoJnMLn%PnJKoLlMJnKlJjLj%%m%L%KmjLlnP%jkL%kJjjKkjLkkMkMJp%Kj%j%kJK
231I58kJJlOqM%lLmkL%jKklJ%J%j%jJjKmKkJ%Jj%%JllQ%loNJlK%lLJJjkkK%j%JNn%m%NlMm
224I45mOnKkKKjnKKkjj%%lMJmKKmMlkM%jkkOnJKnMjKklKlLkNjljJ%jKjNlnLjOmj2J5j4kLP
218I34nJ2KrJrRljjJj%kMj%KkkKkJKkJjkK%knKL%%lLkK%llMK%mN%%jqR%OqlJ2j2lMLqjLKk
212I22kjKMrMKnQkmL%%%jMqLNpOnKLoMkrPLjNjrQlJj2J8j1NoOjnJJjkKNn%j%Nj0J0pKKlj%
205I13lNjl%KlOk%JmjKJLljJpLOjqO%LqLLnmLmJ6k1J0JnOJlRj3LJKJkmLlOqKOkkljKkJjmP
199I06mjJJkKJkMklLj%%l%kLJjkJKLnrJOMmKk%MpQnLJmlM%KrOjmKNlmJkK%JjKlKlKkNmKJl
192H93kLJl%jNnJ%KnMkKjjjLklKjJjLmKk%LljJKj%K%n%Nj%j%rLQpLKllNjJlL%kjKl%JkJkJ
186H83KmMllN%jJk%kLjlKlK%Nnj%%j%LjJ%nQjoK%jKjJk%kKjJLmJmNl%JljJKjk%LkjKJJlkM
179H76lKk%jK%jk%kKK%nK%%%jLJoNljLjKJlLkjoJLJjlJjLoNj%%Jk%JMoM%lJLkLk%jj%JlJM
172H69jkkkLjK%lJmKKmL%%JjkKrQlKnLL%kJkJoNkMmJ%L%mJ%oL%LjJlM%Jkkj%kL%%kMjkjNk
166H57jj%KmLmLkJK%mN%j4O%kLkQlnnM%OkkKKlnNlKkJmL%JkJkKjLjkMm%jLj%kLJj%mLk%Kn
159H42Kj%KKJoLjLpKKJmJkJmPmKJlJKmKlOkKlLk%%JnMKl%K%kjJ%mNlJj%k%kLkM%j%nJLjJ%
152H38ljJjMlkLnK%KlKKnjL%On%LlLj%l%JjKmMjjlMkMnlJLjK%jkK%j%lK%JjJjJJmjLMmjMm
146H29kLo%jQpKqNNkjJjLjlKJmKjLnKj%%KkNj%jLnKkMmnL%LoLKk%NnKjKLo%%Mm%kjKJOj0P
139H25oj%LjNJnmJK%ljL%mJLkKlJL%k%JlK%Jk%Jjl%JkjK%JjLlLknOmK%KmjL%JmMnMoPjjJl
132H11KlkLjMm%JkJ%%JkJkKJlJKjlJ%%kKKlLk%mJJKkJ%JkkMmjPmmOnJKlLoMnPLnMqL%j%KJ
126H05jnOl%mKJjkOm%%LKkjk%LpQkl%LLmmkk%KMjLjJmK%jjPpKl%PJJ0k1oRj5OPoQrPK%jJL
119G99qJOnNlKJlJjLlkLk%kjOnj%J%jJk%%J%jnKRmnJLOpQj1nJ0NkRljpj4J6Jj2LkjKJMqQk
113G89ljjMjkMlKkjMkjlNjkNk%Jl%JjKjjkNkn%M%nJKkMm%Kl%kKmJ0nkLj%Jj%jkLj%KJn%kK
107G79%KkLkJmKJ%NnjMmLk%MJokLJnN%jkOoLpNjJlKmJkJjLJKpNlLjMlllMkjL%j%%jJLnLjJ
100G75nKjJNqJNJmkLKkjLnNl%MmjLnNmKJ%lL%JonOK%LoMmQn%m%KJkkLjjjK%kJ%KmLkkjMJo
93G62KL%jkj%LkKjjlKMlkMlMjjkJKQj0KkmMMojJlRljj%Jkk%M%k%J%kj%LmjNkk%KKqLLkJlM
87G61lKjJJnlMMmkLLJljJkMLnkKJqJLKlJjjJQqJLklNk%kKKklL%mJLmJkJKnKLjmMjJkkMl%j
80G50%L%k%K%JkjnNJjl%QqJqOLNmJkJkM%ljLjjJ%Jm%KJjjJnL%JKlmOlJlKk%J%%kjL%JlLlN
73G49kjMnLJnJnJ2rRj0MnKOrMqPJMpOjl%Kl%jjNkjKj%kjMjkJkjlJNkK%kJlJKKk%lJMnjkL%
66G38%KkkJ1j0kJJ5qnmOmkLJJnJNoPoLjjjKJkjjNmKkjJK%Jn%LLlKnNjlLk%K%LokKjJLnJ%l
60G30LKJnLj%lNk%%%JlK%jkKjjJJlKkKj%jM%kKLkjm%J%kOrLL%jJkKlK%lKJK%pOlJLoJNkmJ
53G27LKnjNpKLkjLlKnjM%jlKJjkMJmKkLl%%%L%mJKnLMjkj%jmMJJlK%kJoRkpQlRj3J1kq%lP
47G22klK%%Jk%LmNj%k%JlMljKjKJjjLmK%j%KmJjKmKj%LjlPoK%kLnKk%J0qJmM%knMkLkLjk%
40G13JKKkJjlKjKlKkjMjmNkJjkJjMjl%KlKJkjKlKjNmjMpJlKJmOJlKkJJNkJn%%jMmjJMlJjJ
33G11kJJjjnMjlNj%K%%lMlJJljJjLjmL%j%Kj%%lOpJMkMjlkOpMlLnN%jjLmKjJjjjMmL%jKlJ
26G05jj%J%JJjl%%J%jjKjMpJjLLojL%%KjQnmqMlJ0KkNkqNqPlnJM%JjKkkKLl%%kKj%jkNllL
20F98%jJj%%jjjLl%LkjPjkKkmOj2J1J9k8RrJ4qQokjk%J2lrQrJKlLlLjKkmLLlJKmKmOJpJJ%
14F92KjjKJj0MlNkj%N%LpJLj%LnLkkLoOkNkmJkJjJjLkKjjjJJKl%KkKjJj%j%mLKn%%NJpLMl
7F88%m%LnOoKJNoKlK%JkmONj1JNLmljQjmKLlKk%kjJ%JkK%kLJjnLkKLjjJnLKj%k%KmlM%k%j
0F79
##$OBSERVED MULTIPLETS=	(I, X, Y, Hs, Vs, An, H, C, N, (J))
$$ I: Multiplet Index
$$ X: Strt Coordinate
$$ Y: End Coordinate
$$ Hs: Horizontal Chemical Shift
$$ An: Normalised Integral Area
$$ H: Hydrogens
$$ C: Category
$$ N: Name
$$ (J): Coupling Constants
(1, 9.7503562278123627749, 9.8197352625055476238, 9.785045745158953423, 1.008989129213865299, 1, q, 4, 5.53125 5.53125 5.53125)
(2, 2.1647833052862828218, 2.2120369575552034647, 2.1884101314207429212, 2.991010870786134479, 3, d, 1, 5.62671)
##$OBSERVED MULTIPLETS AREAS=	
(1, 0.51124461771816576139)
(2, 1.5155150486282586986)
##$OBSERVED MULTIPLETS PEAKS=	(I, X, Y)
$$ I: Multiplet Peak Index
$$ X: Peak x Position
$$ Y: Peak Intensity
(1, 9.8017351500048448543, 0.0051263105124235153198)
(1, 9.7906724587927111969, 0.015252631157636642456)
(1, 9.7794190315251974255, 0.014988617971539497375)
(1, 9.7683563403130655445, 0.005170163232833147049)
(2, 2.194036845054500251, 0.061070073395967483521)
(2, 2.1827834177869860355, 0.060892477631568908691)
##$PREDICTED PEAKS=	(X Y T A)
(2.1884123601541891624,  , 0.10000000000000000555, <1-a>)
(2.1884123601541891624,  , 0.10000000000000000555, <1-b>)
(2.1884123601541891624,  , 0.10000000000000000555, <1-c>)
(9.7850151165520458107,  , 0.10000000000000000555, <4>)
##$PREDICTEDCOUPLINGCONSTANTS=	J(A,B)	$$ (Hz)
7.36(1-a, 1-b)
7.36(1-a, 1-c)
5.58(1-a, 4)
7.36(1-b, 1-a)
7.36(1-b, 1-c)
5.58(1-b, 4)
7.36(1-c, 1-a)
7.36(1-c, 1-b)
5.58(1-c, 4)
5.58(4, 1-a)
5.58(4, 1-b)
5.58(4, 1-c)
##END=		$$ NMR SPECTRUM
##TITLE=	Predicted 1H NMR Spectrum
##JCAMP-DX=	6.0	$$ MestReNova 17.0.0-41178
##DATA TYPE=	NMR PEAK TABLE
##DATA CLASS=	PEAK TABLE
##BLOCK_ID=	5
##ORIGIN=	Mestrelab Research S.L.
##OWNER=	ctheodore
##CROSS REFERENCE=	NMR SPECTRUM: BLOCK_ID=4                                     
##.OBSERVE FREQUENCY=	500
##.OBSERVE NUCLEUS=	^1H
##NPOINTS=	6
##FIRSTX=	2.1827834177869860355
##LASTX=	9.8017351500048448543
##XFACTOR=	1
##YFACTOR=	1
##FIRSTY=	0.060892477631568908691
##XUNITS=	PPM
##YUNITS=	ARBITRARY UNITS
##PEAK TABLE=	(XYW..XYW)
2.1827834177869860355,0.060892477631568908691,0.0015088702567522195748
2.194036845054500251,0.061070073395967483521,0.0015088340064321416247
9.7683563403130655445,0.005170163232833147049,0.0015278305951661442195
9.7794190315251974255,0.014988617971539497375,0.0015537873064096758939
9.7906724587927111969,0.015252631157636642456,0.0015115802500183100898
9.8017351500048448543,0.0051263105124235153198,0.0015283371830548844565
##$MNOVA/PEAK_DATA_TABLE=	(T,F,A,ST,SP,APT,APC)
$$ Complementary to PEAK TABLE
$$ T: Type
$$ F: Flags
$$ A: Annotation
$$ ST: Shape Type
$$ SP: Shape Parameter
$$ APT: Attached Peaks Type
$$ APC: Attached Peaks Count
Compound,None,,0,0,0,0
Compound,None,,0,0,0,0
Compound,None,,0,0,0,0
Compound,None,,0,0,0,0
Compound,None,,0,0,0,0
Compound,None,,0,0,0,0
##END=		$$ NMR PEAK TABLE
##END=		$$ LINK
