##TITLE=	benzene 13c
##JCAMP-DX=	6.0	$$ MestReNova 17.0.0-41178
##DATA TYPE=	LINK
##BLOCKS=	4    
##ORIGIN=	Mestrelab Research S.L.
##OWNER=	ctheodore
##$MNOVA/METADATA=	(DOCUMENT,BASE64)
eyJuYW1lIjoiL1VzZXJzL2N0aGVvZG9yZS9Eb2N1bWVudHMvY2xhc3Nlcy9OTVIgZXhwZXJpbWVudC9
naXRodWIgZmlsZXMvYmVuemVuZS9iZW56ZW5lIDEzYy5tbm92YSIsInBhZ2VzIjpbeyJpdGVtcyI6Wy
IxIiwgICAgICAgICAgICAgICAgICAgICAgICAgICAgICAgICAgICAgIjMiICAgICAgICAgICAgICAgI
CAgICAgICAgICAgICAgICAgICAgIF19XX0=
##TITLE=	
##JCAMP-CS=	3.7	$$ MestReNova 17.0.0-41178
##BLOCK_ID=	1
##ORIGIN=	Mestrelab Research S.L.
##OWNER=	ctheodore
##$MNOVA/METADATA=	(ITEM,BASE64)
eyJhbmdsZSI6MC4wLCJwb2ludHMiOlt7IngiOjUzMjEuMCwieSI6NTgzNS4wfSx7IngiOjU1MjIuNTE
xMzU1OTgyNzcxLCJ5Ijo1ODM1LjB9LHsieCI6NTUyMi41MTEzNTU5ODI3NzEsInkiOjYwNjEuNjU0Nj
Y0NjA4NDU3fSx7IngiOjUzMjEuMCwieSI6NjA2MS42NTQ2NjQ2MDg0NTd9LHsieCI6NTMyMS4wLCJ5I
jo1ODM1LjB9XSwieiI6MS4wfQ==
##NAMES=	
##ATOMLIST=	
$$ AN	AS	NH
	1	C	1
	2	C	1
	3	C	1
	4	C	1
	5	C	1
	6	C	1
##BONDLIST=	
$$ AN1	AN2	BT
	1	2	S
	2	3	D
	3	4	S
	4	5	D
	5	6	S
	6	1	D
##MAXRASTER=	32768
##XY_RASTER=	
$$ AN	X	Y	Z
	1	-28379	-16384	0
	2	-28379	16384	0
	3	0	32768	0
	4	28379	16384	0
	5	28379	-16384	0
	6	0	-32768	0
##END=		$$ JCAMP-CS
##TITLE=	Predicted 13C NMR Spectrum
##JCAMP-DX=	6.0	$$ MestReNova 17.0.0-41178
##DATA TYPE=	NMR PEAK ASSIGNMENTS
##DATA CLASS=	ASSIGNMENTS
##BLOCK_ID=	2
##ORIGIN=	Mestrelab Research S.L.
##OWNER=	ctheodore
##CROSS REFERENCE=	STRUCTURE: BLOCK_ID=1                                     
NMR SPECTRUM: BLOCK_ID=3                                     
##.OBSERVE FREQUENCY=	125
##.OBSERVE NUCLEUS=	^13C
##NPOINTS=	6
##XUNITS=	PPM
##YUNITS=	ARBITRARY UNITS
##PEAKASSIGNMENTS=	(XYWA)
(128.39974408903731273, 0.49541640281677246094, 0.0060596753255168778196, <1>)
(128.39974408903731273, 0.49541640281677246094, 0.0060596753255168778196, <2>)
(128.39974408903731273, 0.49541640281677246094, 0.0060596753255168778196, <3>)
(128.39974408903731273, 0.49541640281677246094, 0.0060596753255168778196, <4>)
(128.39974408903731273, 0.49541640281677246094, 0.0060596753255168778196, <5>)
(128.39974408903731273, 0.49541640281677246094, 0.0060596753255168778196, <6>)
##END=		$$ NMR PEAK ASSIGNMENTS
##TITLE=	Predicted 13C NMR Spectrum
##JCAMP-DX=	6.0	$$ MestReNova 17.0.0-41178
##DATA TYPE=	NMR SPECTRUM
##DATA CLASS=	XYDATA
##BLOCK_ID=	3
##ORIGIN=	Mestrelab Predictor
##OWNER=	ctheodore
##NUMDIM=	1
##$MNOVA/METADATA=	(ITEM,BASE64)
eyJhbmdsZSI6MC4wLCJheGVzIjp7IngiOnsibWF4IjoyMzAuMDI1MzAyNzgzMzA2MTYsIm1pbiI6LTk
uOTk5MjY4ODY0ODg3NjM4fSwieSI6eyJtYXgiOjAuNTQ0OTU4MDQzODQzNTA3OCwibWluIjotMC4wND
k1NDE2NTExMTQ3ODgzNjV9fSwicG9pbnRzIjpbeyJ4Ijo1MzIxLjAsInkiOjU4MzUuMH0seyJ4Ijo4N
zIyLjAsInkiOjU4MzUuMH0seyJ4Ijo4NzIyLjAsInkiOjgyMDguMH0seyJ4Ijo1MzIxLjAsInkiOjgy
MDguMH0seyJ4Ijo1MzIxLjAsInkiOjU4MzUuMH1dLCJ6IjowLjB9
##.OBSERVE FREQUENCY=	125
##.OBSERVE NUCLEUS=	^13C
##.SOLVENT NAME=	DMSO-d6
##.PULSE SEQUENCE=	
##.ACQUISITIONMODE=	SIMULTANEOUS (DQD)
##$ORIGINAL FORMAT=	Predictor
##$MNOVA/SCALES_VERSION=	9
##$PARAMETER FILE=	(parameters, ASCII, , 0)
$$ <?xml version="1.0" encoding="utf-8"?>
$$ <PredictorParameters>
$$     <Title>Predicted 13C NMR Spectrum</Title>
$$     <Origin>Mnova: NMR Prediction</Origin>
$$     <Name>Mestrelab Predictor</Name>
$$     <Version>1.7</Version>
$$     <Nucleus>13C</Nucleus>
$$     <Solvent>DMSO-d6</Solvent>
$$     <From>-10</From>
$$     <To>230</To>
$$     <Frequency>125</Frequency>
$$     <LineWidth>1.5</LineWidth>
$$     <Size>131072</Size>
$$     <DEPT>0</DEPT>
$$     <ProtonatedCarbons>0</ProtonatedCarbons>
$$     <ExcludeLabile>false</ExcludeLabile>
$$     <FastPrediction>0</FastPrediction>
$$     <ProtonDecoupled>1</ProtonDecoupled>
$$     <Reference/>
$$     <Options>
$$         <Settings>
$$             <Predictor Name="Mestrelab Predictor">
$$                 <Settings>
$$                     <Model>/Applications/MestReNova.app/Contents/Resources/data/13C.mbst</Model>
$$                 </Settings>
$$             </Predictor>
$$         </Settings>
$$     </Options>
$$     <MoleculeID>{ad6dc9be-bf31-4756-ba41-f6f11c54a8bd}</MoleculeID>
$$ </PredictorParameters>
$$ 
##XUNITS=	HZ
##YUNITS=	ARBITRARY UNITS
##FIRSTX=	28750
##LASTX=	-1249.7711181640625
##DELTAX=	-0.2288818359375
##XFACTOR=	1
##YFACTOR=	2.306962399964540735E-10
##FIRSTY=	2.8309363742096138594E-09
##MINY=	-1.0088053059575941006E-08
##MAXY=	0.49541640281677246094
##NPOINTS=	131072
##XYDATA=	(X++(Y..Y))
28750A2%%%%%Qq%%%%%%%%%%%%%%%%%%%%%%%%%%%%%%%%%%%%%%%%%%%%%%%%%%%%%%%%%%%%%%
28734A2%%%%%%%%%%%%%%%%%%%%%%%%%%%%%%%%%%%%%%%%%Q%q%Qq%%%%%%%%%%%%%%%%%%%%%%
28718A2%%%%%%%%%%%%%%%%%%%%%%%%%%%%%%%%%%%%%%%%%%%%%%%%%Qq%%%%QqJ6%j6QqQ%q%%
28703A2%%Q%q%Qq%%%%%%%%%%%%%%%%%%%%%%%%%%%%%%%%%%%%%%%%%%%%%%%%%%Q%q%%%%%%%%
28687A2%%%%%%%%%%%%%%%%%%%%%%%%%%%%%%%%%%%%%%%%%%%%%%%%%%%Q%q%%%%%%%%%%%%%%%
28671A2%%%%%%%%%%%%%%%%%%%%%%%%%%%%%%%%%%%%%%%%%%%%%Qq%%%%%%%%%%%%%%%%%%%%%%
28656A2%%%%%%%%%%%%%%%%%%%%%%%%%%%%%%%%%%%%%%%%%Qq%%Qq%%%%%%%%%%%%%%%%%%%%%%
28640A2%%%%%%%%%%%%%%%%%%%%%%%%%%%%%%%%%%%%%%%%%%%%%%%%%%%%%%%%%%%%%%%%%%%%%
28624A2%%%%%%%%%%%%%%%%%%%%%%%%%%%%%%%%%Qq%%%%%%%%%%%%%%%%%%%%%%%%%%%%%%%%%%
28608A2%%%%%%%%%%%%%%%%%%%%%Qq%%Qq%%%%%%%%%%%%%%%Qq%%%%%%%%%%%%%%%%%%%%%%%%%
28593A2%%%%%%%%%%%%%%%%%%Qq%Qq%%%%%%%%%%%Qq%%%%%%%%%%%%%%%%%%%%%%%%%%%%%%%%%
28577A2%%%%%%%%%%%%%%%%%%%%%%%%%%%%%%%%%%%%%%%%%%%%%%%%%%%%%%%%%%%%%Qq%%%%%%
28561A2%%%%%%%%%%%%%%%%%%%%%%%%%%%%%%%%%%Qq%%%%%%%%%%%%%%%%%%%%%%%%%%%%%%%%%
28545A2%%%%%%QqQq%%%%%%%%%%%%%%%%%%%%%%%%%%%%%%%%%%%%%%%%%%%%%%%%%%%%%%Qq%%%
28529A2%%%%qQ%%%%%%%%%%%%%%%%%%%%%%%%%%%%%%%%%%%%%%%%%%%%%%%%%%%%%%%%%%%%%%%
28514A2%%%%QqQq%%%%%%%%%%%%%%%%%%Qq%%%%%%Qq%%%%%%%%%%%%%%%%%%%Qq%%%%%%%%%%%%
28498A2%%%%%%%%%%%%Qq%%%%%%%%%Qq%%%%%%%%%%%%%%%%%%%%%%%%%%%%%%%%%%%%%%%%%%%%
28482A2%%%Qq%%%%%%%%%%%%%%%%%%%%%%%%%%%%%%%%%%%%%%QqQqQq%%%%%%%%Qq%%%%%%%%%%
28466A2%%%%%%%%%%%%%%%%%%%%%%%%%%%%%%%%Qq%%%%%%%%%%%%%%%%%%%%%%%%%%%%%%%%%%%
28450A2%%%%%%%%%%%%%%%%%%%%%%%%%%%%%%%%%%%%%%%%%%%%%%%%%%%%%%%%%%%%%%%%%%%%%
28435A2%%%%%%%%%%%%%%%%%%%%%%%%%%%%%%%%%%%%%%%%%%%%%%%%%%%%%%%%Qq%%%%%%%%%%%
28419A2%%%%%%%%%%%%%%%%%%%%%%%%%%%%%%%Qq%%%%%%%%%%%%%%%%%%%%%%%%%%%%%%%QqQq%
28403A2%%%%%%%%%%%%%%%%%%%%%%%%%%%%%%%%%%%%%%%%%%%%%%%%%%%%%%%%%%%%%%%%%%%%%
28387A2%%%%%%%%%%%%%%%%%%%%Qq%%%Qq%%%%%%%%%%%%%%%%%%%%%%%%%%%%%%%%%%%%%%%%%%
28371A2%%%%%%%%%%%%%%%Qq%Qq%%%%%%%%%%%%%%%%%%%%%%%%%%%%%%%%%%%%%%%%%%%%%%%%%
28356A2%%%%%%%%%Qq%qQ%Qq%%%Q%q%%%%%%%%%%%%%%%%%%%%%%%%%%%%%%%%%%%%%%%%%%%%%%
28340A2%%%%%%%%%%%%%%%%%%%%%%%%%%%%%%%%%%%%%%%%%%%%%%%%%%%%%%%%%%%%%%%%%%%%%
28324A2%%%%%%%%Q%q%%%%%%Qq%%%%%%%%%%%%%%%%%%%%%%%%%%%%%%%%%%%%%%%%%%%%%%%%%%
28308A2%%%%%%%%%%%%%%%%%%%%%%%%%%%%%%%%%%%%%%%%%%%%%%%%%%%%%%%%%%Qq%%%Qq%Qq%
28292A2%%%%%%%%%%%%%%%%%%%%%%Qq%%%%%%%%%%%%%%%%%%%%Qq%%%%%%%%%%Qq%Qq%%%%%%%%
28277A2%%%%%%%%%%%%%%%%%%%%%%%%%%%%%%%%%%%%%%%%%%%%%%%%%%%%%%%%%%%%%%%%%%%%%
28261A2%%%%%%%%%%%%%%%%%%%%%%%%%%%%%%%%%%%%%%%%%%%%%%%%%%%%%%%%%%%%%%%%%Qq%%
28245A2%%%%%%Qq%%%%%%%Q%q%%%%Qq%%%%Qq%Q%q%%q%%qQK4j6qK4q%%%q%%%%%%%%%%Qq%%%%
28230A2%%Qq%%%%%%%%%%%%%%%%%%%%%%%%%%%%%%%%%%Qq%%%%%%%%%%%%%%%%%%%%%%%%%%%%%
28214A2%%%%%%%%%%%%%%%%%%%%%%%%%%%%%%%%QqQq%%%%%%%%%%%%%%%%%%%%%%%%%%Qq%%%%%
28198A2%%%%%%%%%%%%%%%%%%%%%%%%%%%%Qq%%%%%%%%%%%%%%%%%%%%%%%%%%%%%%%%%%%%%%%
28183A2%%%%%%%%%%%%%%%%%%%%%%Q%q%%%%%%%%%%%%%Qq%%%%%%Qq%%%%%%%%Qq%%%%%%%%%%%
28167A2%%%%%%%%%%%%%%%%%%%%%%%%%%%%%%%%%%%%%%%%%%%%%%%%%%%%%%%%%%%%%%%%%%%%Q
28151B0q%%%%%%%%%%%%%%%%%%%%%%%%%%%%%%%%%%%%%%%%%%%%%%%%%%%%%%%%%%%%%%%%%%%%
28135A2%%%%%%Q%q%%%%%%%%%%%%%%%%Qq%%%%%%%%%%%%%Qq%%%%%%Qq%%%%%%%%%%%%%%Qq%%%
28119A2%%%Qq%%Qq%%%%%%%%%%%Qq%%%%%%%%%%%%%%%%%Qq%%%%%%%%%%%Qq%%%%%%%%%%%%Q%q
28104A2%%%%%%%Qq%%%%%%%%%%%%%%%%%%%%%%%%%%%%%%%%%%%%%%%%%%%%Qq%%%%%%Qq%%%%%%
28088A2%%%%%%%%%%%%%%%%%%%%%%%%%%%%%%%%%%%%%%%%%%%%%Q%q%%%%%Qq%%%%%%%%%%%%%%
28072A2%%%%%%%%%%%%%%%%%%%%%%%%%%%%%%%%%%%%%%%%%%%%%QqQq%%%%%%Qq%%%%%%%%%%%%
28056A2%%%%%%%%%%%%%%%Qq%%%%%%%%%%%%%%%%%%%%%%%%%%%%%%Qq%%%%%Qq%%%%%%%%%%%%%
28040A2%%%%%%%%%%%%%%%%%%%%%%%%%%%%%%%%%%%%%%%%%%%%%%Q%q%%%%%%%%%%%%%%%%%%%%
28025A2%%%%%%%%%%%%%%%%%%%%%%%%%%%%%%%%%%%Qq%%%%%%%%%%%%%%%%%%%%%%%%%%%%%%%%
28009A2%%%%%%%%%%%%%%%Qq%%%%%QqQ%%%j6QQ%qQq%qQ%%%%%Qq%%%%%%%%Q%qQq%Qq%%Qq%%%
27993A2%Qq%%%%%%%%%%%%%%%%%%%%%%%%%%%%%%%%%%%%%%%%%%%%%%%%%%%%%%%%%%%%%%%%%%
27978A2%%%%%%%%%%%%%%%%%%%%%%%%%%%%%QqQq%%%%%%%%%%%%%%%%%%%%%%%%%%%%%%%%%%%%
27962A2%%%%%%%%%%%%%%%Qq%%%%%%%%%%%%%%%%%%%Qq%%%%%%%%%%%%%%%%%%Qq%%%%%%%%%%%
27946A2%%%%%Qq%%%%Qq%%%%%%%%%%%%%%%%%%%%%%%%%%%%%%%%%%%%%%%%Q%q%Qq%%%%%%%%%%
27930A2%%%%%%%%%%%%%%%%%%%%%%%%%Qq%%%%%%%%%%%%%%%%%%%%%%%%%%%%%%%%%%%%%%%%%%
27914A2%%%%%%%%%%%%%%%%%%%%%%%%%%%%%%%%%%%Q%%%q%Qq%%%%%%%Qq%%%%%%%%%%%%%%%%%
27899A2%%%%%%%QqQq%%%%%%%%%%%%%%%%%%%%%Q%q%%%%%%%%%%%%%%%%%%Qq%%%%%Q%j6Q%%%%
27883A2%%%%%%%%%Qq%Qq%%%%%%%%Qq%%%%Qq%%%%%%%%%%%%%%%%%%%%%%%%%%%%%%%%%%%%%%%
27867A2%%%%%%%%%%%%%%%%%%%%%%%%%%%%%%%%%%%%Qq%%%%%%%%%%%%%%%%%%%%%%%Qq%%%%%%
27851A2%%%%%%%%%%%%%%%%%%%%%%%%%%%%%%%%%%%%%%%%%%%%%%%Qq%%Qq%%%%%%%%%%%%%%%%
27836A2%%%%%%%%%%%%%%%%%%%%%%%%%%%%%%%%%%%%%%%%%%%%%%%%%%%%Qq%%%%%%%%%%%%%%%
27820A2%%%%%%%%%%Qq%%%%%%%%%%%%%%%%%%%%%%%%%%%%%%%%%%%%%%%%%%%%%%%%%%%%%%Qq%
27804A2%%%Qq%%QqQq%%Qq%%Q%q%Qq%%%%%%%%QqQq%%Qq%%Qq%Q%%q%%%%%%Qq%%%%%%%%%%%%%
27788A2%%%%%%%%%%%%%%%%%%%%%%%%%%%%%%%%%%%%%%%%%%%%%%%%%%%%%%%%%%%%%%%%%%%%%
27772A2%%%%%%%%%%%%%%%Q%qQq%Qq%%Q%q%QqQ%q%Qq%%%%Qq%%%%%%%%%%%%%%%%%%%%%%%%%%
27757A2%%%%%%%%%%%%%Qq%Qq%%%%%%%%%%%%%%%%%%%%%%%%%%%%%%%%Qq%%%%%%%QqQq%Qq%Qq
27741A2%QqQqQq%%%%%%Q%q%Qq%%%%Qq%%%%%%%%%%%%%%%%%Qq%Qq%%%%%%%%%%%%%%%%%%%%%%
27725A2Qq%%%%%%%%%Qq%%%%%%%%%%%%%%%%%%%%%%%%%%%%%%%%%%%Q%q%%%%%%%%%%%%%%%%%%
27709A2%%%%Q%q%%%%%Qq%Qq%%%%%%%%%%%%%%%%%%%%%%%%%%%%%%%%%Qq%%%%%%%%%%%%%%%%%
27693A2%%%%%%%%%%%%%%%%%%%%%%%%%%%%%Q%q%%%%Qq%%%%%%%%%%%%%Qq%%%%%%%%%Qq%%Qq%
27678A2Qq%%%%%%Qq%%Qq%%Qq%Qq%%%%%%%%%%%%%%%%%%%%%%%%%%%%%%%%%QqQ%q%%%Qq%%%%Q
27662B0q%%%%%%Q%q%%%%%%Q%q%Qq%%%%%Qq%%%QqQ%qQq%%%%%%%%Qq%%Qq%Qq%%%%%%%%%%%%%
27646A2%%%%%%%%%%%%%%%%Qq%%%%%Qq%%%%%%%%%%%%%%%%%%Q%%%q%Q%q%Qq%%%%%Qq%Qq%%%%
27630A2%%%%%%%%%%%%%%%%%%%%%%%%%%%%%%Qq%Qq%%%%%%%%%%%%%%%%%%%%%%%%%%%%%%%Qq%
27615A2Qq%%%%QqQq%%Q%q%%%%%%%%%%%%%%%%%%%%%Qq%%%%%%%%%%%%%%%Qq%%%%%%Qq%%%%%Q
27599B0q%%%%%%%%%%%Qq%%%%%%%%%%%%%%%%%%%%%Qq%%%%%%%%%%%%Q%qQq%%%%Qq%%%%%%%%%
27583A2%%%%%%%%%%%%%%%%%%%%%%%%%%%Q%q%%%%%%%%%%%%%QqQq%%%%%%%%%%Qq%%%%%%%%%%
27567A2%%%%%%%%%%%%%%%%%%%%%%%%%Qq%%%%%Qq%%%%%%Qq%%%%%%%%%%%%%%%%%%%%%%%%%%%
27551A2%%Qq%%%%%%%%Qq%%%%%%%%%%%%%%%%%%%%%%%%%%%%%%%%%%%%%%%Qq%%%%%%%%%%%%%%
27536A2%%%Qq%%%%%%%%%%%%%%%%%%%Qq%%%%%%%%%%%%%%%%%%%%%%%%%%%%%%%%%%%%Qq%%%%%
27520A2%%%%%%Qq%%%%%%%%%%%%%%%Qq%%%%%%%%%%%%%%%Qq%%Qq%%%%%Qq%Q%%q%%Qq%%%%%%Q
27504B0%%%q%Qq%%%%%%%%Q%q%Q%%q%%%%%%%%%%%%%%%%%%%%%%%%%%%%%%%%%%%%%%%%%%%%%%
27488A2%%%%%%%%%%%%%%%Qq%Qq%%%%%%%%%%Qq%%Qq%%%%%%%%%%%%%%%%Qq%%%Qq%%%%%Qq%%%
27472A2%%%%%%%%%%%%%%%%%%%%%%Qq%%%%%%%%%%%%%%%%%%%%%%%%%%%%%%%%%%%%%Qq%%%%%%
27457A2QqQ%q%%%%%%%%%%%%%%Q%q%%%%%%%%%%%Q%q%%%%%%Qq%%%%%%%%%%%Qq%%%%%%%Qq%%%
27441A2%%%%%Qq%Qq%Q%q%%%%Qq%%%%%%%%%%%%%%%%%%%%%%%%%%%%%%Qq%%%%%Q%%qQq%%%%%%
27425A2%%Qq%%QqQ%q%%%%Qq%%%%%%%%Qq%%%%%%Q%q%Q%q%Q%qQq%%%%%QqQq%%Qq%QqQq%%Qq%
27409A2%%%%%Qq%Qq%%%%Qq%%%Qq%%%%%%Qq%%Qq%QqQq%Q%%qQq%%QqQq%%%%%%%%%%%Q%q%%%%
27393A2%Q%%qQq%Q%qQq%%%%%%%%%%%%%%%%%%%%Q%q%%%%%%%%%%%%%%%%%%%%QqQq%%%%Qq%%%
27378A2%%%%%%%%%Q%%q%%%%%%%%%%%%%%%%%%%%%QqQq%%%%Qq%%%%%%%%%%%%%Qq%Qq%%%%%Qq
27362A2%%%%%%%%%%%Q%%q%Q%%q%QqQqQq%Qq%%%%%%%Qq%%%%%%%%%%%%%Qq%%%%%%%%%%%%%%%
27346A2%%%%%Q%qQq%%%%%%QqQq%%%%Q%qQq%%%%%%%%%%%%%%%%%%%%%%Qq%%%%%%%%QqQ%qQqQ
27330B0q%%%%%%%Qq%Q%q%Qq%%%QqQqQ%%%%%qQ%%qQqQqQq%%%%%%%%%%%%%%%%Q%q%%%%%%%%Q
27314B0q%%%%%%QqQq%%QqQq%%QqQ%%%q%%%%QqQq%%%Q%%q%%%Qq%Qq%%%%%%Qj6QQ%j6J6Q%j6
27300A2%qQk4qK4k4L2qJ6j6QqQqJ6j6QQ%q%QqQ%q%%Q%%%qQq%%%%%Qq%%QqQqQq%%%%Qq%QqQ
27286B0q%%Qq%%%%Q%q%Qq%Q%q%%%Qq%QqQq%Q%q%%%%%%%%%%%%%%%%%%%%%%%%%%%%%%%%%Qq%
27270A2%QqQ%q%%%%%%%%%%%%%%%%%%%%%%%%%%Qq%%%%%%Q%%%q%%QqQqQq%%%%%%%%%%%%%%%%
27254A2Qq%%Qq%Qq%%%%%%%%%%%%Q%qQ%%%q%%%Q%q%%%Qq%%Q%%%q%Qq%%%%%%%Q%%q%%Q%%qQ%
27238B0qQq%%%%%%%%%%%%%%%%%%%%Qq%%%%%%%%%%%%%%%%%%%%%%%%Qq%%%%%%%%%%QqQ%q%Qq
27222A2Qq%%QqQqQq%%%Q%qQ%q%%Q%%%q%%%%%%%QqQq%%Q%qQ%qQqQq%%QqQq%%%%%%%%%%%%Qq
27207A2%%Qq%%%%Qq%%%%%QqQq%%%%%%QqQ%%%%%q%%%%Qq%Q%%%%qQqQq%%%%%%%Q%qQq%Qq%%%
27191A2%%%%%%Qq%%%%%Qq%%QqQ%qQ%%q%%%%%Q%%q%%%%Qq%Qq%Q%q%%%Q%q%%%%%%%%%%%%%%%
27175A2%%%%%%%%%%%%%%%%%%%%%%%%%Q%qQq%%%%%%%Q%q%%%%Qq%%Q%q%%%%%Q%q%%%%Q%q%%%
27159A2%%Qq%Qq%%%%%%%%%%%%Qq%%%%%%%%%%Qq%Q%%q%%%%%%%%%%%%%Qq%%%%%%Q%qQq%Q%q%
27143A2%%%%%%%%%%Qq%%%%%%%%%Qq%%%Q%%%%%%qQq%Q%q%%%%%Qq%%%%%%%%%%%Qq%Q%%%%q%%
27128A2%Qq%%%%%%Qq%Qq%%Qq%%%%Qq%%%%%Qq%%Qq%%%Q%%q%%%%%%%%Qq%%Qq%Qq%%%%%Q%q%%
27112A2%Q%%%%qQq%Q%%%q%%QqQ%qQ%%%%%qQq%Q%q%Q%%%%%%%%%%q%Q%%q%%Qq%%%%%%Q%q%%%
27096A2Qq%Qq%QqQqQq%%Q%%qQq%%%%%%%%%%Qq%Qq%%%%%%%Q%%q%%%%%%%Qq%%%%Q%%q%Q%q%%
27080A2Qq%%%%Qq%%Q%q%%%%%Qq%%%%Qq%%%%%%Q%%q%%Qq%%%%%%%%%Qq%%%Qq%%%%%%Qq%Q%qQ
27065B0qJ6q%%%%qQqQ%q%Q%q%Q%%qQ%%%%qQ%%qQqQqQqQ%qQ%qQqQ%qQqQ%qQ%qQ%%q%Qq%Qq%
27049A2Qq%%%QqQ%q%%Qq%%QqQ%qQq%%%Qq%QqQ%%%%%%q%%Qq%%Q%qQqQq%%%%%%QqQqQqQ%%%q
27033A2Qq%%Qq%%Qq%Qq%Q%%%%%%qQqQ%qQqQ%%qQqQ%q%Qq%%Q%qQqQq%%%%%Qq%Q%q%%Qq%%Qq
27017A2%%Qq%%Q%%%%%q%%QqQ%%qQ%%qQ%%%%%q%Q%q%%QqQ%q%%%%Q%qQ%qQq%%%%QqQq%%%QqQ
27002B0q%%%%%%Qq%%%Q%%q%%%Q%%qQqQ%q%QqQq%%%%%%%%%QqQ%%q%QqQq%%Q%%q%Q%%qQ%%%%
26986B0qQ%%%%%%%qQ%%qQq%%Q%q%QqQqQ%q%%Q%qQqQ%%%qQ%q%%Qq%Q%q%%%%%%%%%%%Q%q%%%
26970A2Q%q%%%%%Qq%%%%%%%%%%%%%%%%%%%%Qq%Q%qQqQq%%%%%Qq%%%%%QqQ%%q%%%QqQqQqQ%
26954B0%qQ%q%%Q%qQ%qQqQq%%Qq%%%%%%Qq%%%QqQq%%%%Q%qQqQ%%q%Qq%%%%%%%%Qq%%Qq%%Q
26938B0%qQ%q%%%%%%%%%%%%%%%%Qq%Q%qQqQq%%Q%q%Qq%%%Qq%Q%%%qQ%q%Qq%Qq%%%%%%%%%%
26923A2%%%%Qq%Qq%QqQq%QqQ%qQqQq%Qq%Q%q%%Q%%%%qQq%Q%%%qQ%%qQ%q%QqQq%Q%q%%%%Q%
26907B0q%%%Q%%%%qQq%%Q%qQq%QqQ%%%%%q%Qq%%%%Qq%%%QqQ%qQ%q%%%%Qq%%%%%%%%%%%%%%
26891A2QqQ%%q%%%Q%%qQqQ%%qQ%%qQq%%QqQ%qQq%Q%%q%%%%%%Qq%%%%%%%%%%%%%%%%%QqQq%
26875A2%Qq%%Qq%%Q%q%Qq%%%%%%%%QqQq%%%Q%%q%%%%%%%%%%%Qq%Q%%q%%%Q%%%q%%Q%%qQ%q
26859A2Qq%QqQ%q%%%Qq%Qq%%Qq%%%%%%%%%%%%%%Qq%%%%%%%%%%%%Q%%%%q%%Q%%%%%q%Q%qQq
26844A2QqQqQ%qQ%q%%Q%%q%Q%q%%%%Q%%qQ%q%%QqQq%%Q%%%%%%%q%Qq%Qq%%%%%Q%%qQk4K4%
26828B0qQqQ%%q%Q%qQ%%qQ%qQqQ%qQq%%Q%%qQ%%q%Q%q%%Q%qQ%q%Q%qQ%%%q%Qq%%%%%%%%%%
26813A2Qq%%%%QqQq%%%%QqQ%%qQqQqQ%%%%%%%%%%%%%%%%%%%qQq%QqQqQ%qQq%QqQ%%q%Qq%Q
26797B0qQq%Qq%%%Q%%%%q%%QqQq%%Qq%%%%%%%%%%%Qq%%Qq%Q%qQqQ%q%QqQ%q%%Qq%%Qq%%%Q
26781B0qQq%%%Q%%qQ%%%%%qQqQ%qQq%%%%%Q%qQ%%%%%q%QqQ%%q%Qq%%Qq%%%Qq%Q%q%Q%qQ%%
26765B0%qQ%%%%%qQ%qQ%q%Q%%%%qQ%%qQ%%%qQ%%qQ%%qQ%%%%%%%%%qQ%%qQ%qQ%q%%%Q%%qQq
26749A2%%%%%Qq%%QqQ%%%qQq%%Q%%qQq%%Qq%%%Q%qQqQ%qQq%%QqQ%%qQqQq%Q%%%%%qQ%qQ%%
26734B0%%%%%%%%%q%Qq%Q%%%%%%q%QqQ%%qQqQqQ%%%qQ%%%%q%Q%%%q%Q%%%%q%%Q%%qQ%%%qQ
26718B0%%%%%q%Q%%%%qQ%%%q%Q%q%Q%%%qQ%%%%%%q%%%%Qq%Q%qQ%%%qQ%q%Q%qQ%%%%qQ%%%q
26702A2%%Q%%qQq%%Qq%%Qq%Q%%qQ%%qQqQqQq%%%%%%%Q%qQ%qQ%%%%%%%%%%%%%%%%%%%%%%q%
26686A2%%Q%%qQ%%%q%Qq%%%Q%%%qQ%%%%qQqQ%%%%%%%%%%qQ%qQqQ%%%%%%%q%Q%q%%Qq%%%Qq
26670A2QqQ%%%%qQ%%%%q%%Qq%%Qq%%QqQqQq%%QqQqQ%q%QqQ%%%%qQ%q%%%%%QqQqQ%%%%qQq%
26655A2QqQqQ%%%%%%%%qQ%qQqQ%%%qQ%%q%QqQqQq%%%%Q%qQ%qQ%%%%%%%qQ%q%QqQq%%%%QqQ
26639B0qQq%%Qq%%%%Qq%%%Q%q%%%QqQ%q%%Qq%QqQq%Q%%%%%qQ%%%%%%%%q%%Qq%%Qq%%%%Qq%
26623A2%QqQ%%%%%qQ%qQ%qQ%qQq%Qq%Qq%%Qq%%Qq%QqQq%%%%Q%q%%%Q%qQq%%%%QqQqQ%%qQ%
26607B0qQq%Qq%%%%%%%%%Q%q%%%%QqQ%qQ%%%qQq%%Qq%%Qq%Q%q%%Q%%qQ%qQq%Q%%qQ%%q%Q%
26591B0%%%qQ%%%qQ%%qQ%%%%q%%Qq%%Qq%%QqQqQ%qQ%qQqQqQ%qQ%qQ%%%%%q%Q%%%q%%%Qq%%
26576A2QqQ%%%%%q%%Q%qQqQ%%%%%%%%%qQqQqQ%%%%%%qQ%q%Q%%%%%q%%%%Q%qQ%%%qQ%%%%%%
26560B0%%q%%Q%%%%%%%%%%%%%%%%%%%%%%%%%%%%%%%%%%%qQ%%%%%%%%%qQ%qQ%q%%Q%%%%%%q
26544A2Q%%%%qQqQqQq%QqQq%%%%%%%%%%%%%Q%%qQq%%%%%Q%%qQqQ%%%%qQq%%Q%%q%%%%%Q%%
26528B0%%%%%%%%%qQ%%%%%qQ%%%q%Qq%%%%%%Q%qQ%qQ%%%%qQ%q%%%Qq%Qq%%%%Q%%%%%%q%Q%
26512B0%qQ%%%%%%%%%%%%%%%%q%%%%%%%%Q%%%%%%%%%%%%%%qQ%qQqQqQ%%qQqQ%%%qQ%%%%%%
26497B0%%qQ%%%%%%%%%qQ%%%%%qQ%%%qQ%qQq%Q%%%q%Q%%%%%%q%Q%q%%Q%qQ%%%%q%Q%%%%%q
26481A2QqQ%%%%%q%Q%%qQ%q%QqQqQ%%qQ%%qQ%%%%%%qQ%%%qQq%Q%qQ%%qQ%%%%%q%Q%%%%qQ%
26465B0q%Q%q%%Q%qQqQqQ%%%qQ%qQ%qQ%%%%%%%%%%%qQ%%%%%%%%%%%%%%%qQ%%%%%%%%%%%%%
26449B0q%Q%%%%%%%%%%%%%qQ%%%q%QqQ%%%qQ%q%%Q%%%%qQ%%%%%%qQ%%%%%%qQ%%%%qQ%q%Qq
26433A2%%QqQ%%%%%qQ%%qQ%%%%%%q%Q%%%%%%%%q%%Q%%qQ%%%%%%%qQqQ%%%%%%%%qQq%%%%%Q
26418B0%qQq%Qq%Qq%%QqQ%%%%qQ%qQ%%%%%%%%qQ%%qQ%%qQqQ%%%qQqQ%%%%%%%%%%%%%%%%%%
26402B0%%%%%qQ%%%%qQ%qQq%Qq%%%Q%%q%%Q%%qQ%%%%q%%%Qq%QqQq%Q%%%q%QqQ%qQqQq%%%%
26386A2Q%%%%%%qQ%%%q%Qq%%%Qq%%%Q%%%%%%%%%%%%%%%%%q%%%%%Q%q%%%QqQ%%%%%%%%%%%%
26370B0qQ%qQ%%%qQ%%%%qQq%QqQ%q%Q%q%%%%QqQ%%qQQj6Q%%qQq%Q%q%Qq%Q%qQq%Q%%q%QqQ
26355B0%%qQ%%%%%%%%qQ%%qQ%%%%%%%%%%%%%%%%%%%%%%%qQ%%%%%qQ%qQ%%%qQ%%%q%Qq%Q%q
26339A2%Q%%%%%%%%%%%%%%%%%%qQ%%qQ%%qQq%%Qq%Qq%Q%%%%%%%%%%%%%%%%%%%%%%%%%%%%%
26323B0%%%%qQ%q%Q%qQ%%%%%%%%%%q%%Q%%%%%%%%%%%%%%%%%%%%%%%%%%%%%%%%qQ%%%qQ%%%
26307B0%%%%%%q%Q%qQ%%%%qQq%Q%q%Q%%%%%%%%%%%%%%%%%%%%%%%%%%%qQ%%q%Qq%%Q%qQ%%q
26292A2%%Qq%Q%qQq%%QqQ%%%qQqQ%%%%%%%%%%%q%Q%%%%%%%%%%%%%%%%%%%%qQ%%%%qQ%%%%%
26276B0%%%%%%%%%q%Q%qQ%%%%%%%qQ%qQ%qQ%%q%QqQqQq%Qq%%%Q%%%q%Q%qQ%%qQqQ%%%%%%%
26260B0%%%qQq%%Q%%%%%%%qQq%Q%%%%%%%%%%%%%%%%%%%%%%%%%%qQ%%%%%%%%%%%%%%%%%q%%
26244A2QqQ%%%%q%Q%%%%%%%%%%%%%qQ%%qQ%%%%%%%%%%%%%%%%%%%%%%%%%%%%%%%%%%%%%%%%
26228B0%%qQ%%%%%qQ%%qQ%%%%%%qQ%%%%q%Q%%qQ%%%%%%qQ%%%%%%q%%Q%%%%%%%%%%%%%%%%%
26213B0%%%qQ%%q%Q%%%%%%%%%%%%%%%%%%%%%%%%%%%%q%Q%%%%%%%%%%%%%q%Q%%%%%qQ%%%%%
26197B0%%%%%%%%%%%%%%%%qQqQ%%qQqQ%%%%qQ%%%%%%%%%%%%%%%q%Q%%%%%%%%%%%%%%qQ%%%
26181B0%%%%%%%%%%%%%%%%%%%%%qQqQ%%%%%%%%%%%%%%%%%%%%%%%%%%%%%%%%%%%%%%%%%%%%
26165B0%%%%%%%%%%%%%%%%%%%%%%%qQ%%%%%%%%%%%%%%%%%%%%%%%%%%%%%%%%%%%%%%%%%%%%
26149B0%%%%%%%%%%%%%%%%%%%%%%%%%%%%%%%%%%%%%%%%%%%%%%%%%%%%%%%%%%%%%%%qQ%%qQ
26134B0qQ%%%%%%%%%%%%%%%%%%qQq%Q%%%%%%qQ%%%qQ%%%%qQ%%%%%%%%qQ%%%%%%%qQ%%%%%%
26118B0%%%%%%%%%%%%qQ%%%%%%%%%%%%%%%%%%%%%%%%%%%%%%%%%%%%%%%%%%%%%%%qQ%%qQqQ
26102B0%%%%%%%%%%%%%%%%qQ%%%%%%qQ%%%%%%%%%qQ%%%%%qQq%Q%%q%Q%qQ%%%%%%%%%%%%%%
26086B0%%%%%%%%%%%%%%%%%%%%%%qQ%%%%%%%%%%%%%%%%%%%qQ%%%%%%%%%%%%%%%%%%%%%%%%
26070B0%%%%%%%%%%%%%%qQ%%q%QqQ%%%%%%%%%%%%%%%%%%%%%%%%%%%%%%%%%%%%%%%%%%%%%%
26055B0%%%%%%%%%%%%%%%%%qQ%%%%%%%%%%%%%%%%%%%%%%%%%%%%%%%%%%%%%%%%%%%%%%%%%%
26039B0%qQ%%%%%%%%%%%%%%%%%%%%%%%%%%%%%%%%%%%qQ%%%%%%%%%%%%%%%qQqQ%%%%%q%Q%q
26023A2%%%%%Q%%%%%%%%%%%%%%%%%%%%%%%%qQ%%%%%%%%%%%%%%qQ%%%qQqQ%%%q%Q%%%%%q%Q
26007B0%%%%%%%%qQ%%%%%%%%%%%%%%%qQ%%%%%%%%%%%%%%%%%%%%%%%%%%%%%%%%%%%%%%%%%%
25992B0%%%%%%%%%%%%%%%%%%%%qQ%%%qQqQ%%%%%%%%%%%%%%%%%%%%%%qQ%qQ%%%q%QqQ%%%%%
25976B0%%%%%%%%%%%%%%%%%%%%%%qQ%%%%%%%%qQ%%%%%%%%%%%%%qQ%%%%%%%%%%qQ%%%%%%%%
25960B0%%%%%%%%%%%%%%%%%%%%%%%%%qQ%%qQ%%%%%qQ%qQqQqQ%%%%%%%%%%%%qQ%%%%%%%qQ%
25944B0%%%%%%%%%%%%%%%%%%%%%qQ%qQ%%%%%%qQ%%%%%%%%%%%%%%%%%%%qQ%%%%%%%%%%%%%%
25928B0%%%%%qQ%%%%%%%%%%%%%%%%%qQ%%%%%%%%%%%%%%%%%%%%%%%%%%%%%%%%%%%%%%%%%%%
25913B0%%%%%%%%%%%qQ%%%%%%%%qQ%%%%%%%%%%%%qQ%%%qQ%%%%%%qQ%qQ%%%%%%%qQ%%qQ%%%
25897B0%%%%%%%%%%%%%%%%qQ%Qj6Qq%Q%%%%%%%%qQ%%%%%%qQ%%%%qQqQq%Q%%%%%%%%%%%%%%
25881B0%%%%%%%%%%%%%%%%%%%%%%%%%%%%%%%%%%%%%%%%%%%%%%%%%qQ%%%%%%%%%%%%%%%%%%
25865B0%%%%%%%%%%%%%%%%%%%%%%%%%%%%%%%%%%%%%%%%%%%%%%%%%%%%%%%%%%%%%%%%%%%%%
25850B0%%%%%%%%%%%%%%%%%%%%%%%%%%%%%%%%%%%%%%%%%%%%%%%qQ%%%%%%%%%%%%%%%%%%%%
25834B0%qQ%q%Q%%%%%%%%%%%%%%%%%%%%%%%%%%%%%%%%%%%%%%%%%%%%%%%%%%%%%%%qQ%%%qQ
25818B0%%%%%%%%%%qQ%%%%%%%%%%%%%%%%%%%%%%%%%%%%%%%%%%%%%%%%qQ%%%%%%%%%%%%%%%
25802B0%%%%%%%%%%%%%%%%%%%%%%%%%%%%%%%%%%%%%%%%%%%%%%%%%%%%%%%%%%%%%%%%%%%%%
25786B0%%%%%%%%%%%%%%%%%%%%%%%%%%%%%%%%%%%%%%%%%%qQ%%%%%%%Qq%qQ%%%%%%%%%%%%%
25771B0%%%%%%%%%%%%%%%%%%%%%%%%%%%%%%%%%%%%%%%%%q%Q%%%%%%%%%%%%%%%%%%%%%%%qQ
25755B0%%%%%%%%%%%%%%%%%%%%%%%%%%%%%%%%%%%%%%%%%%%%%%%%%%%%%%%%%%%%%%%%%%%%%
25739B0%%%%%%%%%%%%%%%%%%%%%%%%%%%%%%%%%%%%%%%%%%%%%%%%%%%%%%%%%%%%%%%%%%%%%
25723B0%%%%%%%%%%%%%%%%%%%%%%%%%%%qQ%%%%%%%%%%%%%%%%%%%%%%%%%%%%%%%%%%%%%%%%
25707B0%%%%%%%%%%%%%%%%%%%%%%%%%%%%%%%%%%%%%%%%%%%%%%%%%%%%%%%%%%%%%%%%%%%%%
25692B0%%%%%%%%%%%%%%%%%%%%%%%%%%%%%%%%%%%%%%%%%%%%%%%%%%%%%%%%%%%%%%%%%%%%%
25676B0%%%%%%%%%%%%%%%%%%%%%%%%%%%%%%%%%%%%%%%%%%%%%%%%%%%%%%%%%%%%%%%%%%%%q
25660A2Q%%qQqQ%qQ%%qQ%%%%%%%%%%%%%%%%%%%%%%%%%%%%%%%%%%%%%%%%%%%%%%%%%%%%%%%
25644B0%%%%%%%%%%%%%%%%%%%%%%%%%%%%%%%%%%%%%%%%%%%%%%%%%%%%%%%%%%%%%%qQ%%%%%
25629B0%%%%q%Q%%%%%%%%%%%%%%%%%%%%%%%%%%%%%%%%%%%%%%%%%%%%%%%%%%%%%%%%%%%%%%
25613B0%%%%%%%%%%%%%%%%%%%%%%%%%%%%%%%%%%%%%%%%%%%%%qQ%%%%%%%%qQ%%%%%%%%%%%%
25597B0qQ%%%%%%%%%%%%%%%%%%%%%%%%%%%%%%%%%%%%%%%%%%%%%%%%%%%%%%%%%%%%%%%%%%%
25581B0%%%%%%%%%%%%%%%%%%%%%%%%%%%%%%%%%%%%%%%%%%%%%%%%%%%%%%%%%%%%%qQ%%%%%%
25565B0%%%%%%%%%%%qQ%%%%%%%%%%%%%%%%%%%%%%%%%%%%%%%%%%%%%%%%%%%%%%%%%%%%%%%%
25550B0%%%%%%%%%%%%%%%%%%%%%%%%%%%%%%%%%%qQqQ%%%%%%%%%%%qQ%%%%%%%%%%%%%%%%%%
25534B0%%%%%%%%%%%%%%%%%%%%%%%%%%%%%%%%%%q%QqQ%%%%%%%%%%%%%%%%%%%%%%%%%%%%%%
25518B0%%%%%%%%%%%%%%%%%%%%%%%%%%%%%%%%%%%%%%%%%%%%%%%%%%%%%%%%%%%%%%%%%%%%%
25502B0%%%%%%%%%%%%%%%%%%%%%%%%%%%%%%%%%%%%%%%%%%%%%%%%%%%%%%%%%%%%%%%%%%%%%
25486B0%%%%%%%%%%%%%%%%%%%%%%%%%%%%%%%%%%%%%%%%%%%%%%%%%%%%%%%%%%%%%%%%%%%%%
25471B0%%%%%%%%%%%%%%%%%%%%%%%%%%%%%%%%%%%%%%%%%%%%%%%%%%%%%%%%%%%%%%%%%%%%%
25455B0%%%%%%%%%%%%%%%%%%%%%%%%%%%%%%%%%%%%%%%%%%%%%%%%%%%%%%%%%%%%%%%%%%%%%
25439B0%%%%%%%%%%%%%%%%%%%%%%%%%%%%%%%%%qQ%%%%%%%%%%%%%%%%Qqq%%%Q%%qJ6q%%QQk4
25423A2q%J6%%QqQ%qqJ6q%%%%Qq%%%%%%qQ%%%%%%%%%%%%%%%%%%%%%%%%%%%%%%%%%%%%%%%%
25408B0%%%%%%%%%%%%%%%%%%%%%%%%%%%%%%%%%%%%%%%%%%%%%%%%%%%%%%%%%%%%%%%%qQ%%%
25392B0%%%%%%%%%%%%%%%%%%%%%%%%%%%%%%%%%%%%%%%%%%%%%%%%%%%%%%%%%%%%%%%%%%%%%
25377B0%%%%%%%%%%%%%%%%%%%%%%%%%%%%%%%%%%%%%%%%%%%%%%%%%%%%%%%%%%qQ%%%%%%%%%
25361B0%%%%%%%%%%%%%%%%%%%%%%%%%%%%%%%%%%%%%%%%%%%%qQqQ%%%%%%%%%%%%%%%%%%%%%
25345B0%%%%%%%%%%%%%%%%%%%%%%%%%%%%%%%%%%%%%%%%%%%%%%%%%%%%%%%%%%%%%%%%%%%%%
25329B0%%%%%%%%%%%%%%%%%%%%%%%%%%%%%%%%%%%%%%%%%%%%%%%%%%%%%%%%%%%%%%%%%%%%%
25313B0%%%%%%%%%%%%%%%%%%%%%%%%%%%%%%%%%qQ%%%%%%%%%%%%%%%%%%%%%%%%%%%%%%%%%%
25298B0%%%%%%%%%%%%%%%%%%%%%%%%%%%%%%%%%%%%%%%%%%%%%%%%%%%%%%%%%%%%%%%%%%%%%
25282B0%%%%%%%%%%%%%%%%%%%%%%%%%%%%%%%%%%%%%%%%%%%%%%%%%%%%%%%%%%%%%%%%%%%%%
25266B0%%%%%%%%%%%%%%%%%%%%%%%%%%%%%%%%%%%%%%%%%%%%%%%%%%%%%%%%%%%%%%%%%%%%%
25250B0%%%%%%%%%%%%qQ%%%%%%%%%%%%%%%%%%%%%%%%%%%%%%%%%%%%%%%%%%%%%%%%%%%%%%%
25234B0%%%%%%%%%%%%%%%%%%%%%%%%%%%%%%%%%%%%%%%%%%%%%%%%%%%%%%%%%%%%%%%%%%%%%
25219B0%%%%%%%%%%%%%%%%%%%%%%%%%%%%%%%%%%%%%%%%%%%%%%%%%%%%%%%%%%%%%%%%%%%%%
25203B0%%%%%%%%%%%%%%%%%%%%%%%%%%%%%%%%%%%%%%%%%%%%%%%%%%%%%Qq%%qQ%%Qq%qQ%qQ
25187B0%%qQ%%%%%%%%%%%%%%%%%%%%%%%%%%%%%%%%%%%%%%%%%%%%%%%%%%%%%%%%%%%%%%%%%
25171B0%%%%%%%%%%%%%%%%%%%%%%%%%%%%%%%%%%%%%%%%%%%%%%%%%%%%%%%%%%%%%%%%%%%%%
25155B0%%%%%%%%%%%%%%%%%%%%%%%%%%%%%%%%%%%%%%%%%%%%%%%%%%%%%%%%%%%%%%%%%%%%%
25140B0%%%%%%%%%%%%%%%%%%%%%%%%%%%%%%%%%%%%%%%%%%%%%%%%%%%%%%%%%%%%%%%%%%%%%
25124B0%%%%%%%%%%%%%%%%%%%%%%%%%%%%%%%%%%%%%%%%%%%%%%%%%%%%%%%%%%%%%%%%%%%%%
25108B0%%%%%%%%%%%%%%%%%%%%%%%%%%%%%%%%%%%%%%%%%%%%%%%%%%%%%%%%%%%%%%%%%%%%%
25092B0%%%%%%%%%%%%%%%%%%%%%%%%%%%%%%%%%%%%%%%%%%%%%%%%%%%%%%%%%%%%%%%%%%%%%
25076B0%%%%%%%%%%%%%%%%%%%%%%%%%%%%qQ%%%%%%%%%%%%%%%%%%%%%%%%%%%%%%%%%%%%%%%
25061B0%%%%%%%%%%%%%%%%%%%%%%%%%%%%%%%%%%%%%%%%%%%%%%%%%%%%%%%%%%%%%%%%%%%%%
25045B0%%%%%%%%%%%%%%%%%%%%%%%%%%%%%%%%%%%%%%%%%%%%%%%%%%%%%%%%%%%%%%%%%%%%%
25029B0%%%%%%%%%%%%%%%%%%%%%%%%%%%%%%%%%%%%%%%%%%%%%%%%%%%%%%%%%%%%%%%%%%%%Q
25013B8j6Q%%%%%%%%%%%%%%%%%%%%%%%%%%%%%%%%%%%%%%%%%%%%%%%%%%%%%%%%%%%%%%%%%%
24998B0%%%%%%%%%%%%%%%%%%%%%%%%%%%%%%%%%%%%%%%%%%%%%%%%%%%%%%%%%%%%%%%%%%%%%
24982B0%%%%%%%%%%%%%%%%%%%%%%%%%%%%%%%%%%%%%%%%%%%%%%%%%%%%%%%%%%%%%%%%%%%%%
24966B0%%%%%%%%%%%%%%%%%%%%%%%%%%%%%%%%%%%%%%%%%%%%QqqQ%%q%%J6q%%%%%%%%%%%%%
24951B0%%%%%%%%%%%%%%%%%%%%%%%%%%%%%%%%%%%%%%%%%%%%%%%%%%%%%%%%%%%%%%%%%%%%%
24935B0%%%%%%%%%%%%%%%%%%%%%%%%%%%%%%%%%%%%%%%%%%%%%%%%%%%%%%%%%%%%%%%%%%%%%
24919B0%%%%%%%%%%%%%%%%%%%%%%%%%%%%%%%%%%%%%%%%%%%%%%%%%%%%%%%%%%%%%%%%%%%%%
24903B0%%%%%%%%%%%%%%%%%%%%%%%%%%%%%%%%%%%%%%%%%%%%%%%%%%%%%%%%%%%%%%%%%%%%%
24887B0%%%%%%%%%%%%%%%%%%%%%%%%%%%%%%%%%%%%%%%%%%%%%%%%%%%%%%%%%%%%%%%%%%%%%
24872B0%%%%%%%%%%%%%%%%%%%%%%%%%%%%%%%%%%%%%%%%%%%%%%%%%%%%%%%%%%%%%%%%%%%%%
24856B0%%%%%%%%%%%%%%%%%%%%%%%%%%%%%%%%%%%%%%%%%%%%%%%%%%%%%%%%%%%%%%%%%%%%%
24840B0%%%%%%%%%%%%%%%%%%%%%%%%%%%%%%%%%%%%%%%%%%%%%%%%%%%%%%%%%%%%%%%%%%%%%
24824B0%%%%%%%%%%%%%%%%%%%%%%%%%%%%%%%%%%%%%%%%%%%%%%%%%%%%%%%%%%%%%%%%%%%%%
24808B0%%%Qq%%%%%%%%%%%%%%%%%%%%%%%%%%%%%%%%%%%%%%%%%%%%%%%%%%%%%%%%%%%%%%%%
24793B0%%%%%%%%%%%%%%%%%%%%%%%%%%%%%%%%%%%%%%%%%%%%%%%%%%%%%%%%%%%%%%%%%%%%%
24777B0%%%%%%%%%%%%%%%%%%%%%%%%%%%%%%%%%%%%%%%%%%%%%%%%%%%%%%%%%%%%%%%%%%%%%
24761B0%%%%%%%%%%%%%%%%%%%%%%%%%%%%%%%%%%%%%%%%%%%%%%%%%%%%%%%%%%%%%%%%%%%%%
24745B0%%%%%%%%%%%%%%%%%%%%%%%%%%%%%%%%%%%%%%%%%%%%%%%%%%%%%%%%%%%%%%%%%%%%%
24729B0%%%%%%%%%%%%%%%%%%%%%%%%%%%%%%%%%%%%%%%%%%Q%qqQqQ%%%%%%%%%%%%%%%%%%%%
24714B0%%%%%%%%%%%%%%%%%%%%%%%%%%%%%%%%%%%%%%%%%%%%%%%%%%%%%%%%%%%%%%%%%%%%%
24698B0%%%%%%%%%%%%%%%%%%%%%%%%%%%%%%Qq%%%%%%%%%%%%%%%%%%%%%%%%%%%%%%%%%%%%%
24682B0%%%%%%%%%%%%%%%%%%%%%%%%%%%%%%%%%%%%%%%%%%%%%%%%%%%%%%%%%%%%%%%%%%%%%
24666B0%%%%%%%%%%%%%%%%%%%%qQ%%%Qq%%%%%%%%%%%%%%%%%%%%%%%%%%%%%%%%%%%%%%%%%%
24650B0%%%%%%%%%%%%%%%%%%%%%%%%%%%%%%%%%%%%%%%%%%%%%%%%%%%%%%%%%%%%%%%%%%%%%
24635B0%%%%%%%%%%%%%%%%%%%%%%%%%%%%%%%%%%%%%%%%%%%%%%%%%%%%%%%%%%%%%%%%%%%%%
24619B0%%%%%%%%%%%%%%%%%%%%%%%%%%%%%%%%%%%%%%%%%%%%%%%%%%%%%%%%%%Qq%%%%%%%%%
24603B0Q%%q%%%%%%%%%%%%%%%%%%%%%%%%%%%%%%%%%%%%%%%%%%%%%%%%%%%%%%%%%%%%%%%%%
24587B0%%%%%%%%%%%%%%%%%%%%%%%%%%%%%%%%%%%%%%%%%%%%%%%%%%%%%%%%%Qq%%%%%%%%%%
24572B0%%%%%%%%%%%%%%%%%%%%%%%%%%%%%%%%%%%%%%%%%%%%%%%%%%%%%%%%%%%%%%%%%%%%%
24556B0%%%%%%%%%%%%%%%%%%%%%%%%%%%%%%%%%%%%%%%%%%%%%%%%%%%%%%%%%%%%%%%%%%%%%
24540B0%%%%%%%%%%%%%%%%%%%%%%%%%%%%%%%%%%%%%%%%%%%%%%%%%%%%%%%%%%%%%%%%%%%%%
24524B0%%%%%%%%%%%%%%%%%%%%%%%%%%%%%%%%%%%%%%%%Qq%%%%%%%%%%%%%%%%%%%%%%%%%%%
24508B0%%%%%%%%%%%%%%%%%%%%%%%%%%%%%%%%%%%%%%%%%%%%%%%%%%%%%%%%%%%%%%%%%%%%%
24493B0%%%%%%%%%%%%QqQq%%%%%%QqQ%q%Q%%Qk4J6j6%Q%%Qq%%%%%%%%%%Qq%%%%%%%%%%%%%
24477B0%%%%%%%%%%%%%%%%%%%%%%%%%%%%%%%%%%%%%%%%%%%%%%%%%%%%%%%%%%%%%%%%%%%%%
24462B0%%%%%%%%%%%%%%%%%%%%%%%%%%%%%%%%%%%%%%%%%%%%%%%%%%%%Qq%%%%%%%%%%%%%%%
24446B0%Qq%%%%%%%%%%%%%%%Qq%%%%%%%%%%%%%%%%%%%%%%%%%%%%%%%%%%%%%%%%%%%%%%%%%
24430B0%%Qq%%%QqQq%%%%%%%%%%%%%%%%Q%q%%%%%%%%%%%%%%%%%%%%%%%%%%%%%%%%%%%%%%%
24414B0%%%%%%%%%%%%%%%%%%%%%%%%%%Qq%%%%%%%%%%%%%%%%%%%%%%%%%%%%%%%%%%%%%%%%%
24398B0%%%%%%%%%%%%%%%%%%%%%%%%%%%%%%%%%%%%%%%%%%%%%%%%%%%%%%%%%%%%%%%%%%%%%
24383B0%%%%%%%%%%%%%%%%%%%%Qq%%%%%%%%%%%%%%%%%%%%%QqQqQq%%%%%%Qq%%%%QqqQQq%Q
24367B8q%%%%%%%%%%%%%%%%%%%%%%%%%%%Qq%%%%%%%%%%%%%%%%%%%%%%%%%%%%%%%%%%%%%%%
24351B0%%%%%%%%%%%%%%%%%%%%QqQq%%%%Qq%%%%%%%%%%%%%%%%Qq%%%%%%%%%%%Qq%%Q%q%%%
24335B0%%%%%%%%%%%%%%%%%%%%%%%%%%%%%%%%%%%%%%%%%%%%%%%%%%%%%%%%%%%%%%%%%%%%%
24320B0%%%%%%%Qq%%%%%%%%%%%%%%%%%%%%%%%%%%%Qq%%Qq%Qq%%%%%%%%%%Qq%%Qq%%%%%%Qq
24304B0%%QqQq%%%%Qq%%%%%%%%%%%%%%%%%%%%%%%%%%%%%%%%%%%%%%%%%%%%%%%%%%%%%%%%%
24288B0%%%%%%%%%%%%%%%%%%%%%%%%%%%%Q%%%q%%Qq%%%Qq%%%%%Qq%%%%%%%%%%%%Qq%Qq%%Q
24272B8q%%Qq%%%%%%%%%%Q%q%%%%%%%Qq%%%%%%%%%%%%%%%%%%%%%%%%%%%%%%%%%%%%%%%%%%
24256B0Qq%Q%%%qQ%%%q%%%%Q%%qQ%qQq%Q%q%%%%%%%%%Qq%%%%%%%%%%%%%%%%%Qq%%%Q%%q%Q
24241B8q%%%%%%%%%%Qq%%%%Qq%Q%q%%%%%%%%%%%%%%%%%%%%%%%Qq%%%%%%%%%%%%%%%%%%%%%
24225B0Q%q%Qq%%%Q%q%%%Q%%q%Qq%%%%%%Qq%%%%Q%q%Qq%%%QqQ%qQ%q%%%%%%%%%%%%%%%%%%
24209B0%%%%%%%%%%%%%%%%%%%%%%%%%%%%%%%%%%%%Q%%q%Qq%%%%%%Qq%%%%%%%%QqQq%%Qq%%
24193B0%Qq%%%%Qq%Q%%%qQq%QqQ%qQqQ%%q%%%%%%%Qq%%%%%%%%%Q%qQq%%%%Qq%%Q%qQq%%%%
24177B0%%Qq%%%%%%%%%%%%%%%Q%q%%%%%Qq%%%%%%%%Qq%QqQq%%Qq%%%%%Qq%%%QqQq%Qq%%%%
24162B0%%%%%%%%%%Qq%%%%%%Q%%qQ%%%%qQ%%q%%Qq%%%%Qq%%%%%%%%%Q%q%%Q%qQq%%Qq%%%%
24146B0%%%Q%%q%Qq%%%%QqQ%q%%%%%%Qq%Qq%%%Q%q%%Qq%Qq%%%Q%q%%%%%%Q%%%q%%Qq%%%%%
24130B0%%%%%%%%%%Q%qQq%%%%%%%%Q%q%Q%qQqQq%Qq%%%Q%q%%QqQ%qQq%Qq%%%%QqQ%q%%%%%
24114B0Q%q%%%%%%%Q%%%%%%qQqQ%q%Qq%QqQ%%%qQ%qQqQq%QqQq%%%%%%QqQ%%%%%%qQ%q%%%%
24098B0%%%%%%%%%%%%%%%%%%%%%%%QqQq%%%%QqQq%%%%Qq%%%%%%QqQqQq%Q%%%%%q%Q%%%qQ%
24083B8q%Q%q%QqQ%%%%%q%Qq%Qq%%%%Q%q%Q%%q%%QqQq%Q%%q%%Q%%%q%%Qq%%Qq%%%%QqQqQ%
24067B8qQq%Q%qQqQq%%%%Q%%q%%Q%%q%%%%%%%%%%Qq%%Q%%%qQ%qQ%%%%%q%QqQq%%Q%%q%Q%%
24051B8q%%%Q%q%%%Qq%%%QqQ%%%q%Qq%%%Q%q%%%%%%%%%%%%%%%%%%%QqQ%%%%%q%%%%%%%%%%
24035B0Qq%%Qq%%%%%%%%Qq%%%%%%%%%%%%%%%%QqQq%%%%%%%%%%%Qq%Qq%%%%%Q%qQqQ%q%%Qq
24019B0Q%q%Qq%QqQq%J6q%j6J6q%Q%%%qQ%%qQqQ%q%%%%%Q%q%%Qq%%%%%%%%%%%%%%%%%%%Qq
24004B0%%%%Qq%%%%Q%%q%%%%%%%%%%%%%%%%%%%%%%%%Qq%%%%%Q%q%%%%%%%%QqQqQ%%q%Qq%Q
23989B8qQqQ%%%%%qQ%%q%Q%%q%%%%%%QqQ%%q%%Q%%q%%%QqQ%q%%%%Qq%%Q%q%Qq%%%%%%%%%%
23973B0Q%%%q%%QqQqQq%%%Q%q%%QqQ%%%%%%%%%%%%qQ%qQ%%qQ%qQ%qQ%%%%q%%%QqQ%qQ%q%Q
23957B8%q%Q%q%%Q%%%%%q%%%%Qq%%%%%QqQq%QqQ%%%qQ%qQ%%qQq%%%QqQqQ%q%Q%%%%%%%%%q
23941B0%Q%%%%%%qQ%%%q%Qq%%Qq%%%%%%Qq%%%%%%%%%%%%%%%%Qq%QqQ%qQq%%%%%%%Qq%Q%%q
23925B0Q%%%%%%qQ%qQq%%%Q%%%%%%%%%%%%q%Qq%%%%%%%%%Q%qQqQ%%q%%Q%%qQ%%qQq%%Qq%Q
23910B8%%%qQ%q%%Q%%qQ%%%%%qQ%%qQ%%%qQ%qQ%%%qQq%%%Qq%%QqQqQq%Q%%qQ%%qQ%%q%Q%q
23894B0Q%%q%Q%%%%q%Q%%%%%%qQ%qQ%%qQ%%qQ%%%%%%qQqQ%qQqQ%%qQ%%%%%%%%%%%qQ%qQ%q
23878B0Qq%Q%q%Q%%qQq%%Q%%%q%%Q%%q%Q%q%Q%%%%%%%%%%qQ%%q%%Q%%%%%%%%%%%%%%%%%%%
23862B8%%%%%%%%%%%%%%q%%Q%%%%qQqQ%%%%%%%%%%%%%%%%%%%%%%qQ%%%%%%%%%%%%%%%%%qQ
23846B8%%%%%qQ%%%%%%%qQ%%%%qQ%qQ%%%qQ%%%%%qQ%%%%%%qQ%%%%%%%%%%q%Q%qQ%%%%%%%%
23831B8%%qQ%%%%%%%%%%%%%%%%%%%%%%qQ%qQqQ%%%%qQ%%%qQ%q%Q%qQ%%%%%q%Q%%%%%%%%%q
23815B0%%QqQ%%qQ%q%%%Q%qQ%qQ%qQqQ%qQqQ%qQ%%q%%Q%%%%%%%%%%%qQ%qQ%%%%%%%%%%qQ%
23799B8%%qQ%q%Q%q%Q%%%%%%%%%%%qQ%%qQ%%%%%%%%%%%%%%%%%%%qQ%%%%%%%%%%%%%q%Q%q%
23783B0Q%%%qQq%%Q%%%qQqQ%%%q%Q%%qQ%%%qQ%%%%qQqQ%%%%%%%%%%%%%%%%%%%%%%%qQq%Q%
23767B8qQ%%qQ%%%%%%%%%%%%%%%%%%%%%%%%%%qQqQ%%%%qQ%%%%%%%%%%%%%qQ%%%%qQqQqQqQ
23752B8%qQ%qQ%%%%%%%%%%%%%%%%%%%%%%%%%%%%%%%%%%%%%%%%%%%%%%%%%%%%%%%%%%%%qQ%
23736B8qQ%%%qQ%%%%%%%%%%%%%%qQ%%%%%%qQ%%%%%%%%%%%%%%%%%%%qQ%%%%%%%%%qQ%%qQqQ
23720B8%%qQ%%%%%%%%qQ%%%%%%%%%%%%%%%%%%%%%%%%%%%%%%%%%%%%%qQ%%%%%%%%%%%%%%%%
23704B8%%%%%%%%%%%%%%%%%%%%%%%%%%%%%%%%%%%%%%qQ%%%qQ%%%%%%%%%%%%%%%%%%%%%%%%
23689B8%%%%%%%%%%%%%%%%%%%%%%%%%%%%%qQ%%%%%%%qQq%Q%qQ%%%%%qQ%qQ%%%%%%%%%%%%%
23673B8%%%%%%%qQ%%%%%%%%%%%%%%%%%%qQ%%%q%Q%%%%%%%%%%%%%%%%%%%%%%%%%%%qQ%%%%%
23657B8%%%%%%%%%%%%%%%%%%%%%%%%%%%%%%%%%%%%%%%%%%%%%%%%%%%%%%%%%%%%%%qQ%%%%%
23641B8%%%%%%%%%%%%%qQqQ%%%%%%%%%%%%%%%qQ%%%qQ%%%%%%%%%%%%%%%%%%%%%%%%%%%%%%
23625B8%%%%%%%%%%%%%%%%%%%%%%%%%%%%%%%%%%%%%%%%%%%%qQ%%%%%%%%%%%%%qQ%%%%%%%%
23610B8%%%%%qQ%%%%%%%%%%%%%%%%%%%%%%%%%%%%%%%%%qQ%%%%%%%%%%%%%%%%%%%%%%%%%%%
23594B8%%%%%%qQ%%%%%%%%%%%%%%%%%%%%%%%%%%%%%%%%%%%%%%%%%%%%%%%%%%%%%%%%%%qQ%
23578B8%%%%%qQ%%%%%%%%%%%%%%%%%%%%%%%%%%%%%%%%%%%%%%%%%%%%%%%%%%%%%%%%%%%%%%
23562B8%%%%%%%%%%%qQ%qQ%%qQ%%%%%%%%%%%%%%qQqQ%Qq%%%Qj6Qq%Qj6Q%QJ6J6k4j6%O4m0
23548D4k4%m0P2m8J6qJ6j6%%QQQqq%Q%%j6J6%%%%qQ%%%%%%%%%qQ%qQ%%%%%%%%%%%%%%%%%%
23534B8%%%qQ%%%%%%%%%%%%%qQ%%%%%%%%%%%%%%%%%q%QqQ%%%%%%%%%%%%%qQ%%%%%%%%%%%%
23519B8%%%%%%%%%%%%%%%%%%%%%%%%%%%%qQ%%%%%%%%%%%%%%%%%%%%%%%%%%%%%%%%%%%%%%%
23503B8%%%%%%%%%%%%%%%%%%%%%%%%%%%%%%%%%%%%%%%%%%%%%%%%%%%%qQqQ%%%%%%%%%%%%%
23487B8%%%%%%%%%%%%%%%%%%%%%%%%%%%%%%%%%%%%%%%%%%%%%%%%%%%%%%%%%%%%%%%%%%%%%
23471B8%%%%%%%%%%%%%%%%%%%%%%%%%%%%%%%%%%%%%%%%%%%%%%qQ%%%%%%%%%%%%%%%%%%%%%
23456B8%%%%%%%%%%%%%%%%%%%%%%%%%%%%%%%%%%%%%%%%%%%%%%%%%%%%%%%%%%%%%%%%%%%%%
23440B8%%%%%%%%%%%%%%%%%%%%%%%%%%%%%%%%%%%%%%%Qj6Q%%%%%%%%%%%%%%%%%%%%%%%%%%
23424B8%%%%%%%%%%%%%%%%%%%%%%%%%%%%%%%%%%%%%%%%%%%%%%%%%%%%%%%%%%%%%%%%%%%%%
23408B8%%%%%%%%%%%%%%%%%%%%%%%%%%%%%%%%%%%%%%%%%%%%%%%%%%%%%%%%%%%%%%%%%%%%%
23393B8%%%%%%%%%%%%%%%%%%%%%%%%%%%%%%%%%%%%%%%%%%%%%%%%%%%%%%%%%%%%%%%%%%%%%
23377B8%%%%%%%%%%%%%%%%%%%%qQ%%%%%%%%%%%%%%%%%%%%%%%%%%%%%%%%%%%%%%%%%%%%%%%
23361B8%%%%%%%%%%%%%%%%%%%%%%%%%%%%%%%%%%%%%%%%%%%%%%%%%%%%%%%%%%%%%%%%%%%%%
23345B8%%%%%%%%%%%%%%%%%%%%%%%%%%%%%%%%%%%%%%%%%%%%%%%%%%%%%%%%%%%%%%%%%%%%%
23329B8%%%%%%%%%%%%%%%%%%%%%%%%%%%%%%%%%%%%%%%%%%%%%%%%%%%%%%%%%%%%%%%%%Qq%Q
23314C6j6QQ%q%%%%%%%%%%%%%%%%%%%%%%%%%%%%%%%%%%%%%%%%%%%%%%%%%%%%%%%%%%%%%%%
23298B8%%%%%%%%%%%%%%%%%%%%%%%%%%%%%%%%%%%%%%%%%%%%%%%%%%%%%%%%%%%%%%%%%%%%%
23282B8%%%%%%%%%%%%%%%%%%%%%%%%%%%%%%%%%%%%%%%%%%%%%%%%%%%%%%%%%%%%%%%%%%%%%
23266B8%%%%%%%%%%%%%%%%%%%%%%%%%%%%%%%%%%%%%%%%%%%%%%%%%%%%%%%%%%%%%%%%%%%%%
23251B8%%%%%%%%%%%%%%%%%%%%%%%%%%%%%%%%%%%%%%%%%%%%%%%%%%%%%%%%%%%%%%%%%%%%%
23235B8%%%%%%%%%%%%%%%%%%%%%%%%%%%%%%%%%%%%%%%%%%%%%%%%%%%%%%%%%%%%%%%%%%%%%
23219B8%%%%%%%%%%%%%%%%%%%%%%%%%%%%%%%%%%%%%%%%%%%%%%%%%%%%%%%%%%%%%%%%%%%%%
23203B8%%%%%%%%%%%%%%%%%%%%%Qq%%%Qq%%%%%%%%%%%%%%%%%%%%%%%%%%%%%%%%%%%%%%%%%
23187B8%%%%%%%%%%%%%%%%%%%%%%%%%%%%%%%%%%%%%%%%%%%%%%%%%%%%%%%%%%%%%%%%%%%%%
23172B8%%%%%%%%%%%%%%%%%%%%Qq%%%%%%%%%%%%%%%%%%%%%%%%%%%%%%%%%%%%%%%%%%%%%%%
23156B8%%%%%%%%%%Qq%%%%%%%%%%%%%%%%%%%%%%%%%%%%%%%%%%%%%%%%%%%%%%%%%%%%%%%%%
23140B8%%%%%%%%%%%%%%%%%%%%%%%%%%%%%%%%%%%%%%%%%%%%%%%%%%%%%%%%%%%%%%%%%%%%%
23124B8%%%%%%%%%%%%%%%%%%%%%%%%%%%%%%%%%%%%%%%%%%%%%%%%%%%%%%%%%%%%%%%%%%%%%
23109B8%%%%%%%%%%%%%%%%%%%%%%%%%%%%%%%%%%%%%%%%%%%%%%%%%%%%%%%%%%%%%%%Qq%%%%
23093B8%%%%%%Qq%%%%%%%%%%%%%%%%%%%%%%%%QqQq%%%%%%%%%%%%%Q%q%%J6qq%%Qq%%Qq%%%
23077B8%%%%%%%%%%%%%%%%%%%%%%%%%%%%%%%%%%%%%%%%%%%%%%%%%%%%%%%%%%%%%%%%%%%%%
23061B8%%%%%%%%%%%%%%%%%%%%%%%%%%%%%%%%%%%%%%%%%%%%%%%%%%%%%%%%%%%%%%%%%%%%%
23046B8%%%%%%%%%%%%%%%%%%%%%%%%%%%%%%%%%%%%%%%%%%Qq%%%%%%%%%%%%%%%%%%%%%%%%%
23030B8%%%%%%%%%%%%%%%%%%%%%%%%%%%%%%%%%%%%%%%%%%%%%%%%%%%%%%%%%%%%%%%%%%%%%
23014B8%%%%%%%%%%%%%%%%%%%%%%%%%%%%%Qq%%%Qq%%%%%%%%%%%%%%%%%%%%%%%%%%%%%%%%%
22998B8%%%%%%%%%%%%%%%%%%%%%%%%%%%%%%%%%%%%%%%%%%%%%%%%%%%%%%%%%%%%%%%%%%%%%
22982B8%%%%%%%%%%%%%%%%%%%%%%%%%%%%%%%%%%%%%%%%%%%%%%%%%%%%%%%%%%%%%%%%%%%%%
22967B8%%%%%%%%%%%%%%Qq%%%%Qq%QqQq%%%%%%%%%%%%%%Qq%%%%%%%%%%%%%%%%%%%%%%%%%%
22951B8%%%%%%%%%%%%%%%%%%%%%%Qq%%%%%%%%%%%%%%%%%%%%%%%%%%%%%%%%%%%Qq%Qq%%%%%
22935B8%%%%%%%%Qq%%%%%%%%%%%%%%%%%%%%%%%%%%%%%%%%%%%%%%%%%%%%%%%%%%%%%%%%%%%
22919B8%%%%Qq%%%%%%%%%%%%%%%%%%%%%%%%%%%%%%%%%%%%%%%%%%%%%%%%%%%%%%%Qq%%Q%q%
22903B8Qq%%%%%%%%%%%%%%%%%%%%%%%%%%%%%%%%%%%%%%%%%%%%Qq%%%%%%%%%%Q%%q%%Qq%%%
22888B8%%%%%%%%%%%%%%Qq%%%%%%%%%%%%%%%%%%%%%%%%%%%%%%%%%%%%%%%%Q%q%%%%%%%%Qq
22872B8Q%q%Qq%%Qq%%%%%%%%%%Qq%%%%%%%%%%%%%%%%%Qq%%%%%%%%%%%%%%%%%%%%%%%%%%%%
22856B8%%%%%%%%%%Q%qQq%QqQ%%%q%Qq%%Q%q%Q%q%Qq%%Qq%%QqQqqQ%%%%QqQq%%%Qq%%%%%%
22840B8%%%%Qq%%%%%%%%%%Qq%%%%%%%%%%%%%%%%%%%%%%%%%%%%%%Qq%%%%%%%%%%%%%%%%%%%
22824B8QqQq%%%%%%%%%%%%%%Qq%%%%%Qq%%%Qq%%%%%%%%%%%%%%%%%%%Qq%%%%Qq%%%%%%%%%Q
22809C6%q%%%%%Q%q%%%%%%%%%%%%%%%%%%%%%%%%%Q%q%%Qq%%Qq%Qq%%%%%%%%%%%%%%%%%%%%
22793B8%%%%%%%%%%Q%q%Q%q%Qq%Q%%q%%Q%%qQ%q%%%%Qq%%%%Qq%QqQq%%%%%%Q%qQq%%%%%%Q
22777C6q%Q%qQq%%%%%%%%%%%%%%Q%q%%%%%%%%%%Qq%%%%%%%%%%%%%Q%q%%%%%%Qq%%%%%QqQq
22761B8%%%%%%%%%%Qq%%%%%Qq%%Qq%%%%%Q%q%Q%%%%%%%%qQ%%%qQ%%q%Q%%qQ%q%Q%qQ%%%%%
22746C6%qQq%%QqQ%%q%QqQqQ%%qQq%Q%q%%Qq%Qq%%%%%%Qq%%%%%%%%%%%%%%%%%Qq%Q%q%QqQ
22730C6q%%%Q%q%Qq%%Qq%%%%QqQ%q%%%%%%%%%Q%q%%%%%%%%%%%%%%Qq%%%QqQ%%%%qQ%%q%Q%
22714C6q%%QqQq%%Qq%%%%%%%%%%%%%Qq%QqQ%q%QqQq%%%%QqQq%%%%%QqQ%q%%Qq%%%%%%Q%q%
22698B8Q%%%q%%%%%%%%%%Qq%Qq%%QqQq%%%%%Q%qQ%%qQqQ%qQ%%q%%%%%%%Qq%Qq%%Q%%q%%%Q
22682C6q%%Qq%%Q%%qQq%%Q%%qQ%q%%Qq%Q%qQ%%%%%q%QqQ%%%%qQqQqQ%qQqQqQq%%%%%%%Qq%
22667B8Q%%qQ%qQ%q%%Q%%%%qQ%%%%%%%qQ%q%Q%%qQq%QqQ%%%%%%%qQ%%%%%%q%%%Q%%%%qQ%%
22651C6%qQ%q%%%%%Qq%Q%qQ%q%Q%%qQqQ%qQ%%%%q%QqQq%%Q%%qQq%%%Q%%%%q%QqQ%%qQ%q%Q
22635C6%%%%%%qQqQqQ%%%%%%%%qQ%%%%%%%qQ%%%%%%%qQ%q%%%Qq%Q%%qQq%QqQq%Q%%qQ%qQq
22619B8Q%qQqQ%%%q%%%Qq%%QqQqQ%qQq%%Q%qQ%q%%K4k4QqQ%q%Qq%Q%%qQ%%%qQ%%%%%%%%%%
22604C6%%%%%%%%%%%%%%%%%%%%%%%%%%%%%%%%%%%%%%%qQ%%%%%%%%%%%%qQ%%%%%%%%%%%%qQ
22588C6qQ%%%%%%%%%%%%%%%qQ%%%qQ%q%Qq%%Q%q%Q%qQ%%qQ%%%%%%%q%QqQ%%%%%%qQ%%%%%%
22572C6%%%%%%%%%%%%%%%%%qQqQ%%%%%%qQ%%%%%%%%%%%%%%%%%%%%%%%%%%%%%%%%%%%%qQ%q
22556B8Q%%%%%%%%%qQ%%%%%qQ%%%%qQ%%%%%%%%%%%%%%%%%%%%%%%%%%qQ%%%%%%%%%%%%%%%%
22541C6%%%%%%%%%%%%%%%%%%%%%%%%%%%%%%%%%%%%%%%%%%%%%%%%%%%%%%%%%%%%%%%%%%%%%
22525C6%%%%%%%%%%%%%%qQ%%%%%%%%%%%%%%%%%%%%%%%%%%%%%%%%%%qQ%%%%%%%%%%%%%%%%%
22509C6%%%%%%%%%%%%%%%%%%%%%%%%%%%%%qQ%%%%%%qQ%%qQ%%%%%%%qQ%%%%qQq%%Q%%%q%Q%
22493C6%q%Q%%%%%qQ%%%%%%%%%%%%%%%%%%%%%%%%%%%%%%%%%%%%%%%%%%%%%%%%%%%qQ%%%%%
22477C6%%%%%%qQ%%%%%%%%%%%%%%qQ%q%Q%%%%qQqQ%qQ%%qQ%%%%%%%%%%%%%%%%%qQ%%%%%%%
22462C6%%%%%%%%%%%%%%%%%%%%%%%%%%%%%%%%%%%%%%%%%%%%%%%%%%%%%%%%%%%%%%%%%%%%%
22446C6%%%%%%%%%%%%%%%%%%%%%%%%%%%%%%%%%%%%%%%q%Q%%%%q%Q%%%qQ%%%%%%%%%%%%%%%
22430C6%%%%%%%%%%%%%%%%%%%%%%%%%%%%%%%%%%%%%%%%%%%%%%%%%%%%%%%%qQ%%%%%%%%%%%
22414C6%%%%%%%%%%%%%%%%%%%%%%%%%%%%%%%%%%%%%%%%%%%%%%%%%%%%%%%%%%%%%%%%%%%%%
22399C6%%%%%%%%%%%%%%%%%%%%%%%%%%%%%%%%%%%%%%%%%%%%%%%%%%%%%%%%%%%%%%%%qQ%%%
22383C6%%%%%%%%%%%%%%%qQ%%qQ%%%%%Qq%q%Q%%%%%%%%%%%%%%%%%%%%%%%%%%%%%%%%%%%%%
22367C6%%%%%%%%%%%%%%%%%%%%%%%qQ%%%%%%%%%%%%%%%%%%%%%%%%%%%%%%%%%%%%%%%%%%%%
22351C6%%%%%%%%%%%%%%qQ%%qQ%%%%%%%%%%%%%%%%%%%%%%%%%%%%%%%%%%%%%%%%%%%%%%%%%
22335C6%%%%%%%%%%%%%%%%%%%%%%%%%%%%%%%%%%%%%%%%%%%%%%%%%%%%%%%%%%%%%%%%%%%%%
22320C6%%%%%%%%%%%%%%%%%%%%%%%%%%%%%%%%%%%%%%%%%%%%%%%%%%%%%%%%%%%%%%%%%%%%%
22304C6%%%%%%%%%%%%%%%%%%%%%%%%%%%%%%%%%%%%%%%%%%%%%%%%%%%%%%%%%%%%%%qQ%%%%%
22288C6%%%%%%%%%%%%%%%%%%%%%%%%%%%%%%%%%%%%%%%%%%%%%%%%%%%%%%%%%%%%%%%%%%%%%
22272C6%%%%%%%%%%%%%%%%%%%%%%%%%%%%%%%%%%%%%%%%%%%%%%%%%%%%%%%%qQ%%%%%%%%%%%
22256C6%%%%%%%%%%%%%%%%%%%%%%%%%%%%%%%%%%%%%%%%%%%%%%%%%%%%%%%%%%%%%%%%%%%%%
22241C6%%%%%%%%%%%%%%%%%%%%%%%%%%%%%%%%%%%%%%%%%%%%%%%%%%%%%%%%%%%%%%%%%%%%%
22225C6%%%%%%%%%%%%%%%%%%%%%%%%%%%%%%%%%%%%%%%%%%%%%%%%%%%%%%%%%%%%%%%%%%%%%
22209C6%%%%%%%%%%%%%%%%%%%%%%%%%%%%%%%%%Qq%%%%%%%%%%%%%%%%%%%%%%%%%%%%%%%%%%
22193C6%%%%%%%%%%%%%%%%%%%%%%%%%%%%%%%%%%%%%%%%%%%%%%%%%%%%%%%%%%%%%%%%%%%%%
22177C6%%%%%%%%%%%%%%%%%%%%%%%%%%%%%%%%%%%%%%%%%%%%%%%%%%%%%%%%%%%%%%%%%%%%%
22162C6%%%%%%%%%%%%%%%%%%%%%%%%%%%%%%%%%%%%%%%%%%%%%%%%%%%%%%%%%%%%%%%%%%%%%
22146C6%%%%QqQ%%qQq%%%%%Qj6QQq%%%%%%%%%%%%%%%%%%%%%%%%%%%%%%%%%%%%%%%%%%%%%%
22130C6%%%%%%%%%%%%%%%%%%%%%%%%%%%%%%%%%%%%%%%%%%%%%%%%%%%%%%%%%%%%%%%%%%%%%
22114C6%%%%%%%%%%%%%%%%%%%%%%%%%%%%%%%%%%%%%%%%%%%%%%%%%%%%%%%%%%%%%%%%%%%%%
22099C6%%%%%%%%%%%%%%%%%%%%%%%%%%%%%%%%%%Qq%%%%%%%%%%%%%%%%%%%%%%%%%%%%%Qq%%
22083C6%%%%%%%%%%%%%%%%%%%%%%%%%%%%%%%%%%%%%%%%%%%%%%%%%%%%%%%%%Qq%%%%%%%%%%
22067C6%%%%%%%%%%%%%%%%%%%%%%%%%%%%%%%%%%%%%%%%%%%%%%%%%%%%%%%%%%%%%%%%%%%%%
22051C6%%%%%%%%%%%%%%%%%%%%%%%%%%%%%%%%%%%%%%%%%%%%%QqQq%%%%%Qq%%%%%%%%%%%Qq
22036C6%%%%%%%%%%Qq%%%%%%%%%%%%%%%%%%%%%%%%%%%%%%%%%%%%%%%Qq%%%%%Qq%%%%%%Qq%
22020C6%%%%%%%%%%%%%%%%%%%%Qq%%%%%%%%%%%%%%%%%%%%Qq%%%%%%%%%%%%%%%%%%%%%%%%%
22004C6%%%%%%%Qq%%%%%%%%%%%%%%%%%%%%%%%%%%Q%q%%%%%%%%%%%%%%%%%%%%%%%%%%Qq%%%
21988C6%%Qq%%%%%%%%%%%%%%%%%%%%%Qq%%%%%%%%%%%%%%%%%%%%%%%%%%%%%%%%%%%%%%%%%%
21972C6%%%%%%%%%Qq%Qq%%Q%%qQq%%%%%%%%%%%%%%%%%%%%%%%%%%Q%qQqQq%%%%Qq%%%%%%%%
21957C6%%Qq%%%%%%Qq%%%%%%%%%%%%%%%%%%%%%%%Qq%%%Qq%%%%%%Q%q%%%%%%%%%%%%%%%%Qq
21941C6%%%%%%%%%%%%QqQqQ%%%q%%%%%%QqQ%%qQqQ%%q%%%Qq%%%%%%%Q%q%%%%%%Qq%%%%%%%
21925C6%%%QqQq%%%%%%%%%%%Qq%%%Qq%%Q%q%%Qq%Q%%%%%qQ%%%qQq%%%Qq%%Qq%%Q%q%%Qq%%
21909C6%Qq%%%Qj6Q%Qq%%Qq%Qq%%Qq%%QqQq%%Q%qQq%%%%%%%%%%%%%%%%%%%%Q%q%QqQq%%%%
21894C6%QqQ%%%%q%Q%%%q%Q%%qQ%q%Q%qQq%%Q%%qQ%%%%qQq%%%%%Qq%Q%q%%Q%%q%%%%%%%Qq
21878C6%Qq%%Q%%q%%%QqQq%%Qq%Q%%qQ%qQqQqQ%%qQ%%q%Q%%qQqQ%qQ%%%%%%%%%%%%%%%%%%
21862D4%%%%%%%%%%%%%%%%qQ%%%%q%Q%qQ%%%qQ%qQqQ%qQqQ%%%%%%q%%%Q%qQq%QqQ%%%%qQq
21846C6%Q%%%%qQ%%%%%%q%Qq%QqQ%qQqQ%qQq%%%%%Qq%%Q%qQ%%%%%qQ%%qQq%Q%%%%%%%%%%%
21830D4%%%%%%%%%%%%%%%%%%%%%%%%%%%%qQ%%%%%%%%%%%%%%%%%%%%%%%%qQ%%%%qQ%qQ%%%%
21815D4%%%%%%%qQ%qQ%%%%%%%%%%%%%%%%%%%%%%q%Q%%%%qQ%%%%%%qQ%%%%%qQ%%%%%%%%%%%
21799D4%%%%%%%%%%%%%qQ%qQ%%q%Q%q%QqQ%qQqQ%%qJ6j6%%%%Q%%%%%qQ%%%%%%%%%%%%%%%%
21784D4%%qQ%%qQ%%%%%%%%qQ%%%%%%%%%%%%%%%%%%%%%%%%%%%%%%%%%%%%%%%%%%%%%%%%%%%
21768D4%%%%%%%%%%%%%%q%Q%q%QqQ%%%%qQ%%%%%%qQq%%Q%%qQ%%%%qQ%qQ%%%%%%%qQ%%%qQ%
21752D4%%%%%%%%%%%%%%%%%%%%%%%%%%%%%%%%%%%%%%%%%%%%%%%%%%%%%%%%%%%%%qQ%%%%%q
21736C6%Q%%%qQ%%%%%%%%%%qQ%%%%%%qQ%%%%%%%%%%%%%%%%%%%%%%%%%%%%%%%%%%%%%%%%%%
21720D4%%%%%%%%%%%%%%%%%%%%%%%%%%%%%%%%%%%%%%%%%%%%%%%%%%%%%%%%%%%%%%%%%%%%%
21705D4%%%%%%%%%%%%%%%%%%%%%%%%%%%%%%%%%%%%%%%%%%%%%%%%%%%%%%%%%%%%%%%%%%%%%
21689D4%%%%%%%%%%%%%%%%%%%%%%%%%%%%%%%%%%%%%%%%%%%%%%q%Q%%%%%%%%qQ%%Qq%%j6%Q
21673C6%Q%%qQQqj6QQ%%qQ%%%%qQq%Q%%%%%%%%%%%%%%%%%%%%%%%%%%%%%%%%%%%%%%%%qQ%%
21658D4%%%%%%%%%%%%%%%%%%%%%%%%%%%%%%%%%%%%%%%%%%%%%%%%%%%%%%%%%%%%%%%%%%%%%
21642D4%%%%%%%%%%%%%%%%%%%%%%%%%%%%%%%%%%%%%%%%%%%%%%%%%%%%%%%%qQ%%%%%%%%%%%
21626D4%%%%%%%%%%%%%%%%%%%%%%%%%%%%%%%%%%%%%%%%%%%%%%%%%%%%%%%%%%%%%%%%%%%%%
21610D4%%%%%%%%%%%%%%%%%%%%%%%%%%%%%%%%%%%%%%%%%%%%%%%%%%%%%%%%%%%%%%%%%%%%%
21594D4%%%%%%%%%%%%%%%%%%%%%%%%%%%%%%%%%%%%%%%%%%%%%%%%%%%%%%%%%%%%%%%%%%%%%
21579D4%%%%%%%%%%%%%%%%%%%%%%%%%%%%%%%%%%%%%%%%%%%%%%%%%%%%%%%%%%%%%%%%%%%%%
21563D4%%%%%%%%%%%%%%%%%%%%%%%%%%%%%qQ%%qQ%%%%%%%%%%%%%%%%%%%%%%%%%%%%%%%%%%
21547D4%%%%%%%%%%%%%%%%%%%%%%%%%%%%%%%%%%%%%%%%%%%%%%%%%%%%%%%%%%%%%%%%%%%%%
21531D4%%%%%%%%%%%%%%%%%%Qq%%%Qq%%%%%%%%%%%%%%%%%%%%%%%%%%%%%%%%%%%%%%%%%%%%
21516D4%%%%%%%%%%%%%%%%%%%%%%%%%%%%%%%%%%%%%%%%%%%%%%%%%%%%%%%%%%%%%%%%%%%%%
21500D4%%%%%%%Qq%%%%%%%%%%%%%%%%%%%%%%%%%%%%%%%%%%%%%%%%%%%%%%%%%%%%%%%%%%%%
21484D4%%%%%%%%%%%%%%%%%%%%%%%%%%%%%%%%%%%%%%%%%%%%%%%%%%%%%%%%%%%%%%%%%%%%%
21468D4%%%%%%%%%%%%%%%%%%%%%%%%%%%%%%%%%%%%%%%%%%%%%%%%%%%%%%%%%%%%%%%%%%%%%
21452D4%%%%%%%%%%%%%%%%%%%%%%%%%%%%%%%%%%%%%%%%%%%%%%QqQq%Q%qqQ%%%Q%qQq%%Q%%
21437E2%q%%%%%%%%%%%%%%%%%%%%%%%%%%%%%%%%%%%%%%%%%%%%Qq%%%%%%%%%%%%%%%%%%%%%
21421D4%%%%%%%%%%%%%%%Qq%%%%%%%%%%%%%%%%%%%%%Qq%%Qq%%%%%%%Qq%%%%%%%%%%%%%Qq%
21405D4%%%%%%%%%%%%%%%%%%%%%%%%%%%%%%%%%%%%%%%%%%%%%%%%%%%%%%%%%%%%%%%%%%%%%
21389D4%%%%%%%%%%%%%%%Qq%%Qq%Qq%%%%%%%%%%QqQ%q%%%%Qq%%%%%%%%Q%%qQq%%%Qq%%%Q%
21373E2%qQ%%%%q%%%%%%%%%%%%%%%%%%%%Qq%%Qq%Q%q%%%%Qq%%%%%%Qq%%%Qq%Qq%%%%Q%qQq
21358D4%QqQ%%%q%%%QqQq%%%%%%%%Qq%%%Q%%qQq%Q%q%Qq%%%%%Qq%%Qq%%%Q%qQq%%%Q%%q%Q
21342E2q%%%%%%%Qq%%%%%%%%%%%%%%%%Qq%%%%%%%%%%Qq%%%Qq%%%%Qq%Qq%Q%%%%qQq%%Q%%q
21326D4Q%q%Qq%Q%%qQqQq%%Qq%%QqQ%%q%%%%Q%%qQ%q%%Q%%qQqQqQ%qQqQ%%%%%%%%%%%%%%%
21310E2%qQqQ%%%%%q%Qq%Qq%%%%Q%q%Q%%%q%%%%%Qq%%%%%%Q%%%%%q%Q%%qQ%%q%%Q%q%QqQ%
21294E2%%%%qQqQ%%qQ%qQ%q%%Qq%%%%%Q%%%qQ%%%%%%qQ%%qQ%%%%%%%%%%q%%Q%%%%%qQqQ%q
21279D4%%Q%%%qQ%qQ%%%%%%q%QqQ%%%%q%Q%%%%%%q%QqQ%q%%Q%%%%%%%%%%%%%%%%%qQ%%q%%
21263D4%Qq%Q%%%qQ%%q%%%Q%%%%%%%%%%%%%%%%%%%%%%%%%%%%%%%qQ%%%%%%%%%q%Q%%%%qQ%
21247E2%q%Q%%%%%%%%%%%%%%%%%%%%%%%%%%%%%%%%%%%%%%%%%%%%%%qQ%%%%%%%%%%%%%%%%%
21231E2%%%%%%%%%%%%qQ%%%%%%%%%%%%%%%%%qQqQqQ%%%%%%%%%%%%qQ%%%%%%%qQ%%%%%%%%%
21215E2%%%%%%%%%%q%Q%%%%%qQ%%%%%qQ%qQ%%%%%%%%%%qQ%%%Qq%%qQ%q%Q%qQqQ%q%Q%%%%%
21200E2%%%%%%%qQ%qQ%%%%%%%%%%%%%%qQ%%%%%%%%%%%%%%%%%%%%%%qQ%%%%%%%%%%%%%%%%%
21184E2%%%%%%%%%%%%%%%%%%%%%%%%%%%%%%%%%%%%%%%%%%%%%%%%%%%%%%%%%%%%%%%%%%%%%
21168E2%%%%%%%%%%%%%%%%%%%%%%%%%%%%%%%%%%%%%%%%%%%%%%%%%%%%%%%%%%%%%%%%%%%%%
21152E2%%%%%%%%%%%%%%%%%qQ%%%%%%qQ%%%%%%%%%%%%%%%%%%%%%%%%%%%%%%%%%%%%%%%%%%
21136E2%%%%%%%%%%%%%%%%%%%%%%%%%%%%%%%%%%%%%%%%%%%%%%%%%%%%%%%%%%%%%%%%%%%%%
21121E2%%%%%%%%%%%%%%%%%%%%%%%%%%%%%%%%%%%%%%%%%%%%%%%%%%%%%%%%%%%%%%%%%%%%%
21105E2%%%%%%%%%%%%%%%%%%%%%%%%%%%%%%%%%%%%%%%%%%%%%%%%%%%%%%%%%%%%%%%%%%%%%
21089E2%%%qQQq%%Qq%%%%%%%%%%%%%%%%%%%%%%%%%%%%%%%%%%%%%%%%%%%%%%%%%%%%%%%%%%
21073E2%%%%%%%%%%%%%%%%%%%%%%%%%%%%%%%%%%%%%%%%%%%%%%%%%%%%%%%%%%%%%%%%%%%%%
21058E2%%%%%%%%%%%%%%%%%%%%%%%%%%%%%%%%%%%%%%%%%%%%%%%%%%%%%%%%%%%%%%%%%%%%%
21042E2%%%%%%%%%%%%%%%%%%%%%%%%%%%%%%%%%%%%%%%%%%%%%%%%%%%%%%QqQq%%%%%%%%%%%
21026E2%%%%%%%%%%%%%%%%%%%%%%%%%%%%%%%%%%%%%%%%%%%%%%%%%%%%%%%%%%%%%%%%%%%%%
21010E2%%%%%%%%%%%%%%%%%%%%%%Qq%%%%%%%%%%%%%%%%%%%%%%Qq%%%%%%%%%%%%%%%%%%%%%
20994E2%%%%%%%%%%%%%%%%%%%%%%%%%%%%%%%%%%%%%%%%%%%%%%%%%%%%%%%%%%%%%%%%%%%%%
20979E2%%%%%%%%%%%%%%%%%%%%%%%%Qq%Qq%%%%%Qj6J6%q%Qq%%%%%%Qq%%%%%%%%%%%%%%%%%
20963E2%%%%%%%Qq%QqQq%%Qq%%%%%%%%%%%%%%%%Qq%%%%%%%%%%%%%%%%%%%%%%%%%%%%%%%%%
20947E2%%%%%%%%%%%%%%%%%%%Qq%%Qq%%Q%q%Qq%Qq%%Qq%%%%%%%%%%%%%%%Qq%%%%%%%%%%%%
20932E2%%%%%%%%%%%%%%%%%%%%%%%%%%%%%%%%%%%%%%%Qq%%Qq%%%%%%%%%Q%q%%%Qq%%%%%Qq
20916E2%%%%%%%%%%%%%Q%q%%Qq%Q%q%%Qq%%%%%%%%%%%%%%%%%%%Q%qQq%%%Qq%%Qq%%%%%%%%
20900E2%%%%Qq%%%%%Qq%%%%%%Qq%%%%Q%qQq%%%%%Qq%QqQqQ%%%q%%Q%qQ%%qQq%Qq%Qq%Qq%%
20884E2%%%%Q%q%%Q%q%%Q%qQ%%q%%Q%%%%qQ%%%%%%q%Q%%%%%q%Q%%%%%%%%%%%%qQ%%qQ%%q%
20868E2Qq%%QqQ%qQq%%%QqQ%%%%%%%%%q%%Q%q%QqQqQqQ%%q%%Qq%Q%%%qQqQ%%%%%q%%QqQq%
20853E2%%%Q%%q%%Q%%%qQ%%%%%%%%%qQ%%%%%%qQq%QqQ%%%%%%%%%%%%%%%%%%%%%%%%%%qQ%%
20837F0qQqQ%%%%%%%%%%%%%%%%%%%%%%q%Q%%%%%%%%%%%%%%%%%%%%%%qQ%%%%%%qQ%%%%%%%%
20821F0%%%%%%%%%%%%%%%%%%%%%%%%%%%%%%%%qQ%%%%%%%%%%%%%%%%%%%%%%%%%%%%%%%%%%%
20805F0%%qQ%%%%%%%%%%%%%%%%qQ%%%%%%%qQ%%%%%%%%%%qQqQ%%%%%qQ%%%%%%%%%%%%%%%%%
20789F0%%%%%%%%%%%%%%%%%%%%%%%%%%%%%%%%%%%%%%%%%%%%%%%%%%%%%%%%%%%%%%%%%%%%%
20774F0%%%%%%%%%%%%%%%%%%%%%%%%%%%%%%%%%%%%%%%%%%%%%%%%%%%%%%%%%%%%%%%%%%%%%
20758F0%%%%%%%%%%%%%%%%%%%%%%%%%%%%%%%%%%%%%%%%%%%%%%%%%%%%%%%%%%%%%%%%%%%%%
20742F0%%%%%%%%%%%qQ%%qQ%%q%%QqQ%%j6J6%J6j6%Qq%%%qQ%Qq%%%%%%%%%%%%%%%%%%%%%%
20727F0%%%%%%%%%%%%%%%%%%%%%%%%%%%%%%%%%%%%%%%%%%%%%%%%%%%%%%%%%%%%%%%%%%%%%
20711F0%%%%%%%%%%%%%%%%%%%%%%%%%%%%%%%%%%%%%%%%%%%%%%%%%%%%%%%%%%%%%%%%%%%%%
20696F0%%%%%%%%%%%%%%%%%%%%%%%%%%%%%%%%%%%%%%%%%%%%%%%%%%%%%%%%%%%%%%%%%%%%%
20680F0%%%%%%%%%%%Q%q%%Qq%%%%%%%%%%%%%%%%%%%%%%%%%%%%%%%%%%%%%%%%%%%%%%%%%%%
20664F0%%%%%%%%%%%%%%%%%%%%%%%%%%%%%%%%%%%%%%%%%%%%%%%%%%%%%%%%%%%%%%%%%%%%%
20648F0%%%%%%%%%%%%%%%%%%%%%%%%%%%%%%%%%%%%%%%%%%%%%%%%%%%%%%%%%%Qq%%%%%%%%%
20632F0%%%%%%%%%%%%%%%%%%%%%%%%%%%%%%%%Qq%%%%%%%%%%%%%%%%%%%%%%%%%Q%q%Qq%%%%
20617F0%%%%%%%%%%%%%%%%%%%Qq%Qq%%%%%Qq%%%%%%%%%%%%%%%%%%%%%%%%%%%%%%%%%%%%%%
20601F0%%%%%%%%%%%%%%%%%%%%%%%%%%%%%%%%%%%%%%%%%%%%%%%%%%%Qq%%Q%%%%q%%%Q%%q%
20585F0Qq%Qq%%%%%%Q%qQ%q%%%%%%%Q%q%%%Qq%%%%%%%%Qq%%%%%%%QqQq%%%%%%%%%%%Qq%Q%
20569F8%q%QqQq%%Qq%%%%%%%%%%%%%Qq%QqQ%qQ%%%%%%%q%%%%%QqQqQ%qQq%%Q%%qQ%%%%%%%
20554F8qQ%%qQ%%q%Qq%Q%q%%Q%%%%%%%%%%%%q%%QqQ%qQqQ%q%%%%%%%%%%%%%Qq%QqQqQ%%%%
20538F8%%qQq%QqQq%%Q%%%qQqQ%%qQ%%qQ%%%%%%%%%%%%%qQ%%%%qQ%%%%%%%%%%%%qQqQ%qQ%
20522F8qQ%qQ%%%%%%%%%%%%%%%%%%%%%qQ%qQ%qQ%%%%%%%%%%%%%%%%%%%%%%%%qQ%%%%%qQ%%
20506F8qQ%%%%%%qQ%%%q%%%Q%%%%%%%qQqQ%%%%%%qQ%%%%%%qQ%%%%%qQ%%%qQ%%qQ%%%%%%%%
20490F8%%%%%%%%%%%%%%%%%%%%%%%%%%%%%%%%%%%%%%%%%%%%%%%%%%%%%%%%%%%%%%%%%%%%%
20475F8%%%%%%%%%qQ%qQ%%%%%%%%%%%%%%%%%%%%%%%%%%%%%%%%%%%%%%%%%%%%%%%%%%%%%%%
20459F8%%%%%%%%%%%%%%%%%%%%%%%%%%%%%%%%%%%%%%%%%%%%%%%%%%%%%%%%%%%%%%%%%%%%%
20443F8%%qQ%%%%%%%%%%%%%%%%%%%%%%%%%%%%%%%%%%%%%%%%%%%%%%%%%%%%%%%%%%%%%%%%%
20427F8%%%%%%%%%%%%%%%%%%%%%%%%%%%%%%%%%%%%%%%%%%%%%%%%%%%%%%%%%%%%%%%%%%%%%
20411F8%%%%%%%%%%%%%%%%%%%%%%%%%%%%%%%%%%%%%%%%%%%%%%%%%%%%%%%%%%%%%%%%%%%%%
20396F8%%%%%%%%%%%%%%%%%%%%%%%%%%%%%%%%%%%%%%%%%%%%%%Qq%%%%%%%%%%%%%%%%%%%%%
20380F8%%%%%%%%%%%%%%%%%%%%%%%%%%%%%%%%%%%%%%%%%%%%%%%%%%%%%%%%%%%%%%%%%%%%%
20364F8%%%%%%%%%%%%%%%%%%%%%%%%%%%%%%%%%%%%%%%%Qq%%%%%%%%%%%%%%%%%%%%%%%%%%%
20348F8%%%%%%%%%%%%%%%%%%%%%%%%%%%%%%Qq%%%%%%%%%%%%%%%%%%%Qq%%%%%%%%%%%%%%%%
20332F8%%%%%%%%%%%%%%%%%%%%%%%%%Qq%%%%%%%%%%%%%%%%%%%%%%Qq%%%%%%%%%%%%%%%%%%
20317F8%%%%%%%%%%%%%%%%%%%%%%%%%%Qq%%%Qq%Qq%%Q%qQ%%%qQ%%q%%QqQq%%%%%%%%%%%%%
20301F8%%%%%Qq%%%%%Q%%%%q%QqQq%Qq%%%%%QqQq%QqQqQqQq%%%%%%%%Q%q%Qq%Qq%%%%%QqQ
20285G6qQq%%%%%%Qq%%%%Q%q%%%%%Qq%%Qq%%Q%%qQqQq%Q%qQ%%%%%qQ%qQ%qQ%qQ%%%qQq%%%
20269F8%Q%%%%%%%Q%qq%qJ6%%%qQq%Qq%Q%qQq%Q%%%%%%%%%%%%%%%%%%%%%%%%%%%qQ%%%%%%
20254G6%%%%qQ%qQqQ%%%%%%%%%%%%%%%%%%%%%%%%%%%%%%%%%%%%%%%%%%qQ%qQqQ%%qQ%%q%Q
20238G6qQqQ%qQqQ%%%%%%%%%%%%%%%%%%%%%%%%%%%%%%%%%%%%%%%%%%%%%%%%%%%%%%%%%%%%
20222G6%%%%%%%%%%%%%%%%%%%%%%%%qQqQ%%%%%%%%%%%%%%%%%%%%%%%%%%%%%%%%%%%%%%%%%
20206G6%%%%%%%%%%%%%%%%%%%%%%%%%%%%%%%%%%%%%%%%%%%%%%%%%%%%%%%%%%%%%%%%%%%%%
20191G6%%%%%%%%%%%%%%%%%%%%%%%%%%%%%%%%%%%%%%%%%%%%%%%%%%%%%%%%%%%%%%%%%%%%%
20175G6%%%%%%%%%%%%%%%%%%%%%%%%%%%%%%%%%%%%%%%%%%%%%%%%%%%%%%%%%%%%%%%%%%%%%
20159G6%%%%%%%%%%%%%%%%%%%%%%%%%%%%%%%%%%%%%%%%%%%%%%%%%%%%%%%%%%%%%%%%%%%%%
20143G6%%%%%%%%%%%%%%%%%%%%%%%%%%%%%%%%%%%%%%%%%%%%%%%%%%%%%%%%%%%%%%%%%%%%%
20127G6%%%%%%%%%%%%%%%%%%%%%%%%%%%%%%%%%%%%%%%%%%%%%%%%%%%%%%%%%%%%%%%%%%%%%
20112G6%%%%%%%%%%%%%%%%%%%%%%%%%%%%%%%%%%%%%%%%%%%%%%%%%%%%%%%%%%%%%%%%%%%%%
20096G6%%%%%%%%%%%%%%%%%%Q%qQq%%%%QqQq%%%%%%%%%%%%%%%%%%%%%%%%%%%%%%%%%%%%Qq
20080G6%%%%%%%%Qq%%%%%%%%%%Qq%%%%Qq%%%%%%Qq%%%%%%%%%%%%%%%%%%%%%%%%%%%%%%%%%
20064G6%%%%%%Qq%%Qq%%%%%%%Qq%%%%%%%%%%%%%%%%%Q%q%Qq%%Q%%qQ%%%q%%%Qq%%%%%%%Qq
20048G6%%Qq%Q%%q%Qq%Q%q%Q%%%q%%%Qq%Qq%%%%QqQq%Q%%qQ%qQqQq%%Q%q%QqQq%Q%%qQqQ%
20033H4%q%%%%Q%%%%%%%%%%%%%%qQ%%%%q%%%Q%%q%%QqQ%%%qQq%Q%%%%%qQ%%%%%%%%qQ%%%q
20017G6Q%%%%%%%%%%qQ%%%%%%%%%%%%%%%%%%%%qQ%%%%%%%%%%%%%%%%%%%%%%qQ%%%%%%%%%%
20001H4%%%%%%%%%%%%%%%%%%%%%%%%%%%%%%%%%%%%%%%%%%%%%%%%%%%%%%%%%%%%%%%%%%%%%
19985H4%%%%%%%%%%%%%%%%%%%%%%%%%%%%%%%%%%%%%%%%%%%%%%%%%%%%%%%%%%%%%%%%%%%%%
19969H4%%%%%%%%%%%%%%%%%%%%%%%%%%%%%%%%%%%%%%%%%%%%%%%%%%%%%%%%%%%%%%%%%%%%%
19954H4%%%%%%%%%%%%%%%%%%%%%%%%%%%%%%%%%%%%%%%%%%%%%%%%%%%%%%%%%%%%%%%%%%%%%
19938H4%%%%%%%%%%%%%%%%%%%%%%%%%%%%%%%%%%%%%%%%%%%%%%%%%%%%%%%%%%%%%%%%%%%%%
19922H4%%%%%%%%%%%%%%%%%%%%%%%%%%%%%%%%%%%%%%%%%%%%%%%%%%%%%%%%%%%%%%%%%%%%%
19906H4%%%%%%%%%%%%%%%%%%%%%%%%%%%%%%%%%%%%%%%%%%%%%%%%%%%%%%%%%%%%%%%%%%%%%
19890H4%%%%%%%%Qq%%%%%%Qq%%%%%%%Qq%%%%%%%%%%%%%%%%%%%%%%%%%%%%%%%%%%%%%%%%%%
19875H4%%%%%%Qq%%%%%%%%%%%Qq%%%%%%%%%%Qq%%%Qq%%%Qq%%Qq%%Qq%%%%%Q%%qQ%qQ%%qQq
19859H4QqQ%qQqQ%%qQqQqQ%qQ%qQqQ%q%%%%%Q%%q%%Qq%%Qq%QqQqQq%%%%%%QqQ%%%%qQ%q%Q
19843I2%q%QqQ%%%%%%%%%%%%%qQ%%%%%%%%%qQ%%%%%%%%%%%qQ%%%%qQ%%%%%%%%%%%%qQ%%%%
19827I2%%%%%%%%%%%qQ%qQ%%qQ%%%%%q%%Qq%Q%%%%%%%%qQ%%q%Q%%%%%%%%%%%%%%%%%%%%%%
19811I2%%%%%%%%qQ%%%%%q%%Q%%%%%%%qQ%qQ%%%%%qQ%%%%%qQqJ6j6Qk4J6%%%%qJ6K4j6J6k4
19798I2q%Q%Q%j6Q%%%q%%Q%%%%%%%%%%%%%%%%%qQ%%%%qQ%%%%%%%%%%%%%%%%%%%%%%%%%%%%
19782I2%%%%%%%%%%%%%%%%%%%%%%%%%%%%%%%%%%%%%%%%%%%%%%%%%%%%%%%%%%%%%%%%%%%%%
19766I2%%%%%%%%%%%%%%%%%%%%%%%%%%%%%%%%%%%%%%%%%%%%%%%%%%%%%%%%%%%%%%%%%%%%%
19750I2%%%%%%%%%%%%%%%%%%%%%%%%%%%%%%%%%%%%%%%%%%%Qq%%%%%%%%%%%%%%%%%%%%%%%%
19735I2%%%%%%%%%%%%%%%%%%%%%%%%%%%%%%%%%%%%%%%%%%%%%%%%%%%%%%%%%%%%%%%%%%%%%
19719I2%%%Qq%%%%%%%%%%%%%%%%%%%%%%%%%%%%%Q%q%%%%%%%%%%%%%%%%%%%%%%%%%%%%Qq%%
19703I2Qq%%%%%%%%%%Qq%%%QqQqQq%%%%%Q%%q%%%%Q%%%%%%%%%%q%%%Q%%%qQ%%%qQ%q%Qq%Q
19687A00q%%%%%Q%q%%%%Q%q%%QqQqQ%%%%%qQq%%%Q%%%%%%qQ%%qQ%q%%%%%%Q%q%QqQ%%%%%%
19672A00%%qQ%qQqQ%%%%%%%%%%%%%%qQ%%%%%%%%%q%QqQqQ%qQ%%%%%%%%%%%%%%%qQ%%%%%%%
19656A00%%%%%%%%%%%%%%qQ%%q%Q%%%%%%%%%%%%%%%%%%%%%%%%%%%%%%%%%%%%%%%%%%%%%%%
19641A00%%%%%%%%%%%%%%%%%%%%%%%%%%%%%%%%%%%%%%%%%%%%%%%%%%%%%%%%%%%%%%%%%%%%
19625A00%%%%%%%%%%qQ%qQqQ%%%%%%%%%%%%%%%%%%%%%%%%%%%%%%%%%%%%%%%%%%%%%%%%%%%
19609A00%%%%%%%%%%%%%%%%%%%%%%%%%%%%%%%%%%%%%%%%%%%%%%%%%%%%%%%%%%%%%%%%%%%%
19594A00%%%%%%%%%%%%%%%%%%%%%%%%%%%%%%%%%%%%%%%%%%%%%%%%%%%%%%%%%%%%%%%%%%%%
19578A00%%%%%%%%%%%%%%%%%%%%%%%%%%%%%%%%%%%%%%%%%%%%%%%%%%%%%%%%%%%%%Qq%%%%Q
19563A08q%Qq%%%%%%%%%%%%%%%%%%%%%%Qq%%%%%%Qq%%%%%%%%%Qq%%%%%%Qq%%%%Qq%Qq%%%%
19547A00%%%%%%%%%Qq%%Qq%%%%%%%%%%%%Qq%%%%%%%%Qq%%%%%%%%%%%Qq%%Q%qQ%qQ%%%%%%%
19532A08%%%%q%Q%%%qQqQ%%%%%%%q%Q%q%%%QqQqQqQ%qQ%%q%%Qq%%Q%%%%qQ%%%%%%%%%%%%q
19516A00QqQ%%%%%%%%%%%%%%%%%%%%%%%%%%%%%%%%%%%%%%%%%%%qQq%Q%%%%%%%%%%%%%%qQ%
19500A08%%%%%%%%%%%%%qQ%%%%%%%%%%%%%%%%%%%%%%%%%%%%%%%%%%%%%%%%%%%%%%%%%%%%%
19485A08%%%%%%%%%%%%%%%%%%%%%%%%%%%%%%%%%%%%%%%%%%%%%%%%%%%%%%%%%%%%%%%%%%%%
19469A08%%%%%%%%%%%%%%%%%%%%%%%%%%%%%%%%%%%%%%%%%%%%%%%%%%%%%%%%%%%%%%%%%%%%
19454A08%%%%%%%%%%%%%%%%%%%%%%%%%%%%%%%%Qq%qQ%%%%%%%%%%%%%%%%%%%%%%%%%%%%%%%
19438A08%%%%%%%%%%%%%%%%%%%%%%%%%%%%%%%%%%%%%%%%Qq%%%%%%%%%%%%%%%%%%%%%%%%%%
19423A08%%%%%%%%%%%%%%%%%%%%%%%%Qq%%%%%%%Q%qQq%%Qq%%%%%%%%%%%%Q%q%%%Qq%Qq%%%
19407A08%Qq%%Q%%qQq%%%QqQ%%q%Qq%%%%Qq%Qq%QqQ%qQqQ%%%qQ%%%q%Q%%%q%Q%%%q%QqQ%q
19391A08%Q%%%q%%Q%%qQ%%%%%%%%%qQ%%%%%%%%%%%%%%%%%%%%%%%%%%q%Q%%%%%%%%%%%%%%%
19376A16%%%%%%%qQqQ%%%%%%%%%%%%%%%%%%%%%%%%%%%%%%%%%%%%%%%%%%%%%%%%%%%qQ%%%%
19360A16%%%%%%%%%%%%%%%%%%%%%%%%%%%%%%%%%%%%%%%%%%%%%%%%%%%%%%%%%%%%%%%%%%%%
19345A16%%%%%%%%%%%%%%%%%%%%%%%%%%%%%%%%%%%%%%%%%%%%%%%%%%%%%%%%%%%%%%Qj6%Qq
19329A08Q%qQ%%%%%QqQq%%%%%%%%%%%%%%%%%%%%%%%%%%%%%%%%%%%%%%%%%%%%%%%%%%%%%%%
19314A16%%%%%%%%%%%%%%%%%%%%%%%%%%%%%%%%%%%%%%%%%%%%%%%%%%%%%%%%%%%QqQq%%%%%
19298A16%%%%%%%%%%%%%%%%%%%%Qq%Qq%%%%%%%%%%%%%%%%%%%%%%Q%q%%Qq%Q%%%q%Qq%%%%%
19283A16%%Qq%%%%%%%%Qq%%Q%%%%%q%Q%q%Q%q%%%QqQ%%%%%%%%%%%%%qQ%%qQqQ%qQ%qQ%%%q
19267A16Q%%q%Q%%%%%qQ%%qQ%%%%%%%%%%%%%%%%%%%%%%%%%qQ%qQ%qQqQ%%%%%%%%%%%%%%%%
19252A24%%%%%%%%%%%%%%%%%%%%%%%%%%%%%%%%%%%%%%%%%%%%%%%%%%%%%%%%%%%%%%%%%%%%
19236A24%%%%%%%%%%%%%%%%%%%%%%%%%%%%%%%%%%%%%%%%%%%%%%%%%%%%%%%%%%%%%%%%%%%%
19221A24%%%%%%%%%%%%%%%%%%%%%%%%%%%%%%%%%%%%%%%%%%%%%%%%%%%%%%%%%%%%%%%%%%%%
19205A24%%%%%%%%%%%%%%%%%%%%%%%%%%%%%%%%%%%%%%%%%%%%%%%%%%%%%%%%%%%%%%%%%%%%
19189A24%%%%%%%%%%%%Qq%%%%%%%Qq%%%%Qq%QqQ%q%Qq%%Q%%%%qQ%%%%%%q%Q%q%%%%%Q%%%%
19174A32%%qQ%%%%%%%%qQq%%Qq%%%Qq%QqQ%%%%%%%%%%%%%qQ%%%%%%%%%%%%%%%%%q%%Q%qQq
19158A24QqQ%qQ%q%Q%qQ%q%Q%qQ%qQqQ%%%%%%%%%%%%%%%%%%%%%%%%%%%%%%%%%%%%%%%%%%%
19143A32%%%%%%%%%%%%%%%%%%%%%%%%%%%%%%%%%%%%%%%%%%%%%%%%%%%%%%%%%%%%%%%%%%%%
19127A32%%%%%%%%%%%%%%%%%%%%%%%%%%%%%%%%%%%%%%%%%%%%%%%%%%%%%%%%%%%%%%%%%%%%
19112A32%%%%%%%%%%%%%%%%%%%%%%%%%%%%%%%%%%%%%%%%%%%%%%%%%%%%%%%%%%%%%%%%%%Qq
19096A32%Qq%%%%%%Qq%%%%%%%%%%%%%%%%%%%%%%%%%Qq%%%%Qq%%%%%%%QqQq%%Qq%Qq%Qq%%%
19080A32%%%%%%%%%%%Qq%Q%%%%%%qQ%q%Q%qQ%%q%Q%q%Q%%%%qQ%%%qQ%qQ%%%qQ%%%%%qQ%%%
19065A40%%%q%Q%%%%%%%%%%%%%%%%%%%%%%%%%%%%%%%%%%%%%qQ%%%%qQ%%%%%%%%%%%%%%%%%
19049A40%%%%%%%%%%%%%%%%%%%%%%%%%%%%%%%%%%%%%%%%%%%%%%%%%%%%%%%%%%%qQ%%%%%%%
19034A40qQ%%%%%%%%%%%%%%%%%%%%%%%%%%%%%%%%%%%%%%%%%%%%%%%%%%%%%%%%%%%%%%%%%%
19018A40%%%%%%%%%%%%%%%%%%%%%%%%%%%%%%%%%%%%%%%%%%%QqQqQ%q%%%%%%%%%%%%%%%%%%
19003A40%%%%%%%%Qq%QqQq%%%%%%%Q%%qQq%%%%QqQq%%%%%%%%Q%q%%%%%Qq%%%Q%q%Q%qQ%%%
18987A48%%q%%Q%%%%%%%%qQ%%%%%qQq%%%%Q%q%%Q%%q%QqQq%Q%%%%%qQ%%%%%%%%%%%%%%%%%
18971A48%%%%%%%%%%%%%%%%%%%%%%%%%%%%%%%%%%qQ%%%%%%%%%%%%%%%%%%%%%%%%%%%%%%%%
18956A48%%%%%%%%%%%%%%%%%%%%%%%%%%%%%%%%%%%%%%%%%%%%%%%%%%%%%%%%%%%%%%%%%%%%
18940A48%%%%%%%%%%%%%%%%%%%%%%%%%%%%%%%%%%%%%%%%%%%%%%%%%%%%%%%%%%%%%%%%%%%%
18925A48%%%%%%%%%%%%%%Qq%%%%Qq%%Q%q%%%%Qq%Qq%%%%%%%%%%%%%%%%%%%%%Qq%%%%Qq%%%
18909A48%%Qq%%%%Qq%Qq%Qq%QqQ%%%%%%%%q%%%QqQ%%%q%QqQ%qQ%%%%%q%Q%%%%%q%Q%qQqQ%
18894A56%%%%%%%%%%%qQ%%qQ%%%%%%%%%%%%%%%%%%%%%%%%%%%%%%%%%%%%%%%%%%%%%%%%%%%
18878A56%%%%%%%%%%%%%%%%%%%%%%%%%%%%%%%%%%%%%%%%%%%%%%%%%%%%%%%%%%%%%%%%%qQq
18863A48QqQJ6j6q%J6Qj6QqqJ6%q%%QqQq%%%%%%Qq%%%%%%%%%%%%%%Qq%Qq%%%%%%%%%%%%%%
18848A56%%%%%%%%%%%%%Qq%%%%%%%%%%%%%%%%%%Q%q%Qq%%Q%%q%%%%Q%qQ%qQ%%%%qQq%%Q%q
18833A56%%%QqQ%%qQ%q%%%%QqQ%%%%%qQ%%%%%qQ%%%%%%%%%%%%%%%%%%qQ%%%%%%%%%%%%%%%
18817A64%%%%%%%%%%%%%%%%%%%%%%%%%%%%%%%%%%%%%%%%%%%%%%%%%%%%%%%%%%%%%%%%%%%%
18801A64%%%%%%%%%%%%%%%%%%%%%%%%%%%%%%%%%%%%%%%%%%%%%%%%%%%%%%%%%%%%%%%%%%%%
18786A64%%%%%%%%%%%%%%%%%%%%%%%%%%%%%%%%%%%%%%%%%%%%%%%%%%%%Qq%%%%%%Q%q%%%%%
18770A64%%%%%Qq%%QqQq%%%%%%%%%%%%%%%%%%%QqQq%Qq%%%%%QqQ%%qQ%qQ%%q%Qq%Q%%%%%%
18755A72%%%%%%%%%%%%%%%%%qQ%%%%%%%%%%%%%%%%%%%%%%%%%%Qj6Q%%%qQ%%%%%%%%%%%%%%
18739A72%%%%%%%%%%%%%%%%%%%%%%%%%%%%%%%%%%%%%%%%%%%%%%%%%%%%%%%%%%%%%%%%%%%%
18724A72%%%%%%%%%%%%%%%%%%%%%%%%%%%%%%%%%%%%%Qq%%%%%Qq%%%%%%%%%Qq%%%%%%%%%%Q
18708A80%q%%%%Qq%%%QqQ%qQ%%%%%%q%%Qq%%%Qq%QqQqQqQqQ%q%Qq%%Q%%q%%Qq%%Q%%%%%%%
18693A80qQ%%%%%%%%%%%%%%%%%%%qQ%%%%%%%%%%qQ%%%%%%%%%%%%%%%%%%%%%%%%%%%%%%%%%
18677A80%%%%%%%%%%%%%%%%%%%%%%%%%%%%%%%%%%%%%%%%%%%%%%%%%%%%%%%%%%%%%%%%%%%%
18662A80%%%%%%%%%%%%%%%%%%%Qq%%Qq%%%%%%%%%%%%%%Qq%%%%%%%%%%%%%%%%%%%%%%%%%%%
18646A80Qq%%%%%%%%%%Q%qQqQ%qQq%%%%%Q%%q%Qq%%Q%%%q%QqQqQq%Q%%%qQq%QqQ%q%%Q%%%
18630A88%%%%%%%q%Q%qQ%qQqQ%%q%Q%qQ%%%%%%%%%%%%%%%%%%%%%%%%%%%%%%%%%%%%%%%%%%
18615A88%%%%%%%%%%%%%%%%%%%%%%%%%%%%%%%%%%%%%%%%%%%%%%%%%%%%%%%%%%%%%%%%%%%%
18599A88%%%%%%%%%%%%%%%%%%%%%%%%%Qq%%%%%%%%%Q%qQq%%%%%%%%%%Qq%%Q%q%QqQ%%%%%%
18584A96%%%%%%qQ%%%%%%%%%%%%%%%%%%%%%%%%%%%%%%%%%%%%%%%%%%%%%%%%%%%%%%%%%%%%
18568A96%%%%%%%%qQ%%%%%%%%%%%%%%%%%%%%%%%%%%%%%%%%%%%%%%%%%%%%%%%%%%%%%%%%%%
18553A96%%%%%%%%%%%%%%%%%%%%%%%%%%%%%%%%%%%%%%%%%%%%%%%%%Qq%%%%%QqQqQq%%%%%%
18537A96%%%%%QqQq%%%Qq%%%QqQ%qQqQ%%%%qQqQ%%%%qQq%Q%%%%%%%%%%%%%%%q%%Q%%%%qQ%
18521B04%%%%%%%%%%%%%%%%%%%%%%%%%%%%%%%%%%%%%%%%%%%%%%%%%%%QqQq%%qQ%%%%%%%%%
18506B04%%%%%%%%%%%%%%%%%%%%%%%%%%%%%%%%%%%%%%%%%%%%%%%%%%%%%%%%%%%%%%%%%Qq%
18490B04Qq%Q%q%Q%%q%%%Q%%%%q%Q%%%%%%%%%%%%%%%%%%%%%%%%qQ%qQ%%%%qQ%%qQ%%%%%%%
18475B12%%%%%%%%%%%%%%%%%%%%%%%%%%%%%%%%%%%%%%%%%%%%%%%%%%%%%%%%%%%%%%%%%%%%
18459B12%%%%%%%%%%%%%%%%%%%%%%%%%%%%%%%%%%%%%%%%%%%%%%%%%%%%%%%%%%%%%%%%%%%%
18444B12%QqQq%QqQq%%QqQ%q%%%%%%%%%%%%Q%qQq%Q%%%%%%qQ%%%q%%%QqQ%%%%%qQ%%q%QqQ
18428B20%qQ%%%%%%%%%%%%%%%%%%%%%%%%%%%%%%%%%%%%%%%%%%%%%%%%%%%%%%%%%%%%%%%%%
18413B20%%%%%%%%%%%%%%%%%%%%%%%%%%%%%%%%%%%%%%%%%%%%%%%Qq%%%%%%%%%%%%%%%%%%%
18397B20%%%%%%Q%q%%%%QqQj6Q%%QqJ6qqQqQ%q%Q%%%%%%%%%%%q%Q%%%%%%%%%%%%%%%%%%%%
18382B28%%%%%%%%%%%%%%%%%%%%%%%%%%%%%%%%%%%%%%%%%%%%%%%%%%%%%%%%%%%%%%%%%%%%
18366B28%%%%%%%%%%%%%Qq%%Qq%%%%%%Qq%%%%%%%%%%%%%%%%%%%Qq%%%%%Q%q%%%%%%%QqQ%q
18351B28QqQ%%%q%Qq%Q%%%%%%%%qQqQ%%%%%%%%%%%%%%%%%%%%%%%%%%%%%%%%%%%%%%%%%%%%
18335B36%%%%%%%%%%%%%%%%%%%%%%%%%%%%%%%%%%%%%%%%%%%%%%%%%%%%%%%%%%%%%%%%%%%%
18320B36%%%%%%%%%%%%%%%%%%%%%%%%%Qq%Q%%qQqQ%%%%%%%%%%%%qQ%%%%%%%%%%%%%%%%qQ%
18304B44%qQ%%%%%%%%%%%%%%%%%%%%%%%%%%%%%%%%%%%%%%%%%%%%%%%%%%%%%%%%%%%%%%%%%
18288B44%%%%%%%%%%%%%%%%%%%%%%%%%Q%%qQq%Qq%%%%%%Qq%%%%%%%QqQq%Q%%%%qQqQq%%%Q
18273B52qQ%%%%qQ%%qQ%%%%%%%qQq%Q%%%%%%%%%%%%%%%%%%%%%%%%%%%%%%%%%%%%%%%%%%%%
18257B52%%%%%%%%%%%%%%%%%%%%%%%%%%%%%%%%%%%%%%%%%%%%%%%%%%%%Q%qQ%q%%%%%%%%%%
18242B52%%%%Qq%%%%%%%%%QqQq%%%Qq%%%%QqQ%%%%%%qQ%%%qQ%%qQ%%%%%%%%%%%%%%%%%%%%
18226B60%%%%%%%%%%%%%%%%%%%%%%%%%%%%%%%%%%%%%%%%%%%%Qq%%%%%%%%%%%%%%%%%%%%%%
18211B60%%%%%%%%%Qq%%%%%%%Q%qQ%%%%qQ%%qQ%%%%%%%%%%%%%%%%%%%%%%%%%%%%%%%%%%%%
18195B68%%%%%%%%%%%%%%%%%%%%%%%%%%%%%%%%%%%%%%%%%%%%%%%%%%%%%%%%%%%%%%%%%%%%
18180B68%%%%%%%%%%%%%%%%Q%q%%Qq%%%%Qq%%%%%%QqQqQ%qQ%%q%%%%Q%%%%%%%%qQ%%%%%%%
18164B76%%%qQ%%%%%%%%%%%%%%%%%qQ%%%%%Qq%%%%%%%%%%%%%%%%%%%%%%%%%%%%%%%%%%%%%
18148B76%%%%%%%%%%%%%%%%%%%%%Q%%%%qQq%Qq%Qq%Q%%%%%qQ%%%%%%%%%%%%qQ%%%%%%%%%%
18133B84%%%%%%%%%%%%%%%%%%%%%qQ%%%%%%%%%%%%%%%%%%%%%%%%%%%%%%%%%%%%%%%%%%%%%
18117B84%%%%%%%%%%%%%%QqQq%Q%%%%%%%%qQ%qQ%%%%%%%%%%%qQ%%%%%%%%%%%%%%%%%%%%%%
18102B92%%%%%%%%%%%%qQ%%%%%%%%%%%%%%%%%%%%%%%%%%%%%%%%%%%%%%%%%%%%%%%%%%%%Qq
18086B92%Q%%qQq%%%%%%%%%%%%%Q%qQqQ%%%%%%%%%%%%%%%%%%%%%%%%%%%%%%%%%%%%%%%%%%
18071C00%%%%%%%%%%%%%%%%%%%%%%%%%%%%%%%%%%%%%%%%%%%%%%%%Q%q%Qq%%Q%%q%Q%qQq%%
18055C00%Q%%%%%%%qQ%%%%qQ%%%%%%%%%%%%%%%%%%%%%%%%%%%%%%%%%%%%%%%%%%%%%%%qJ6q
18040C08%%%%%%%%%%%%%%%%%%%%%%%%%%Qq%%%%%%%%Qq%QqQq%%%%Q%%%%%q%Q%qQqQqQ%%%%%
18024C16%%%%%%%%%%%%%%%%%%%%%%%%%%%%%%%%%%%%%%%%%%%%%%%%%%%%%%%%Q%q%%%%%%Qq%
18009C16%Qq%%Qq%%%%%Q%qQq%%%%%Qq%%%QqQ%%%%%%%%%%%%%%%%%%%%%%%%%%%%%%%%%%%%%%
17993C24%%%%%%%%%%%%%%%%%%%%%%%%%%%%%%%%%%%%%%%%%%%%%%%Qq%%Qq%%%Q%%q%%%%%%%Q
17977C32%q%%Q%%%%qQ%%%%%%%%%%%%%%%%%%%%%%%%%%%%%%%%%%%%%%%%%%%%%%%%%%%%%%%%%
17962C32%%%QqQq%%%%QqQ%q%%%%%QqQ%qQ%%%%%%qQ%qQ%%%qQ%%qQ%%%%%%%%%%%%%%%%%%%%%
17946C40%%%%%%%%%%%%%%%%%%%%%%%%%%%%%%%%%%%%%%%Qq%%%%%%%%%Qq%%%QqQ%%%%%%%%%%
17931C48%%%%qQ%qQqQ%%%qQ%Q%q%%Qj6QqJ6j6QqK4k4Q%%Qj6QqQqQ%Qj6Q%%%%%Qq%%%%%%%%
17917C48%%%%%%%%%%%Q%%q%Q%q%%Q%%%qQqQ%%%%%%%%%%%%%%%%%%%%%%%%%%%%%%%%%%%%%%%
17901C56%%%%%%%%%%%%%%%%%%%%%%%%%%Qq%QqQq%%Q%q%Q%qQqQ%%qQ%q%Q%%%%%%%%%%%%%%%
17886C64%%%%%%%%%%%%%%%%%%%%%%%%%%%%%%%%%%%%%%%%%%%%%%%%%%%%%%%Qq%%%%%%%%%%Q
17870C72%%%%%%%%%%%%%%%%%%qQ%%%%%%%%%%%%%%%%%%%%%%%%%%%%%%%%%%%%%%%%%%%%%%%%
17855C72%Q%q%%QqQq%%%%%Qq%%%Q%%%%qQ%%%%qQ%%%%%%%%%%%%%%%%%%%%%%%%%%%%%%%%%%%
17839C80%%%%%%%%%%%%%%%%%%%%%%%Qq%%%%%%QqQqQ%%%%%%%%%%%%%%%%%%%%%%%%%%%%%%%%
17823C88%%%%%%%%%%%%%%%%%%%%%%%%%%%%Q%q%Qq%%Qq%%%%%QqQ%%qQ%%%%%%%%%%%%%%%%%%
17808C96%%%qQ%%%%%Qq%%%%%%%%%%%%%%%%%%%%%%%%%%%%%%%%%%%%%%%%%%Q%q%QqQqQ%qQ%%
17792D04%%%qQ%%%%%%%%%%%%%%%%%%%%%%%%%%%%%%%%%%%%%%%%%%%%%%%%%%%%%Q%%q%%Q%qQ
17777D12%%%%%%%%%%%%%%%%%%%%%%%%%%%%%%%%%%%%%%%%%%%%%%%%%%%%%%%%%%%%%%%%QqQq
17761D12Q%%%q%Q%%%%%%%%%%%%%%%%%%%%%%%%%%%%%%%%%%%%%%%%%%%%%%%%%Qq%%%%Qq%Q%q
17746D20Q%%%%%%qQ%qQ%%%%%%%%%%%%%%%%%%%%%%%%%%%%%%%%%%%%%%%%%%%%%%%%%%%%%%Qq
17730D28%%Q%%%%%%%%%%%%%%%%%%%%%%%%%%%%%%%%%%%%%%%%%%%%%%%%%%%%%%%%%%%%%%%%%
17714D36%%%Qq%Q%qQ%%%%%%%%%%%%%%%%%%%%%%%%%%%%%%%%%%%%%%%%%%%%%%%%%%%%%%%%%%
17699D44Qq%Q%qQ%%q%Q%%%%%%%%%%%%%%%%%%%%%%%%%%%%%%%qJ6q%%%%%%%%Q%q%%%Q%%qQqQ
17684D60%%%qQ%%%%%%%%%%%%%%%%%%%%%%%%%%%%%%%%%%%%%%%%%%%%%%%%Q%q%%%Q%qQ%%%%%
17668D68%%%%%%%%%%%%%%%%%%%%%%%%%%%%%%%%%%%%%%Qq%%%%%%%%%%%%Q%%%%%%%%%%%%%%%
17652D76%%%%%%%%%%%%%%%%%%%%%%%%%%%%%%%Qq%%%%%%%Qq%%%%%%Qq%Q%%%%%%%%%%%%%%%%
17637D84%%%%%%%%%%%%%%%%%%%%%%%%%%Qq%Q%%q%Q%qQ%%qQ%%%%%%%%%%%%%%%%%%%%%%%%%%
17621D92%%%%%%%%%%%%%%%%%%%%Qq%Q%%%%%%%%%%%%%%%%%%%%%%%%%%%%%%%%%%%%%%%%%%%%
17606E00%%%%%%%%%%%%%%Qq%%%Q%%%%%%%%%%%%%%%%%%%%%%%%%%%%%%%%%%%%%%%%%%%%%%%Q
17590E16%%%%qQ%q%Q%%%%%%%%%%%%%%%%%%%%%%%%%%%%%%%%Q%qQ%q%Q%%%%%%%%%%%%%%%%%%
17575E24%%%%%%%%%%q%%Q%%%%%%QqQq%%%%Q%%%qQ%%%qQ%%%%%%%%%%%%%%%%%%%%%%%%%%%%%
17559E32%%%%%%%%QqQ%qQ%%%qQ%%%%%%%%%%%%%%%%%%%%%%%%%%%%%%%%%%%%%%%%QqQ%q%%Q%
17543E48%%q%%%Q%%%%%%%%%%%%%%%%%%%%%%%%%%%%%%%%%QqQqQ%%qQ%%%%%%%%%%%%%%%%%%%
17528E56%%%%%%%%%%%%%%%%%%%%%%%%Q%%%%%%%%%%%%%%%%%%%%%%%%%%%%%%%%%%%%%Qq%%%Q
17512E72q%%%%%Q%%%%%%%%%%%%%%%%%%%%%%%%%%%%%%%%%%%%%%%%%Q%%%qQ%%%%%%%%%%%%%%
17497E80%%%%%%%%%%%%%%%%%%%%Qq%Qq%%QqQ%%%%%%%%%%%%%%%%%%%%%%%%%%%%%%%%Q%qQqQ
17481E96%%%q%Q%%%%%%%%%%%%%%%%%%%%%%%%%%%%%%QqQqQ%%%%%%%%%%%%%%%%%%%%%%%%%%%
17466F04%Qq%%%%%Q%%qQ%%%%%%%%%%%%%%%%%%%%%%%%%Q%q%%Qq%Qq%Q%qQ%%%%%qQqQqQ%%%%
17450F20%%%%%%%%%%%%%%%%%%%%%%%%%QqQ%%%%%%%%%%%%%%%%%%%%%%%%%%%%%%%%Qq%Q%%%%
17435F36%%%%%%%%%%%%%%%%%%%%%%%%%%%%%%%%%%%%%%Q%q%Q%qQ%%%%%%%%%%%%%%%%%%%%%%
17419F44%%%Q%%%%%%%%%%%%%%%%%%%%%%%%%%%%%%%%%%%Q%%%%%%%%%%%%%%%%%%%%%%%%%%%%
17403F60%%%%%Qq%Q%%%%%%%%%%%%%%%%%%%%%Qq%QqQ%q%%%%QqQ%%%%%%%%%%%%%%%%%%%%%%%
17388F76%%%%%%%%%Q%qQ%%%%%%%%%%%%%%%%%%%%%%%%%%%%%%Q%%%qQq%Q%%%%%%%%%%%%%%%%
17372F92%%%%%%%%QqQ%%%%%%%%q%Q%%%%%%%%%%%%%%%%Q%%%%%%%%%%%%%%%%%%%%%%%%%%%%%
17357G08%%%%%%%Q%%%%%%%%%%%%qQ%%%%%%%%%%%%%Qq%%Q%%%%%%%%%%%%%%%%%%%%%%%%%%%%
17341G24%Qq%%%Q%%q%Q%qQ%%%%%%%%%%%%%%%QqQ%%%%%%%%%%%%%%%%%%%%%%%%%%%%%%%%%%%
17326G40%%Q%%%%%%%%%%%%%%%%%%%%%%Q%q%%%Q%%%%%%%%%%%%%%%%%%%%%%%%%Q%%qQ%%%%%%
17310G64%%%%%%%%%%%%%%%%%QqQ%%%%%%%%%%%%%%%%%%%%%%%Qq%Q%%%%%%%%%%%%%%%%%%%%%
17294G80%%%%%Q%%%%qQ%%%%%%%%%%%%%%%%%Qq%%Q%%%%%%%%%%%%%%%%%%%%%%%%%%%Q%%%%%%
17279H04qQ%%%%%%%%%%%%%%Qq%Q%%%%%%%%%%%%%%%%%%%%%%%Q%%%qQ%%%%%%%%%%%%%%%%%%%
17263H20%%%%%%Q%%%%%%%%%%%%%%%%%%%%%%QqQ%%%%%%%%%%%%%%%%%%%Qq%%QqQ%%%%%%%%%%
17248H44%%%%%%%Qq%%%%Q%%qQ%%%%%%%%%%%%%%%%%%%%%%%Q%%%%%%%%%%%%%%%%%%%%%Q%%%%
17232H68%%%%%%%%%%%%%%%%%%%%Q%%%%%%%%%%%%%%%%%%%Q%%%qQ%QqqQ%%%%Qq%%%%%%Q%q%Q
17217H92%%%%%%%%%%%%%%%%%Qq%%Q%%%%%%%%%%%%%%%%%%%QqQq%QqQ%%%%%%%%%%%%%Q%%%%q
17201I08%Q%%%%%%%%%%%%%%%%Q%%%%%%%%%%%%%%%%%%%%QqQqQ%%%%%%%%%%%%%%QqQ%%%%%%%
17186I40%%%%%%%%%%%%%%Q%%%%%%%%%%%%%%%%%%%%%%Qq%Q%%%%%%%%%%%%%%%%%Q%%%%%%%%%
17170I64%%%%%%%QqQqQ%%%%%%%%%%%%%%%%QqQq%Q%%%%%%%%%%%%Q%q%QqQ%%%%%%%%%%%%%%Q
17154I96qQ%%%%%%%%%%%%%%%%%%Q%%%%%%%%%%%%%%%Q%%%q%Q%%%%%%%%%%%%%%%%Q%%%%%%%%
17139A020%%%%%%%%%%Q%%%%%%%%%%%%%%%%Qq%Q%%%%%%%%%%%%%%%QqQ%%%%%%%%%%%%%%%%%%
17123A044Q%%%%%%%%%%%%%%Q%%%%%%%%%%%%%%%%%QqQ%%%%%%%%%%%%%QqQqQ%%%%%%%%%Qq%%
17108A076Q%%%%%%%%%%%Qq%%%Qq%%Q%%%qQ%%%%Qq%%Q%qQ%%%%%%%%%%QqQ%%%%%%%%%%%%%%%
17093A108QqQ%%%%%%%%%%%%%%QqQ%%%%%%%%%%%%Q%%%%%%%%%%%%%%%%Q%%%%%%%%%%%%%%%%%
17077A140%Q%%%%%%%%%%%%Qq%Q%%%%%%%%%%%Qq%Q%%%%%%%%%%%Q%%qQ%%%%%%%%%%%Q%%%%%%
17062A180%%%%%%%%%Q%%%%%%%%%%QqQqQ%%%%%%%%%%%%%Q%%%%%%%%%%%%%Q%%%%%%%%%%%%Qq
17047A212Q%%%%%%%%%%Q%qQ%%%%%%%%%%%%Q%%%%%%%%%%%%Qq%Q%%%%%%%%%%%%QqQ%%%%%%%%
17031A252%%%%Q%%%%%%%%%%%%%%Q%%%%%%%%%%%%Q%%%%%%%%%%%%Q%%%%%%%%%%%%Q%%%%%%%%
17016A292%%%%%Q%%%%%%%%%%%Q%%%%%%%%%%%%Q%%%%%%%%%%%%%Q%%%%%%%%%%%Q%%%%%%%%%%
17001A332%Q%%%%%%%%%%%%Q%%%%%%%%%%%Q%%%%%%%%%%Q%%%%%%%%%%%%Q%%%qQq%Q%Q%%QqQ%
16985A388qQqQQj6Qj6Q%Q%%%Qq%Qq%%%Q%%%%%%%Q%%%%%%%%Qq%%Q%%%%%%%%%%Q%%%%%%%%Q%
16971A428%%%%%%%%%%%Q%%%%%%%%%%%Q%%%%%%%QqQ%%%%%%%%%%Q%%%%%%%%%%QqQ%%%%%%%Qq
16955A468Q%%%%%%%%Q%%%%%%%%%%%Q%%%%%%%%%%Q%%%%%%%%%Q%%%%%%%Q%%%%%%%%QqQqQ%%%
16940A524%%%%%%Q%%%%%%%%%Q%%%%%%%Q%%%%%%%%%%%Q%%%%%%%%%%Q%%%%%%Q%qQ%%%%%%%Q%
16925A580%%%%%%%QqQ%%%%%%%%Q%qQ%%%%%QqQ%%%%%%%%Q%%%%%%%%Q%%%%%QqQ%%%%%%%%%Q%
16909A636%%%%%%%Q%%%%%%%QqQ%%%%%%%Q%%%%%%%%Q%%%%%%%Qq%%Q%%%%%Q%%%%%%%%%%Q%%%
16894A692%%Q%%%%%%%%Q%%%%%%%%%Q%%%%%Q%%%%%%%%%Q%%%%%%%%Q%%%%%%Q%%%%%%%%%Q%%%
16879A756%%%%Q%%%%%%%%Q%%%%%%Q%%%%%%Q%%%%%%%QqQ%%%%QqQqQ%%%%QqQqQ%%%%Q%%%%%%
16863A820Q%%%%%%%Q%%%%%%%%Q%%%%%%Q%%%%%%%Q%%%%%QqQ%%%%%%Q%%%%%%QqQ%%%%%Q%%%%
16848A892%%Q%%%%%%Q%%%%%%%%Q%%%%%Q%%%%%%Q%%%%%%Q%%%%%%Q%%%%%Q%%%%%%%Q%%%%%%%
16833A964Q%%%%%%Q%%%%%%%Q%%%%%Q%%%%%Q%%%%%%%Q%%%%%Q%%%%%Q%%%%%%Q%%%%%%Q%%%%%
16817B044Q%%%%%%Q%%%%%%Q%%%QqQ%%%%%%Q%%%Q%%qQ%%%Q%%%%%%Q%%%%%Q%%%%Q%%%%%%%Q%
16802B132%%%%Q%%%%%Q%%%%%Q%%%%%%Q%%%QqQ%%%%Q%%%%%%Q%%%%%Q%%%%Q%%%%%%Q%%%%%Q%
16787B220%%Q%%%%Q%%%%%%%Q%%%%Q%%%%Q%%%%%Q%%%%%Q%%%%Q%%%%%Q%%%%%Q%%%%Q%%%%Q%%
16771B316%%%Q%%%%Q%%%%%Q%%%%%%Q%Qq%Q%%%Q%%%%%Q%%QqQ%%%%Q%%%%Q%%%Q%%%%%Q%%%%Q
16756B420%%%QqQ%%%%%Q%%%Q%%%%%%Q%Q%%%%%%Q%%%Q%%%%Q%%%Q%%%%Q%%%%%Q%%%%Q%%%Q%%
16741B524%%Q%%%%Q%%%%Q%%%%Q%%Q%%%%%Q%%%Q%%%Q%%%%%%Q%%Q%%%%%Q%%Q%%%%Q%%%%Q%%%
16725B636Q%%%%Q%%%Q%%%Q%%%%Q%%%Q%%%%Q%%Q%%%Q%%%Q%%%%Q%%%Q%%%%Q%%%Q%%%Q%%%%Q%
16710B764%Q%%%%Q%%%Q%%%Q%%%Q%%%Q%%%Q%%%%Q%%%Q%%Q%%%%Q%%%Q%%%Q%%%Q%%%Q%%Q%%%%
16695B892Q%%Q%%%Q%%%%Q%QqQ%%Q%%%%Q%%Q%%Q%%%Q%%%Q%%%Q%%Q%%%Q%%Q%%%Q%%%Q%%%Q%%
16679C036Q%%%Q%%%Q%%Q%%Q%%%Q%%%Q%%%Q%%Q%%%Q%%Q%%Q%%%Q%%%Q%%Q%%%Q%%Q%%Q%%%Q%%
16664C188%Q%%Q%%Q%%Q%%%Q%%Q%%Q%%Q%%%Q%%Q%%Q%%Q%%%Q%Q%%%Q%%Q%%%Q%%Q%%Q%QqQ%Q%
16649C356%Q%%Q%%Q%%Q%%%Q%%Q%%Q%%Q%%Q%Q%%%Q%%Q%%Q%%Q%%%Q%Q%%Q%%Q%%Q%%Q%Q%qJ6%
16633C532%Q%%%Q%%QQ%%%Q%Q%%Q%%%Q%Q%%Q%Q%%Q%%Q%%Q%%Q%%Q%Q%%Q%%Q%%Q%Q%%Q%Q%%Q%
16618C724%Q%Q%%Q%%Q%Q%%Q%%Q%Q%%Q%Q%%Q%%Q%Q%%Q%Q%%Q%%Q%Q%%Q%%QQ%%Q%%Q%Q%Q%%Q%
16603C932%Q%Q%%Q%Q%%Q%Q%%Q%Q%Q%%Q%Q%%Q%Q%Q%%Q%Q%%QQ%%Q%%QQ%%%QQ%%Q%Q%Q%%Q%Q%
16587D156Q%Q%%Q%Q%Q%Q%%Q%Q%Q%Q%Q%Q%%Q%Q%Q%Q%%QQ%Q%%Q%Q%Q%%Q%Q%Q%Q%Q%Q%Q%Q%Q%
16572D404%Q%QQ%Q%Q%%Q%Q%Q%Q%Q%Q%Q%Q%Q%Q%Q%Q%Q%Q%Q%Q%Q%Q%QQ%%Q%Q%QQ%Q%Q%Q%Q%Q
16557D676%Q%Q%QQ%Q%Q%Q%Q%Q%QQ%Q%Q%Q%Q%QQ%Q%Q%Q%Q%Q%QQ%Q%Q%QQ%Q%Q%Q%QQ%Q%QQ%Q
16541D972%Q%QQ%Q%Q%QQ%Q%QQ%QQ%Q%Q%QQ%Q%QQ%Q%QQ%Q%QQ%Q%QQ%Q%QQ%QQ%QQ%Q%QQ%Q%Q
16526E292Q%QQQ%Q%Q%QQQ%Q%QQ%QQ%QQ%QQ%Q%QQQ%QQ%QQqJ6Q%QQ%Q%QQQ%QQQ%QQ%%J6%QQ%
16511E636QQ%QQ%QQQ%QQ%QQQ%QQ%QQQ%QQQ%QQQ%QQ%QQ%QQQQ%QQ%QQQ%QQQQ%QQ%QQQQ%QQ%Q
16496F028QQQQ%QQ%QQQQ%J6%QQ%QQQQ%QQQQ%QQQ%QQQQQQ%QQQQ%QQQQQ%QQQQQ%QQQQQQ%QQQ
16481F460Q%QQQQQQQQ%QQQQQQ%J6%QQQQQQ%QQQQQQQQ%QQQQQQQQQQQ%J6%QQQQQQQQQQQ%J6%
16466F916QQQQQQQQQQQQQQQQQQQQQQQQQQQQQ%J6Q%QQJ6%J6QQ%J6QQQ%J6QQQQQQQQQQQQQQQ
16452G412QQQJ6%J6QQQQQQQQQQQJ6%J6QQQQQQQQQJ6QQQQQQQQJ6QQQQQQJ6QQQQQQJ6QQQQQJ6
16438G940QQQQJ6QQQQQQJ6QQQQJ6QQQQJ6QQQQJ6QQQJ6QQQQJ6QQJ6QQQQJ6QQQJ6QQQJ6QQJ6
16426H476QQJ6QQQJ6QQJ6QQJ6QQQJ6QQJ6QJ6QQQJ6QJ6QQJ6QQJ6QJ6QQJ6QQJ6QQJ6QJ6QJ6Q
16414I012QJ6QJ6QJ6QJ6QQJ6QJ6QQJ6QJ6QJ6QJ6QJ6QQJ6QJ6QJ6QJ6QJ6QJ6QJ6QJ6QJ6QJ6J6
16404I556QQJ6J6J6QQJ6QJ6J6QJ6J6QJ6QJ6QJ6QJ6QJ6J6J6QJ6QJ6J6QJ6J6QJ6QJ6J6QJ6J6
16394A0092QJ6J6QJ6J6QJ6J6J6QJ6J6QJ6J6J6QJ6J6J6QJ6J6J6QJ6J6J6QJ6J6J6J6QJ6J6J6
16386A0620QJ6J6J6J6QJ6J6J6J6J6QJ6J6J6J6J6J6QJ6J6J6J6J6J6J6J6J6QJ6J6J6J6J6J6J6
16377A1156J6J6J6QK4QJ6K4QJ6J6J6J6J6J6J6J6J6J6J6J6J6K4J6QK4J6J6J6J6J6J6J6J6J6
16369A1716J6K4QK4J6J6J6J6J6J6J6K4J6J6J6J6J6J6K4J6J6J6J6K4J6J6J6K4J6J6J6K4J6J6
16362A2308J6K4J6J6J6K4J6J6J6K4J6J6K4J6J6K4J6J6K4J6J6K4J6J6K4J6K4J6J6K4J6J6K4
16354A2924J6K4J6K4J6J6K4J6K4J6K4J6K4J6K4J6K4J6K4J6K4J6K4J6K4K4J6K4J6K4J6K4K4
16346A3588J6K4J6K4K4J6K4J6K4K4K4J6K4K4K4J6K4K4J6K4K4K4J6K4K4J6K4K4K4K4K4J6K4
16339A4300K4K4K4J6K4K4K4K4K4K4K4J6K4K4K4K4K4K4K4K4J6K4L2K4K4K4K4K4K4J6L2K4K4
16331A5076K4K4K4K4K4K4K4K4L2K4K4K4K4K4K4K4K4L2K4K4K4K4L2K4K4K4L2K4K4K4L2K4K4
16324A5908L2K4K4L2K4K4L2K4K4L2K4L2K4K4L2K4L2K4K4L2L2K4L2K4L2K4L2K4L2K4L2K4L2
16316A6820L2K4L2L2K4L2K4L2L2K4L2L2K4L2L2K4L2L2K4M0K4L2L2L2L2K4L2L2L2L2L2L2L2
16309A7812K4M0K4L2L2L2L2L2L2L2L2L2L2L2L2L2L2M0L2L2L2L2L2M0L2L2L2L2M0L2L2L2M0
16301A8892L2L2M0L2L2M0L2L2M0L2L2M0L2L2M0L2M0L2M0M0L2L2M0M0L2M0L2M0M0L2M0L2M0
16294B0068M0M0L2M0M0L2M0M0M0M0L2M0M0M0M0M0M0M0L2M0M0M0M0M0M0M8L2M0M8M0M0M0M0
16286B1364M0M0M0M0M8M0M0M0M0M8M0M8M0M0M0N6L2M8M8L2M8M8M0M8M8L2N6M0M0M8M8M8M0
16278B2788M8M8M0M8M8M0M8M8M8M0M8M8M8M8M8M8M8M8M8M8M8M8M8M8M8M8M8M8N6M8M8M8M8
16271B4356N6M8M8N6M8N6M8M8N6M8N6M8N6M8M8N6N6M8N6N6M8N6N6N6M8N6N6N6M8N6N6N6N6
16263B6100N6N6N6N6N6N6N6N6O4N6N6N6N6N6O4N6N6O4N6N6O4N6O4N6O4N6O4N6O4N6O4O4O4
16256B8036N6O4O4O4O4O4N6O4O4O4O4O4O4P2O4O4O4O4O4O4P2O4O4P2O4O4P2O4P2O4P2P2O4
16248C0188P2O4P2P2P2P2O4P2P2P2P2P2P2P2P2P2P2Q0P2P2P2Q0P2P2Q0P2Q0P2Q0P2Q0Q0P2
16241C2604Q0Q0P2Q0Q0Q0Q0Q0Q0Q0Q0Q0Q0Q0Q0Q8Q0Q0Q8Q0Q8Q0Q8Q0Q8Q0Q8Q8Q0Q8Q8Q8Q8
16233C5324Q8Q8Q8Q8Q8Q8Q8R6Q8Q8Q8R6Q8R6Q8R6R6Q8R6R6R6Q8R6R6R6R6R6R6J04R6R6R6J04
16226C8396R6J04R6J04R6J04J04R6J04J04J04J04J04J04J04J04J04J04J12J04J12J04J12J04
16220D0884J12J12J04J12J12J12J12J12J12J12J12J20J12J12J20J12J20J20J12J20J20J12
16215D3388J20J20J20J28J20J20J20J20J28J20J28J20J28J28J28J28J28J28J28J28J28J28
16210D6132J36J28J36J28J36J28J36J36J36J36J36J36J36J36J44J36J44J44J36J44J44J44
16205D9148J44J44J36J52J44J52J44J52J44J52J52J44J52J52J60J52J52J60J52J60J52J60
16200E2460J60J60J60J60J60J60J68J60J68J68J60J68J68J68J68J76J68J68J76J68J76J76
16195E6124J76J68J84J76J76J84J84J76J84J84J84J84J84J92J84J92J84J92J92J92J92J92
16190F0180K00J92K00J92K00K00K00K00K08K00K08K08K00K08K16K08K08K16K08K16K16K16
16185F4700K16K16K24K16K24K24K24K24K24K32K24K32K32K32K32K32K40K32K40K40K48K32
16180F9740K48K40K48K48K48K48K56K48K56K48K64K56K56K64K64K64K64K64K72K64K72K72
16175G5404K72K80K72K80K80K80K80K88K88K88K80K96K88K96K96K96K96L04L04L04L04L04
16170H1780L12L04L12L20L12L20L20L20L28L20L28L28L36L28L36L36L36L44L36L52L52L44
16165H9004L52L52L52L60L60L60L60L68L68L68L68L76L76L84L84L84L84L84L92L92M00L92
16160I7220M00M08M08M00M16M08M16M24M16M24M32M24M32M32M40M40M48M40M48M48M56M56
16155A06636M64M64M64M72M72M72M80M80M88M88M88M96M96N04N04N04N12N20N12N28N20N28
16150A17492N36N36N36N44N52N44N52N60N68N60N76N68N84N76N92N84O00N92O08O08O08O16
16145A30092O24O24O24O32O40O48O48O48O56O64O64O72O80O80O88O88O96P04P12P04P20P28
16140A44836P28P28P44P44P52P60P60P68P76P76P84Q00P92Q08Q08Q24Q24Q32Q32Q40Q56Q56
16134A62228Q64Q72Q80Q80Q96Q96R04R20R20R28R36R44R52R60R68R76R84R92J000J008J024
16130A81932J024J032J048J048J064J072J080J088J104J104J120J128J136J152J152J168J176
16126B00628J192J200J208J224J232J240J256J264J280J288J304J304J328J336J352J360J376
16122B22372J392J392J416J424J448J456J464J480J496J512J528J536J560J568J584J600J624
16118B47852J632J648J664J680J704J712J736J752J768J784J808J824J840J864J880J896J920
16114B77964J944J960J984K000K024K048K064K088K112K136K160K176K208K224K256K280K304
16110C13932K328K360K376K408K440K456K496K520K552K576K608K632K680K696K728K768K792
16106C57348K832K864K896K936K968L008L032L080L120L152L192L232L272L320L352L400L440
16102D10444L480L536L576L616L672L712L768L808L864L920L968M016M080M128M184M240M304
16099D76316M352M424M480M536M608M672M736M808M872M936N016N088N160N232N312N392N464
16095E59404N552N632N720N808N888N992O072O168O264O360O464O560O672O768O880O992P112
16091F66308P216P336P464P576P712P840P960Q104Q240Q384Q528Q672Q824Q976R136R304R464
16087H07044R632R800R984J0168J0352J0544J0736J0944J1144J1352J1576J1792J2024J2248
16084I59340J2496J2744J2984J3256J3512J3792J4072J4352J4656J4952J5272J5592J5920
16081A142940J6264J6608J6968J7344J7712J8120J8512J8936J9360J9800K0256K0728K1200
16078A384748K1712K2216K2752K3304K3864K4448K5048K5680K6320K6984K7672K8384K9120
16075A712252K9888L0672L1488L2336L3216L4120L5064L6040L7056L8104L9200M0336M1512
16072B171284M2736M4016M5336M6720M8152M9648N1200N2824N4520N6288N8120O0048O2064
16069B842956O4160O6352O8648P1056P3576P6208P8976Q1880Q4920Q8120R1472R5016R8728
16066C882068J02640J06760J11112J15696J20536J25648J31056J36776J42840J49264J56080
16063E280476J63312J71000J79176J87880J97168K07064K17640K28944K41048K54024K67936
16061G595668K82880K98968L16288L34976L55153L76992M00656M26336M54247M84664N17832
16058A1844660N54105N93824O37447O85417P38328P96799Q61617R33608J013846J103528J204042
16056B0967221J317118J444744J589336J753817J941672K157192K405679K693595L029039
16054C9299413L422160L885846M436466N095221N889712O856313Q043626R517424J1367859
16052I7814040J3720830J6754673K0726968K6016757L3192926M3126323N7173432P7470475
16050C85996424J07364842J51856870K17184896L05856712L96358358L99905111J82960434
16048B147483647j82960434l99905241l96358358l05856582k17184896j51856902j07364810
16047C85996424p7470507n7173400m3126339l3192910k6016757k0726968j6754673j3720814
16045I7814056j1367875r517408q043642o856321n889704n095221m436466l885838l422168
16043C9299413l029039k693587k405679k157208j941672j753809j589336j444752j317104
16041B0967227j204048j103528j013846r33616q61609p96799p38328o85417o37447n93832
16038A2398757n54097n17840m84656m54247m26336m00656l76992l55160l34969l16288k98968
16036G878548k82880k67936k54016k41048k28952k17640k07064j97160j87888j79176j71000
16033E443788j63312j56080j49264j42832j36784j31056j25648j20536j15696j11112j06760
16031C984708j02648r8728r5008r1472q8120q4920q1880p8976p6208p3576p1056o8648o6352
16028B907116o4160o2064o0048n8128n6280n4520n2824n1208m9640m8152m6720m5336m4016
16025B214020m2736m1512m0336l9200l8112l7048l6040l5064l4128l3208l2336l1488l0672
16022A742140k9888k9120k8384k7672k6984k6320k5680k5048k4448k3864k3304k2752k2224
16019A406452k1704k1208k0720k0256j9808j9352j8936j8512j8120j7720j7336j6968j6616
16016A159196j6256j5920j5592j5264j4960j4656j4352j4072j3792j3512j3256j2984j2744
16013I71836j2496j2248j2024j1800j1568j1352j1144j0944j0736j0544j0352j0168r984r808
16010H16668r632r456r304r136q976q824q672q528q376q240q104p968p840p704p584p464p336
16006F73524p224p104o992o880o768o672o560o464o360o264o168o080n984n888n808n720n632
16002E64956n552n464n392n312n232n160n088n016m936m872m808m736m672m600m544m480m424
15998D80668m352m304m240m184m128m080m016l968l920l856l816l768l712l672l616l576l528
15994D13932l488l440l400l352l320l272l232l192l152l120l072l040l008k968k936k896k864
15990C60180k824k800k768k728k704k664k640k608k576k552k520k488k472k432k408k376k360
15986C16260k328k304k280k256k224k208k176k160k136k112k088k072k040k024k000j984j960
15983B79908j936j928j896j880j864j840j824j808j784j768j752j736j712j704j680j664j656
15979B49476j632j616j600j584j568j560j536j528j512j496j480j464j456j440j432j408j408
15975B23756j384j376j360j352j336j320j312j304j288j280j264j256j240j232j224j208j200
15971B01820j192j176j168j152j152j136j128j120j104j104j088j080j072j056j056j040j040
15967A82956j024j024j008j000r92r84r76r68r60r52r44r36r28r20r20r04q96q96q80q80q72
15962A63092q64q56q56q40q40q32q16q24q08q00q00p92p92p76p76p68p68p52p52p44p44p28
15957A45564p28p28p12p20p04p04o96o88o88o80o80o72o64o64o56o48o48o48o32o32o32o24
15952A30716o24o16o08o08o08n92o00n84n92n76n84n68n76n60n60n68n52n52n44n44n36n36
15947A18028n36n28n20n28n12n20n04n12n04n04m96m96m88m88m88m80m80m72m72m72m64m64
15942A07100m64m56m48m56m48m48m40m40m40m32m32m24m32m24m16m24m08m16m08m16m00m08
15937I7620m00l92m00l92l92l84l92l84l76l76l84l76l68l68l68l68l60l60l60l60l60l52
15932H9348l52l44l44l44l44l44l36l36l36l28l36l28l28l20l28l20l20l20l12l20l12l04
15927H2092l12l04l12l04k96l04k96k96k96k96k88k96k88k88k80k88k80k80k80k80k80k72
15922G5676k72k72k72k72k64k72k56k64k64k64k56k56k56k56k56k48k56k48k48k48k48k40
15917F9988k40k48k40k40k32k40k40k32k32k32k32k32k24k32k24k24k24k24k24k16k24k16
15912F4916k16k16k16k16k16k08k08k08k16k00k08k08k08k00k00k08k00k00j92k00k00k00
15907F0372j92j92j92j92j92j92j92j84j92j84j84j84j84j84j84j84j76j76j84j76j76j76
15902E6300j76j76j76j76j68j68j76j68j68j68j68j68j68j60j68j60j68j60j60j60j60j60
15897E2620j60j60j52j60j52j60j52j52j60j52j52j44j52j52j44j52j44j52j44j44j44j44
15892D9292j44j44j44j44j36j44j44j36j36j44j36j36j36j36j36j36j36j28j36j28j36j28
15887D6268j36j28j28j28j28j36j20j28j28j28j28j20j28j20j28j20j20j20j28j20j20j20
15882D3508j12j20j20j20j12j20j20j12j20j12j12j20j12j12j12j12j12j12j12j12j04j12
15877D0996j12j04j12j04j12j04j04j12j04j04j04j04j04j04j04j04j04r6j04j04r6j04r6
15871C8596j04r6j04r6r6r6j04r6r6r6r6r6r6r6q8r6r6q8r6r6q8r6q8q8r6q8q8q8r6q8q8q8
15864C5588q8q8q8q8q8q8q0q8q8q0q8q8q0q8q0q8q0q0q8q0q0q8q0q0q0q0q8p2q0q0q0q0p2
15856C2844q0q0q0q0p2q0p2q0p2q0p2q0p2p2q0p2p2p2q0p2p2p2p2p2p2p2p2p2p2o4p2p2p2
15849C0396o4p2p2o4p2p2o4p2o4o4p2o4p2o4o4p2o4o4o4o4p2o4o4o4o4o4o4o4o4n6p2n6o4
15841B8220o4o4n6o4o4n6o4o4n6o4n6o4n6o4n6o4n6n6o4n6n6o4n6n6n6o4m8o4n6n6n6n6n6
15834B6268n6n6n6n6n6n6n6m8n6n6n6n6m8n6n6m8n6n6m8n6m8n6m8n6m8n6m8n6m8n6m8m8n6
15826B4508m8m8m8n6m8m8m8n6m8m8m8m8m8m8m8m8m8m8m8m8m8m8m8m8m8m8m0m8m8m0m8m8m8
15819B2924m8m0m8m8m0m8m0m8m8m0m8m0m8m0m8m0m0m8l2n6n6j6n6m8l2m8m0m0m8m0m8m0m0
15811B1484m0m0m0m0m8m0l2m8m0m0m0m0m0m0m0m0m0m0m0m0l2m0m0m0m0l2m0m0m0l2m0m0m0
15804B0180l2m0m0m0l2m0m0l2m0l2m0l2m0l2m0m0l2m0l2l2m0l2m0l2m0l2m0l2l2m0l2l2l2
15796A8996m0l2m0l2l2l2l2m0l2l2l2l2m0l2l2l2l2l2l2m0l2l2l2l2l2l2l2l2l2l2l2l2l2
15788A7900l2l2l2k4l2l2l2l2l2l2k4l2l2l2k4m0l2k4l2k4l2l2l2k4l2l2k4l2l2k4l2l2k4
15781A6908l2l2k4l2k4l2k4l2k4l2k4l2k4l2k4l2k4l2k4l2k4l2k4l2k4k4l2k4k4l2k4k4l2
15773A5988k4k4l2k4k4l2k4k4k4l2k4k4k4k4l2k4k4k4l2k4k4k4k4k4k4l2k4k4k4k4k4k4k4
15766A5148k4k4k4k4k4k4k4l2j6k4l2k4k4k4j6k4k4k4k4k4k4k4k4k4k4k4k4j6k4k4k4k4k4
15758A4364j6k4k4k4k4j6k4k4k4k4k4j6k4k4j6k4j6k4k4k4j6k4k4k4j6k4k4j6k4k4j6k4j6
15751A3652k4k4j6k4k4j6k4j6k4j6k4j6k4k4j6k4j6k4j6k4j6k4j6k4j6k4j6j6k4k4j6j6k4
15743A2980j6k4j6k4j6j6j6k4k4qk4k4j6j6k4j6k4j6j6j6k4j6j6k4j6j6k4j6j6j6k4j6j6j6
15735A2348k4j6j6k4j6j6j6j6k4j6j6j6j6k4j6j6j6j6k4j6j6j6j6k4j6j6j6j6j6j6j6k4qk4
15728A1748j6j6j6j6j6j6j6j6j6j6j6j6j6k4j6j6qk4j6j6j6j6j6qj6k4j6qj6j6k4qj6j6j6
15720A1188j6j6j6j6j6j6j6j6j6qj6j6j6j6j6j6j6j6j6qj6j6j6j6j6j6qj6j6j6j6j6qj6j6
15712A0660j6j6qj6j6j6j6qj6j6j6qj6j6j6j6qj6j6qj6j6j6qj6j6qj6j6j6qj6j6j6qj6j6q
15703A0132j6j6qj6j6qj6qj6j6j6qj6qj6j6qj6qj6j6qj6j6qj6qj6qk4%j6j6qj6qj6j6qj6q
15693I604j6j6qqj6j6qj6qj6qj6qj6qj6qj6qj6qj6qqj6qj6j6qj6qqj6qj6qj6qqj6qj6qqj6
15683I068qj6qj6qj6qqj6qqj6qqj6qj6qj6qqj6qqj6qqj6qqj6qqj6qj6qqqj6qqj6qqqj6qqj6
15672H524qqj6qqj6qqqj6qqj6qqqqj6qqj6qqqqj6qqqj6qqqqj6qqqj6qqqqj6qqqqqj6qqqqq
15659G988j6qqqqj6qqqqqj6qqqqqqqqj6qqqqqj6qqqqqqqj6qqqqqqqqqqj6qqqqqqqqqqqqqq
15645G452j6%j6qqqqqqqqqqqqqqqqqqj6qq%qj6q%qqqqj6%j6%qqj6q%qqqqqqqqqqqqqqqqqq
15632F964qqqqqqqq%qqqqqqqqqqqq%qqqqqqqqqqq%qqqqqqqqq%qqqqq%j6%qqqqqqq%qqqqqq
15617F484%j6%qqqq%qqqqqq%qqqq%qqqqqq%qqqq%qqqq%qqqqq%qqqq%qqq%qqqqq%qq%qqqqq
15601F052%qqq%qqqq%qqq%qqq%qq%qqq%qqq%qqq%j6%%qqqq%qqq%q%j6%qq%qq%qqq%qqq%qq
15587E668%qq%qqq%q%qqq%qq%qq%q%j6%qq%qq%qq%q%qq%qq%qqqq%%qq%qq%q%qq%qq%qq%qq
15571E316%qq%q%qq%qq%q%qq%qq%q%qqq%q%q%qq%q%qq%q%qq%q%qq%q%qq%q%qq%q%q%qq%q%
15556D996qq%q%q%qq%q%qq%q%q%q%qq%q%q%qq%q%q%q%qq%q%q%q%q%q%q%qq%q%q%qq%%q%qq
15541D692%q%q%q%q%q%q%q%qq%q%q%%qq%q%q%q%q%q%q%q%q%q%q%q%q%q%q%q%q%q%q%%q%q%
15525D428q%q%q%q%q%q%q%%qq%q%q%q%q%%q%q%q%q%q%%qq%%q%q%q%q%%q%%qq%q%q%%q%q%%
15510D180q%q%q%q%%q%q%q%%q%q%q%%q%q%q%q%%q%q%q%%q%q%q%%q%q%%q%q%q%%q%q%q%%q%
15495C948%q%q%%q%q%%q%q%%q%q%%q%%q%q%%q%q%%q%%q%q%q%%q%%q%q%%q%q%%q%q%%q%%q%
15479C740%q%q%%q%q%%%q%q%q%%q%%q%%q%%q%q%q%%q%%%q%q%%%q%q%%q%%q%q%%%q%%q%q%%
15464C548q%q%%q%%q%%%q%q%%q%%q%%q%%q%%q%%q%%%q%q%%q%%q%%%q%q%%q%%%q%q%%q%%%q
15449C364%%q%qQq%q%%q%%q%%q%%%q%%q%%%q%%q%%q%%q%%q%%q%%%q%%q%%q%%%q%%q%%q%%%
15433C204q%%q%%q%%q%%%q%%%q%%q%%q%%%q%%%q%%q%%%q%%q%%%q%%q%%%q%%q%%%q%%%q%%%
15418C052q%%q%%q%%%q%%%q%%%q%q%%%%q%%q%%%q%%%q%%%q%%q%%q%%%q%%%q%%%q%%%q%%%q
15403B900%%%q%%%q%%%q%%%q%%%q%%%q%%%q%%%q%%%q%%%q%%%q%%%q%%%q%%%%q%%%q%%q%%%
15387B772%q%%%q%%%%q%%%q%%q%%%%%q%%q%%%%q%%%q%%%q%%%q%%%%%q%%q%%%%q%%qQq%%%q
15372B644%%%%q%%%q%%%q%%%q%%%q%%%%%q%%%%q%%%%q%%%q%%%q%%%%q%%%q%%%%%q%%%%q%%
15357B532%q%%%%q%%%q%%%%qQq%%qQq%%q%%%%q%%%qQq%%%q%%%%q%%Qq%q%%%q%%%q%%%%%%q
15341B420%%%%q%%%%q%%%%q%%%%q%%%q%%%%%%q%%%%q%%%%q%%%%q%%%%%q%%%%q%%%%%q%%%%
15326B324q%%%%q%%%%%q%%%%%q%%%%q%%%%%q%%%%%q%%%%q%%%%%q%%%%%q%%%%q%%%%%q%%%%
15311B228%q%%%%%q%%%%%q%%%%q%%%%%q%%%%%q%%%%%q%%%%%%q%%%q%%%%%%q%%%%%q%%%%%q
15295B132%%%%%%q%%%%%q%%%%q%%%%%%q%%%%%q%%%%%q%Qq%%%%%q%%%%q%%%%%q%%%%%q%%%%
15280B052%%%q%%%%%q%%%%%q%%%%%%%q%%%%q%%%%%%%%q%%%%%q%%%%%q%%%%%q%%%%%%qQq%%
15265A972%%%q%%%%%%%q%%%%%q%%%%%%%q%%%%qQq%%%%%%q%%%%%q%%%%%%%q%%%%%q%%%%%%%
15249A900q%%%%%qQq%%%%%%q%%%%%%%q%%%%%%%q%%%%%%q%%%%%%%q%%%%%%%q%%%%%%%q%%%%
15234A828%%%q%%%%%q%%%%%%%%qQq%%%%%qQq%qQ%q%%%%%%%%%q%%%%%%q%%%%%%%q%%%%%%%q
15219A756%%%%%%%%%%q%%%%%q%%%%%q%%%%%%%%%q%%%%%%%%q%%%%%%%%q%%%%%%%q%%%%%%%q
15203A692%%%%%%%%q%%%%%%%%q%%%%%%%%%q%%%%%%%%q%%%%%%%%%q%%%%%%q%%%%%%%%%q%%%
15188A636%%%qQq%%%%%%%%%q%%%%%%%q%%%%%%%%qQ%q%%%%%%%q%%%%%%%qQq%%%%%%%%%q%%%
15173A580%%%%%%q%%%%%%qQq%%%%%%%%%%q%%%%%%%%q%%%%%%%%%q%%%%%%%q%%%%%%%%%%q%%
15157A524%%%%%%%q%%%%%%%%%%qQq%%%%%%%q%%%%%%%%%q%%%%%%%%%%q%%%%%%%%%%q%%%%%%
15142A476%%%%q%%%%%%%%%%q%%%%%%%%%%%q%%%%%%%%%q%%%%%%%%%%q%%%%%%%%%%q%%%%%%%
15127A428%%q%%%%%%%%%%%%q%%%%%%%%q%%%%%%%%%%%%qQq%%%%%%%%q%Q%q%%%%%qQq%%Qq%Q
15111A388j6Q%qJ6k4Q%%Qq%%%%%q%%Qq%%%%%%%%%%%q%%%%%%%q%Qq%%%%%%%%%%q%%%%%%%%%
15097A340%%%q%%%%%%%%%q%Qq%%%%%%%%%%%%q%%%%%%%%%qQ%q%%%%%%%%%%%%%q%%%%%%%%%%
15081A300%q%%%%%%%%%%%%%q%%%%%%%%%%q%%%%%%%%%%%%%q%%%%%%%%%%%qQ%%q%%%%%%%%%q
15066A252%%%%%%%%%%%%%%q%%%%%%%%%%%qQq%%%%%%%%%%%q%%%%%%%%%%%%%%%%q%%%%%%%%%
15051A220%%qQq%%%%%%%%%%%%%%q%%%%%%%%%%%q%%%%%%%%%%%%%%%%%q%%%%%%%%%%%%%q%%%
15035A180%%%%%%%%%%q%%%%%%%%%%%%%%qQq%%%%%%%%%%%%q%Qq%%%%%%%%%%%qQq%%%%%%%%%
15020A148%%%qQq%%%%%%%%%%%%%%%q%%%%%%%%%%%%%%%q%%%%%%%%%%%%%%%qQq%%%%%%%%%%%
15005A116%%q%%%%%%%%%%%%%%%%%q%%%%%%%%%%%%qQ%q%%%%%%%%%%%%q%%%Qq%%%Qq%%%%%%%
14989A084qQ%%q%%%%%%%%%%%%q%Qq%%%%%%%%%%%%%%%%%q%%%%%%%%%%%%%%%%qQ%q%%%%%%%%
14974A052%%%%q%%%%%%%%%%%%%%%%%%q%%%%%%%%%%%%%%%%%%q%Qq%%%%%%%%%%%%%%%%qQq%%
14959A020%%%%%%%%%%%%%q%%%%%%%%%%%%%%%%%%q%%%%%%%%%%%%%%%%%%q%%%%%%%%%%%%%%%
14943I96%%q%%%%%%%%%%%%%%%%%%%%%qQq%%%%%%%%%%%%%%qQ%q%%%%%%%%%%%%%%%%%%%q%Qq
14928I64%%%%%%%%%%%%%%qQq%%%%%%%%%%%%%%%%%%%%%%q%%%%%%%%%%%%%%%%%%q%Qq%%%%%%
14912I40%%%%%%%%%qQ%%q%%%%%%%%%%%%%%%%%%%%%q%%%%%%%%%%%%%%%%%%%q%%%%%%%%%%%%
14897I16%%%qQqQqQq%%%%%%%%%%%%%%%%%%%q%%%%%%%%%%%%%%%%%%%%q%Qq%%%Qq%%%%%%%%%
14881H92%%%%%%%q%%Q%q%%%Qq%%%%%%%%qQ%%qQqQ%q%%%%%%%%%%%%%%%%%%q%Qq%%%%%%%%%%
14866H68%%%%%%%%%q%%Qq%%%%%%%%%%%%%%%%%qQ%%q%%%%%%%%%%%%%%%%%%%%%%%q%%%%%%%%
14850H44%%%%%%%%%%%%%%%%q%%%%%%%%%%%%%%%%%%%%%%%%%q%%Qq%%%%%%%%%%%%%%%%%%%%%
14834H28q%%%%%%%Qq%%%%%%%%%%%%%%%%qQ%q%%%%%%%%%%%%%%%%%%%%%%%%q%%%%%%%Qq%%%%
14819H04%%%%%%qQ%%%q%Qq%%%%%%%%%%%%%%%%%%%%%%q%Qq%%Qq%%%%%%%%%%%%%%%%%%%%%q%
14803G80%%%Qq%%%%%%%%%%%%%%%%%%%%%%%qQq%Qq%%%%%%%%%%%%%%%%%%%%q%%%%%%%%%%%%%
14788G64%%%%%%%%%qQq%%%%%%%%%%%%%%%%%%%%%%%%%%%%%qQq%%%%%%%%%%%%%%%%%%%%%%%%
14772G48%%%%qQ%%%%%q%%%%%%%%%%%%%%%%%%%%%%%%%%%%q%%%%%%%%%%Qq%%%%%%%%%%qQ%%q
14757G24%%%%%%%%%%%%%%%%%%%%%%%%qQ%%%%q%%%%%Qq%%%%%%%%%%%%%%qQ%%%%%%%%%%%q%%
14741G08%%%%%%%%%%%%%%%%%%%%%%%%%%%qQ%%%q%Qq%%%%%%%%%%%%%%%%%%%%%%%%%%q%QqQq
14725F92%%%%%%%%%%%%%%%%%%%%%%%%%%%qQq%Qq%%%%%%%%%%%%%%%%%%%%%%%%%%qQq%Qq%%%
14710F76%%%%%%%%%%%%%%%%%%%%%%%qQ%q%%%%%%Q%%q%%%%%%%%%%%%%%%%%%%%%%%%%%qQq%%
14694F60%Qq%QqQq%%%%%%%%%%%%%%%%%%%%%%%%%%q%%Qq%%%%%%%%%%%%%%%%%%%%%%%%%%%%q
14679F44%%Qq%%%Qq%%%%%%%%%%%%%%%%%%%%%%%%qQ%%qQ%q%Qq%%%%%%%%%%%%%%%%%%%%%%%%
14663F36%%%qQ%%%q%%%%Qq%%%%%%%%%%%%%%%%%%%%%%%%%%%%%%qQqQq%%%%%%%%%%%%%%%%%%
14648F20%%%%%%%%%%%%%%q%%Q%qQq%Qj6J6qqJ6%q%%%%%%%%%%%%%%%%%%%%%%%%%%%qQ%%%%q
14633F04Qq%QqQq%%%%%%%%%%%%%%%%%%%%%qQ%%%%%q%Q%q%Q%q%%%%%%%%%%%%%%%%%%%%%%%%
14617E96%%%%%%%%%%qQq%Q%q%%%%%%%%%%%%%%%%%%%%%%%%%%%%%%%%%%q%Q%q%Qq%%%%%%%%%
14602E80%%%%%%%%%%%%%%%%%%%%qQ%%qQqQ%%%q%%%%%%%%%%%%%%%%%%%%%%%%%%%%%%%%%%%q
14586E64%%Q%qQ%%%%%%q%%%%%%%%%%%%%%%%%%%%%%%%%%%%%%%%%%%%%q%Q%q%%%%%%%%%%%%%
14571E56%%%%%%%%%%%%%%%%%%%%%%%%%%%%%%%%qQq%%%%%%%%%%%%%%%%%%%%%%%%%%%%%%%%%
14555E48qQ%%q%QqQqQq%%QqQq%%%%Qq%%%%%%%%%%%%%%%%%%%%%%%%%%%%%%q%%%Qq%Qq%%%%%
14539E32%%%%%%%%%%%%%%%%%%%%%%%%%%%%%%%%%%%%%%qQ%%q%%%%%%%%%%%%%%%%%%%q%Q%%%
14524E24%%%%%%%%%%%%%%%%%%%%%%%%%%%%%qQqQ%%q%%%%%%%%%%%%%%%%%%%%%%%%%%%%%%%%
14508E16%%%%%%%%%q%Qq%%%%%%%%%%%%%%%%%%%%%%%%%%%%%%%%%%%%%%q%Q%%%%q%%%Q%q%%%
14493E00Qq%%%%%%%%%%%%%%%%%%%%%%%%%%%%%%%%%%%%%qQ%%q%%Q%%%q%Qq%%%%%%%%%%%%%%
14477D92%%%%%%%%%%%%%%%%%%%%%%%%%%%%%%%%%%%%%qQ%%%%%qQq%%%%Q%q%%%%%%%%%%%%%%
14462D84%%%%%%%%%%%%qQ%%%%%%q%Q%qQq%%%%%%%%Qq%%%%%%%%%%%%%%%%%%%%%%%%%%%%%%%
14446D76%%%%%%%%%%%%%%%%%%%%%%qQq%%Qq%%%%%%%%%%%%%%%%%%%%%%%%%%%%%%%%%%%%%%%
14430D68%%%%%%%%%%%%q%Q%%qQ%qQq%%%%%%%%%%%%%%%%%%%%%%%%%%%%%%%%%%%%%%%%%qQq%
14415D52%QqQ%q%Qq%%%%%%%%QqQ%qQq%%QqQ%q%%%qQQq%%%%%%%%%%%%%%%%%%%%%%%%%%%%%%
14399D52%q%%%Qq%%%%%%%Qq%%%%%%%%%%%%%%%%%%%%%%%%%%%%%%%%%%%%%%%%%%%%%%%%%%%%
14384D44%%%%%qQ%q%%%%%%%%%%%%%%%%%%%%%%%%%%%%%%%%%%%%%%%%%%%%%%qQ%%%%%%q%%Qq
14368D28Qq%%Qq%%%%%%%%%%%%%%%%%%%%%%%%%%%%%%%%%%%%%%%%%%%%%%%%%%%%%qQ%%%%%q%
14353D20Q%qQq%%Qq%%Q%q%%%%%%Qq%%%%%%%%%%%%%%%%%%%%%%%%%%%%%%%%%%%%%%%%%%%%%%
14337D20%qQ%qQ%qQq%%%QqQq%%Qq%%%%%%%%%%%%%%%%%%%%%%%%%%%%%%%%%%%%%%%%%%%%%%%
14322D12qQ%%%q%Q%%%%%%%q%%%%%%%%%%%%%%%%%%%%%%%%%%%%%%%%%%%%%%%%%%%%%%%%%qQ%
14306D04%%%%%%%%%%%%q%Qq%%%Qq%Qq%%%%%%%%%%%%%%%%%%%%%%%%%%%%%%%%%%%%qQ%%%%%%
14290C96%%%%Qq%%%%%%%%%%%%%%%%%%%qQ%%q%QqQq%%%%%%%%%%%%%%%%%%%%%%%%%%%%Qq%%%
14275C88%%%%%%%%%%%%%%%%%%%%%%%%%%%%%%%%%%%%%%q%Qq%Qq%%%%%%Qq%%%%%%%%%Qq%%%%
14259C80%%%%%%%%%%%%%%%%%%%%%%%%%%%%%%%%%%%%%%qQ%%%qQ%%%%%%%%%%qQ%%q%%%%%%Qq
14244C72%%%%Q%%q%%%%%%%%%%%%%%%%%%%%%%%%%%%%%%%%%%%%%%%%%%%%qQ%%%%%%%%%%%%%q
14228C64Qq%Q%%qQ%q%%%%%%%%%%%%%%%%%%%%%%%%%%%%%%%%%%%%%%%%%%%%%%%%%%%%%%%%%%
14213C64%%%%%%%%%%%%%%%%%%qQ%%%%%%%%%%%%%q%%Qq%Q%%%qQqQq%%%%%%%%%%%%%%%%%%%%
14197C56%%%%%%%%%%%%%%%%%%%%%%%%%%%%%%%%%%%%%%%%%%%qQ%%qQ%%%%%q%%%Q%qQ%q%%%%
14181C48%%%%%Qq%%%%%%%%%%%%%Qq%%%%%qQq%qQQQj6Q%q%J6qqJ6q%qQ%%%%%%%qQ%%%%%%%%
14167C48%%%%q%Q%%%qQqQ%%%qQ%qQq%%%%%%%Qq%%%%%%%%%%%%%%%%%%%%%%%%%%%%%%%%%%%%
14151C40%%%%%%%%%%%%%%%%%%%%%%qQ%%%%%%%q%Q%%%%%q%%QqQ%qQqQqQ%%qQq%%Qq%%%%%%%
14135C32%%%%%%%%%%%%%%%%%%%%%%%%%%%%%%%%%%%%%%%%%%%%%%%%%%%%%%%%%%%%%%%%%%%q
14120C24Q%%qQ%%%%qQ%q%%%%%%%%Qq%%Qq%%%%%%%%%%%%%%%%%%%%%%%%%%%%%%%%%%%%%%%%%
14104C24%%%%%%%%%%%%%%%%%%%qQ%%%%%%%%%%%%%%%%%%%%%qQ%%%%q%%QqQ%q%%Q%q%%%%%%%
14089C16%%Qq%Qq%%Qq%%%%%%%%%%%%%%%%%%%%%%%%%%%%%%%%%%%%%%%%%%%%%%%%%%%%%%%%%
14073C16%%%qQ%qQ%qQq%Q%qQ%qQ%%%%qQq%%Q%qQ%%%q%%%Qq%%%%%%%%%%%%%%%%%%%%%%%%%%
14058C08%%%%Qqq%Q%%%%%%%%%%%%%%%%%%%%%%%%%%%%%%%%%%%%%%%%%%%qQ%%%%%%qQ%%qQ%%
14042C08q%%Qq%Qq%%%%%%%%%%%%%%%%%%%%%%%%%%%%%%%%%%%%%%%%%%%%%%%%%%%%%%%%%%%%
14026C00%%%%%%%%%%%%%%%%%%%%%%%%%%%%%%%%qQ%%%%%%%%%qQqQqQqQ%q%%Q%q%%QqQ%q%%%
14011B92Q%q%%%%%%%%%%%%%%%%%%%%%%%%%%%%%%%%%%%%%%%%%%%%%%%%%%%%%%%%%%%%%%%%%
13995B92%%%%%%%%%%%%%%%%%%%%%%%%%%%qQ%%qQ%%%%%%qQ%%%%%%q%%%%%Qq%%%Qq%%%%%%%%
13980B84%%%%%%%%%%%%%%%%%%%%%%%%%%%%%%%%%%%%%%%%%%%%%%%%%%%%qQ%%%%%%%%%%%%%%
13964B84%%%%%%%%%%%%%%%%%%%%%%%%%q%Q%q%%Q%q%%%%%%%Q%%%q%%Qq%%%%%%%%%%%%%%%%%
13949B76%%%%%%%%%%%%%%%%%%%%%%%%%%%%%%%%%%%%%%%%QqQq%%%%%%%%%%%%%%%%%%%%%%qQ
13933B76%qQ%%qQ%qQqQ%%%q%Q%%q%Q%%%%%qQq%%QqQq%Q%q%%Qq%Qq%%%%%%%%%%%%%%%%%%%%
13918B68%%%%%%%%%%%%%%%%%%%%%%%%%%%%%%%%%%%%%%%%%%%%%%%%%%%%%%%%%%%%%%%%%%%%
13902B68%%%%%%%%%%%%%%%%%%%%%%%%%%qQ%%%%%%qQ%qQ%%%%%%q%Qq%%%%%%%%%%Qq%%Qq%%%
13886B60%%%%%%%%%%%%%%%%%%%%%%%%%%%Qq%%%%%%%%%%%%%%%%%%%%%%%%%%%%%%%%%%%%%%%
13871B60%%%%%%%%%%%%%%%%%%%%%%%qQ%%%%%%%%%qQ%%qQ%%%qQ%%qQ%q%%%QqQqQ%%qQq%Q%%
13855B60q%Qq%%%%%%%%%%%Qq%%%%%%%%%%%%%%%%%%%%%%%%%%%%%%%%%%%%%%%%%%%%%%%%%%%
13840B52%%%%%%%%%%%%%%%%%%%%%%%%%%%%%%%%%%%%%%%%%%%%%%%qQ%qQ%%%qQ%%qQ%%%%%%q
13824B44%Q%%%q%QqQj6J6q%%Q%q%%%%%%%%%%%%QqQq%%%%%%%%Qq%%%%%%%%%%Qq%%%%%%%%%%
13809B44%%%%%%%%%%%%%%%%%%%%%%%%%%%%%%%%%%%%%%%%%%%%%%%%%%%%%%%%%%%%%%%%%%%%
13793B44%%%%%%%%%%%%%%%qQ%%%%%qQqQqQqQq%%Q%q%Qq%%%%Q%%q%%%%%%%%%Qq%%%%%%Qq%%
13778B36%%%%%%%%%%%%%%%%%%%%%%%%%%%%%%%%%%%%%%%%%%%%%%%%%%%%%%%%%%%%%%%%%%%%
13762B36%%%%%%%%%%%%%%%%%%%%%%%%%%%%%%%%%%%%%%%%%%%%%%%%%%%%%%%%q%Qq%%Qq%Q%q
13747B28Q%%%%%q%%%Qq%%%QqQqQq%Q%%%q%%Qq%Qq%%%%%%%%%%%%%%%%%%%%%%%%%%%%%%%%%%
13731B28%%%%%%%%%%%%%%%%%%%%%%%%%%%%%%%%%%%%%%%%%%%%%%%%%%%%%%%%%%%%%%%%%%%%
13716B28%%%%%%%%%%%%%%%%%%%qQ%%%%qQqQ%%qQq%Q%%%%%%%%q%J6j6QqJ6qqQqQ%%q%%%Qq%
13701B20%%Qq%%%%%%%%%%%%%%%%%%%%%%%%Qq%%%%%%%%%%%%%%%%%%%%%%%%%%%%%%%%%%%%%%
13685B20%%%%%%%%%%%%%%%%%%%%%%%%%%%%%%%%%%%%%%%%%%%%%%%%%%%%%%%%%%%%%%%%%%%%
13670B20%%%%%%qQ%%%%%%%%%%%%%%qQqQ%%%%qQqQ%%%q%%Qq%Q%qQ%q%Qq%QqQq%%%%%Q%q%Q%
13654B20%q%QqQq%%%%%%%%%%%%%%%%%%%%%%%%%%%%%%%%%%%%%%%%%%%%%%%%%%%%%%%%%%%%%
13639B12%%%%%%%%%%%%%%%%%%%%%%%%%%%%%%%%%%%%%%%%%%%%%%%%%%%%%%%%%%%%%%%%%%%%
13623B12%%%%%%%%%%%%%%%qQ%q%%Q%%%%%%q%%Q%%%%qQqQ%%%%%%q%Q%%%qQ%%%qQ%qQq%%%%Q
13607B12%q%%%%%%%%%%%%%%%%%%%%%%%%%%%%%%%%%%%%%%%%%%%%%%%%%%%%Qq%%%%%%%%%%%%
13592B04%%%%%%%%%%%%%%%Qq%%%%%%Qq%%%%%%%%%%%%%%%%%%%%%%%%%qQ%%%%%%%%%%%%%%%%
13576B04%%%%%%%%%%%%%%%%qQ%%%%%%%%%%%qQ%%%%%%qQ%qQ%%%qQ%q%Qq%%%%%%Q%%q%%%%%%
13561A96%%%%%%%%%Qq%%%%%%%%%%%%%%%%Qq%%%%%%%%%%%%%%%%%%%%%%%%%%%%%%%%%%%%%%%
13545A96%%%%%%%%%%%%%%%%%%%%%%%%%%%%%%%%%%%%%%%%%%%%%%%%%%%%%%%%%%%%%%%%%%%%
13530A96%qQ%%%%%%%%%%%%%%%%%%%%%%%%%%%%%%%%%%%%%%%%%%%%%%%%%%%%%%%%%%%%%%%%%
13514A96%qQ%%qQ%%%q%%%Qq%%%%%%%%%%%%%Qq%%%Qq%%%%%%%%%%%%%%%%%%%%%%Qq%%Qq%%%%
13498A88%%%%%%%%%%%%%%%%%%%%%%%%%%%%%%%%%%%%%%%%%%%%%%%%%%%%%%%%%%%%%%%%%%%%
13483A88%%%%%%%%%%%%%%%%%%%%%%%%%%%%%%%%%%%%%%%%%%%%qQ%%qQ%Qq%%%qQqQqQ%%%%qQ
13467A88%%%%%%%%%%%%%%%%%%%qQqQ%%%%%%qQ%%qQ%qQ%qQ%%q%%Qq%%QqQq%%QqQqQqQqQqQ%
13452A88%%%q%%%%%%%%%%%%%%%%%%%%%%%%%%%%%%%%%%%%%%%%%%%%%%%%%%%%%%%%%%%%%%%%
13436A80%%%%%%%%%%%%%%%%%%%%%%%%%%%%%%%%%%%%%%%%%%%%%%%%%%%%%%%%%%%%%%%%%%%%
13421A80%%%%%%%%%%%%%%%%%%%%%%%%%%%%%%%%%%%%%%%q%QqQ%%%%%%%%%%%%%%%%%%%%%%%%
13405A80%%%%%%%%%%%%%%%%%%%qQ%%%%%%%%%%%%q%%Qq%Q%%%qQqQ%%%%%%%%%%%%%%qQ%q%%%
13390A72%%%%Qq%%%%%%%%Qq%%%%%%QqQ%%q%Q%q%%%%%%%%%%%%%%%%%%%%%%%%%%%%%%%%%%%%
13374A72%%%%%%%%%%%%%%%%%%%%%%%%%%%%%%%%%%%%%%%%%%%%%%%%%%%%%%%%%%%%%%%%%%%%
13358A72%%%%%%%%%%%%%%%%%%%%qQ%%%%%q%Q%%%%%%%%%%%%%%%%%%%%%%%%%%%%%%%%%%%%%%
13343A72%%%%%%%%%%%%%qQ%%qQ%%%qQq%Q%%%%%%%q%QqQ%%q%%Qq%Qq%%Qq%Qq%%%%%%QqQ%q%
13327A64%%%Q%q%%QqQq%%Qq%%%Qq%%%%Qq%%%%%%%Q%%qQq%%%%%%%%%%%%%%%%%%%%%%%%%%%%
13312A64%%%%%%%%%%%%Qq%%%%%%%%%%%%%%%%%%%%%%%%%%%%%%%%%%%%%%%%%%%%%%%%%%%%%%
13296A64%%%%%%%%%%%qQ%%%%%%%%%%%%%%%%%%%%%%%%%%%%%%%%%%%%%%%%%%%%%%%%%%%%%%%
13281A64%%%%%%%%%%%%%%%%%%%%%%%%%%%%%%%%%%%%%%%%%%%%q%%Q%q%Q%q%%%%%Qq%Q%%%%q
13265A56Q%%%%%%%%%%qQ%%%%q%Qq%%Q%q%%Q%%qQ%%qQq%%%%%%%%%%%Qq%%%%%Qq%%%Qq%%%%%
13249A56%%%%%%%%%%%%%%%%%%%%%%%%%%%%%%%%%%%%%%%%%Qq%%%%QqQq%%Qq%J6k4%J6%%j6%
13235A48Q%%QqQj6Q%%%%%%%%%%%%%%%%%%%%%%%%%%%%%%%%%%%%%%%%%%%%%%%%%%%%%%%%%%%
13219A56%%%%%%%%%%%%%%%%%%%%%%%%%%%%%%%%%%%%%%%%%%%%%%%%%%%%%%qQqQ%%%%%%%%%%
13204A56%%%%%%%q%QqQ%%q%%Q%%qQ%qQ%%%%%%%%%qQ%%%qQ%qQ%%q%%Q%q%Q%qQ%qQ%q%%%%%%
13188A48%%%%%%%%%%%%%%%%%%%%%%%%%%%%%%%%%%%%%%%%%%%%%%%%%%%%Q%q%%%%%%%%%%%%%
13173A48%%%%%%%%%%%%%%%%%%%%%%%%%%%%%%%%%%%%%%%%%%%%%%%%%%%%%%%%%%%%%%%%%%%%
13157A48%%%%%%%%%%%%%%%%%%%%%%%%%%%%%%%%%%%%%%%%%%%%%%%%%%%%%%%%%%%%%%%%%%%%
13142A48%%%%%%%%%%%%%%%%%%%%%%%%%%%%%%%%%%%%%%%%%%%%%%%%%%%%%%%%%%%%%%%%%%%%
13126A48%%%%%%%%%%%%%qQ%%qQ%%q%Q%%%%%%%%%%%%%qQ%%q%QqQ%%%%%%%qQqQ%qQ%%%q%%%Q
13111A48qQ%q%%Qq%QqQq%%Qq%%%%%%Qq%%%%%Q%q%Q%qQq%%%%%%%%%%%%%%%%Qq%%%%%%%%%%%
13095A40%%%%%%%%%%%%%%%%%%%%%%%%%%%%%%%%%%%%%%%%%%%%%%%%%%%%%%%%%%%%%%%%%%%%
13079A40%%%%%%%%%%%%%%%%%%%%%%%%%%%%%%%%%%%%%%%%%%%%%%%%%%%%%%%%%%%%%%%%%%%%
13064A40%%%%%%%%%%%%%%qQ%%%%%%%%%%%%%%%%%%%%%%%%%%%%%%%%%%qQ%%%%%%%%%%%%%%%%
13048A40%%%%%%%%%%%%%%%%%%%%%%%%%%%%%%%%%%%%%%%%%%%%%%%%%%%%%%qQ%%%%%qQ%%qQ%
13033A40%%%%qQ%qQ%%%%%%%%%%%q%%Q%%%%%%qQ%%%%%%%qQ%%%%%%%%%%%%%%%%%%%%%q%%Qq%
13017A32%%%Qq%%%%%%%%%%%%%%%%%%%%%%%%%%%%%%%%%%%%%%%%%%%Qq%%%Qq%%%%Q%qQq%%%%
13002A32Q%%%%q%%%QqQq%%%%%%%%%%%Qq%%%%%%%%%%%%%%%%%%%%%%%%%%%%%%%%%%%%%%%%%%
12986A32%%%%%%%%%%%%%%%%%%%%%%%%%%%%%%%%%%%%%%%%%%%%%%%%%%%%%%%%%%%%%%%%%%%%
12970A32%%%%%%%%%%%%%%%%%%%%%%%%%%%%%%%%%%%%%%%%%%%%%%%%%%%%%%%%%%%%%%%%%%%%
12955A32%%%%%%%%%%%%%%%%%%%%%%%%%%%%%%%%%%%%%%%%%%%%%%%%%%qQ%qQqQqQ%%qQ%%%%%
12939A32%qQ%q%Q%%%%%q%QqQ%%%qQ%%%qQqQ%%%%%%q%%Q%%%%%qQq%QqQ%q%%Q%%%%%%q%Q%qQ
12924A32%q%%Qq%%Q%qQ%q%QqQ%%q%%%%%%Qq%%%%%%%%%%%QqQ%q%%Q%q%Qq%%%Qq%%%%Qq%%%%
12908A24%%%%%%%%%%%%%%%%%%%%%%%%%%%%%%%%%%%%%%%%%%%%%%%%%%%%%%%%%%%%%%%%%%%%
12893A24%%%%%%%%%%%%%%%%%%%%%%%%%%%%%%%%%%%%%%Qq%%Qq%%%%%%%%%%%%%%%%%%%%%%%%
12877A24%%%%%%%%%%%%%%%%%%%%%%%%%%%%%%%%%%%%%%%%%%%%%%%%%%%%%%%%%%%%%%%%%%%%
12861A24%%%%%%%%%%%%%%%%%%%%%%%%%%%%%qQ%%%%%%%%%%%%%%%%%%%%%%%%%%%%%%%%%%%%%
12846A24%%%%%%%%%%%%%%%%%%%%%%qQ%%%qQ%%%%%%%%%%%%%%%%%%%%%%%%%qQ%%%%qQ%%%%%%
12830A24%%%%%qQqQqQ%qQqQq%Q%%%%q%%%Q%%q%%%Qq%Qq%%%%%%%%%%%%%QqQ%qQqQ%%q%Qq%Q
12815A24%q%%%QqQqQq%Qq%%Q%q%Q%%q%Qq%%%%%%Qq%%%%%%%%%%%%%Qq%%%%%%%%%%%%%%%%%%
12799A16%%%%%%%%%%%%Qq%Qq%%%%%%%%%%%%%%%%%%%%%%%%%%%%Qq%%%%%%%%%%%%%%%%%%%%%
12784A16%%%%%%%%%%%%%%%%%%%%%%%%%%%%%%%%%%%%%%%%%%%%%%%%%%%%%%%%%%%%%%%%%%%%
12768A16%%%%%Q%j6Q%%%%%qQ%%%%%%%%%%%%%%%%%%%%%%%%%%%%%%%%%%%%%%%%%%%%%%%%%%%
12753A16%%%%%%%%%%%%%%%%%%%%%%%%%%%%%%%%%%%%%%%%%%%%%%%%%%%%%%%%%%%%%%%%%qQ%
12737A16%%%%%%%%%%%%%%%%%%%%%%%qQ%%%%%%%%%%%%%%%%%%%%%%%%%%%%%%%%%%%%%%%%%%%
12722A16%%%%%%%%%%%%%%%%%%qQ%%%%%%%%%%%%%%%%%%%%%%%%%%%%%%%qQ%q%%Q%%%q%%%%Q%
12706A16%%%%%%q%Qq%Q%%%%%%%qQqQqQ%%q%QqQ%%%%%%%q%Qq%%Qq%%Qq%%Q%%%%%q%Qq%Qq%%
12691A08%%Qq%Qq%%%%%%Qq%%%%%Qq%%%%%Qq%%%%%%%%%%%%%%%%%%%%%%%%%%%%%%%%%%%%%%%
12675A08%%%%%%%%%%%%%%%%%%%%%%%%%%%%%%%%%%%%%%%%%%%%%%%%%%%%%%%%%%%%%%%%%%%%
12659A08%%%%%%%%%%%%%%%%%%%%%%%%%%%%%%%%%%%%%Qq%%%%Qq%Qq%%%%%%%%%%%%%%%%%%%%
12644A08%%%%%%%%%%%%%%%%%%%%%%%%%%%%%%%%%%%%%%%%%%%%%%%%%%%%%%%%%%%%%%%%%%%%
12628A08%%%%%%%%%%%%%%%%%%%%%%%%%%%%%%%%%%%%%%%%%%%%%%%%%%%%%%%%%%%%%%%%%%%%
12613A08%%%%%%%%%%%%%%%%%%%%%%%%%%%%%%%%%%qQ%%%%%%%qQ%%%%%%%%%%%%%%%%%%%%%%%
12597A08%%%%%%%%%%%%%%%%%%%%%%qQ%%%q%Q%qQ%%%%%%%%%%%%qQ%%%%%%%%%%%%%%%%%%%%%
12582A08qQ%%%%%%%%qQ%%%%%%%qQ%%%q%%Qq%%%%%Q%q%%%Qq%Qq%%%%%Q%%%q%%%Q%%q%QqQqQ
12566A08q%%%%Qq%%%%%Qq%%%%%%Q%q%%%Q%q%Q%q%%%%%%%%%%%%Qq%Qq%Qq%%%Qq%%%%%%%%%%
12550A00%%%%%%%%%%%%%Q%q%%%%%%%%%%%Qq%%%%%%%%%%%Qq%%%Qq%%%%%Qq%%%%%%QqQq%%%%
12535A00%%Qq%%%%%%%%%%%Qq%%Qq%%%%%%%%%%%%%%%%%%%%%%%%%%%%%%%%%%%%%%%%%%%%%%%
12519A00%%%%%%%%%%%%%%%%%%%%%%%%%%%%%%%%%%%%%%%%%%%%%%%%%%%%%%%%%%%%%%%%%%%%
12504A00%%%%%%%%%%%%%%%%%%%%%%%%%%%%%%%%%%%%%%%%%%%%%%%%%%%%%%%%%%%%%%%%%%%%
12488A00%%%%%%%%%%%%%%%%%%%%%%%%%%%%%%%%%%%%%%%%%%%%%%%%%%%%%%%%%%%%%qQ%%%%%
12473A00%%%%%%%%%%%%%%%%%%%%%%%%%%%%%%%%%%%%%%%%%%%%%%%%%%%%%%%%%%%%%%%%%%%%
12457A00%%%%%%%%%%%%%%%%%%%%%%%%%%%%%%%%%%%%%%%%%%%%%%%%%%%%%q%Q%%%qQ%%%%%%q
12441I2%Qq%%%Q%qQqQ%%qQqQ%%%%%%%%%%%%%%qQ%qQq%Q%%%%%%%%qQqQqQqQ%%%%%%%%%%%%%
12426A00%%%qQ%%%%%%qQq%Q%%qQ%%%%%%%q%QqQqQ%%%%q%%%Q%%%%qQqQq%%%%Q%%q%%%%%Q%q
12410I2%%QqQq%%%%%%QqQqQ%q%QqQq%Qq%Q%%qQq%Qq%Q%q%%%Q%q%%%%%%%%%%%%%%Qq%%%%%%
12394I2%%%%%Q%q%%%%%Qq%Qq%%%%%%%%%%%%%%%%%%%%Qq%%%%%%%%%%%%%%%%%%%%%%%%%%%%%
12379I2%%%%%%%%%%%%%%%%%%%%%%%%%%%%%%%%%%%%%%%%%%%%%%%%%%%%%%%%%%%%%%%%%%%%%
12363I2%%%%%%%%%%%%%%%%%%%%%%%%%%%%%%%%%%%%%%%%%%%%%%%%%%%%%%%%%%%%%%%%%%%%%
12347I2%%%%%%%%%%%%%%%%%%%%%%%%%%%%%%%%%%%%%%%%%%%%%%%%%%%%%%%%%%%%%%%%%%%%%
12331I2%%%%%%%%%%%%%%%%%%%%%%%%%%%%%%%%%%%%%%%%%%%%%%%%%%%%%%%%%%%%%%%%%%%%%
12315I2%%%%%%%%%%%%%%%%%%%%%%%%%%%%%%%qQ%%%%%%%%%qQ%%%%%%%qQ%%%QqQqq%Q%%qqJ6
12300I2Q%j6K4l2qN6m0J6j6%J6%j6%%Q%%%%%%Qj6Qq%%QqQ%%qQ%%%%%%%%%q%Q%%%q%%Q%%%%
12286I2%%q%Q%%%%%%q%%Q%q%%Q%qQ%%%%qQqQq%QqQ%%%%%%q%QqQ%q%%Q%%%q%Q%%%%qQ%%qQ%
12271I2%%%q%Q%%qQ%%%%qQ%%%%qQqQ%%%%%%q%Q%qQ%%%%%%qQ%%%%%%%%%%%%%%qQ%%%%%%%%%
12255I2%%q%Q%%qQ%qQ%q%%%Qq%%%%%%%%%%%%%QqQ%q%%Qq%%Qq%Qq%%Q%%qQqQqQqQq%QqQ%qQ
12239I2qQ%%%%%%q%%%QqQqQ%q%%%%%%%%%Qq%Q%q%%Qq%%%%%%%%%%%%%%%%Qq%%Qq%%%%%%%%%
12223H4%Qq%%%%%%%%%%%%%Qq%%%QqQq%%%%Qq%%%%%%%%%%%%%%%%%%%%%%Qq%%%Q%q%%%%%%%%
12207H4%%%%%%%%%%%%%%%%%%Qq%%%%%%%%%%%%%%%%%%%%%%%%%%%%%%%%%%%%%%%%%%%%%%%%%
12192H4%%%%%%%%%%%%%%%%%%%%%%%%%%%%%%%%%%%%%%Qq%%%%%%%%%%%%%%%%%%%%%%%%%%%%%
12176H4%%%%%%%%%%%%%%%%%%%%%%%%%%%%%%%%%%%%%%%%%%%%%%%%%%%%%%%%%%%%%%%%%%%%%
12160H4%%%%%%%%%%%%%%%%%%%%%%%%%%%%%%%%%%%%%%%%%%%%%%%%%%%%%%%%%%%%%%%%%%%%%
12144H4%%%%%%%%%%%%%%%%%%%%%%%%%%%%%%%%%%%%%%%%%%%%%%%%%%%%%%%%%%%%%%%%%%%%%
12128H4%%%%%%%%%%%%%%%%%%%%%%%%%%%%%%%%%%%%%%%%%%%%%%%%%%%%%%%%%%%%%%%%%%%%%
12113H4%%%%%%%%%%%%%%%%%%%%%%%%%%%%%%%%%%%%%%%%%%%%%%%%%%%%%%%%%%%%%%%%%%%%%
12097H4%%%%qQ%%%%%%%%%%%%%%%%%%%%%%%%%%%%%%%%%%%%%%%%%%%%%%%%%%%%%%q%Q%%%%%%
12081H4%%%%%%%%%%%%%%%%%%%%%%%qQq%Q%%%qQq%%QqQq%%Q%%qQ%%%%%q%%Q%q%Q%%qQqQ%q%
12065G6QqQq%QqJ6qq%Q%%%q%%%%Q%q%Qq%Q%%qQq%QqQ%%%%%q%%%Qq%Qq%%Qq%Qq%Q%q%QqQ%q
12050G6%Q%%%qQqQq%Qq%%Q%qQ%q%Q%%qQ%q%Q%q%Q%q%Qq%%%%%%%%%%%%%%%%%%%%%%%%Qq%Qq
12034G6%%%%%%%%%%%%%%%%%%%%%%%%Qq%%%%%%Q%q%%%QqQq%%%Q%qQq%%%%%%%%%%%%Qq%%%%%
12018G6%%%%%%%%%%%Qq%%%%%%%%%%%%%%%%%%%%%%%%%%%%%%%%%%%%%Qq%%Qq%%%%%%%%%%%%%
12002G6%%%%%%%%%%%%%%%%%%%%%%%%%%%%%%%%%%%%%%%%%%%%%%%%%%%%%%%%%%%%%%%%%%%%%
11986G6%%%%%%%%%%%%%%%%%%%%%%%%%%%%%%%%%%%%%%%%%%%%%%%%%%%%%%%%%%%%%%%%%%%%%
11971G6%%%%%%%%%%%%%%%%%%%%%%%%%%%%%%%%%%%%%%%%%%%%%%%%%%%%%%%%%%%%%%%%%%%%%
11955G6%%%%%%%%%%%%%%%%%%%%%%%%%%%%%%%%%qQ%%%%%%%%%%%%%%%%%%%%%%%%%%%%%%%%%%
11939G6%%%%%%%%%%%%%%%%%%%%%%%%%%%%%%%%%%%%%%%%%%%%%%%%%%%%%%%%%%%%%%%%%%%%%
11923G6%%%%%%%%%%%%%%%%%%%%%%%%%%%qQ%%%%%%%%%%%%%%%%%%%%%%%%%%%%%%%%%%%%%%%%
11908G6%%%%%%%%%%%%%%%%%%%%%%%%%%%%%%%%%%%%%%%%%%%%%%%%%%%%%%%%%%%%%%%%%%%%%
11892G6%%%%%%%%%%%%%%%%%%%%%%%%%%%%%%%%%%%%%%%%%%%%%%%%%%%%%%%%%%%%%%%%%%%%%
11876G6%qQ%%q%Q%qQ%%qQ%%%%%%%%%%%%%%%%%%%%%%%%%%%%%%%%%%%%%%%%%%qQ%%%%%%qQ%%
11860G6%%%%qQqQ%%%%%%%%%%%%%qQ%qQ%%%%%%%%%%%%%%%%%qQ%%%%%%%%%%qQqQ%%%%%%%%%q
11844F8Q%%%%%%%%%%%q%Q%%%qQ%%%%%%%%%%%qQqQ%qQqQqQ%q%Qq%Q%%qQqQ%q%%%%Q%q%Q%q%
11829F8%%%%Q%%%qQ%%qQq%Q%%%%%%%%%%%%%qQ%qQqQ%q%Q%qQ%%%qQqQ%%%%%qQ%%%%q%Q%%qQ
11813G6%%%%%%%%%q%%%%%%%Qq%%%QqQq%Qq%%%%%%%%%%%%%%%%%%Qq%Qq%%%Q%q%%%Qq%%%%%%
11797F8%%%%%%%%%%%%%%%%%%Qq%%%%%%%%%%%%%%%%%%%%%%%Qq%%%%%%Qq%%%%Qq%%%%%%%%%%
11781F8%%%%%%%%%%%%%%%%%%%%%%%%%%%%%%%%%%%%%%%%%%%%%%%%Qq%%%%%%%%%%%%%%Qq%%%
11765F8%%%%%%%%%%%Qq%%%%%%%%%%%%%%%%%%%%%%%%%%%Qq%%%%%%%%%%%%%%%%%%%%%%%%%%%
11750F8%%%%%%%%%%%%%%%%%%%%%%%%%%%%%%%%%%%Qq%%%%%%%%%%%%%%%%%%%%%%%%%%%%%%%%
11734F8%%%%%%%%%%%%%%%%%%%%%%%%%%%%%%%%%%%%%%%%%%%%%%%%%%%%%%%%%%%%%%%%%%%%%
11718F8%%%%%%%%%%%%%%%%%%%%%%Qj6J6q%%%%Qq%%%%%%%%%%%%%%%%%%%%%%%%%%%%%%%%%%%
11703F8%%%%%%%%%%%%%%%%%%%%%%%%%%%%%%%%%%%%%%%%%%%%%%%%%%%%%%%%%%%%%%%%%%%%%
11687F8%%%%%%%%%%%%%%%%%%%%%%%%%%%%%%%%%%%%%%%%%%%%%%%%%%%%%%%%%%%%%%%%%%%%%
11671F8%%%%%%%%%%%%%%%%%%%%%%%%%%%%%%%%%%%%%%%%%%%%%%%%%%%%%%%%%%%%%%%%%%%%%
11655F8%%%%%%%q%Q%%%%%%%%%%%%%%%%%%%%%%%%%%%%%%%%%%%%%%%%%%%%%%%%%%%%%%%%%%%
11639F8%%%%%%%%%%%%%%%%%%%%%%%%%%%%%%%%%%%%%%%%%%%%%%%%%%%%%%%%%%%%%%%%%%%%%
11624F8%%%%%%%%%%%%%%%%%%%%%%%%%%%%%%%%%%%%%%%%%%%%%%%%%%%%%%%%%%%%%%%%%%%%%
11608F8%%%%%%%%%%%%%%%%%%%%%%%%%%%qQ%%%%%%%%%%%%%%qQ%%qQqQqQ%%q%Q%%q%Q%q%Q%%
11592F8%%%%%%%%%%qQ%%%%%%%%%%%%%%%%%%%%%qQ%%%%%%%%%%%%qQ%qQ%%%%%%%%%%%%%%%%q
11576F0QqQ%qQ%qQqQ%qQ%qQ%%%qQ%%qQ%%qQqQ%qQq%Q%%q%Qq%%QqQ%%%%%%%%%%%%%%qQqQq%
11561F0%Q%q%%Q%%%qQqQ%q%%%%Q%q%Q%qQq%Qq%%QqQqQ%qQqQ%qQ%%qQq%Qq%%%%%%%%Q%qQ%q
11545F0%%%Qq%Q%%q%Q%%%q%%%%Qq%%Q%%q%%QqQqQq%%%Qq%%%Qq%Q%qQ%q%%%%Qq%%%Qq%%Qq%
11529F0%%%%%%%%%%%%Qq%%%%%%%%%QqQ%%%qQ%%%q%%%%%%Qq%%%%Q%%qQq%%%%%%%%%%Q%q%Qq
11513F0%%%%%%%%%Qq%%Qq%%%%%%%Q%q%%%%%%%%%%%%%%%%%%%%%%%%%%%%%%%%%%%%%%%%%%%%
11497F0%%%%%%%%%%%%%%%%%%%%%%%%%%%%%%%%%%Qq%Q%q%%%%%%%%%%%%%%%%%%%%%%%%%%%%Q
11482F8%%%%qQq%%%%Q%qQ%q%%%%%%%%%%%%%%%%%%%%%%%%%%%%%%%%%%%%%%%%%%%%%%%%%%%%
11466F0%%%%%%%%%%%%%%%%%%%%%%%%%%%%%%%%%%%%%%%%%%%%%%%%%%%%%%%%%%%%%%%%%%%%%
11450F0%%%%%%%%%%%%%%%%%%%%%%%%%%%%%%%%%%%%%%%%%%%%%%%%%%%%%%%%%%%%%%%%%%%%%
11434F0%%%%%%%%%%%%%%%%%%%%%%%%%%%%%%%%%%%%%%%%%%%%%%%%%%%%%%%%%%%%%%%%%%%%%
11418F0%%%%%%%%%%%%%%%%%%%%%%%%%%%%%%%%%%%%%%%%%%%%%%%%%%%%%%%%%%%%%%%%%%%%%
11403F0%%%%%%%%%%%%%%%%%%%%%%%%%%%%%%%%%%%%%%%%%%%%%%%%%%%%qQ%%%%%%%%%%%%%%%
11387F0%%%%%%%%%%%%%%%%%%%%%%%%%%%%%%%%%%%%%%%%%%%%%%%%%%%%%%%%%%%%%%%%%%%%%
11371F0%%%%%%%%%%%%%%%%%%%%%%%%%%%%%%%%%%%%%%%%qQ%qqJ6qJ6%%q%%%%Qq%qQqQ%%%%%
11356F0%%%%%%%%%%%%%%%%%%%%%%%%%%%%%%%%%%%%%%%%%%%%%%%%%%%%%%%%%%%%%%%%%%%%%
11340F0%%%%%%%%%%%%%%%%%%%%%%%%%%%%%%%%%%%%qQ%%%%%%%%%%%%%%%%%%%%%%%%%%%%%%%
11324F0%%%%%%%%%%%%%%%%%%%%%%%%%%%%%%%%%%%%%%%%%%%%%%%%%%%%%%%%%%%%%%%%%%%%%
11308F0%%%%%%%%%%%%%%%%%%%%%%%%qQ%%%qQqQ%%%%%%%%%%%%%%%%%%%%%%%%%%%%%%%%%%%%
11292F0%%%%%%%%%%%%%%%%%%%%%%qQqQ%%%%%%%%%%%%%%%qQ%%%qQ%qQ%%%qQ%%%%%%%%%%%%%
11277F0%%%%%qQ%%%%%%%%%%%qQ%%qQ%%%%%%%%%%%%%%%%%%%%%%%q%QqQ%%%%%%%%%%%%%%%%%
11261F0%%qQ%%%%%%%%%%%%%%%%%%%%%%%%%%%%%%%%%%qQ%%%%%qQqQqQ%%qQ%%%%%%%%qQ%%%q
11245E2Qq%%%%%Q%%%q%%Q%qQ%qQqQ%%qQq%%%%%Qq%%%%%Q%q%QqQq%Qq%%Q%%%%%qQqQq%%%%Q
11229F0%qQ%q%%Q%qQ%q%Q%%%%%%%%%%%%%%%qQ%qQ%qQqQ%%%%qQqQ%%%%%q%Q%%%%%qQq%%%Qq
11214E2QqQqQ%%q%Q%%%%qQqQq%Q%%%%q%Q%%q%Q%q%QqQ%qQ%%%q%Q%qQq%%Q%q%Q%q%%%%%Qq%
11198E2%%%%%%%%%%%%%Qq%%%%Q%q%Q%%%q%Qq%%%%%%%%%%%%%%%%%%Qq%Q%%q%%Q%%q%%QqQqQ
11182F0%qQq%%%%%%%Qq%%Q%q%%%%%%%%%%Qq%%%%%Qq%%%%%%%%Qq%%%%%%%%%%Q%q%%%%Qq%%Q
11166F0qQqQqQq%%%%%%%%%%%%%%%%%%%%%%%%%%%%%%%%%%%%Qq%Qq%%%%%%%%%%%%%%%%%%%%%
11150E2%%%%%%%%%%%%%%%%%%%%%%%%Qq%%%%%%%%%Q%q%%%QqQqQq%%%%%%%%%%QqQ%%q%%%%%%
11135E2%%Qq%%%%%%%%%%%%%%%%%%%%%Qq%%%%Qq%%Q%qQq%%QqQq%%%%%%%%%%%%%%%%%%%%%%%
11119E2%%%%%%%%%%%%%%%%%%%%%%%%%%%%%%%%%%%%%%%%%%%%%%%%%%%%%%%%%%%%%%%%%%%%%
11103E2%%%%%%%%%%%%%%%%%%%%%%%%%%%%%%%%%%%%%%%%%%%%%%%%%%%%%%%%%%%%%%%%%%%%%
11087E2%%%%%%%%%%%%%%%%%%%%%%%%%%%%%%%%%%%%%%%%%%%%%%%%%%%%%%%%%%%%%%%%%%%%%
11071E2%%%%%%%Qq%%%Qq%%%%%%%%%%%%%%%%%%%%%%%%%%%%%%%%%%%%%%%%%%%%%%%%%%%%%%%
11056E2%%%%%%%%%%%%%%%%%%%%%%%%%%%%%%%%%%%%%%%%%%%%%%%%%%%%%%%%%%%%%%%%%%%%%
11040E2%%%%%%%%%%%%%%%%%%%%%%%%%%%%%%%%%%%%%%%%%%%%%%%%%%%%%%%%%%%%%%%%%%%%%
11024E2%%%%%%%%%%%%%%%%%%%%%%%%%%%%%%%%%%%%%%%%%%%%%%%%%%%%%%%%%%%%%%%Qq%%%%
11008E2%%%%%%%%%%%%%%%%%%%%%%%%%%%%%%%%%%%%%%%%%%%%%%%%%%%%%%%%%%%%%%%%%%%%%
10992E2%%%%%%%%%%%%%%%%%%%%%%%%%%%%%%%%%%%%%%%%%%%%%%%%%%%%%%%%qQ%%%%%%%%%%%
10977E2%%%%%%%%%%%%%%%%%%%%%%%%%%%%%%%%%%%%%%%%%%%%%%%%%%%%%%%%%%%%%%%%%%%%%
10961E2%%%%%%%%%%%%%%%%%%%%%%%%%%%%%%%%%%%%%%%%%%%%%%%%%%%%%%%%%%%%%%%%%%%%%
10945E2%%%%%%%%%%%%%%%%%%%%%%%%%%%%%%%%%%%%%%%%%%%%%%%%%%%%%%%%%%%%%%%%%%%%%
10929E2%%%%%%%%%%%%%%%%%%%%%%%%%%%%%%%%%%%%%%%%%%%%%%%%%%%%%%%%%%%%%%%%%%%%%
10913E2%%%%%%%%%%%%%%%%%%%%%%%%%%%%%%%%%%%%%%%%%%%%%%%%qQ%%%%%%%%%%q%Q%%%%%q
10898D4Q%%%%%qQ%%%%%%%%%%%%%%%%%%%%%qQqQqQ%qQ%%%%qQqQqQ%%%%%%%%%%%%%%%%qQ%%%
10882E2%%%%%%%%%%%%%%%%%%%%%%%%%%%%%%%%%%%%%%%%%%%%%%%%%%%%%%%%%%%%%%%%%%%qQ
10866E2%%%%%%%%%qQ%%%%%%%%%%%%%%%%%%%%%%%%%%%%%%%%%%%%%%%%%%%%%%%%%%%%%%%%%q
10850D4%Q%%q%%%QqQ%%qQ%%%%%%%%%%%%%%%%%%qQ%%%%%%%%%%%%%%%%%%%%%%%%qQ%%%%%%%%
10835E2q%%%%Q%%%%%q%%Q%qQ%qQqQ%%%%%%qQ%%qQqQ%%%%%%qQ%%%%%%qQ%%q%QqQ%%%%%qQ%%
10819E2%%%%%%%%%%%%%%%%%%%%%%%%%%%%%%%%%q%Q%%%%%%%%%qQq%%Q%qQ%%%%%%%qQ%qQ%%q
10803D4Q%%%%%%qQ%%%%qQ%%qQq%Qq%Q%%q%%Q%%qQ%%qQqQ%q%%%%%%%%Q%qQ%%%qQ%qQqQ%qQq
10787D4%Qq%Q%q%QqQq%Q%%%%%%%%q%Q%qQ%q%%%Q%q%Q%qQ%%%qQqQ%%%qQq%Q%q%Q%%%%qQq%Q
10771E2q%%%QqQqQq%Q%q%Q%%%%%%%qQq%%%Qq%%%%Q%qQqQq%QqQq%Q%q%%%%%%%%%%%%%%%%%%
10756D4%%%QqQq%%%%%%%%%%Qq%%%%%%%%%%QqQ%q%%%QqQ%%q%%%%%%%%%Q%q%%Q%q%%%%Q%%%%
10740E2%qQ%%%%%%%%%qQ%qQq%Q%%q%%%%%%%%%Q%qQ%%q%%%%%%Qq%%%%%%Qq%%%%QqQq%%Q%qQ
10724E2qQ%%qQqQ%%qQ%%%%%%%q%%%%%Qq%%%%Q%q%%Q%%q%%%%%Q%qQq%%%%%%%%%%QqQq%%%%%
10708D4%%%%%%%%%%%%%%%%%%%%%%%%%%%%%%%%%%%%%%%%%%%%%%%%%%%%%%%%%%%%%%%%%%%%%
10692D4%%%%%%%%%%%%%%%%%%%%%%%%%%%%%%%%%%%%%%%%%%%%%%%%%%%%%%%%%%%%%%%%%Q%q%
10677D4%Qq%%%%%%%%%%Qq%%Q%q%%%%%%%%%%%%%%%%%%%%%%%%%%%%%%%%%%%%%%%%%%%%%%%%%
10661D4Qq%%%%%%%%%%%qJ6%qQq%QqQq%%%%%%%%%%%%%%%%%%%%%%%%%%%%%%%%%%%%%%%%%%%%
10645D4%%%%%%%%%%%%%%%%%%%%%%%%%%%%%%%%%%%%%%%%%%%%%%%%%%%%%%%%%%%%%%%%%%%%%
10629D4%%%Qq%%%%%%%%%%%%%%%%%%%%%%%%%%%%%%%%%%%%%%%%%%%%%%%%%%%%%%%%%%%%%%%%
10614D4%%%%%%%%%%%%%%%%%%%%%%%%%%%%%%%%%%%%%%%%%%%%%%%%%%Qq%%%%%%QqQ%q%Qq%%%
10598D4%%%%%%%%%%%%%%%%%%%%%%%%%%%%%%%%%%%%%%%%%%%%%%%%%%%%%%%%%%%%%%%%%%%%%
10582D4%%%%%%%%%%%%%%%%%%%%%%%%%%%%%%%%%%%%%%%%%%%%%%%%%%%%Qq%%%%%%%%%%%%%%%
10566D4%%%%%%%%%%%%%%%%%%%%%%%%%%%%%%%%%%%%%%%%%%%%%%%%%%%%%%%%%%%%%%%%%%%%%
10550D4%%%%%%%%%%%%%%%%%%%%%%%%%%%%%%%%%%%%%%%%%%%%%%%%%%%%%%%%%%%%%%%%%%%%%
10535D4%%%%%%%%%%%%%%%%%%%%%%%%%%%%%%%%%%%%%%%%%%%%%%%%%%%%%%%%%%%%%%%%%%%%%
10519D4%%%%%%%%%%%%%%%%%%%%%%%%%%%%%%%%%%%%%%%%%%%%%%%%%%%%%%%%%%%%%%%%%%%%%
10503D4%%%%%%%%%%%%%%%%%%%%%%%%%%%%%%%%%%%%%%%%%%%%%%%%%%%%%%%%%%%%%%%%%%%%%
10487D4%%%%%%%%%%%%%%%%%%%%%%%%%%%Qq%%%%%%%%%%%%%%%%%%%%%%%%%%%%%%%%%%%%%%%%
10471D4%%%%%%%%%%%%%%%%%%%%%%%%%%%%%%%%%%%%%%%%%%%%%%%%%%%%%%%%%%%%%%%%%%%%%
10456D4%%%%%%%%%%%%%%%%%%%%%%%%%%%%%%%%%%%%%%%qQ%%%%%%%%%%%%%%%%%%%%%qQ%%%%%
10440D4%%%%%%%%%%%%%%%%%%%%%%%%%%%%%%%%qQ%%%%qQ%%%%%%%qQqQ%%qQqQ%%%q%Qq%QqQ%
10424D4%qqJ6qJ6qqQ%%%%%qQq%Q%qQ%%%%%%%%%qQ%%%%%%%%%%%%%%%%%%%%%%%%%%%%%%%%%%
10409D4%%%%%%%%%%%%%%%%%%%%%%%%%%%%%%%%%%%%%%%%%%%%%%%%%%%%%%%%%%%%%%%%%%%%%
10393D4%%%%%%%%%%%%%%%%%%%%%qQ%%%%%%%%%%%%%%%%%%%%%%%%%%%%%%%%%%%%%%%%%%%%%%
10377D4%%%%%%%%%%%%%%%%%%%%%%%%%%%%%%%%%%%%%%%%%%%%%%%%%%%%%qQ%%%%qQ%%%%%%%%
10361D4%%%%qQ%%%%%%%%%%%%%%%%%%%%%%%%%%%%%%%%%%%%%%%%%%%%%%%%%%%%%%qQ%%%%%%%
10346D4%%%%%%%%%%%%%qQ%q%Q%qQ%%%qQ%%%%%%%%%%%%%qQ%%%q%Q%%%%%%%%%%%%%%%%%%%%%
10330D4%%%%%%%%%%%%%%%%%%%%%%%%%%%%%%%%%%%%%%%%%%%%%%%%%%%%%%%%%%%%%%%%%%%%%
10314D4%%%%%%%%%%%%%%%%%%%%%%qQ%%%%%%%qQ%%%%%%qQ%%%%%%%%%%%%%%%%%%%%qQ%%%%%%
10298D4%%%%%%%%%%%%%%qQ%%%%%%%qQ%%%%%%%%%qQqQ%%%%%%%%%%%%%%%%%%%%qQ%%q%Q%%%%
10282D4%qQ%%%%%qQ%%%%%%%%%%%%qQqQ%%%%%%%%%%%%%%%qQ%%%qQqQ%%%%%%%%%%%%%%%%%%%
10267D4%%%%%%%%%%%%qQ%qQ%%%q%Q%%qQqQ%%q%Q%q%%%Q%%%%qQ%%q%Qq%Q%%%qQ%%%%%qQ%%%
10251D4%%%%qQ%%%%q%%Q%qQq%%QqQ%%%%%%%q%%%QqQq%%%Qq%%Q%q%Q%q%%%Q%qQ%%%%qQ%%q%
10235C6Q%%%%qQqQq%Q%%qQqQqQ%%%qQqQ%%%qQ%%qQ%q%%%%Q%%%q%Qq%%%%%%Qq%%%%%%QqQ%%
10219D4%qQ%qQq%%QqQ%qQ%%%%qQ%%%q%%%Qq%QqQ%%%%%%%%%%%%qQ%qQ%%%%qQq%%%QqQ%%q%%
10203C6Qq%%%%%Q%%%q%%Qq%%%%%%%%%%%%QqQq%Q%%q%%%QqQ%%q%Qq%%%%%%%%%%%%QqQ%qQq%
10188C6Q%q%Q%%q%%Q%%%%q%%%%%%%%Q%%%qQqQq%Qq%Q%qQ%%%q%QqQqQq%%%%%%%%Qq%%%%%%%
10172C6%%%%%%Qq%Qq%%%%%%%%QqQ%%%q%Qq%Q%%%%%%q%QqQq%%QqQ%q%Q%%q%%Qq%%%%%%%%Qq
10156C6Qq%%Qq%Qq%%%%%%%Qq%Q%q%%%%%%Qq%%%%%%Qq%Qq%%%%%%%Qq%Qq%%%%%%%%%%%%%%%%
10140C6%%%%%%%%%%%%Qq%%%%%%%QqQqQq%Q%q%%%%%%%%%%%%%%%%Qq%QqQ%%q%%%%%%%%%%Qq%
10125C6%%%QqQ%q%%%Qq%%%%%%%%%%%%%%%%%%%%%%%%QqQq%%%%%Q%q%%%%%Qq%%%%%Qq%%Qq%%
10109C6Q%q%Q%q%%%%%%%%%%%%%%%%%Qq%%%%Qq%%%%Qq%%%%%%%%%%%%%%%%%%%%%%%%%%%%%%%
10093C6%%%%%%%%%%%%%%%%%%%%%%Qq%%%%%%%%%%%%%%%%%%%%%%%%%%%%%%%%%%%%%%%%%%%%%
10077C6%%%%%%%%%%%%%%%%%Qq%%%%Qq%%%%%%%%%%%%%%Qq%%%%%%%%%%%%%%%%%%%%%%%%%%%%
10061C6%%%%%%%%%%%%%%%%Qq%%%%%%%%%%%%%%%%%%%%%%%%%%%%%%%%%%%%%%%%%%%%%%%%%%%
10046C6%%%%%%%%%%%%%%%%%%%%%%%%%%%%%%%%%%%%%%%%%%%%%%%%%%%%%%%%%%%%%%%%%%%%%
10030C6%%%%%%%%%%%%%%%%%%%%%%%%%%%%%%%%%%%%%%%%%%%%%%%%%%%%%%%%%%%%%%%%%%%%%
10014C6%%%%%%%%%%%%%%%%%%%%%%%%%%%%%%%%%%%Qq%%%%%%%%%%%%%%%%%%%%%%%%%%%%%%%%
9998C6%%%%%%%%%%%%%%%%%%%%%%%%%%%%%%%%%%%%%%%%%%%%%%%%%%%%%%%%%%%%%%%%%%%%%%
9982C6%%%%%%%%%%%%%%%%%%%%%%%%%%%%%%%%%%%%%%%%%%%%%%%%%%%%%%%%%%%%%%%%%%%%%%
9966C6%%%%%%%%%%%%%%%%%%Qq%%%%%%%%%%%%%Qq%%%%%%%%%Qq%%Q%j6J6j6%Q%%Q%q%%%%%%%
9951C6%%%%%%%%%%%%%%%%%%%%%%%%%%%%%%%%%%%%%%%%%%%%%%%%%%%%%%%%%%%%%%%%%%%%%%
9935C6%%%%%%%%%%%%%%%%%%%%%%%%%%%%%%%%%%%%%%%%%%%%%%%%%%%%%%%%%%%%%%%%%%%%%%
9919C6%%%%%%%%%%%%%%%%%%%%%%%%%%%%%%%%%%%%%%%%%%%%%%%%%%%%%%%%%%%%%%%%%%%%%%
9903C6%%%%%%%%%%%%%%%%%%%%%%%%%%%%qJ6q%%%%%%%%%%%%%%%%%%%%%%%%%%%%%%%%%%%%%%
9887C6%%%%%%%%%%%%%%%%%%%%%%%%%%%%%%%%%%%%%%%%%%%%%%%%%%%%%%%%%%%%%%%%%%%%%%
9871C6%%%%%%%%%%%%%%%%%%%%%%%%%%%%%%%%%%%%%%%%%%%%%%%%%%%%%%%%%%%%%%%%%%%%%%
9855C6%%%%%%%%%%%%%%%%%%%%%%%%%%%%%%%%%%%%%%%%%%%%%%%%%%%%%%%%%%%%%%%%%%%%%%
9839C6%%%%%%%Qq%%%%%%%%%%%%%%%%%%%%%%%%%%%%%%%%%%%%%%%%%%%%%%%%%%%%%%%%%%%%%
9823C6%%%%%%%%%%%%%%%%%%%%%%%%%%%%%%%%%%%%%%%%%%%%%%%%%%%%%%%%%%%%%%%%%%%%%%
9807C6%%%%%%%%%%%%%%%%%%%%%%%%%%%%%%%%%%%%%%%%%%%%%%%%%%%%%%%%%%%%%%%%%%%%%%
9791C6%%%%%%%%%%%%%%%%%%%%%%%%%%%%%%%%%%%%%%%%%%%%%%%%%%%%%%%%%%%%%%%%%%%%%%
9775C6%%%%%%%%%%%%%%%%%%%%%%%%%%%%%%%%%%%%%%%%%%%%%%%%%%%%%%%%%%%%%%%%%%%%%%
9759C6%%%%%%%%%%%%%%%%%%%%%%%%%%%%%%%%%%%%%%%%%%%%%%%%%%%%%%%%%%%%%%%%%%%%%%
9743C6%%%%%%%%%%%%%%%%%%%%%%%%%%%%%%%%%%%%%%%%%%%%%%%%%%%%%%%%%%%%%%%%%%%%%%
9727C6%%%%%%%%%%%%%%%%%%%%%%%qQqQ%%%%%%%%%%%%%%%%%%%%%%%%%%%%%%%%%%%%%%%%%%%
9711C6%%%%%%%%%%%%%%%%%%%%%%%%%%%%%%%%%%%%%%%%%%%%%%%%%%%%qQ%%%%%%%%%%%%%%%%
9695C6%%%%%%%%%%%%%%%%%qQ%%%%%%%%%%%%%%%%%%%%%%%%%%%%%%%%%%%%%%%%%%%%%%%%%%%
9679C6%%%%%%%%%%%%%%%%%%%%%%%%%%%%%%%%%%%%%%%%%%%%%%%%%%%%%%%%%%qQ%%%%%%%%%%
9663C6%%%%%%%%%%%%%%%%%%%%%%%%%%%%%%%%%%%%%%%%%%%%%%%%%%%%%%%%%%%%%%%%%%%%%%
9647C6%%%%%%%%%%%%%%%%%%%%%%%%%%%%%%%%%%%%%%%%%%%%%%%%%%%%%%%%%%%qQ%%%qQ%%%%
9631C6%%%%%%%%%%%%%%%%%%%%%%%%qQ%%%qQ%%%%%%%%%%%%%%%%%%%%%%%%%%%%%%%%%%%%%%%
9615C6%q%Q%qQ%%qQ%%%%%%%%%%%%%%%%%%qQ%%%%%%%%%%%%%%%%%%%%%%%%%%%%q%Q%%%%%%%%
9599C6%%%%%%%%%%%%%%%%%%%%%%%%%%%%%%%%%%%%%%%%%%%%%%qQ%%%%%%%%%%%%%%%%%%%%%%
9583C6%%%%%%%%%%%qQ%%%%%%%%%%%%%%%%%%%%%%%qQ%%%%%%%%%%%%%%qQqQ%%qQ%%%%%%%%%%
9566C6qQ%%%%%%%%%%%%%%%%%%%%%%%%%%%%%%%%%%%qQ%%q%Q%qQ%%%%%%%%%%%%%%%%%%%%%%%
9550C6%%%%%%%%%%%%%%%%%%%%qQ%%%q%%Q%%%%%%%%%%%%%%%%%%%%%%%%%%%%%%%%%%%%%%qQq
9534B8%QqQ%%%%%%%%%%qQqQ%%qQqQqQqQ%%%%%%%%%%%%%%%%%%%%%%%%%%qQ%%%%%%%%%%%%%%
9518C6%%%%%%%qQ%q%%Q%qQ%qQqQ%%%%%%%%%%%%qQ%%%%qQ%%%qQ%qQ%%%%%%%%%%%%%%%%%%%%
9502C6%%%%%%qQ%%%%%%%%%%%%%%%%qQ%%%%%%%%%%%qQ%qQqQ%%%%qQ%%q%%Q%%qQqQq%QqQqqJ6
9486C6j6K4k4QQj6J6%%%q%%QqQ%%q%Q%%q%%%Q%q%QqQq%%Q%q%Qq%Q%%%%%qQqQ%%%%%%qQ%%%
9472C6%q%QqQqQ%%%%%%%%%%%%%qQ%%%%%%%%%%qQ%%%%%%%%%%%qQq%Q%qQqQ%%%qQqQq%Q%qQ%
9455C6q%Q%qQ%%%%%%qQ%%%%%%%%qQ%%q%Qq%Q%%%%%q%Q%%%%%%%%%%%%%%%%%q%Qq%Q%%%%%%%
9439C6%%%%%%%%qQq%%QqQ%%q%%Q%%%%q%QqQq%Q%%%%%%%%q%%%%QqQ%q%%QqQ%q%QqQqQq%Q%%
9423C6%qQ%q%Q%%qQq%%Q%%q%%%%%%QqQ%%qQqQq%%%%Q%q%QqQqQqQ%qQ%qQqQq%%%%Qq%%%%%%
9407B8%%Qq%Qq%Q%%%q%%%Q%q%%%%%%%%Qq%%%%%%%Q%q%Q%%qQq%%%QqQq%%%%%Q%q%%QqQ%qQ%
9391C6%%%qQqQ%qQq%%%%%%Qq%%%%%%%%%%%Q%%%q%QqQqQ%%%%%qQqQ%qQ%%qQ%%qQ%qQq%%%%%
9375B8%QqQq%%%%%%%%%%%%Qq%%%%%%Qq%%%%Q%%q%Q%%%q%Qq%%%%%Qq%%%%%%%%Q%qQq%%%%%%
9359B8%%%%%%%%%%%Qq%%%Qq%Qq%Q%%%q%%%%Qq%%%%%Q%q%Q%q%%Qq%QqQ%%%q%Q%qQ%%%qQ%q%
9343B8Q%%qQq%%Qq%%Qq%Q%q%%%Qq%%Q%qQq%%%%%%%Q%qQq%Q%%q%%%%QqQ%q%%Q%q%%%%%Q%q%
9327B8Qq%%%%%%%%%Qq%%%%%%%%QqQq%Q%%%qQ%%q%Qq%%%QqQq%Qq%QqQ%qQq%%%%%%%%Qq%%%%
9311B8%%%Q%%%%%%qQq%%%%%%%Q%q%%%%Qq%%%%%%%%%%%%%%%%%%%Qq%%Q%q%%Qq%%%%%%%%%Qq
9295B8%Q%%%qQ%%q%Qq%%%Q%%q%%%Q%q%Qq%%%%%%%%%%%%%%%%%%%%%%%%%%%%%%Qq%%%%%%Qq%
9279B8%%%%%%%%%%%%%%%%%%%%%%%%%%%%%%%%%%%%%%%%%%%Qq%%%%%%%%Qq%%%Qq%%%%%%%%%%
9263B8%%%Qq%%%%%%%%%%%%Qq%%%%%%%%%%%%%%%%%%%Q%q%%%Q%q%%Q%%q%%Q%q%%%%Q%%%q%Q%
9247C6%q%%%%%%Qq%%%%%%%Q%q%%%%Qq%%%%%%%%%%%%%%%%%%QqQq%%%%%%%%%Qq%%%%%%%%%%%
9231B8%%%%%%%%%%%%%%%%%%%%%%%%%%%%%%%Qq%%Qq%%Qq%%Q%q%%%%%%%%%%%%%%%%%%%%%%%%
9215B8%%%%%%%%%%%%%%%%%%%%%%%%%Qq%QqQq%%%%%%Qq%%%%%%Qq%%%%%%%%%%%%%%%%%%%%%%
9199B8%%%%%%%%%%%%%%%%%%%%%%%Qq%%%%%%%Qq%%%%%%%%%%%%%%%%%%%%%%%%%%%%%%%%%%%%
9183B8%%%%%%%%%%%%%%%%%%%%%%%Qq%%%%%%%%%%%%%%%%%%%%%%%%%%%%%%%%%%%%%%%%%%%%%
9167B8%%%%%%%%%%Qq%%%%%%%Qq%%%%%%%%%%%%%%%%%%%%%%%%%%%%%%%%%%%%%%%%%%%%%%%%%
9151B8%%%%%%%%%%%%%%%%%%%%%%%%%%%%%%%%%%%%%%%%%%%%%%%%%%%%%%%%%%%%%%%%Qq%%%%
9135B8%%qQ%%%%%%%%%%%%%%%%%%%%%%%%%%%%%%%%%%%%%%%%%%%%%%%%%%%%%%%%%%%%%%%%Qq
9119B8%%%%%%%%%%%%%%%%%%%%%%%%%%%%%%%%%%%%%%%%%%%%%%%%%%%%%%%%%%%%%%%%%%%%%%
9103B8%%%%%%%%%%%%%%%%%%%%%%%%%%%%%%%%%%%%%%%%%%%%%%%%%%%%%%%%%%%%%%%%%%%%%%
9087B8%%%%%%%%%%%%%%%%%%%%%%%%%%%%%%%%%%%%%%%%%%%%%%Q%q%%%%%%%%%%%%%%%%%%%%%
9071B8%%%%%%%%%%%%%%%%%%%%%%%%%%%%%%%%%%%%%%%%%%Qq%%%%%%%%%%%%%%%%%%%%%%%%%%
9055B8%%%%%%%%%%%%%%%%%%%%%%%%%%%%%%%%%%%%%%%%%%%%%%%%%%%%%%%%%%%%%%%%%%%%%%
9039B8%%%%%%%%%%%%%%%%%%%%%%%%%%%%%%%%%%%%%%%%%%%%%%%%%%%%%%%%%%%%%%%%%%%%%%
9023B8%%%%%%%%%Qq%%%%%%%%%Qq%%%%%Qq%%Qq%Qq%%%%%%%%%%%%%%%%%%%%%%%%%%%%%%%%%%
9007B8%%%%%%%%%%%%%%%%%%%%%%%%%%%%%%%%%%%%%%%%%%%%%%%%%%%%%%%%%%%%%%%%%%%%%%
8991B8%%%%%%%%%%%%%%%%%%%%%%%%%%%%%%%%%%%%%%%%%%%%%%%%%%%%%%%%%%%%%%%%%%%%%%
8975B8%%%%%%%%%%%%%%%%%%%%%%%%%%%%%%%%%%%%%%%%%%%%%%%%%%%%%%%%%%%%%%%%%%%%%%
8959B8%%%%%%%%%%%%%%%%%%%%%%%%%%%%%%%%%%%%%%%%%%%%%%%%%%%%%%%%%%%%%%%%%%%%%%
8943B8%%%%%%%%%%%%%%%%%%%%%%%%%%%%%%%%%%%%%%%%%%%%%%%%%%%%%%%%%%%%%%%%%%%%%%
8927B8%%%%%%%%%%%%%%%%%%%%%%%%%%%%%%%%%%%%%%%%%%%%%%%%%%%%%%%%%%%%%%%%%%%%%%
8911B8%%%%%%%%%%%%%%%%%%%%%%%%%%%%%%%%%%%%%%%%%%%%qQ%qQ%%Qq%%%%%%%%%%%%%%%%%
8895B8%%%%%%%%%%%%%%%%%%%%%%%%%%%%%%%%%%%%%%%%%%%%%%%%%%%%%%%%%%%%%%%%%%%%%%
8879B8%%%%%%%%%%%%%%%%%%%%%%%%%%%%%%%%%%%%%%%%%%%%%%%%%%%%%%%%%%%%%%%%%%%%%%
8863B8%%%%%%%%%%%%%%%%%%%%%%%%%%%%%%%%%%%%%%%%%%%%%%%%%%%%%%%%%%%%%%%%%%%%%%
8847B8%%%%%%%%%%%%%%%%%%%%%%%%%%%%%%%%%%%%%%%%%%%%%%%%%%%%%%%%%%%%%%%%%%%%%%
8831B8%%%%%%%%%%%%%%%%%%%%%%%%%%%%%%%%%%%%%%%%%%%%%%%%%%%%%%%%%%%%%%%%%%%%%%
8815B8%%%%%%%%%%%%%%%%%%%%%%%%%%%%%%%%%%%%%%%%%%%%%%%%%%%%%%%%%%%%%%%%%%%%%%
8799B8%%%%%%%%%%%%%%%%%%%%%%%%%%%%%%%%%%%%%%qQ%%%%%%%%%%%%%%%%%%%%Qq%%%%%Qq%
8783B8%%%%qQ%%%%%%%%%%%%%%%%%%%%%%%%%%%%%%%%%%%%%%%%%%%%%%%%%%%%%%%%%%%%%%%%
8767B8%%%%%%%%%%%%%%%%%%%%%%%%%%%%%%%%%%%%%%%%%%%%%%%%%%%%%%%%%%%%%%%%%%%%%%
8751B8%%%%%%%%%%%%%%%%%%%%%%%%%%%%%%%%%%%%%%%%%%%%%%%%%%%%%%%%%%%%%%%%%%%%%%
8735B8%%%%%%%%%%%%%%%%%%%%%%%%%%%%%%%%%%%%%%%%%%%%%%%%%%%%%%%%%%%%%%%%%%%%%%
8718B8%%%%%%%%%%%%%%%%%%%%%%%%%%%%%%%%%%%%%%%%%%%%%%%%%%%%%%%%%%%%%%%%%%%%%%
8702B8%%%%%%%%%%%%%%%%%%%%%%%%%%%%%%%%%%%%%%%%%%%%%%%%%%%%%%%%%%%%%%%%%%%%%%
8686B8%%%%%%%%%%%%%%%%%%%%%%%%%%%%%%%%%%%%%%%%%%%%%%%%%%%%%%%%%%%%%%%%%%%%%%
8670B8%%%%%%%%%%%%%%%%%%%%%%Qq%%qQ%%%%%%%%%%%%%%%%%%%%%%%%%%%%%%%%%%%%%%%%%%
8654B8%%%%%%%%%%%%%%%%%%%%%%%%%%%%%%%%%%%%%%%%%%%%%%%%%%%%%%%%%%%%%%%%%%%%%%
8638B8%%%%%%%%%%%%%%%%%%%%%%%%%%%%%%%%%%%%%%%%%%%%%%%%%%%%%%%%%%%%%%%%%%%%%%
8622B8%%%%%%%%%%%%%%%%%%%%%%%%%%%%%%%%%%%%%%%%%%%%%%%%%%qQ%%%%%%%%%%%%%%%%qQ
8606B8%%%%%qQ%%%%%%%%%%%%%%%%%%%%%%%%%%%%%%%%%%%%%%%%%%%%%%%%%%%%%%%qQ%%%%%%
8590B8%%%%%%%%%%%%qQ%%%%%%%%%%%%%%%%%%%%%%%%%%%%%%%%%%%%%%%%%%%%%%%%%%%%%%%%
8574B8%%%%%%%%%%%%%%%%%%%%qQ%%%%%%%%%%%%%%%%%%%%%%%%%%qQ%%%%%%%%%%%%%%%%%%%q
8558B0Q%%%%qQ%qQ%%qQ%%%%%QqqQ%%%%qQ%qQqJ6%j6j6%L2k4L2l2L2Qm8N6m8J6L2m0%%Q%Q%
8545C6q%qQqQ%qJ6q%qQqQ%%%%%%%%%%%%%%%%%%%%qQ%qQ%%%%qQ%qQ%%%%%%%%%%qQ%%%%%%%%
8530B8%%%%%%%%%%%%%%%%%%%%%qQ%%%%%%qQ%%%%%%%%%%%%%%%%%%%%%%%%%%%%%%%%%%%%%%%
8514B8%%%%%%%%%%%%%%%%%%%%%%%%%%%%%%%%%%%%%%%%%%%%%%%%%%%%%%%%%%%%%%%%%%%%%%
8498B8%%%%%%%%%%%%%%%%%%%%%%%%%%%%%%%q%%QqQ%%%qQqQ%%%%%%%%%%%%%%%%%%%%%%%%%%
8482B8%%%%%%%%%%%%%%%%%%%%%%%%%%%%%%%%%%%%%%%%%%%%%%%%%%%%%%%%%%%%%%%%%%qQ%%
8466B8%%%qQ%%%%%%%%%%%%qQqQqQ%%%%%%%%%%%%%%%%%%%%%%%%%%%%%%%%%%%%%%%%%%%%%%%
8450B8%%%%%%%%%%%%%%%%%%%%%%%%%%%%%%%%%%%%%%%%%%%%%%%%%%%%%%%%%%%%%qQ%%%%%%%
8434B8%%%%%%%%qQ%%q%Q%%%%%%%%%%%%%qQ%%%%%%%%%%%%%%%%%%%%%%%%%%%qQ%%%%%%%%%%%
8418B8%%%%%%qQ%%%qQ%%%%%%%%qQ%%%%%%%%%%qQ%%%%%qQ%%%%%%%qQ%%qQqQ%%%%%%%%qQqQ%
8401B8%%%%%%%%%%%%%qQ%%%%%%%%%%%%%%%%%%%%%%%%%%%%%%%%%%%qQ%%%%%%%%%%%%%%%%%%
8385B8%%%%%%%%%%%%%%%%%%%%%%qQ%%%%%%%%qQ%%%%q%%QqQ%%qQ%%%%%%qQqQ%%%%%%%%%%%%
8369B8%%%%qQ%%%%%%qQ%%%%%%qQ%%%%%%%%%%%%%%%%%%%%%%%%%%%%%%%%%%%qQ%%%%%%%%%%%
8353B8%%%%%%%%%%%%%qQ%qQ%%%%qQ%%%%%%%%%%%%%%%%%%%%%%qQ%%qQ%%%qQ%%%%%%%%%%%%%
8337B8%%%%%%%%%qQ%%%%%%%%%%%%%%%%%%%qQ%%%%qQ%%%%%%%%%%%%%%%%%%%%%%%%%%%%%%%%
8321B8%%%%%%%%%%%%qQ%%%%qQ%%%%qQq%%Q%%%%qQqQ%q%Q%qQ%%%qQqQqQ%%%%%%%%%%%%%%%%
8305B8%%qQ%qQ%q%QqQq%%QqQ%qQ%qQq%Q%%%%%%%qQqQ%%%%%%%%%%%%%%%%qQ%%qQ%%%%qQq%Q
8289B8%qQq%Q%%%%q%%Q%q%Q%qQ%q%Q%%qQq%%%Q%q%Q%%%%%%%%%%%%%%qQq%%QqQ%qQqQ%qQ%%
8273B8%%%%%%%%%%%%%%%%qQ%%%%%%%%%qQ%%%%%%%%%%qQ%%%qQ%%qQ%%%%%%%%%%qQ%%%%%q%Q
8257B8%qQ%%qQqQ%qQ%%%qQ%%qQ%%%%%%%%%%%%%%%%%%qQ%%%%%%%%%%%%%%%%%%%%%%%%%%q%Q
8241B8%%%%%q%Q%%%%qQ%%%%%%%%%%%%%qQ%%qQ%%%%%qQ%%%%%%%qQ%%%%%%%%%%%%%%%%%%qQ%
8225B8%%q%%%Q%q%%Q%%%%%%%%%q%Qq%%%Qq%QqQ%%%%%%%%%%%%%%%%qQq%Q%qQ%%%%%%%%%qQ%
8209B8qQ%%qQ%qQqQ%q%Qq%Q%%%%%%%%%%%qQ%%%%%%%%q%QqQq%Qq%%%%%%%%%%Q%qQqQ%%qQqQ
8193B8%%%%%%%%%%q%Q%q%%%%QqQq%Q%q%%%%%Qq%Q%%%%%q%Q%q%QqQ%qQ%qQ%%%%%%%%%%%qQ%
8177B8%%%%%%%%%%%qQ%%%%%%%%%%%%%%%%%%%qQ%%%q%Q%%q%%Q%q%%%QqQq%%%%%Qq%%QqQq%%
8161B0Qq%Qq%Q%%%%%%q%%Q%%%qQq%Q%%%%%%qQ%%q%Q%%qQ%%q%%%%%Q%%%%%%qQq%Q%%%q%%%Q
8145B8qQqQq%Q%q%%%%Q%qQ%%q%Qq%Qq%Q%%%%qQ%%%%%qQqQ%%qQ%%q%%Q%q%Q%%%%%qQqQ%%%%
8129B8%%%%%%%%%q%%%%%%Qq%Q%%q%%%Qq%Qq%Qq%%%%Qq%%%%%%%%%%Q%%qQqQqQ%qQ%%%%q%%%
8113B0%%%QqQq%QqQ%q%%Q%%%%%%%%%qQqQ%qQqQqQ%%qQ%%%%%%q%Qq%QqQq%Qq%QqQq%%%%%%%
8097B0%Qq%%%%%%%Qq%%%Q%q%%%%%Q%%q%Q%%qQ%q%%%%%%%%%%%Qq%%%%Qq%%%%%%%QqQqQq%%%
8081B0Qq%Q%%%%%qQq%%%%%%%%QqQq%Qq%%Qq%%%%%%%Qq%%%%Qq%%%Qq%%%Q%qQq%%%Qq%%%QqQ
8065B8%%q%%%%Q%%q%Q%%%q%%Q%q%Qq%%%%%%Q%%q%%Q%%%%%qQ%%%qQqQ%q%%Qq%%Q%qQ%%qQq%
8049B0%%%%%%Qq%%%%%%%Qq%%Qq%Q%%q%%%%%%Qq%Qq%QqQqQq%%Q%q%%%%%Q%qQ%qQq%%%Q%q%%
8033B0Qq%Q%%%qQq%Q%%%%%%%%qQ%%q%QqQ%%%qQq%Q%qQ%q%Qq%Qq%%%QqQq%%QqQ%%q%%%%%Qq
8017B0%Q%%%%%%qQ%q%%Q%qQ%qQ%q%QqQq%%QqQq%%%%%%%%Qq%%Qq%%%%Qq%%%%Qq%%%%%%%%%%
8001B0%%%Qq%%Qq%%%%%Qq%%%Q%%%q%Q%%%q%%Qq%Q%q%Qq%Qq%Qq%%%%%%Qq%%%%QqQqQ%qQ%%q
7985B0%Q%qQqQ%%%%q%%%QqQq%Qq%Q%qQqQ%qQq%%%%%%%Qq%%%Qq%Q%qQq%%QqQqQq%%Q%q%%%Q
7969B8q%%%%%%%%%Qq%%Qq%%%%QqQ%qQ%%q%Q%q%%Qq%%Q%%qQq%%Qq%Q%q%%%%%%%%%Qq%%%%Qq
7953B0%%%Qq%%QqQqQ%%qQqQqQqQq%Qq%%%%%%%QqQq%%%%Q%%q%%%%Q%%q%Q%qQ%%%%%%qQ%q%%
7937B0%%%%%%%%%Qq%Qq%Q%q%%%%%%Qq%%%%Qq%Qq%%%%QqQq%Q%qQq%%%%Qq%%%Qq%%%Qq%%%%%
7921B0%%%%%%%%%%%%%Qq%Qq%%%%%%%%%%%%%%%%%%%%%%%Q%q%%%%%%%Q%q%%%%%%QqQqQq%%Qq
7905B0%%%%%%%%Qq%%Qq%QqQq%Qq%%%%%%%%%%%%%%%%%%%%%%%%%%%%%%%%%%%%%%%%%%%%%Q%q
7889B0%%%%%%%%%%%%%%%%%%%%%%%Qq%%%%%Qq%%%%%%%Qq%%%%Q%%q%%%%Qq%%Q%%%q%%%%Qq%Q
7873B8q%%%%QqQq%%%%%%%%Qq%%%%%%%%%%%%%%%%%%%%%%%%%%%%%%%%%%Qq%%%%Qq%%%%%%%%%
7857B0%%%%%%%%%%%%%%%%%%%%%%%%Qq%%%%%%Qq%%Qq%%%Qq%%%%%QqQ%%qQq%%%%QqQqQqQ%q%
7841B0Qq%%%%%QqQq%Qq%%%%%%%%%%%%%%%%Qq%%%%%%%%%%Qq%Q%q%%%%%%Qq%%%%%%%%%%%%%%
7825B0%%%Q%q%Qq%%%%%%Qq%Q%q%%%%%%%%%%%%%%Q%q%%%%%%%Qq%%%%%%%%%%%%%%%%%%%%%%%
7809B0%%%%%%%%%%%%%%%%%%%%%%%%%%Qq%Q%q%%%%%%%Qq%%%%%%%%%%%%%%%%%%%%%Q%%q%%%%
7793B0Qq%%%%%Q%q%%%%%%%%%%%%%%%%%Qq%Qq%%%%%%%%%%%%%%%%%%%%%%%%%%%%%%%%%%%%%%
7777B0%%%%%%%%%%%%%%%Qq%%%%%%%%%Qq%%%%%%%%%%%%%%%%%%%%%%%%%%%%%%%%%%%%%%%%%%
7761B0%%%%%%%Qq%%%%%%%%%%%%%%%%%%%%%%%%%%%%%%%%%%%%%%%%%%%%%%%Qq%%%%%%%%%%%%
7745B0%%%%%%%%%%%Qq%%%%%%%%%%%%%Q%%q%%%%%Qq%Qq%%Qq%%Qq%%%%%%%%%%%%%Qq%QqQqQq
7729B0Qq%Qq%Q%%q%QqQqQq%%%%Qq%%%%%%%%%%%%%%%%%%%Qq%%%%%%%%%%%%%%%%%%%%%%%%%%
7713B0%%%%%%%%%%%%%%%%%%%%%%%%%%%%Qq%%%%%%%%%%%%%%%%%%%%%%%%%%%%%%%%%QqQq%%Q
7697B8q%%%%%%%%%%%%%%%%%%%%%%%%%%%%%%%%%%%%%%%%%%%%%%%%%%%Qq%%%%%%%%%%Qq%%%%
7681B0%%%%%%%%%%%%%%%%%%%%%%%%%Qq%%%%%%%%%%%%Qq%%%Qq%%%%%%%%%%%%%%%%%%%%%%%%
7664B0%%%%%%%%%%%%%%%%%%%%%%%%%%%%%%%%%%%%Qq%%%%%%%%%%%%%%%%%%%%%%%%%%%%%%%%
7648B0%%%%%%%%%%%%%Qq%%%%%%%%%%%%%%%%%%%%%%%%%%%%%%%%%%%%%%%%%%%%%%%%%%%%%%%
7632B0%%%%%%%%%%%%%%%%%%%%%%%%%%%%%%%%%%%%%%%%%%%%%%%%%%%%%%%%%%%%%%%%%%%%%%
7616B0%%%Q%q%%%%Qq%Q%qQq%%QqQ%j6%L2m0J6Qq%%Qq%QqQ%q%%%%QqQ%q%%%%%%%%%%%%%%%%
7601B0%%%%%%%%%%%%%%%%%%%%%%%%%%Qq%%%%%%%%%%%%%%%%%%%%%%%%%%Q%q%%Qq%%%%%%%%%
7585B0%%%%%%%%%%%%%%%%%%%%%%%%%%%%%%%%%%%%%%%%%%%%%%%%%%%%%%%%%%%%%%%%%%%%%%
7569B0%%%%%%%%%%%%%%%%%%%%%%%%%%%%%%%%%%%%%%%%%%%%%%%%%%Qq%%%%%%%%%%%%%%%%%%
7553B0%Q%q%%%%%%%%%%%%%%%%%%%%%%%%%%%%%%%%%%%%%%%%%%%%%%%%%%%%%%%%%%%%%%%%%%
7537B0%%%%%%%%%%%%%%%%%%%%%%%%%%%%%%%%%%%%%%%%%%%%%%%%%%%%%%%%%%%%%%%%%%%%%%
7521B0%%%%%%%%%%%%%%%%%%%%%%%%%%%%%%%%%%%%%%%%%%%%%%%%%%%%%%%%%%%%%%%%%%%%%%
7505B0%%%%%%%%%%%%%%%%%%%%%%%%%%%%%%%%%%%%%%%%%%%%%%%%Qq%%%%%Qq%%%%Qq%%%%%%%
7489B0%%%%%%%%%%%%%%%%%%%%%%%%%%%%%%%%%%%%%%%%%%%%%%%%%%%%%%%%%%%%%%%%%%%%%%
7473B0%%%%%%%%%%%%%%%%%%%%%%%%%%%%%%%%%%%%%%%%%%%%%%%%%%%%%%%%%%%%%%%%%%%%%%
7457B0%%%%%%%%%%%%%%%%%%%%%%%%%%%%%%%%%%%%%%%%%%%%%%%%%%%%%%%%%%%%%%%%%%%%%%
7441B0%%%%%%%%%%%%%%%%%%%%%Qq%Qq%%%%%%%%%%%%%%%%%%%%%%%%%%%%%%%%%%%%%%%%%%%%
7425B0%%%%%%%%%%%%%%%%%%%%%%%%%%%%%%%%%%%%%%%%%%%%%%%%%%%%%%%%%%%%%%%%%%%%%%
7409B0%%%%%%%%%%%%%%%%%%%%%%%%%%%%%%%%%%%%%%%%%%%%%%%%%%%%%%%%%%%%%%%%%%%%%%
7393B0%%%%%%%%%%%%%%%%%%%%%%%%%%%%%%%%%%%%%%%%%%%%%%%%%%%%%%%%%%%%%%%%%Qq%Qq
7377B0%Q%q%Qq%%%%%%%%%%%%%%%%%%%%%%%%%%%%%%%%%%%%%%%%%%%%%%%%%%%%%%%%%%%%%%%
7361B0%%%%%%%%%%%%%%%%%%%%%%%%%%%%%%%%%%%%%%%%%%%%%%%%%%%%%%%%%%%%%%%%%%%%%%
7345B0%%%%%%%%%%%%%%%%%%%%%%%%%%%%%%%%%%%%%%%%%%%%%%%%%%%%%%%%%%%%%%%%%%%%%%
7329B0%%%%%%%%%%%%%%%%%%%%%%%%%%%%%%%%%%%%%%%%%%%%%%%%%%%%%%%%%%%%%%%%%%%%%%
7313B0%%%%%%%%%%%%%%%%%%%%%%%%%%%%%%%%%%%%%%%%%%%%%%%%%%%%%%%%%%%%%%%%%%%%%%
7297B0%%%%%%%%%%%%%%%%%%%%%%%%%%%%%%%%%%%%%%Q%q%%%%%%%%%%%%%%%%%%%%%%%%%%%%%
7281B0%%%%%%%%%%%%%%%%%%%%%%%%%%%%%%%%%%%%%%%%%%%%%%%%%%%%%%%%%%%%%%%%%%%%%%
7265B0%%%%%%%%%%%%%%%%%%%Qq%%%%%%Qq%%%%%%%%%%%%%%%%%%%%%%%%%%%%%%%%%%%%%%%%%
7249B0%%%%%%%%%%%%%%%%%%%%%%%%%%%%%%%%%%%%%%%%%%%%%%%%%%%%%%%%%%%%%%%%%%%%%%
7233B0%%%%%%%%%%%%%%%%%%%%%%%%%%%%%%%%%%%%%%%%%%%%%%%%%%%%%%%%%%%%%%%%%%%%%%
7217B0%%%%%%%%%%%%%%%%%%%%%%%%%%%%%%%%%%%%%%%%%%%%%%%%%%%%%%%%%%%%%%%%%Qq%%%
7201B0%%%%%%%%%%%%%%%%%%%%%%%%%%%%%%%%%%%%%%%%%%%%%%%%%%%%%%%%%%%%%%%%%%%%%%
7185B0%%%%%%%%%%%%%%%%%%%%%%%%%%%%%%%%%%%%%%%%%%%%%%%%%%%%%%%%%%%%%%%%%%%%%%
7169B0%%%%%%%%%%%%%%%%%%%%%%%%%%%%%%%%%%%%%%%%%%%%%%%%%%%%%%%%%%%%%%%%%%%%%%
7153B0%%%%%%%%%%%%%%%%%%%%%%%%%%%%%%%%%%qQ%%%q%Q%%Qqj6J6qJ6qQ%j6QqQ%%%%%%%%%
7138B0%%%%%%%%%%%%%%%%%%%%%%%%%%%%%%%%%%%%%%%%%%%%%%%%%%%%%%%%%%%%%%%%%%%%%%
7122B0%%%%%%%%%%%%%%%%%%%%%%%%%%%%%%%%%%%%%%%%%%%%%%%%%%%%%%%%%%%%%%%%%%%%%%
7106B0%%%%%%%%%%%%%%%%%%%%%%%%%%%%%%%%%%%%%%%%%%%%%%%%%%%%%%%%%%%%%%%%%%%%%%
7090B0%%%%%%%%%%%%%%%%%%%%%%%%%%%%%%%%%%%%%%%%%%%%%%%%%%%%%%%%%%%%%%%%%%%%%%
7074B0%%%%%%%%%%%%%%%%%%%%%%%%%%%%%%%%%%%%%%%%%%%%%%%%%%%%%%%%%%%%%%%%%%%%%%
7057B0%%%%%%%%%%%%%%%%%%%%%%%%%%%%%%%%%%%%%%%%%%%%%%%%%%%%%%%%%%%%%%%%%%%%%%
7041B0%%%%%%%%%%%%%%%%%%%%%%%%%%%%%%%%%%%%%%%%%%%%%%%%%%%%%%%%%%%%%%%%%%%%%%
7025B0%%%%%%%%%%%%%%%%%%%%%%%%%%%%%%%%%%%%%%%%%%%%%%%%%%%%%%%%%%%%%%%%%%%%%%
7009B0%%%%%%%%%%%%%%%%%%%%%%%%%%%%%%%%%%%%%%%%%%%%%%%%%%%%%%%%%%%%%%%%%%%%%%
6993B0%%%%%%%%%%%%%%%%%%%%%%%%%%%%%%%%%%%%%%%%%%%%%%%%%%%%%%%%%%%%%%%%%%%%%%
6977B0%%%%%%%%%%%%%%%%%%%%%%%%%%%%%%%%%%%%%%%%%%%%%%%%%%%%%%%%%%%%%%%%%%%%%%
6961B0%%%%%%%%%%%%%%%%%%%%%%%%%%%%%%%%%%%%%%%%%%%%%%%%%%%%%%%%%%%%%%%%%%%%%%
6945B0%%%%%%%%%%%%%%%%%%%%%%%%%%%%%%%%%%%%%%%%%%%%%%%%%%%%%%%%%%%%%%%%%%%%%%
6929B0%%%%%%%%%%%%%%%%%%%%%%%%%%%%%%%%%%%%%%%%%%%%%%%%%%%%%%%%%%%%%%%%%%%%%%
6913B0%%%%%%%%%%%%%%%%%%%%Qq%QqqQ%Qq%%%%%%%%%%%%%%%%%%%%%%%%%%%%%%%%%%%%%%%%
6897B0%%%%%%%%%%%%%%%%%%%%%%%%%%%%%%%%%%%%%%%%%%%%%%%%%%%%%%%%%%%%%%%%%%%%%%
6881B0%%%%%%%%%%%%%%%%%%%%%%%%%%%%%%%%%%%%%%%%%%%%%%%%%%%%%%%%%%%%%%%%%%%%%%
6865B0%%%%%%%%%%%%%%%%%%%%%%%%%%%%%%%%%%%%%%%%%%%%%%%%%%%%%%%%%%%%%%%%%qQ%%%
6849B0%%%%%%%%%%%%%%%%%%%%%%%%%%%%%%%%%%%%%%%%%%%%%%%%%%%%%%%%%%%%%%%%%%%%%%
6833B0%%%%%%%%%%%%%%%%%%%%%%%%%%%%%%%%%%%%%%%%%%%%%%%%%%%%%%%%%%%%%%%%%%%%%%
6817B0%%%%%%%%%%%%%%%%%%%%%%%%%%%%%%%%%%%%%%%%%%%%%%%%%%%%%%%%%%%%%%%%%%%%%%
6801B0%%%%%%%%%%%%%%%%%%%%%%%%%%%%%%%%%%%%%%%%%%%%%qQ%%qQ%%%%%%%%%%%%%%%%%%%
6785B0%%%%%%%%%%%%%%%%%%%%%%%%%%%%%%%%%%%%%%%%%%%%%%%%%%%%%%%%%%%%%%%%%%%%%%
6769B0%%%%%%%%%%%%%%%%%%%%%%%%%%%%%%%%%qQ%%%qQ%%%%%%%%%%%%%%%%%%%%%%%%%%%%%%
6753B0%%%%%%%%%%%%%%%%%%%%%%%%%%%%qQ%%%%%%%%%%%%%%%%%%%%%%%%%%%%%%%%%%%%%%%%
6737B0%%%%%%%%%%%%%%%%%%%%%%%Qq%%%%%%%%%%%%%%%%%%%%%%%%%%%%%%%%%%%%%%%%%%%%%
6721B0%%%%%%%%%%%%%%%%%%%%%%%%%%%%%%%%%%%%%%%%%%%%%%%%%%%%%%%%%%%%%%%%%%%%%%
6705B0%%%%%%%%%%qQ%%%%%%%%%%%%%%%%%%%%%%%%%%%%%%%%%%%%%%%%%%%%%%%%%%%%%%%%%%
6689B0%%%%%%%%%%qQ%%%%%%%%%%%%%%%%%%%qQ%%%%%%%%%%%%%qQ%%%%%%QqqQ%%qQqJ6%qqQ%
6673B0Qqj6Q%%%%J6q%%%%%%qQ%%%%%%%%%%%%%%%%%%%%%%%%%%%%%%%%%%%%%%%%%%%%%%%%%%
6658B0%%%%%%%%%%%%%%%%%%%%%%%%%%%%%%%%%%%%%%%%%%%%%%%%%%%%%%%%%%%%%%%%%%%%%%
6642B0%%%%%%%%%%%%%%%%%%%%%%%%%%%%%%%%%%%%%%%%%%%%%%%%%%%%%%%%%%%%%%%%%%%%%%
6626B0%%%%%%%%%%%%%%%%%%%%%%%%%%%%%%%%%%%%%%%%%%%%%%%%%%%%%%%%%%%%%%%%%%%%%%
6610B0%%%%%%%%%%%%%%%%%%%%%%%%%%%%%%%%%%%%%%%%%%%%%%%qQ%%%%%%%%%%%%%%%%%%%%%
6594B0%%%%%%%%%%%%%%%%%%%%%%%%%%%%%%%%%%%%%%%%%%%%%%%%%%%%%%%%%%%%%%%%%%%%%%
6578B0%%%%%%%%%%%%%%%%%%%%%%%%%%%%%%qQ%%%%%%%%%%%%%%%%%%%%%%%%%%%%%%%%%%%%%%
6562B0%%%%%%%%%%%%%%%%%%%%%%%%%qQ%%qQ%%%%%%%%%%%%%%%%%%%%%%%%%%%%%%%%%%%%%%%
6545B0%%%%%%%%%%%%%%%%%%%%%%%%%%%%%%%%%%%%%%%%%%%%%%%%%%%q%Q%%%%%%%%%%%%%%%%
6529B0%%%%%%%qQ%%%%%%%%%%%%%%%%%%%%%%%%%%%%%%%%%%%%%%%%%%%%%%%%%%%%%%%%%%%%%
6513B0%%%%%%%%%%%%%%%%%%%%%%%%%%%%%%%%%%%%%%%%%%%%qQ%%%%%%%%%%%%%%%%%%%%%%%%
6497B0%%%%%%%%%%%%%%%%%%%%%%%%%%%%%%%%%%%%%%%%%%%%%%%%%%%%%%%%%%%%%%%%%%%%%%
6481B0%%%%%%%%%%%%%%%%%%%%%%%%%%%%%%%%%%%%%%%%%%%%%%%%%%%%%%%%%%%%qQ%%%%%%%%
6465B0%%qQ%%%%%%%%%%%%%%%%%%%%%%%%%%%%%%%%%%%%%%%%%%%%%%%%%%%%%%%%%%%%%%%%%%
6449B0%%%%%%%%%%%%%%%%%%%%%%%%%%%%%%%%%%%%%%%%%%%%%%qQ%%qQ%qQq%Q%%%%%%%%%%%%
6433B0%%%%%%%%%%%%%%%%%%%%%%%%%%%%%%%%%%%%%%%%%%%%%%%%%%%%%%%%%%%%%%%%%%%%%%
6417B0%%%%%%%%%%%%%%%%%%%%%%%%%%%%%qQ%%%%%%%%%%%%%%%%%%%%%%%%%%%%%%%%%%%%%%%
6401B0%%%%%%%%%%%%%%%%%%%%%%%%%%%%%%%%%%%%%%%%%%%%%%%%%%%%%%%%%%%%%%%%%%%%%%
6385B0%%%%%%%%%%%%%%%%%%%%%%%%%%%%qQ%%%%%%%%%%%%%%%%%%%%%%%%%%%%%%%%%%%%%%%%
6369B0%%%%%%%%%%%%%%%%%%%%%%%%%%%%%%%%%%%%%%%%%%%%%%%%%%%%%%%%%%%%%%%%%%%%%%
6353B0%%%%%%qQ%%%%%%%%%%%%%%%%%%%%%%%%%%%%%%%%%%%%%%%%%%%%%qQ%%%%%%qQ%%%%%%%
6337B0%qQ%%%%%%%%%%%%%%%%%%%%%%%%%%%%%%%%%%%%%%%%%%%%%%%%%%%%%%%%%%%%qQ%Qq%q
6321A2Q%%%%%%%%%%%%%%%%%%%%%%%%%%%%%%%%%%%%%%%%%%%%%%%%%%%%%%%%%%%%%%%%%%%%%
6305B0%%%%%%%%%%%%%%%%%%%%%%%%%%%%%%%%%%%%%%%%%%%%%%%%%%%%%%%qQ%%%%%%%%%%%%%
6289B0%%%%%%%%%%%%%%%%%%%%%%%%%%%%%%%%%%%%%%%%%%%%%%%%%%%%%%%%%%%%%%%%%%%%%%
6273B0%%%%%%%%%%%%%%%%%%%%%%%%%%%%%%%%%%%%%qQqQ%qQq%Q%%%%%%%%%%%%%%%%%qQ%%%%
6257B0%%%%%%%%%%%%%%%%%%%%%%%%%%%%%%%%%%%%%%%%%%%%%%%%%%%%%%%%%%%%%%%%%%%%%%
6241B0%%%%%%%%%%%%%%%%%%%%%%%%%%%%%%%%%%%%%%%%%%%%%%%%%%%%%%%%%%%%%%%%%%%%%%
6225B0%%%%%%%%%%%%%%%%%%%%%%%%%qQ%%%%%%%%%%%%%%%%%%%%%%%%%qQ%%%qQ%%%%%%%%qQ%
6209B0qQ%qQ%qQ%%%qQ%%qQqJ6q%qJ6j6QqQ%%%%%%%%%%%%%%%%%%%%%%%%%%%%%%%%%%%%%%%%
6194B0%%%%%%%%%%%%%%qQ%%%%%%%%%%%%%%%%%%%%%%%%%%%%%%%%%%%%%%%%%%%%%%%%%%%%%%
6178B0%%%%%%%%%%%%%%%%%%%%%qQ%%%%%%%%%%%%%%%%%%%%%%%%%%%%%%%%%%%%%%%%%%%%%%%
6162B0%%%%%%%%%%%%%%%%%%%%%%%%%%%%qQ%%%%%%%%%%%%%%%%%%%%%%%%%%%%%%%%%%%%%%qQ
6146B0%%%%%%%%qQ%%%%%%%%%%%%%%%%%%%%%%%%%%%%%%%qQ%%%%%%%%%%%%%%%%qQ%%%%%%%%%
6130B0%%%%%%%%%%%%%%%%%%%%%%%%%%%%%%%%%qQ%%%%%%%%%%%%%%%%%%qQ%qQ%%%qQ%%%%%%%
6114B0%%%%%%%%%qQ%%%%%%%%%%%%%%%%%qQqQ%%%%%%qQ%%%%%%%%%%%%qQ%%%%%%%%%%%%%%%%
6098B0%%%%%%%%qQ%%%%%%%%%%%%%%%qQ%%qQ%%%%%%%%%%%%qQ%%qQ%%%q%Q%%%%%%%%%%%%%%%
6082B0%%%%%%%%%%%%%%%%%%%%%%%%%%%qQ%qQ%%%%%%qQqQ%%%%qQ%%%%%%%%%%%%%%%%%%%%%%
6066B0%%%%%%%%%%%%%%%%%%%%%%%%%%%%%%%%%%%%%%%%%%%%%qQ%%qQ%%%%%%%%%%%%%%%%%%%
6049B0%%%%%qQ%%%%%%%%%%%%%%%%%%%qQ%%%%%%%%%%%%%%%%%%%%%%%%%%%%%%%%%%%%%%%%%%
6033B0%%%%%%%%%%%%%%q%QqQ%%%q%Q%%%%%%qQ%%%qQ%%%%%%%%%%%%%%%%%%%%%%%%%%%%%%%%
6017B0%%%%%%%%%%%%qQ%qQ%%%%%%%%%%%%%%qQ%%%q%Q%%%%%%%%qQqQ%%%%%%%qQ%%%%%%%%%%
6001B0%%%%%%%%%%qQ%%%%%%%%%%qQ%%%qQ%%qQ%%%%%%%%%%%%%%%%%%%%%%%%%%%%%%%%%%%%q
5985A2Q%qQ%%%qQ%%%%%%%%%%%%%%%%%q%%Q%%qQ%qQ%%%%%%%%%%%qQq%%Q%%%%q%%Q%Qq%q%Q%
5969B0Qq%%%%%%qQ%qQ%qQ%qQ%%%%qQ%%%%%%%%%%%%%%%%%%%%%%%%%%%%%%%%%%%qQ%%%%%%%%
5953B0%%%%%%%%qQ%%%%%%%%%%%%%%%%%%%%%%%%%%%%%%%%%%%%%%%%qQ%%q%%%Q%%%%%%qQ%q%
5937A2Q%%%%%%%%%%%%%%%%%%%%%%%%%%%%%%%%%%%%%%%%%%%%%%qQ%%%%%%%qQ%%%%%qQ%%%%q
5921A2QqQ%%%%%%qQqQ%%%%%%%%%%%%%%%%%%%%%%%%%%%%q%%Q%%%qQ%%qQ%%%%%qQ%%qQ%%%%%
5905B0%%%%%qQ%%q%Q%%%%%%%%%%%%%%%%%%%%%%%%%%%q%Q%%%%%%%%%%%%%%%%%%%%%%%%%%%%
5889B0%%%%%qQ%%%%%%%%%%%%%%%qQ%%qQ%%q%Q%%%%%%%%%%qQ%%%%%%%%%%%%%%%q%Q%%%%%%%
5873B0%%%%%%qQ%%%%%%%%%%qQ%%%qQ%%%%%%%%%%%%%%%%%%%%%%%%%%%%%%%%%%%%%%%%%%%%q
5857A2Q%%%qQ%%%%%q%Q%%%qQqQ%qQ%%%%qQ%%%%%qQ%%%qQ%%q%%Q%%%%%%%%%%%%%%qQ%%%%%%
5841B0%%%%%qQ%%%%%%%%%%%qQ%%%%%%q%QqQ%%%%%%%q%QqQq%Q%%%qQ%%%%%%qQ%%%%%%%%q%Q
5825B0qQ%%qQ%%%%q%%Q%%%%%%%%%%%%%%%%%%%q%Q%%%%%qQ%%%%%%%%%%%%%%%%%qQ%%qQ%%qQ
5809B0%q%Q%%%%%%%%%q%Qq%%%Q%qQ%%%%%%%%%%%qQ%%qQ%%%%%%%%%%%%%%%%%%qQ%%q%Qq%Q%
5793B0%%%%qQ%%qQq%Q%q%QqQ%qQqQ%q%%QqQ%%%%qQ%%%%%%%%%%%%%%%%%%%qQqQq%Q%%%%%%%
5777B0%%%%%%%q%Q%%%qQ%%%%%%qQ%%%qQ%%qQ%%%%%%%%%%%%%%%qQ%%%qQqQq%Q%%%%%%%qQ%q
5761A2Q%%%qQ%%%%%%%%%%%qQ%%%q%QqQ%qQq%Q%qQqQq%Q%qQqQqQ%qQ%qQ%%%%qQ%%%%%%qQ%%
5745B0%%%%%%%%%qQ%q%Q%%%%%%%%%qQ%%%%qQ%%qQq%q%QQQj6%Q%%%%%%%%%%q%QqQqQ%qQ%%%
5729B0%%qQ%%%qQ%q%Q%%qQ%qQqQ%q%%Q%%%%%%%q%QqQq%Q%qQ%%%%%qQ%%%%%%qQ%%%%%%%%qQ
5713B0%%%%%qQ%%q%%Q%qQ%%%%%%%%%%qQ%%%%%%%%q%Q%%%qQ%%%%qQ%%%%%%%%%%%%qQq%Q%%%
5697B0%%qQqQ%%%qQ%%%%%%qQ%%%%%%qQ%qQ%%qQ%q%%Q%%%%%%%%%%%%%%%%%%%%%%%%%%%%%%%
5681B0%%%qQ%%qQq%%QqQ%qQq%%QqQqQ%q%Q%%%qQqQq%%QqQ%%%qQ%%%%%%%q%%QqQ%%%%%%%q%
5665A2QqQ%%qQqQqQ%qQ%%%%%qQ%%%%%%%%%%%%%qQ%%%%%%%%%%%%%%%qQq%%Q%%%%%%%%%%%%%
5649B0qQq%%%%%Q%%%%%%%q%Q%%%%%qQ%%%%%%%%%%%%%%%%%%%%%%%%%%%%qQ%%%%%%%%%%qQqQ
5633B0q%Q%qQ%%qQ%%%%qQ%qQ%qQ%%%%%%%qQ%q%%Qq%%Q%%%%q%QqQ%%%%%qQ%%%%%q%%%QqQqQ
5617B0%%%qQ%%%%%%q%%%Q%%qQqQqQ%%qQ%%%%%%%%%%%%%%%%%%%%%%%%qQ%qQ%%qQ%%%%%%%%q
5601A2%%Q%qQ%qQ%%%%qQqQqQqQq%%%%QqQ%%%%%%%%%%%%qQ%qQqQ%%q%Q%qQqQq%Q%%%qQ%%%%
5585B0%%%%%%%%%%%%q%Q%qQq%%%%Qq%%QqQqQq%%%Qq%%Q%q%%Qq%%%%Qq%%Qq%Qq%Q%qQ%%%%%
5569B0qQ%%%%%%%%qQqQq%Q%%qQ%%qQ%%%%q%%Q%qQ%%q%QqQ%%%qQqQq%QqQqQ%q%QqQqQ%q%Qq
5553A2QqQqQ%%%%%%qQ%q%Q%%qQ%%%%%%%%%%q%Q%qQ%%%%%qQ%%%%%%%%%%%%%%qQqQ%%qQ%%%%
5537B0%%%%%qQ%%qQ%%%%%%%q%Q%%%%qQ%%%%%%%%%%%q%QqQ%%%%%%%%%qQqQ%qQqQ%qQ%q%%%Q
5521B0q%Q%q%Q%%%%%q%Q%%q%%Q%qQ%qQ%q%Q%qQ%%%%qQ%%%%q%Q%q%%%%Q%%%q%Q%qQ%%qQqQ%
5505B0%qQ%%%%q%%Q%qQqQ%qQq%Qq%Qq%QqQ%%qQ%%%%qQqQ%%%q%%Q%%q%%%%%%Qq%%%%Q%%%%%
5489B0%%qQq%Q%%qQ%q%%Qq%Qq%%%%%%%Qq%%%%%%Qq%%%%%%Qq%Qq%%Qq%%%%Qq%Q%qQqQq%Qq%
5473A2QqQq%QqQ%q%Q%%%%%%q%%Q%%%%%%qQqQ%%%q%Q%qQ%%qQ%%%%qQ%%%%%%%%%qQ%%q%QqQ%
5457B0qQ%%%%%%q%QqQ%%%%%q%%%%%%%Q%q%Q%%%qQ%qQ%%%qQqQ%qQq%%%%Q%%%%qQ%q%Q%%%%%
5441B0%%%%%qQ%%%qQ%%%qQq%Q%qQq%Q%%%%qQq%%Q%qQq%QqQq%%%Q%%%qQ%%%q%%%%Q%%%%qQ%
5425B0%qQq%Qq%Qq%Q%qQ%qQqQ%qQqQ%%%%%%qQ%%%%qQ%%qQq%QqQq%%Q%qQ%%%%qQ%%qQ%qQqQ
5409B0%qQ%%%qQ%%%q%%QqQ%%%%%%q%%%%%%%%%%QqQ%%qQ%%%%q%QqQ%%%%qQ%qQ%q%%%Q%%%q%
5393A2Q%%qQ%%q%Q%%%%q%%%QqQqQq%Qq%%%QqQqQ%qQ%%%%q%%Q%q%Q%qQ%%%qQq%QqQ%%%%%q%
5377A2%Qq%%Qq%Q%qQ%%%%%%%qQ%q%%%%%%%QqQqQq%Q%%%%%%%%%q%Q%%%%%%%%%%%%%%qQ%%%%
5361B0%%q%%%%%Q%q%Qq%%QqQq%%%Q%qQ%q%QqQqQ%%%%qQ%q%Q%%%%%%%%qQq%Q%%%qQ%q%QqQq
5345A2Q%q%Q%%%q%%%Q%%%%%%%%%qQqQqQqQ%%%%%%%%q%Q%q%Q%q%%Qq%Qq%Qq%%QqQq%Q%%%%q
5329A2Qq%Qq%%Qq%Q%%%%q%QqQ%%%%%%%%%%%%%%%%%%%%%qQqQ%%qQq%%Qq%Qq%%%Q%q%Qq%Q%q
5313A2Q%%%%%%%q%Q%%%%%%%%%qQq%%%%%%%QqQq%QqQq%%Q%%q%%%%%%%%%%%%%%%%%QqQq%Q%q
5297A2%%%Qq%%QqQ%%%%%%%%%%%%%%%%%%%%qQ%%%%%%%q%%%%QqQ%%qQqQ%%q%%%%%%QqQ%%qQq
5281A2%%%%%%%%%%%%%%%%Q%%%%%%%%%q%QqQq%Q%qQ%qQq%%Q%q%Q%q%%QqQ%%j6K4qqQqQq%Qq
5265A2Q%q%Q%q%%QqQq%%%%Q%%%%q%%%%Q%q%Qq%Q%%%q%QqQqQ%%%%%%%%%%qQq%%%%Q%%q%%%%
5249A2%%%Qq%%%%Qq%%%%Qq%%Qq%%%%%%%%%%%%%Qq%%%%Q%%q%%%Qq%QqQq%Q%%q%QqQq%Qq%%%
5233A2Q%qQ%%%%q%%Qq%%Qq%Q%%%%%q%%QqQq%%%%%%%%%%QqQq%%Q%%%%qQq%%%%Qq%Qq%%%Qq%
5217A2%%%%%%Qq%%%%%%Qq%Qq%Q%%%%%%%%%%%%qQq%%Q%%%%%%%q%%%Qq%Qq%Qq%%%%%%%%%%Q%
5201B0qQq%Q%q%Q%q%Q%q%%QqQq%Q%%%%%q%%Qq%%Q%qQ%qQqQ%q%%%Qq%Q%%q%Q%qQ%q%QqQq%%
5185A2%%%Q%%%%q%QqQqQqQqQq%%Q%%qQ%qQqQ%%qQ%q%Q%q%Qq%%%%%%%%%%%%%%%%Q%q%%%%Q%
5169B0%qQ%%q%%%%Qq%Qq%QqQ%qQqQq%%QqQq%%Qq%%Qq%Q%%qQ%%%%%q%%Qq%%%%%Q%q%Q%%%%%
5153B0q%Q%qQq%Q%%%%%%q%%%QqQq%%Qq%Q%%q%%QqQ%q%%%%Q%%qQ%%%%qQq%Qq%%%%Qq%Q%q%%
5137A2%Qq%Q%%%%q%%%Q%q%%%%%%Q%qQq%QqQq%%Qq%%%Qq%%%%%Q%q%Qq%Q%%q%%Qq%%%Qq%Qq%
5121A2Qq%%%Qq%%Qq%%Q%%qQ%%%%qQq%%%%%%%Qq%%%%QqQ%qQ%q%%QqQqQ%%q%%%%%%%%%%%%Qq
5105A2Q%q%%%%Qq%%Qq%%%Qq%%Qq%%%%%%Q%qQ%q%%%%%QqQqQqQq%Qq%%QqQ%q%Q%qQ%qQqQ%%q
5089A2Q%q%%Q%%q%%Qq%%Qq%%%%Q%%q%%%%%QqQ%qQ%qQ%qQ%%%qQ%%qQ%%%q%%Qq%%Qq%Qq%Q%q
5073A2%Qq%%%%QqQ%qQq%Q%%qQ%%%%%%%q%Q%qQq%%Q%%qQqQqQ%qQ%%qQq%%%%%%%%%%QqQq%%%
5057A2Qq%Q%qQqQqQ%q%%%%%%%QqQ%q%%Qq%Q%q%Q%%q%Qq%QqQqQ%qQq%%Q%%qQqQ%%%%%%%q%Q
5041B0qQqQqQ%%%q%%QqQqQq%Q%%%%qQqQ%%qQq%QQj6%Qq%%%Qq%%%Qq%%%%%%%%%%%%%%%%%%%
5025A2%Qq%Qq%Q%q%%%%%%%%Qq%%%Q%%%%qQq%%%Qq%%%Q%%qQ%%q%%%%%%%Q%%q%Qq%Qq%QqQq%
5009A2%%%QqQq%%%%%%%%%%Q%qQ%qQq%%%Q%q%%Q%qQ%%%q%%%Qq%%Qq%%Q%%qQ%%%%%%%%%qQq%
4993A2Q%%%%%%%qQ%%qQqQ%qQ%%%q%%%%%%%Qq%%%%Qq%%%%%Qq%Q%%qQq%%%%%%Qq%%%%%%%%%%
4977A2%%%%%%%%%%%Qq%Qq%Qq%Qq%%%QqQq%%%%QqQq%%Qq%Q%q%%Qq%%%%%%%%%%%Qq%%%%%%%%
4961A2%Qq%Qq%%%%%%%%%Q%q%%%Qq%%%%%%%%%Q%qQq%%%%%%%%%%%%Q%q%Q%q%%%%Qq%%%Q%qQ%
4945B0q%Q%q%%%%QqQq%%%%%%Qq%%%%%%%%%%%%%Qq%%%%%%%%Qq%%%%%%%%%%%%%%Qq%%%Qq%Qq
4929A2%%%%%%%%%%%%%Q%q%%%%%%%%Qq%%%%%%%%%%%%%%%%%%Q%%q%%QqQ%q%%%%%%Qq%Q%%q%Q
4913B0qQ%q%%%QqQq%%%%%%%%Qq%Q%%%qQqQ%%%q%%%QqQ%q%%%%%%%%%%%%Qq%Q%%qQqQ%%qQ%%
4897B0qQ%%%%qQq%%Qq%Qq%%%%%%%%Qq%%%%%%%%%%%%%%%%%%%QqQq%%%%Qq%%Qq%%Qq%QqQq%Q
4881B0q%Q%%%qQ%q%%%%%%%%%%%%%%%%%Qq%Qq%%%%%%%%%%%%%%%%%%%%%%%%%%%%%%%%%%%%%%
4865A2Qq%%%%%%%%%%%%%Qq%%Qq%%Qq%%%%%%%%%%%%Q%q%%%%%%%%%%%QqQq%%Qq%%Q%%q%Qq%Q
4849B0%q%%Qq%Qq%%%%Qq%%%%%%QqQq%%%%%%%%%%%%%%%%%Qq%%%%%%%%Qq%QqQq%%%%%%%%%Qq
4833A2QqQq%%%%Q%%%q%Q%q%%Qq%%%%%Qq%QqQ%q%%%%%%%%%%Qq%%%%%%%%%Qq%%%Qq%Qq%Q%q%
4817A2Q%%%q%QqQq%%%%Qq%Qq%Q%q%%%%Qq%%%%%%%Qq%%%Qq%%%%%%%%%%Q%%qQqqQQ%q%%%Qq%
4801A2%%qQqJ6j6%QQK4j6qQq%q%%Qk4K4%qQqQq%%%%%Qq%%%Qq%Q%q%%%Qq%%Qq%Qq%Q%%qQq%
4786A2%%%%%%%%Qq%%%%%%%%%%%%%%%QqQq%Q%q%%QqQq%%%%Qq%%%%%%Qq%%%%QqQ%%%q%Qq%%%
4770A2%%%Qq%%%%%%%%%%%%%Qq%%%%%%%%%%%%%%%%%%%%%%%Qq%%%%%%%%%%%%%%%%Q%q%Qq%%%
4754A2Qq%%%%%%%%Qq%QqQ%%qQq%%Qq%%%QqQq%%%%%%Qq%%%%%%Qq%Q%q%%%Qq%QqQ%%q%Qq%%%
4738A2%%%%%%%%%%%%%%%%%%%Qq%%%%%%Qq%%%%%%%%%%%%%%%%%Q%q%%%%%%%%%%%%%%%%%%%%%
4722A2%%%%%%%%%%%%Q%q%%%%QqQq%%%%%%%%%%%%%%%%%%%%%%%%%%%Qq%%%%%%%%%%%%%%%%%%
4706A2%%%%%%%%%Q%qQ%q%Qq%%%Qq%%%%%%%%%%Qq%%%%%%%%%%%%%%%%%%%%Qq%%%%%%%%%%%%%
4690A2%%%%%%%%%Qq%%%%%%QqQ%%q%Qq%Qq%Qq%Qq%%Q%%%%%%qQq%%Qq%%%Qq%%%%Qq%%%%%Q%q
4674A2Qq%%%QqQ%q%%%%QqQ%q%%%%%%%%%%%%%%%%%%%%%%%%%%%%%%%%%%%%%%%%%%%%%%%%%%%
4658A2%%%%%%QqQ%q%%%%%%%Qq%%%%%Qq%%%%%%%%Qq%%Qq%%%%Qq%%%Q%qQ%qQqQq%QqQq%%%%%
4642A2Qq%%Qq%%%Qq%%Q%q%Qq%%%%%%%%%%%%%%%%%%%%%%%%%Q%%q%%QqQ%%%q%%%%%Qq%%%%%%
4626A2%%%Qq%%%Q%%%qQq%Qq%Qq%Qq%%%%%%%%Qq%%%%%%%Q%q%%%%%%%%%%%%%%%%%%Qq%Qq%Qq
4610A2%Qq%Qq%%%%%%%%%%%%%%Qq%%%Q%q%Qq%%%%%%Qq%%%%%%%%%%%%%%Q%q%Q%%q%Qq%%%%%%
4594A2%Qq%%%%%%Qq%%Qq%Qq%Qq%%%%%%%%Qq%%%%%%%%%%%Qq%%%%%%%%%%%%%%%%%%%%%Qq%%%
4578A2%Qq%%%%%%%%%%%Qq%%%%%%%%%%%%%%%%%%%Qq%Q%%q%%%%%%%%Q%q%Q%%qQqQqQj6QQ%qQ
4562B0q%%%%%%%%%%Qq%Qq%%%%%%%%%%%%%%%%%%%%%%%%%%%%%%%%%%%%%%%%%%%%%%%%%%%%%%
4546A2%%Q%q%%%%%%%%%%%%%%Qq%%%%%%%%%%%%%%Q%q%Qq%%%Qq%Q%q%Qq%%%Qq%%%%%Q%%qQ%q
4530A2%%%%%%%%%Q%q%%%%Qq%%%%%%%%%%%%%%%%%%Qq%Q%%q%Qq%Qq%%%%%%%%%%%%Qq%%%%%%%
4514A2%%Qq%%%Qq%%%%%%%%%%%%%%%%%%%%%%%%Qq%%%%%%%%%%%%QqQq%%%%%%%%%%%%%%%Qq%%
4498A2Qq%%%%%%%%%%%%%%%%%%%%%%%%%%%%QqQ%q%%%Q%q%%%%%%%%%%%%%%%Qq%%%%QqQ%%q%Q
4482B0q%%%%%%%%%%%%%%%%%%Qq%%Qq%%%%%%%%%%%%%%%%%%%%%%%%%%%%Qq%%%%QqQq%%%%%%%
4466A2%%%%%%%%%Qq%%%%%%%Qq%Q%%q%%%%%%%Qq%%%%%Qq%%%%%%%%%%%%%%%%%%%%%%%%%%%%%
4450A2%Qq%%%%%%Qq%%%%%Qq%%%%%%%%%QqQq%QqQ%%qQqQqQ%qQq%%Q%qQ%%%%%%%%q%%%Qq%Q%
4434B0q%%%Qq%Qq%QqQq%%%%%%%%%%%%%%%%%%%%%QqQq%%%%QqQq%QqQq%%Q%%q%Qq%%%%%Q%q%
4418A2%%%%QqQq%%%%%%%%%%%%%%%%%%%%%%%%%QqQqQq%%%%%%%%%%%%%%%%%%%%%%%%%%%%%%%
4402A2%%%%%%%%%%%%%%%%%%%%%%%%%%%%%%%%%%Qq%%%%%%%%%%%%%%%%%%%%Qq%%%%%%%%%%%%
4386A2%%%%%%%%%%%%%%%%%%%%%%%%%%%%%%%%%%%%%%%%%%%%%%%%%%%%%%%%%%%%%%%%%%%%%%
4370A2%%%%%%%%%%%%%%%%%%%%%%%%%%%%%%%%%Qq%%%%%%%%%%%%%Qq%%%Qq%%%%Qq%%Qq%%%%%
4354A2%%%%%%%%%%%%%%%%%%%%%%%%%%%%Qq%%%%%%Qq%%Qq%%%Qq%%%%%%%%%%%%%%%%%%%%%%%
4338A2%%%%%Qq%%%%%%%%%%%QqQ%%%%qQq%%QQqQj6QQ%j6%%%Qq%QqQq%%%%%%%%%%%QqQq%%Q%
4322B0q%Q%q%%%%%%%%%%QqQq%%%%%%%Qq%%Qq%%%%%%%%%%%%%%%%%Qq%%Qq%%%%%%%%%%%Q%q%
4306A2%%%%%%%%%%%%%%%Qq%%%%%%%%Qq%%%%%%%QqQq%%%%%%%%%%%Qq%%%%%%%%%%%%%%%%%%Q
4290B0q%%%%%%%%%%%%%%%%%%%%%%%%%%%%%%%%%%%%%%%%%%%%%%%%%%%Qq%%%%%%%%%%%%%%%%
4274A2%%%%Qq%%%%Qq%%%%%%%%%%%%%%%%%%%Qq%%%%%Q%q%%Qq%%%%%%%%%%%%%%%%%%%%%%%%%
4258A2%%%%%%%%Qq%%%%%%%Qq%%%%%%%%%%%%%%%Qq%%%%%%%%%%%%%%Qq%Qq%Qq%%%%%%QqQq%%
4242A2%%%%%%%%%%%%%%%%%%Qq%%%%%%%%%%%%%%%%%%%%%%%%Q%q%%%%%%%%%%%%%%%%%%%%%%%
4226A2%%%%%%%%%%%%%%%%%%%%%Qq%%%Q%qQq%%%%%%%Qq%Qq%%Qq%%Qq%Qq%%%%Qq%Q%qQq%Qq%
4210A2%%%%%%%%%%%%%%%%%%%%%%Qq%%%%%%%%%%%%%%%%%%%%%Qq%Qq%%%%Qq%%%%%%%%%%%%%%
4194A2%%%%%Qq%%%%Qq%%%%%%%%%%%%%%%%%%%%%%%%%%%%%%%%%%%Qq%%%%%%%%%%%%%%%%%%%%
4178A2%%%%%%%%%%%%%Qq%%%%%%%%%Qq%%%%%%%%%%%%%%%%%%%%%%%%%%%%%%%%%%%Qq%%%%%%%
4162A2%%%%%%%%%%%%%%%%%%%%%%%%%%%%%%%%%Qq%%%%%%%%%%%%%%%%%%%%%%Qq%%%Q%qQq%%%
4146A2%%%%%%%%%%%%%%%%%%%%%%%%%%%%%%%%%%%%%%%%%%%%%%%%%%%%%%%%%%%%%%%%%%%%%%
4130A2%%%%%%%%%%%%%%%%%%%%%%%%%%%%%%%%%%%%%%%%%%%%%%%%%%%%%%%%%%%%%%%%%%%%%%
4114A2%%%%%%%%%%%%%%%%%%%Qq%%%%%%%%%%%%%%%%%%%%%%%%%Q%q%%%%%%%%%%%%%Qq%%%Qq%
4098A2%%Qq%QqQq%QqQ%qQq%Qq%Qq%%%%Qq%Q%q%%%%%%%%%%%Qq%%%%%%%%%%%%%Qq%%%%%%%%%
4082A2%%%%%%Qq%%%%%%Qq%%%%%%%%%%%%%%%%%%%%%%%%%%%%%%%%%%%%%%%%%%Qq%%%QqQqQq%
4066A2%%%%%%%%%%%%%%%%%%%%%%%%%%%%%%%Qq%%%%%%%%%%%%%%%%QqQq%Qq%%%%%%Qq%%%%%%
4050A2%%%%%Qq%%%Qq%%%%%%QqQq%%%%%%%%%%%%%%%%%%%%%%%%%%%%%%%%Qq%%%%Q%q%%%%%%%
4034A2%%%%%%%%%%%%%%%%%%%%%%%%%%%%%%%%%%%%%%%%%%%%%%%%%%%%Qq%%%%%%%%%%%%%%%%
4018A2%%%%%%%%%%Qq%%%%%%%%%%%%%%%%%%%%%%%%%%%%%%%Q%q%%%%%%%%%%%%%%%%%%%%%%%%
4002A2%%%%%%%%%%%%%%%%%%%%%%%%%%%%%%%%%%%%%%%Qq%Qq%%%%%%%%%%%%%%%%%%%%%%%%%%
3986A2%%Qq%%%%%%%%%%%%%%%%%%%%%%%%Qq%Qq%%%%%%%%Qq%%%%%%%%%%%%%%%%%%%%%%%%%%%
3970A2%%%%%%%%%%%%%%%%%%%%%%%%%%%%%%%%%%%%%%%%%%%%%%%%%%%%%%%%%%%%%%%%%%%%%%
3954A2Qq%%Qq%%%%%%%%%%%%%%%%%%%%%%%%%%%%%%%Qq%%%%%%%%%%%%%%%%%%%%%%%%%%%%%%%
3938A2%%%%%%%%%%%%%%%%%%%%%%%%%%%%%%%%%%%%%%%%%%%%%%%%%%%%%%%%%%%%%%%%%%Qq%%
3922A2%%%%Qq%%Q%qQqQq%%%%%%%%%%%%%%%%%%%%%%%%%%%%%%%%%%%%%%%%%%%%%%%%%%%%%%%
3906A2%%%%%Qq%%%%%%%%%%%%%%%%%%%%%%%%%%%%%%%%%%%%%Qq%%%%%%%%%%%%%%%%%%%%%Qq%
3890A2%Qq%%%%%%%%%%%%%%%%%%%%%%%%%%%%%%%%%%%%%%%%%%%%%%%%%%%%%%%%%%%%%%%%%%%
3874A2%%%%%%%%%%%%%%%%%%%%%%%%%%Qq%%%%Qq%%%%%%%%Qq%%%%QQj6%%%q%QQqQ%q%%%Q%q%
3858A2%%%%%%%%%%Qq%%%%%%%Q%q%%%%%%%%%%%%%%%%%%%%%%%%%%%%%%Qq%%%%%%%%%%%%%%%%
3842A2%%%%%%%%%%%%%%%%%%%%%%%%%%%%%%%%%%%%%%%%%%%%%%%%%%%%%%%%%%%%%%%%%%%%%%
3826A2%%%%%%%%%%%%%%%%%%%%%%%%%%%%%%%%%%%%%%%%%%%%%%%%%%%%%%%%%%%%%%%%%%%%%%
3810A2%%%%%%%%%%%%%%%%%%%%%%%%%%QqQq%%%%%%%%%%%%Qq%%%%%%%%%%%%%%%%%%%%%%%%%%
3794A2%%%%%%%%%%%%%%%%%%%%%%%%%%%%%%%%%%%%%%%%%%%%%%%%%%%%%%%%%%%Qq%%%%%%%%%
3778A2%%Qq%%%%%%%%%%%%%Qq%QqQq%%%%%%%%%%%%%%%%%%%%%Qq%%%%%%%%%%%%%%%%%%%Qq%%
3762A2%%%%%%%%%%%%%%%%Qq%%%%%%%%%%%%%%%%%%%%%%%%%%%%%%%%%%%%%%%%%%%%%%%%%%%%
3746A2%%%qQ%%Q%%q%%%%%%%%%Qq%%%%%%%%%%%%%%%%%%%%%%%%%%%%%%%%%%%%%%%%%%%%%%%%
3730A2%%%%%%%%%%%%%%%%%%%%%%%%%%%%%%%%%Qq%%%%%%%%%%%%%%%%%%%%%%%%%%%%%%%%%%Q
3714B0q%%%%%%%%%%%%%%%%%%%%%%%%%%Qq%%%%%%%%%%%%%%%%%%%%%%%%%%%%%%%%%%%%%%%%%
3698A2%%%%%%%%%%%%%Qq%%%%%%%%%%%%%%%%%%%%%%%%%%%%%%%%%%%%Qq%Qq%%%%%%%%%%%%%%
3681A2%%%%%%%%%%%%%Qq%%%%%%%%%%%%%%%%%%%%%%%%Qq%%%%%%%%%Qq%%%%%%%%%%%%%%%%%%
3665A2%%%%%%%%%%%%%%%%%%%%%%%%%%%%%%%%%%%%%%%Qq%%%%%%%%%%%%%%%%%%%%%%%%%%%%%
3649A2%%%%%%%%%%%%%%%%%%%%%%%%%%%%%%%%%Qq%%%%%%%%%%%%%%%%Qq%%%%%%%%%%%%%%%%Q
3633B0q%%%%%%%%%%%%%%%%%%%%%%%%qQ%qQ%%%q%QQq%%Qq%%%%%%%%%%%%%Qq%%%%%%%%%%%%%
3617A2%%%%%%%%%%%%%%%%%%%%%Qq%%%%%%%%%%%%%%%%%%%%%%%%%%%%%%%%%%%%%%%%%%%%%%%
3601A2%%%%%%%%%%%%%%%%QqQq%%%%%%%%%%%%%%%%%%%%%%%%%%%%%%Qq%%%%%%%%%%%%%%%%%%
3585A2%%%%%%%%%%%%%%%%%%%%%%%%%%%%%%%%%%%%%%%%%%%%%%%%%%%%%%%%%%%%%%%%%%%%%%
3569A2%%%%Qq%%%%%Qq%%%%%%%%%%%%%%%%%%%%%%%%%%%%%%%%%%%%%%%%%%%%%%%%%%%%%Qq%%
3553A2%%%%%%%%%%%%%%%%%%%%%%%%%%%%%%%%%Qq%%%%%%%%%%%%%%%%%%%%%%%%%%QqQq%%%%%
3537A2%%%%%%%%%%%%%%%%%%%%%%%%%%%%%%%%%%%%%%%%%%%%%%%%%%%%%%%%%%%%%%%%%%%%%%
3521A2%%%%%%%%%%%%%%%%%%%%%%%%%%%%%%%%%%%%%%%%%%%%%%%Qq%Qq%%%%%%%%%%%%%%%%%%
3505A2%%%%%%%%%%%%%%%%%%%%%%%%%%%%%%%%%%%%%%%%%%%%%%%%%%%%%%%%%%%%%%%%%%%%%%
3489A2%%%%%%%%%%%%%%%%%%%%%%%%%%%%%%%%%%%%%%%%%%%%%%%%%%%%%%%%%%%%%%%%%%%%%%
3473A2%%%%%%%%%%%%%%%%%%%%%%%%%%%%%%%%%%%%%%%%%%%%%%%%%%%%%%%%%%%%%%%%%%%%%%
3457A2%%%%%%%%%%%%%%%%%%%%%%%%%%%%%%Q%q%%%%%%%%%%%%%%%%%%%%%%%%%%%%%%%%%%%%%
3441A2%%%%%%%%%%%%%%%%%%%%Qq%%%%%%%%%%%%%%%%%%%%%%%%%%%%%%%%%%%%%%%%%%%%%%%%
3425A2%%%%%%%%%Qq%%%%%%%%%%%%%%%%%%%%%%%%%%%%%%%%%%%%%%%%%%%%%%%%%%%%%%%%%%%
3409A2%%%%%%%%%%%%%%%%%%%%%%%%%%%%%%%%%%%%%%%%%%%%%%%%%%%%%%Qq%%%%%%%%%%%QqQ
3393B0qQ%q%%Q%qQq%%%%Qq%%%%%%%%%Qq%%%%%%%%%%%%%%%%%%%%%%%%%%%%%%%%%%%%%%%%%%
3377A2%%%%%%%%%%%%%%%QqQq%Qq%%%%%%%%%Qq%%%%%%%%%%%%%%%%%%%%%%%%%%%%%%%%%%%%%
3361A2%%%%%%%%%%%%%%%%%%%%%%%%%%%%%%%%%%%%%%%%%%%%%%%%%%%%%%%Q%q%%%%%%%%%%%%
3345A2%%%%%%%%%%%%%%%%%%%%%%%%%%%%%%%%%%%%%%%%%%%%%%%%%%%%%%%%%%%%%%%%%%%%%%
3329A2%%%%%%%%%%%%%%%%%%%%%%%%%%%%%%%%%%%%%%%%%%%%%%%%%%%%%%%%%%%%%%%%%%%%%%
3313A2%%%%%%%%%%%%%%%%%%%%%%%%%%%%%%%Qq%%QqQqQ%q%%%%%%%%%%%%%%%%%%%%%%Qq%%%%
3297A2%%%%%%%%%%%%%%%%%%%%%%%%%%%%%%%%%%%%%%%%%%%%%%%%%%%%%%%%%%%%%%%%%%%%%%
3281A2%%%%%%%%%%%%%%%%%%%%%%%%%%%%%%%%%%%%%%%%%%%%%%%%%%%%%%%%%%%%%%%%%%%%%%
3265A2%%%%%%%%%%%%%%%%%%%%%%%%%%%%%%%%%%%%%%%%%%%%%%%%%%%%%%%%%%%%%%%%%%%%%%
3249A2%%%%%%%%%%%%%%%%%%%%%%%%%%%%%%%%%%%%%%%%%%%%%%%%%%%%%%%%%%%%%%%%%%%%%%
3233A2%%%%%%%%%%%Qq%%%%%%%%%%%%%%%%%%%%%%%%%%%%%%%%%%%%%%%%%%%%%%%%%%%%%%%%%
3217A2%%%%Qq%%%%%%%%%%%%%%%%%%%%%%%%%%%%%%%%%%%%%%%%%%%%%%%%%%%%%%%%%%%%%%%%
3201A2%%%%%%%%%%%%%%%%%%%%%%%%%%%%%%%%%%%%%%%%%%%%%%%%%%%%%%%%%%%%%%%%%%%%%%
3185A2%%%%%%%%%%%%%%%%%%%%%%%%%%%%%%%%%%%%%%%%%%%%%%%%%%%%%%%%%%%%%%%%%%%%%%
3169A2%%%%%%%%%%%%%%%%%%%%%%%%%%%%%%%%%%%%%Qq%%%%%%%%Qq%%%Qq%%%Qq%%%%%%%%%%%
3153A2%%%%%%%%%%%%%%%%%%%%%%%%%%%%%%%%%%%%%%%%%%%%%%%%%%%%%%%%%%%%%%%%%%%%%%
3137A2%%%%%%%%%%%%%%%%%%%%%%%%%%%%%%%%%%%%%%%%%%%%%%%%%%%%%%%%%%%%%%%%%%%%%%
3121A2%%%%%%%%%%%%%%%%%%%%%%%%%%%%%%%%%%%%%%%%%%%%%%%%%%%%%%%%%%%%%%%%%%%%%%
3105A2%%%%%%%%%%%%%%%%%%%%%%%Qq%%Qq%%%%%%%%%%%%%%%%%%%%%%%%%%%%%%%%%%%%%%%%%
3089A2%%%%%%%%%%%%%%%%%%%%%%%%%%%%%%%%%%%%%%%%%%%%%%%%%%%%%%%%%%%%%%%%%%%%%%
3073A2%%%Qq%%%%Qq%%%%%%%%%%%%%%%%%%%%%%%%%%%%%%%%%%%%%%%%%%%%%%%%%%%%%%%%%%%
3057A2%%%%%%%%%%%%%%%%%%%%%%%%%%%%%%%%%%%%%%%%%%%%%%%%%%%%%%%%%%%%%%%%%%%%%q
3041DQ%Qq%%Qq%%%%%%%%%%%%%%%%%%%%%%%%%%%%%%%%%%%%%%%%%%%%%%%%%%%%%%%%%%%%%%%
3024A2%%%%%%%%%%%%%%%%%%%%%%%%%%%%%%%%%%%%%%%%%%%%%%%%%%%%%%%%%%%%%%%%%%%%%%
3008A2%%%%%%%%%%%%%%%%%%%%%%%%%%%%%%%%%%%%%%%%%%%%%%%%%%%%%%%%%%%%%%%%%%%%%%
2992A2%%%%%%%%%%%%%%%%%%%%%%%%%%%%%%%%%%%%%%%%%%%%%%%%%%%%%%%%%%%%%%%%%%%%%%
2976A2%%%%%%%%%%%%%%%%%%%%%%%%%%%%%%%%%%%%%%%%%%%%%%%%%%%%%%%%%%%%%%%%%%%%%%
2960A2%%%%%%%%%%%%%%%%%%%%%%%%%%%%%%%%%%%%%%%%%%%%%%%%%%%%%%%%%%%%%%%%%%%%%%
2944A2%%%%%%%%%%%%%%%%%%%%%%%%%%%%%Qq%%%%%%%%%%%%%%%%%%%%%%%%%%%%%%%%%%%%%%%
2928A2%Qq%Qq%%QqQqQ%q%Qj6K4q%%%j6J6q%qJ6q%%qQ%%%%%Qq%%%%%%%%Qq%%%%%%Qq%%%%%%
2913A2%%%%%%%%%%%%%%%%%%%%%%%Qq%%%%%%%%%%%%%%%%%%%%%%%%%%%%%%%%%%%%%%%%%%%%%
2897A2%%%%%%%%%%%%%%%%%%%%%%%%%%%%%%%%%%%%%%%%%%%%%%%%%%%%%%%%%%%%%%%%%%%%%%
2881A2%%%%%%%%%%%%%%%%%%%%%%%%%%%%%%%%%%%%%%%%%%%%%%%%%%%%%%%%%%%%%%%%%%%%%%
2865A2%%Qq%%%%%%%%%%%%%%%%%%%%%%%%%%%%%%%%%%%%%%%%%%%%%%%%%%%%%%%%%%%%%%Qq%%
2849A2%%%%%%%%%%%%%%%%%%%%%%%%%%%%%Qq%%%%%%%%%%%%%%%%%%%%%%%%%%%%%%%%%%%%%%%
2833A2%%%%%%%%%%%%%%%%%%%%%%%%%%%%%%%%%%%%%%%%%%%%%%%%%%%%%%%%%%%%%%%%%%%%%%
2817A2%%%%%%%%%%%%%%%%%%%%%%%%%%%%%%%%%%%%%%%%%%%%Qq%%%%%%%%%%%%%%%%%%%%%%%%
2801A2%%%%%%%%%%%%%%%%%%%%%%%%%%%%%%%%%%%%%%%%%%%%%%%%%%%%%%%%%%%%%%%%%%%%%%
2785A2%%%%%%%%%%%%%%%%%%%%%%%%%%%%%%%%%Qq%%%%%%%%%%%%%%%%%%%%%%%%%%%%%%%%%%%
2769A2%%%%%%%%%%%%%%%%%%%%%%%%%%%%%%%%%%%%%%%%%%%%%%%%%%%%%%%%%%%%%%%%%%%%%%
2753A2%%%%%%%%%%%%%%%%%%%%%%%%%%%%%%%%%%%%%%%%%%%%%%%%%%%%%%%%%%%%%%%%%%%%%%
2737A2%%%%%%%%%%%%%%%%%%%%%%%%%%%%%%%%%%%%%%%%%%%%%%%%%%%%%%%%%%%%%%%%%%%%%%
2721A2%%%%%%%%%%%%%%%%%%%%%%%%%%%%%%%%%%%%%%%%%%%%%%%%%%%%%%%%%%%%%%%%%%%%%%
2705A2%%%%%%%%%%%%%%%%%%%%%%%%%%%%%%%%%%%%%%%%%%%%%%%%%%%%%%%%%%%%%%%%%%%Qqq
2689DQ%qQ%%%%%%%%%%%%%%Qq%%%%%%%%%%%%%%%%%%%%%%%%%%%%%%%%%%%%%%%%%%%%%%%%%%%
2673A2%%%%%%%%%%%%%%%%%%%%%%%%%%%%%%%%%%%%%%%%%%%%%%%%%%%%%%%%%%%%%%%%%%%%%%
2657A2%%%%%%%%%%%%%%%%%%Qq%%%%%%%%%%%%%%%%%%%%%%%%%%%%%Q%q%Qq%%%%%%%%%%%%%%%
2641A2%%%%%%%%%%%%%%%%%%%%%%%%%%%%%%%%%%%%%%%%%%%%%%%%%%%%%%%%%%%%%%%%%%%%%%
2625A2%%%%%%%%%%%%%%%%%%%%%%%%%%%%%%%%%%%%%%%%%%%%%%%%%%%%%%%%%%%%%%%%%%%%%%
2609A2%%%%%%%%%%%%%%%%%%%%%%%%%%%%%%%%%%%%%%%%%%%%%%%%%%%%%%%%%%%%%%%%%%%%%%
2593A2%%%%%%%%%%%%%%%%%%%%%%%%%%%%%%%%%%%%%%%%%%%%%%%%%%%%%%%%%%%%%%%%%%%%%%
2577A2%%%%%%%%%%%%%%%%%%%%Qq%qQ%%%%%%%%%%%%%%%%%%%%%%%%%%%%%%%%%%%%%%%%%%%%%
2561A2%%%%%%%%%%%%%%%%%%%%%%%%%%%%%%%%%%%%%%%%%%%%%%%%%%%%%%%%%%%%%%%%%%%%%%
2545A2%%%%%%%%%Qq%%%%%%%%%%%%%%%%%%%%%%%%%%%%%%%%%%%%%%%%%%%%%%%%%%%%%%%%%%%
2529A2%%%%%%%%%%%%%%%%%%%%%%%%%%%%%%%%%%%%%%%%%%%%%%%%%%%%%%%%%%%%%%%%%%%%%%
2513A2%%%%%%%%%%%%%%%%%%%%%%%%%%%%%%%%%%%%%%%%%%%%%%%%%%%%%%%%%%%%%%%%%%%%%%
2497A2%%%%%%%%%%%%%%%%%%%%%%%%%%%%%%%%%%%%%%%%%%%%%%%%%%%%%%%%%%%%%%%%%%%%%%
2481A2%%%%%%%%%%%%%Qq%%%%%%%%%%%%%%%%%%%%%%%%%%%%%%%%%%%%%%%%%%%%%%%%%%%%%%%
2465A2%%%%%%%%%%%%%%%%%%%%%%%%%%%%%QqQq%%%%%%qQQqQ%j6%QQq%%%%%%%%Qq%%%%%%%%%
2449A2%%%%%%%%%%%%%%%%%%%%%%%%%%%%%%%%%%%%%%%%%%%%%%%%%%%%%%%%%%%%%%%%%%%%%%
2433A2%%%%%%%%%%%%%%%%%%%%%%%%%%%%%%%%%%%%%%%%%%%%%%%%%%%%%%%%%%%%%%%%%%%%%%
2417A2%%%%%%%%%%%%%%%%%%%%%%%%%%%%%%%%%%%%%%%%%%%%%%%%%%%%%%%%%%%%%%%%%%%%%%
2401A2%%%%%%%%%%%%%%%%%%%%%%%%%%%%%%%%%%%%%%%%%%%%%%%%%%%%%%%%%%%%%%%%%%%%%%
2385A2%%%%%%%%%%%%%%%%%%%%%%%%%%%%%%%%%%%%%%%%%%%%%%%%%%%%%%%%%%%%%%%%%%%%%%
2369A2%%%%%%%%%%%%%%%%%%%%%%%%%%%%%%%%%%%%%%%%%%%%%%%%%%%%%%%%%%%%%%%%%%%%%%
2353A2%%%%%%%%%%%%%%%%%%%%%%%%%%%%Qq%%%%%%%%%%%%%%%%%%%%%%%%%%%%%%%%%%%%%%qQ
2337A2%%%%%%%%%%%%%%%%%%%%%%%%%%%%%%%%%%%%%%%%%%%%%%%%%%%%%%%%%%%%%%%%%%%%%%
2321A2%%%%%%%%%%%%%%%%%%%%%%%%%%%%%%%%%%%%%%%%%%%%%%%%%%%%%%%Qq%%%%%%%%%%%%%
2305A2%%%%%%%%%%%%%%%%%%%%%%%%%%%%%%%%%%%%%%%%%%%%%%%%%%%%%%%%%%%%%%%%%%%%%%
2289A2%%%%%%%%%%%%%%%%%%%%%%%%%%%%%%%%%%%%%%%%%Qq%%%%%%%%%%%%%%%%%%%%%%%%%%%
2272A2%%%%%%%%%%%%%%%%%%%%%%%%%%%%%%%%%%%%%%%%%%%%%%%%%%%%%%%%%%%%%%%%%%%%%%
2256A2%%%%%%%%%%%%%%%%%%%%%%%%%%%%%Qq%%%%%%%%%%%%%%%%%%%%%%%%%%%%%%%%%%%%%%%
2240A2%%%%%%%%%%%%%%%%%%%%%%%%%%%%%%%%%%%%%%%%%%%%%%%%%%%%%%%%%Qq%%%%%%%%%%%
2224A2%%%%%%%%%%%%%qQqQ%%QqQq%%%%%%%%%%%%%%%%%%%%%%%%%%%%%%%%%%%%%%%%%%%%%%%
2208A2%%%%%%%%%%%%%%%%%%%%%%%%%%%%%%%%%%%%%%%%%%%%%%%%%%%%%%%%%%%%%%%%%%%%%%
2192A2%%%%%%%%%%%%%%%%%%%%%%%%%%%%%%%%%%%%%%%%%%%%%%%%%%%%%%%%%%%%%%%%%%%%%%
2176A2Qq%%%%%%%%%%%%%%%%%%%%%%%%%%%%%%%%%%%%%%%%%%%%%%%%%%%%%%%%%%%%%%%%%%%%
2160A2%%%%%%%%%%%%%%%%%%%%%%%%%%%%%%%%%%%%%%%%%%%%%%%%%%%%%%%%%%%%%%%%%%%%%%
2144A2%%%%%%%%%%%%%%%%%%%%%%%%%%%%%%%%%%%%%%%%%%%%%%%%%%%%%%%%%%%%%%%%%%%%%%
2128A2%%%%%%%%%%%%%%%%%%%%%%%%%%%%%%%%%%%%%%%%%%%%%%%%%%%%%%%%%%%%%%%%%%%%%%
2112A2%%%%%%%%%%%%%%%%%%%%%%%%%%%%%%%%%%%%%%Qq%%%%%%%%%%%%%%%%%%%%%%%%%%%%%%
2096A2%%%%%%%%%%%%%%%%%%%%%%%%%%%%%%%%%%%%%%%%%%%%%%%%%%%%%%%%%%%%%%%%%%%%%%
2080A2%%%%%%%%%%%%%%%%%%%%%%%%%%%%%%%%%%%%%%%%%%%%%%%%%%%%%%%%%%%%%%%%%%%%%%
2064A2%%%%%%%%%%%%%%%%%%%%%%%%%%%%%%%%%%%%%%%%%%%%%%%%%%%%%%%%%%%%%%%%%%%%%%
2048A2%%%%%%%%%%%%%%%%%%%%%%%%%%%%%%%%%%%%%%%%%%%%%%%%%%%%%%%%%%%%%%%%%%%%%%
2032A2%%%%%%%%%%%%%%%%%%%%%%%%%%%%%%%%%%%%%%%%%%%%%%%%%%%%%%%%%%%%%%%%%%%%%%
2016A2%%Qq%%%%%%%%%%%%%%%%%%%%%%%%%%%%%%%%%%%%%%%%%%%%%%%%%%%%%%%%%%%%%%%%%%
2000A2%%%%%%%%%%%%%%%%%%%%%%%%%%%%%%%%%%%%%%%%%%%%%%%%%%%%%%QqQq%Qj6qJ6%QqQ%
1985B0%q%Qq%%%%%%%%%%%%%%%%%%%%%%%%%%%%%%%%%%%%%%%%%%%%%%%%%%%%%%%%%%%%%%%%%
1969A2%%%%%%%%%%%%%%%%%%%%%%%%%%%%%%%%%%%%%%%%%%%%%%%%%%%%%%%%%%%%%%%%%%%%%%
1953A2%%%%%%%%%%%%%%%%%%%%%%%%%%%%%%%%%%%%%%%%%%%%%%Qq%%%%%%%%%%%%%%%%%%%%%%
1936A2%%%%%%%%%%Qq%%%%%%%%%%%%%%%%%%%%%%%%%%%Qq%%%%%%%%%%%%%%%%%%%%%%%%%%%%%
1920A2%%%%%%%%%%%%%%%%%%%%%%%%%%%%%%%%%%%%%%%%%%%%%%%%%%%%%%%%%%%%%%%%%%%%%%
1904A2%%%%%%%%%%%%%%%%%%%%%%%%%Qq%%%%%%%%%%%%%%%%%%%%%%%%%%%%%%%%%%%%%%%%%%%
1888A2%%%%%%%%%%%%%%%%%%%%%%%%%%%%%%%%%%%%%%%%%%%%%%%%%%%%%%%%%%%%%%%%Qq%%%%
1872A2%%%%%%%%%%%%%%%%%%%%%%%%%%%%%%%%%%%%%%%%%%%%%%%%%%%%%%%%%%%%%%%%%%%%%%
1856A2%%%%%%%%Qq%%%%%%%%%%%%%%%%%%%%%%%%%%%%%%%%%%%%%%%%%%%%%%%%%%%%%%%%%%%%
1840A2%%%%%%%%%%%%%%%%%%%%%%%%%%%%%%%%%%%%%%%%%%%%%%%%%%%%%%%%%%%%%%%%%%%%%%
1824A2%%%%%%%%%%%%%%%%%%%%%%%%%%%%%%%%%%%%%%%%%%%%%%%%%%%%%%%%%%%%%%%%%%Qq%%
1808A2%%%%%%%%%%%%%%%%%%%%%%%%%%%%%%%%%%%%%%%%%%%%%%%%%%%%%%%%%%%%%%%%%%%%%%
1792A2%%%%%%%%%%%%%%%%%%%%%%%%%%%%%%%%%%%%%%%%%%%%%%%%%%%%%%%%%%%%%%%%%%%%%%
1776A2%%%%%%%%%%%%%%%%%%%%%%%%%%%%%%%%%%%%%%%%%%%%%%%%%%%%%%%%%%%%%%%%%%%%%%
1760A2%%%%%%%%%%%%%%%%%%%%%%%%%%%%%%%%%%%Qj6QQ%j6%Q%Qq%%%%Qq%%%%%%%%%%%%%%%%
1745A2%%%%%%%%%%%%%%%%%%%%%%%%%%%%%%%%%%%%%%%%%%%%%%%%%%%%%%%%%%%%%%%%%%%%%%
1729A2%%%%%%%%%%%%%%%%%%%%%%%%%%%%%%%%%%%%%%%%%%%%%%%%%%%%%%%%%%%%%%%%%%%%%%
1713A2%%%%%%%%%%%%%%%%%%%%%%%%%%%%%%%%%%%%%%%%%%%%%%%%%%%%%%%%%%%%%%%%%%%%%%
1697A2%%%%%%%%%%%%%%%%%%%%%%%%%%%%%%%%%%%%%%%%%%%%%%%%%%%%%%%%%%%%%%%%%%%%%%
1681A2%%%%%%%%%Qq%%%%%%%%%%%%%%%%%%%%%%%%%%%%%%%%%%%%%%%%%%%%%%%%%%%%%%%%%%%
1665A2%%%%%%%%%%%%%%%%%%%%%%%%%%%%%%%%%%%%%%%%%%%%%%%%%%%%%%%%%%%%%%%%%%%%%%
1649A2%%%%%%%%%%%%%%%%%%%%%%%%%%%%%%%%%%%%%%%%%%%%%%%%%%%%%%%%%%%%q%Q%%%%qQ%
1633A2%%%%%%%%%%%%%%%%%%%%%%%%%%%%%%%%%%%%%%%%%%%%%%%%%%%%%%%%%%%%%%%%%%%%%%
1617A2%%%%%%%%%%%%%%%%%%%%%%%%%%%%%%%%%%%%%%%%%%%%%%Qq%%%Qq%%%%%%%%%%%%%%%%%
1600A2%%%%%%%%%%%%%%%%%%%%%%%%%%%%%%%%%%%%%%%%%%%%%%%%%%%%%%%%%%%%%%%%%%%%%%
1584A2%%%%%%%%%%%%%%%%%%%%%%%%%%%%%%%%%%%%%%%%QqQq%%%%%%%%%%%%%%%%%%%%%%%%%%
1568A2%%%%%%%%%%%%%%%%%%%%%%%%%%%%%%%%%%%%%%%%%%%%%%%%%%%%%%%%%%%%%%%%%%%%%%
1552A2%%%%%%%%%%%%%%%%%%%%%%%%%%Qq%%Qq%%%%%%%%%%%%%%%%%%%%%%%%%%%%%%%%%%%%%%
1536A2%%%%%%%%%%%%%%%%%%%%%%%%%%%%%%%%%%%%%%%%%%%%%%%%%%%%%%%%%%%%%%%%%%%%%%
1520A2%%%%%%%QqQq%Q%q%%%%%%QqqQ%%%%%%%%%%%%%%%%%%%%%%%%%%%%%%%%%%%%%%%%%%%%%
1504A2%%%%%%%%%%%%%%%%%%%%%%%%%%%%%%%%%%%%%%%%%%%%%%%%%%%%%%%%%%%%%%%%%%%%%%
1488A2%%%%%%%%%%%%%%%%%%%%%%%%%%%%%%%%%%%%%%%%%%%%%%%%%%%%%%%%%%%%%%%%%%%%%%
1472A2%%%%%%%%%%%%%%%%%%%%%%%%%%%%%%%%%%%%%%%%%%%%%%%%%%%%%%%%%%QqQq%%%%Qq%%
1456A2%%%%%%%%%%%%%%%%%%%%%%%%%%%%%%%%%%%%%%%%%%%%%%%%%%%%%%%%%%%%%%%%%%%%%%
1440A2%%%%%%%%%%%%%%%%%%%%%%%%%%%%%%%%%%%%%%%%%%%%%%%%%%%%%%%%%%%%%%%%%%%%%%
1424A2%%%%%%%%%%%%%%%%%%%%%%%%%%%%%%%%%%%%%%%%%%%%%%%%%%%%%%%%%%%%%%%%%%%%%%
1408A2%%%%%%%%%%%%%%%%%%%%Qq%%%%%%%%%%%%%Q%q%%%%%%%%%%%%%%%%%%%%%%%%%%%%%%%%
1392A2%%%%%%%%%%%%%%%%%%%%%%%%%%%%%%%%%%%%%%%%%%%%%%%%%%%%%%%%%%%%%%%%%%%%%%
1376A2%%%%%%%%%%%%%%%%%%%%%%%%%%%%%%%%%%%%%%%%%%%%%%%%%%%%%%%%%%%%%%%%%%%%%%
1360A2%%%%%%%%%%%%%%%%%%%%%%%%%%%%%%%%%%%%%%%%%%%%%%%%%%%%%%%%%%%%%%%%%%%%%%
1344A2%%%%%%%%%%%%%%%%%%%%%%%%%%%%%%%%%%%%%%%%%%%%%%%%%%%%%%%%%%%%%%%%%%%%%%
1328A2%%%%%%%%%%%%%%%%%%%%%%%%%%%%%%%%%%%%%%%%%%%%%%%%%%%%%%%%%%%%%%%%%%%%%%
1312A2%%%%%%%%%%%%%%%%%%%%%%%%%%%%%%%%%%%%%%%%%%%%%%%%%%%%%%%%%%%%%%%%%%%%%%
1296A2%%%%%%%%%%%%%%%%%%%%%%%%%%%%%%%%%%%%%%%%%%%%%%%%%%%%%%%%%%QqqQ%%%%%%%%
1280A2%%%%%%%%%%%%%%%%%%%%%%%%%%%%%%%%%%%%%%%%%%%%%%%%%%%%%%%%%%%%%%%%%%%%%%
1264A2%%%%%%%%%%%%%%%%%%%%%%%%%%%%%%%%%%%%%%%%%%%%%%%%%%%%%%%%%%%%%%%%%%%%%%
1248A2%%%%%%%%%%%%%%%%%%%%%%%%%%%%%%%%%%%%%%%%%%%%%%%%%%%%%%%%%%%%%%%%%%%%%%
1232A2%%%%%%%%%%%%%%%%%%%%%%%%%%%%%%%%%%%%%%%%%%%%%%%%%%%%%%%%%%%%%%%%%%%%%%
1216A2%%%%%%%%%%%%%%%%%%%%%%%%%%%%%%%%%%%%%%%%%%%%%%%%%%%%%%%%%%%%%%%%%%%%%%
1200A2%%%%%%%%%%%%%%%%%%%%%%%%%%%%%%%%%%%%%%%%%%%%%%%%%%%%%%%%%%%%%%%%%%%%%%
1184A2%%%%%%%%%%%%%%%%%%%%%%%%%%%%%%%%%%%%%%%%%%%%%%%%%%%%%%%%%%%%%%%%%%%%%%
1168A2%%%%%%%%Qq%Qq%%%%%%%%%%%%%%%%%%%%%%%%%%%%%%%%%%%%%%%%%%Qq%%%%%%%%%%%%%
1152A2%%%%%%%%%%%%%%%%%%%%%%%%%%%%%%%%%%%%%%%%%%%%%%%%%%%%%%%%%%%%%%%%%%%%%%
1136A2%%%%%%%%%%%%%%%%%%%%%%%%%%%%%%%%%%%%%%%%%%%%%%%%%%%%%%%%%%%%%%%%%%%%%%
1120A2%%%%%%%%%%%%%%%%%%%%%%%%%%%%%%%%%%%%%%%%%%%%%%%%%%%%%%%%%%%%%%%%%%%%%%
1104A2%%%%%%%%%%%%%%%%%%%%%%%%%%%%%%%%%%%%%%%%%%%%%%%%%%%%%%%%%%%%%%%%%%%%%%
1088A2%%%%%%%%%%%%%%%%%%%%%%%%%%%%%%%%%%%%%%%%%%%%%%%%%%%%%%%%%%%%%%%%%%%%%%
1072A2%%%%%%%%%%%%%%%%%%%%%%%%%%%%%%%%%%%%%%Qq%%%%%%%%%%%%%%%%%%%%%%%%%%%%%%
1056A2%Q%qqQQqqQ%%q%J6%j6J6%Qqq%j6J6QqQQQm0J6j6K4o4K4M0Qm0L2QQj6%%q%QqQq%Q%%
1043B0q%%%%%%%%%%%%%%%%Q%qQq%%%%%%%%%%%%%%%Qq%%%Qq%%%%%%Qq%%%%%%%%%%%%%%%%%%
1027A2%%%%%%%%%%%%%%%%%%%%%%%%%%%%%%%%%%%qQ%%%%%%%%%%%%%%%%%%%%%%%%%%%%%%%%%
1011A2%%%%%%%%%%%%%%%%%%%%%%%%%%%%%%%%%%%%%%%%%%%%%%%%%%%%%%%%%%%%%%%%%%%%%%
995A2%%%%%%%%%%%%%%%%%%%%%%%Qq%%%%%%%%%%%%%%%%%%%%%%%%%%%%%%%%%%%%%%%%%%%%%%
979A2%%%%%%%%%%%%%%%%%%%%%%%%%%%%%%%%%%%%%%%%%%%%%%%%%%%%%%%%%%%%%%%%%%%%%%%
963A2%%%%%Qq%%%%%%Qq%%%%%%%%%%%%%%%%%%%%%%%%%%%%%%%%%%%%%%%%%%%%%%%%%%%%%%%%
946A2%%%%%%%%%%%%%%%%%%%%%%%%%%%%%%%%%%%%%%%%%%%%%%%%%%%%%%%%%%%%%%%%%%%%%%%
930A2%%%%%%%%%%%%%%%%%%%%%%%%%%%%%%%%%%%%%%%%%%%%%%%%%%%%%%%%%%%%%%%%%%%%%%%
914A2%%%%%%%%%%%%%%%%%%%%%%%%%%%%%%%%%%%%%%%%%%%%%%%%%%%%%%%%%%%%%%%%%%%%%%%
898A2%%%%%%%%%%%%%%%%%%%%%%%%%%%%%%%%%%%%%%%%%%%%%%%%%%%%%%%%%%%%%%%%%%%%%%%
881A2%%%%%%%%%%%%%%%%%%%%%%%%%%%%%%%%%%%%%%%%%%%%%%%%%%%%%%%%%%%%%%%%%%%%%%%
865A2%%%%%%%%%%%%%%%%%%%%%%%%%%%%%%%%%%%%%%%%%%%%%%%%%%%%%%%%%%%%%%%%%%%%%%%
849A2%%%%%%%%%%%%%%%%%%%%%%%%%%%%%%%%%%%%%%%%%%%%%%%%%%%%%%%%%%%%%%%%%%%%%%%
833A2%%%%%%%%%%%%%%%%%%%%%%%%%%%%%%%%%%%%%%%%%%%%%%%%%%%%%%%%%%%%%%%%%%%%%%%
816A2%%%%%Qj6J6%q%%qQ%%%Qq%%%%%%%%%%%%%%%%%%%%%%%%%%%%%%%%%%%%%%%%%%%%%%%%%%
801A2%%%%%%%%%%%%%%%%%%%%%%%%%%%%%%%%%%%%%%%%%%%%%%%%%%%%%%%%%%%%%%%%%%Qq%%%
784A2%%%%%%%%%%%%%%%%%%%%%%%%%%%%%%%%%%%%%%%%%%%%%%%%%%%%%%%%%%%%%%%%%%%%%%%
768A2%%%%%%%%%%%%%%%%%%%%%%%%%%%%%%%%%%%%%%%%%%%%%%%%%%%%%%%%%%%%%%%%%%%%%%%
752A2%%%%%%%%%%%%%%%%%%%%%%%%%%%%%%%%%%%%%%%%%%%%%%%%%%%%%%%%%%%%%%%%%%%%%%%
736A2%%%%%%%%%%%%%%%%%%%%%%%%%%%%%%%%%%%%%%%%%%%%%%%%%%%%%%%%%%%%%%%%%%%%%%%
719A2%%%%%%%%%%%%%%%%%%%%%%%%%%%%%%%%%%%%%%%%%%%%%%%%%%%%%%%%%%%%%%%%%%%%%%%
703A2%%%%%%%%%%%%%%%%%%%%%%%Qq%%%%Qq%%%%%%%%%%%%%%%%%%%%%%%%%%%%%%%%%%%%%%%%
687A2%%%%%%%%%%%%%%%%%%%%%%%%%%%%%%%%%%%%%%%%%%%%%%%%%%%%%%%%%%%%%%%%%%%%%%%
671A2%%%%%%%%%%%%%%%%%%%%%%%%%%%%%%%%%%%%%%%%%%%%%%%%%%%%%%%%%%%%%%%%%%%%%%%
654A2%%%%%%%%%%%%%%%%%%%%%%%%%%%%%%%%%%%%%%%%%%%%%%%%%%%%%%%%%%%%%%%%%%%%%%%
638A2%%%%%%%%%%%%%%%%%%%%%%%%%%%%%%%%%%%%%%%%%%%%%%%%%%%%%%%%%%%%%%%%%%%%%%%
622A2%%%%%%%%%%%%%%%%%%%%%%%%%%%%%%%%%%%%%%%%%%%%%%%%%%%%%%%%%%%%%%%%%%%%%%%
606A2%%%%%%%%%%%%%%%%%%%%%%%%%%%%%%%%%%%%%%%%%%%%%%%%%%%%%%%%%%%%%%%%%%%%%%%
589A2%%%%%%%%%%%%%%%%%%%%%%%%%%%%%%%%%%%%Q%qJ6q%q%Qq%%%qQ%%%%%%%%%%Qq%%%%%%%
573A2%%%%%%%%%%%%%%%%%%%%%%%%%%%%%%%%%%%%%%%%%%%%%%%%%%%%%%%%%%%%%%%%%%%%%%%
557A2%%%%%%%%%%%%%%%%%%%%%%%%%%%%%%%%%%%%%%%%%%%%%%%%%%%%%%%%%%%%%%%%%%%%%%%
541A2%%%%%%%%%%%%%%%%%%%%%%%%%%%%%%%%%%%%%%%%%%%%%%%%%%%%%%%%%%%%%%%%%%%%%%%
525A2%%%%%%%%%%%%%%QqQq%%%%%%%%%%%%%%%%%%%%%%%%%%%%%%%%%%%%%%%%%%%%%%%%%%%%%
508A2%%%%%%%%%%%%%%%%%%%%%%%%%%%%%%%%%%%%%%%%%%%%%%%%%%%%%%%%%%%%%%%%%%%%%%%
492A2%%QqQq%%%%%%%%%%%%%%%%%%%%%%%%%%%%%%%%%%%%%%%%%%%%%%%%%%%%%%%%%%%%%%%%%
476A2%%%%%%%%%%%%%%%%%%%%%%%%%%%%%%%%%%%%%%%%%%%%%%%%%%%%%%%Qq%%%%%%%%%%%%%%
460A2%%%%%%%%%%%%%%%%%%%%%%%%%%%%%%%%%%%%%%%%%%%%%%%%%%%%%%%%%%%%%%%%%%%%%%%
443A2%%%%%%%%%%%%%%%%%%%%%%%%%%%%%%%%%%%%%%%%%%%%%%%%%%%%%%%%%%%%%%%%%%%%%%%
427A2%%%%%%%%%%%%%%%%%%%%%%%%%%%%%%%%%%%%%%%%%%%%%%%%%%%%%%%%%%%%%%%%%%%%%%%
411A2%%%%%%%%%%%%%%%%%%%%%%%%%%%%%%%%%%%%%%%%%%%%%%%%%%%%%%%%%%%%%%%%%%%%%%%
395A2%%%%%%%%%%%%%%%%%%%%%%%%%%%%%%%%%%%%%%%%%%%%%%%%%%%%%%%%%%%%%%%%%%%%%%%
378A2%%%%%%%%%%%%%%%%%%%Qq%%%%%%%%%%%%%%%%%%%%%%%%%%%%%%%%%%%%%%%%%%%%%%%%%%
362A2%%%%%%%%%%%%%%%%%%%%%%%%%%%%%%%%%%%%%%%%%%%%%%%%%%%%%%%%%%%%%%%%%%%%%%%
346A2qQQ%q%%%%%%%Q%q%%%%%%%%%%%%%%%%%%%%%%%%%%%%%%%%%%%%%%%%%%%%%%%%%%%%%Qq%
330A2%%%%%%%%%%%%%%%%%%%%%%%%%%%%%%%%%%%%%%%%%%%%%%%%%%%%%%%%%%Qq%%%%%%%%%%%
313A2%%%%%%%%%%%%%%%%%%%%%%%%%%%%%%%%%%%%%%%%%%%%%%%%%%%%%%%%%%%%%%%%%%%%%%%
297A2%%%%%%%%%%%%%%%%%%%%%%%%%%%%%%%%%%%%%%%%%%%%%%%%%%%%%%%%%%%%%%%%%%%%%%%
281A2%%%%%%%%%%%%%%%%%%%%%%%%%%%%%%%%%%%%%%%%%%%%%%%%%%%%%%%%%%%%%%%%%%%%%%%
265A2%%%%%%%%%%%%%%%%%%%%%%%%%%%%%%%%%%%%%%%%%%%%%%%%%%%%%%%%%%%%%%%%%%%%%%%
248A2%%%%%%%%%%%%%%%%%%%%%%%%%%%%%%%%%%%%%%%%%%%%%%%%%%%%%%%%%%%%%%%%%%%%%%%
232A2%%%%%%%%%%%%%Qq%%QqQq%%%%%%%%%%%%%%%%%%%%%%%%%%%%%%%%%%%%%%%%%%%%%%%%%%
216A2%%%%%%%%%%%%%%%%%%%%%%%%%%%%%%%%%%%%%%%%%%%%%%%%%%%%%%%%%%%%%%%%%%%%%%Q
200B0q%Qq%%%%%%%%%%%%%%%%%%%%%%%%%%%%%%%%%%%%%%%%%%%%%%%%%%%%%%%%%%%%%%%%%%%
183A2%%%%%%%%%%%%%%%%%%%%%%%%%%%%%%%%%%%%%%%%%%%%%%%%%%%%%%%%%%%%Qq%%%%%%%%%
167A2%%%%%%%%%%%%%%%%%%%%%%%%%%%%%%%%%%%%%%%%%%%%%%%%%%%%%Qq%%%%%%%%%%%%%%%%
151A2%%%%%%%%%%%%%%%%%%%%%%%%%%%%%%%%%%%%%%%%%%%%%%%%%%%%%%%%%%%%%%%%%%%%%%%
135A2%%%%%%%%%%%%%%%%%%%%%%%%%%%%%%%%%%%%%%%%%%%%%%%%%%%%%%%%%%%%%%%%%%%%%%%
118A2%%%%%%%%%%%%%%%%%%%%%QqQq%%Qq%qQQ%%j6Q%%%%%%%Qq%%%%%%Qq%%%%%%%%%%%%%%%%
102A2%%%%%%%%%%%%%%%%%%%%%%%%%%%%%%%%%%%%%%%%%%%%%%%%%%%%%%%%%%%%%%%%%%%%%%%
86A2%%%%%%%%%%%%%%%%%%%%%%%%%%%%%%%%%%%%%%%%%%%%%%%%%%%%%%%%%%%%%%%%%%%%%%%Q
70B0q%%%%%%%%%%%%%%%%%%%%%%%%%%%%%%%%%%%%%%%%%%%%%%%%%%%%%%%%%%%%%%%%%%%%%Qq
53A2%%%%%%%%%%%%%%%%%%%%%%%%%%%%%%%%%%%%%%%%%%%%%%%%%%%%%%%%%%%%%%%%%%%%%%%%
37A2%%%%%%%%%%%%%%%%%%%%%%%%%%%%%%%%%%%%%%%%%%%%%%%%%%%%%%%%%%%%%%%%%%%%%%%%
20A2%%%%%%%%%%%%%%%%%%%%%%%%%%%%%%%%%%%%%%%%%%%%%%%%%%%%%%%%%%%%%%%%%%%%%%%%
4A2%%%%%%%%%%%%%%%%%%%%%%%%%%%%%%%%%%%%%%%%%%%%%%%Qq%%%%%%%%%%%%%%%%%%%%%%%%
-13A2%%%%%%%%%%%%%%%%%%%%%%%%%%%%%%%%%%%Qq%%%%%%%%%%%%%%%%%%%%%%%%%%%%%%%%%%
-29A2%%%%%%%%%%%%%%%%%%%%%%%%%%%%%%%%%%%%%%%%%%%%%%%%%%%%%%%%%%%%%%%%%%%%%%%
-46A2%%%%%%%%%%%%%%%%%%%%%%%%%%%%%%%%%%%%%%%%%%%%%%%%%%%%%%%%%%%%%%%%%%%%%%%
-62A2%%%%%%%%%%%%%%%%%%%%%%%%%%%%%%%%%%%%%%%%%%%%%%%%%%%%%%%%%%%%%%%%%%%%%%%
-78A2%%%%%%%%%%%%%%%%%%%%%%%%%%%%%%%%%%%%%%%%%%%%%%%%%%%%%%%%%%%%%%%%%%%%%%%
-94A2%%%%%%%%%%%%%%%%%%%%%%%%%%%%%%%%%%%%%%%%%%%%%%%%%%%%%%%%%%%%%%%%%%%%%%%
-111A2%%%%%%%%%%%%%%%%%%%%%%%%%%%%%%%%%%%%%%%%%%%%%%%%%%%%%QqQqqJ6j6%Q%%%%%%
-126A2%%%%%%%%%%%%%%%%%%%%%%%%%%%%%%%%%%%%%%%%%%%%%%%%%%%%%%%%%%%%%%%%%%%%%%
-142A2%%%%%%%%%%%%%%%%%%%%%%%%%%%%%%%%%%%%Qq%%%%%%%%%%%%%%%%%%%%%%%%%%%%%%%%
-158A2%%%%%%%%%%%%%%%%%%%%%%%%%%%%%%%%%%%%%%%%%%%%%%%%%%%%%%%%%%%%%%%%%%%%%%
-174A2%%%%%%%%%%%%%%%%%%%%%%%%%%%%%%%%%Qq%%%%%%%%%%%%%%%%%%%%%%%%%%%%%%%%%%%
-190A2%%%%%%%%%%%%%%%%%%%%%%%%%%%%%%%%%%%%%%%%%%%%%%%%%%%%%%%%%%%%%%%%%%%%%%
-206A2%%%%%%%%%%%%%%%%%%%%%%%%%%%%%%%%%%%%%%%%%%%%%%%%%%%%%%%%%%%%%%%%%%%%%%
-222A2%%%%%%%%%%%%%%%%%%%%%%%%%%%%%%%%%%%%%%%%%%%%%%%%%%%%%%%%%%%%%%%%%%%%%%
-238A2%%%%%%%%%%Qq%qQ%%%%%%%%%%%%%%%%%%%%%%%%%%%%%%%%%%%%%%%%%%%%%%%%%%%%%%%
-254A2%%%%%%%%%%%%%%%%%%%%%%%%%%%%%%%%%%%%%%%%%%%%%%%%%%%%%%%%%%%%%%%%%%%%%%
-270A2%%%%%%%%%%%%%%%%%%%%%%%%%%%%%%%%%%%%%%%%%%%%%%%%%%%%%%%%%%%%%%%%%%%%%%
-286A2%%%%%%%%%%%%%%%%%%%%%%%%%%%%%%%%%%%%%%%Qq%%%%%%%%%%%%%%%%%%%%%%%%%%%%%
-302A2%%%%%%%%%%%%%%%%%%%%%%%%%%%%%%%%%%%%%%%%%%%%%%%%%%%%%%%%%%%%%%%%%%%%%%
-318A2%%%%%%%%%%%%%%%%%%%%%%%%%%%%%%%%%%%%%%%%%%%%%%%%%%%%%%%%%%%%%%%%%%%%%%
-334A2%%%%%%%%%%%%%%%%%%%%%%%%%%%%%%%%%%%%%%%%%%%%%%%%%%%%%%%%%%%%%%%%%%%%%%
-350A2%%%%%%%%%%%%%%%%%%%%%%%%%Q%qQQqj6QQq%%%QqqJ6q%%%%%%%%%%%%%%%%%%%%%%%%%
-366A2%%%%%%%%%%%%%%%%%%%%%%%%%%%%%%%%%%%%%%%%%%%%%%%%%%%%%%%%%%%%%%%%%%%%%%
-382A2%%%%%%%%%%%%%%%%%%%%%%%%%%%%%%%%%%%%%%%%%%%%%%%%%%%%%%Qq%%%%%%%%%%%%%%
-398A2%%%%%%%%%%%%%%%%%%%%%%%%%%%%%%%%%%%%%%%%%%%%%%%%%%%%%%%%%%%%%%%%%%%%%%
-414A2%%%%%%%%%%%%%%%%%%%%%%%%%%%%%%%%%%%%%%%%%%%%%%%%%%%%%%%%%%%%%%%%%%%%%%
-430A2%%%%%%%%%%%%%%%%%%%%%%%%%%%%%%%%%%%%%Qq%%%%%%%%%%%%%%%%%%%%%%%%%%%%%Qq
-446A2%%%%%%%%%%%%%%%%%%%%%%%Qq%%%%%%%%%%%%%%%%%%%%%%%%%%%%%%%%%%%%%%%%%%%%%
-462A2%%%%%%%%%%%%%%%%%%%%%%%%%%%%%%%%%%%%%%%%%%%%%%%%%%%%%%Qq%%qQqQ%%%%%%%%
-478A2%%%%%%%%%%%%%%%%%%%%%%%%%%%%%%%%%%%%%%%%%%%%%%%%%%%Qq%%%%%%%%%%%%%%%%%
-494A2%%%%%%%%%%%%%%%%%%%%%%%%%%%%%%%%%%%%%%%%%%%%%%%%%%%%%%%%%%%%%%%%%%%%%%
-510A2%%%%%%%%%%%%%%%%%%%%%%%%%%%%%%%%%%%%%%%%%%%%%%%%%%%%%%%%%%%%%%%%%%%%%%
-526A2%%%%%%%%%%%%%%%%%%%%%%%%%%%Qq%%%%%%%%%%%%%%%%%%%%%%%%%%%%%%%%%%%%%%%%%
-542A2%%%%%%%%%%%%%%%%%%%%%%%%%%%%%%%%%%%%%%%%%%%%%%%%%%%%%%%%%%%%%Qq%%%%%%%
-558A2%%%%%%%%%%%%%%%%%%%%Qq%%%%%%%%%%%%%%%%%%%%%%%%%%%%%%%%%%%%%%%%%%%%%%%%
-574A2%%%%%%%%%%%%%%%%%Qq%%%%%%%%%%%%%%%%%%%%%%%%%%%%%%%%%%%%%%%%%%%%%%%QqQq
-590A2%%%%%%%%qQ%%%%%%%%%%%%%%%%%%%%%%%%%%%%%%%%%%%%%%%%%%%%%%%%%%%%%%%%%%%%
-606A2%%%%%%%%%%%%%%%%%%%%%%%%%%%%%%%%%%%%%%%%%%%%%%%%%%%%%%%%%%%%%%%%%Qq%%%
-622A2%%%%%%%%%%%%%%%%%%%%%%%%%%%%%%%%%%%%%%%%%%%%%%%%%%%%%%%%%%%%%%%%%%%%%%
-638A2%%%%%%%%%%%%%%%%%%%%%%%%%%%%%%%%%%%%%%%%%%%%%%%%%%%%%%%%%%%%%%%%%%%%%%
-654A2%%%%%%%%%%%%%%%Qq%%%%%%%%%%%%%%%%%%%%%%%%%%%%%%%%%%%%%%%%%%%%%%%%%%%%%
-670A2%%%%%%%%%%%%%%%%%%%%%%%%%%%%%%%%%%%%%%%%%%%%%%%%%%%%%%%Qq%%%%%%%%%%%%%
-686A2%%%%%%%%%%%%%%%%%%%%%%%%%%%%%%%%%%%%%%%%%%%%%%%%%%%%%%%%%%%%%%%%%%%%%%
-703A2%%%%%%%%%%%%%%%%%%%%%%%%%%%%%%%%%%%%%%%%%%%%%%%%%%%%%%%%%%%%%%%%%%%%%%
-719A2%%%%%%%%%%%%%%%%%%%%%%%%%%%%%%%%%%%%%%%%%%%%%%%%%%%%%%%%%%%%%%%%%%%%%%
-735A2%%%%%%%%%%%%%%%%%%%%%%%%%%%%%%%%%%%%%%%%%%%%%%%%%%%%%%%%%%%%%%%%%%%%%%
-751A2%%%%%%%%%%%%%%%%%%%%%%%%%%%%%%%%%%%%%%%%%%%%%%%%%%%%%%%%%%%%%Qq%%%%%%%
-767A2%%%%%Q%q%%%%%%%%%%%%%%%%%%%%%%%%%%%%%%%%%%%%%%%%%%%%%%%%%%%%%%%%%%%%%%
-783A2%%%%%%%%%%%%%%%%%%%%%%%%%%%%%%%%%%%%%%%%%%%%%%%%%%%%%%%%%%Qq%%%Qq%%Qq%
-799A2%Qq%%%%%%%%%%%%%%%%%%%%%%%%%%%%%%%%%%%%%%%%%%%%%%%%%%%%%%%%%%%%%%%%%%%
-815A2%%%%%%%%%%%%%%%%%%%%%Qq%%%%Qq%%%qJ6qqJ6qQq%qQ%%QqqQ%%qJ6qk4L2Qq%q%Q%q%
-830A2Qq%%%%%%Qq%%%%%%%%%%%%%%%%%%%%%%%%%%%Qq%%%%Qq%%%%%%%%%%%%%%%%Qq%%%%%%%
-846A2%%%%%%%%%%%%%%%%%%%%%%%%%%%%%%%%%%%%%%%%%%%%%%%%%%%%%%%%%%%%%%%%%%%%%%
-862A2%%%%%%%%%%%%%%%%%%%%%%%%%%%%%%%%%%%%%%%%%%%%%%%%%%%%%%%%%%%%%%%%%%%%%%
-878A2%%%%%%%%%%%%%%%%%%%%%%%%%%%%%%%%%%Qq%%%%%%%%%%%%%%%%%%%%%%%%%%%%%%%%%%
-894A2%%%%%%%%%%%%%%%%%%%%%%%%%%%Qq%%%%%%%%%%%%%%%%%%%%%%%%%%%%%%%%%%%%%%%%%
-910A2%%%%%%%%%%%%%%%%%%%%%%%%%%%%%%%%%%%%%%%%%%%%%%%%%%%%%%%%%%%%%%%%%%%%%%
-926A2%%%%%%%%%%%%%%%%%%%%%%%%%%%%%%%%%%%%%%%%%%%%%%Qq%%%%%%%%%%%%%%%%%%%%%%
-942A2%%%Qq%%%%%%%%%%%%%%%%%%%%%%%%%%%%%%%%%%%%%%%%%%%%%%%%%%%%%%%%%%%%%%%%%
-958A2%%%%%%%%%%%%%%%%%%%%%%%%%%%%%%%%%%%%%%%%%%%%%%%%%%%%%%%%%%%%%%%%Qq%%%Q
-974B0q%%%%%%%%%%%%%%%%%%%%%%%%%%%%%%%%%%%%%%%%%%%%%%%%%%%%%%%%%%%%%%%%%%%%%
-990A2%%%%%%%%%%%%%%%%%%%%%%%%%%%%%%%%%%%%%%%%%%%%%%%%%%%%%Qq%%%%%%%%%%%%%%%
-1006A2%%%%%%%%%%%%%%%%%%%%%%%%%%%%%%%%%%%%%%%%%%%%%%%%%%Qq%%%%%%%%%%%%%%%%%
-1022A2%%%%%%%%%%%%%%%%%%%%%%%%%%%%%%%%%%%%%%%%%%%%%%%%%%%%%%%%%%%%%%%%%%%%%
-1037A2%%%%%%%%Qq%%%%%%%%%%%%%%%%%%%%%%%%%%%%%%%%%%%%%%%%%%%%%%%%%%%%%%%%%%%
-1053A2%%%%%%%%%%%%%%%%%%%%%%%%%%%%%Q%%qQq%%%%%%%%%%%%%%%%%%%%%%%%%%%%%%%%%%
-1069A2%%%%%%%%%%%%%%%%%%%%%%%%%%%Qq%%%%%%%%%%%%%%%%%%%%%%%%%%%%%%%%%%%%%%%%
-1085A2%%%%%%%%%%%%%%%%%%%%%%%%%%%%%%%%%%%%%%%%%%%%%%%%%%%%%%%%%%%%%%%%%%%%%
-1101A2%%%%%%%%%%%%%%%%%%%%%%%%%%%%%%%%%%%%%%%%%%%%%%%%%%%%%%%%%%%%%%%%%%%%%
-1116A2%%%%%%%%%%%%%%%%%%%%%%%%%%%%%%%%%%%%%%%%%%%%%%%%%%%%%%%%%%%%%%%%%%%%%
-1132A2%%%%%%%%%%%%%%%%%%%%%%%%%%%%%%%%%%%%%%%%%%%%%%%%%%%%%%%%%%%%%%%%%%%%%
-1148A2%%%%%%Qq%%%%%%%%%%%%%%%%%%%%%%%%%%%%%%%%%%%%%%%%%%%%%%%%%%%%%%%%%%%%%
-1164A2%%%%%%%%%%%%%%%%%%%%%%%%%%%%%%%%%%%%%%%%%%%%%%%%%%%%%%%QqQqQ%%q%%%%Qq
-1180A2%%Qq%%%%%%%%%Qq%%%%%%%%%%%%%%%%%%%%%%%%%%%%%%%%%%%%%%%%%%Qq%%%%%%%%%%
-1195A2%%%%%%%%%%%%%%%%%%%%%%%%%%%%%%%%Qq%%%%%%Qq%%%%%%Q%qQ%q%%%%%%%%%%%%%%%
-1211A2%%%%%%%%%%%%%%%%%%%%%%%%%%%%%%%%%%%%%%%%%%%%%%%%%%%%%%%%%%%%%%%%%%%%%
-1227A2%%%%%%%%%%%Qq%%%%%%%%%%%%%%%%%%%%%%%%%%%%%%%%Q%q%%%%%%%%%%%%%%%%%%%%%
-1243A2%%%%%%%%%%%%%%%%%%%%%%%%%%%%%%%
-1250A2
##$OBSERVED MULTIPLETS=	(I, X, Y, Hs, Vs, An, H, C, N, (J))
$$ I: Multiplet Index
$$ X: Strt Coordinate
$$ Y: End Coordinate
$$ Hs: Horizontal Chemical Shift
$$ An: Normalised Integral Area
$$ H: Hydrogens
$$ C: Category
$$ N: Name
$$ (J): Coupling Constants
(1, 128.33914733578222922, 128.4603408422923394, 128.39974408903728431, 6, 6, s, 1&comma;2&comma;3&comma;4&comma;5&comma;6)
##$OBSERVED MULTIPLETS AREAS=	
(1, 5.1501576031643203635)
##$OBSERVED MULTIPLETS PEAKS=	(I, X, Y)
$$ I: Multiplet Peak Index
$$ X: Peak x Position
$$ Y: Peak Intensity
(1, 128.39974408903728431, 0.49541640281677246094)
##$PREDICTED PEAKS=	(X Y T A)
(128.38618897504332494,  , 3, <1>)
(128.38618897504332494,  , 3, <2>)
(128.38618897504332494,  , 3, <3>)
(128.38618897504332494,  , 3, <4>)
(128.38618897504332494,  , 3, <5>)
(128.38618897504332494,  , 3, <6>)
##$PREDICTEDCOUPLINGCONSTANTS=	J(A,B)	$$ (Hz)
157.73(1, 1)
157.73(2, 2)
157.73(3, 3)
157.73(4, 4)
157.73(5, 5)
157.73(6, 6)
##END=		$$ NMR SPECTRUM
##TITLE=	Predicted 13C NMR Spectrum
##JCAMP-DX=	6.0	$$ MestReNova 17.0.0-41178
##DATA TYPE=	NMR PEAK TABLE
##DATA CLASS=	PEAK TABLE
##BLOCK_ID=	4
##ORIGIN=	Mestrelab Research S.L.
##OWNER=	ctheodore
##CROSS REFERENCE=	NMR SPECTRUM: BLOCK_ID=3                                     
##.OBSERVE FREQUENCY=	125
##.OBSERVE NUCLEUS=	^13C
##NPOINTS=	1
##FIRSTX=	128.39974408903728431
##LASTX=	128.39974408903728431
##XFACTOR=	1
##YFACTOR=	1
##FIRSTY=	0.49541640281677246094
##XUNITS=	PPM
##YUNITS=	ARBITRARY UNITS
##PEAK TABLE=	(XYW..XYW)
128.39974408903728431,0.49541640281677246094,0.012119350651013133247
##$MNOVA/PEAK_DATA_TABLE=	(T,F,A,ST,SP,APT,APC)
$$ Complementary to PEAK TABLE
$$ T: Type
$$ F: Flags
$$ A: Annotation
$$ ST: Shape Type
$$ SP: Shape Parameter
$$ APT: Attached Peaks Type
$$ APC: Attached Peaks Count
Compound,None,,0,0,0,0
##END=		$$ NMR PEAK TABLE
##END=		$$ LINK
