##TITLE=	acetophenone 13c
##JCAMP-DX=	6.0	$$ MestReNova 17.0.0-41178
##DATA TYPE=	LINK
##BLOCKS=	4    
##ORIGIN=	Mestrelab Research S.L.
##OWNER=	ctheodore
##$MNOVA/METADATA=	(DOCUMENT,BASE64)
eyJuYW1lIjoiL1VzZXJzL2N0aGVvZG9yZS9Eb2N1bWVudHMvY2xhc3Nlcy9OTVIgZXhwZXJpbWVudC9
naXRodWIgZmlsZXMvYWNldG9waGVub25lL2FjZXRvcGhlbm9uZSAxM2MubW5vdmEiLCJwYWdlcyI6W3
siaXRlbXMiOlsiMSIsICAgICAgICAgICAgICAgICAgICAgICAgICAgICAgICAgICAgICIzIiAgICAgI
CAgICAgICAgICAgICAgICAgICAgICAgICAgICAgICBdfV19
##TITLE=	
##JCAMP-CS=	3.7	$$ MestReNova 17.0.0-41178
##BLOCK_ID=	1
##ORIGIN=	Mestrelab Research S.L.
##OWNER=	ctheodore
##$MNOVA/METADATA=	(ITEM,BASE64)
eyJhbmdsZSI6MC4wLCJwb2ludHMiOlt7IngiOjUzMjEuMCwieSI6NTgzNS4wfSx7IngiOjU1ODIuNDQ
zNjA2MDUwNTQxLCJ5Ijo1ODM1LjB9LHsieCI6NTU4Mi40NDM2MDYwNTA1NDEsInkiOjYyNDUuMzkxMT
E3NjE2MzI0fSx7IngiOjUzMjEuMCwieSI6NjI0NS4zOTExMTc2MTYzMjR9LHsieCI6NTMyMS4wLCJ5I
jo1ODM1LjB9XSwieiI6MS4wfQ==
##NAMES=	
##ATOMLIST=	
$$ AN	AS	NH
	1	C	1
	2	C	1
	3	C	1
	4	C	1
	5	C	1
	6	C	 
	7	C	 
	8	C	3
	9	O	 
##BONDLIST=	
$$ AN1	AN2	BT
	1	2	D
	2	3	S
	3	4	D
	4	5	S
	5	6	D
	6	1	S
	6	7	S
	7	8	S
	7	9	D
##MAXRASTER=	32768
##XY_RASTER=	
$$ AN	X	Y	Z
	1	-16216	4679	0
	2	-16216	23403	0
	3	0	32768	0
	4	16216	23403	0
	5	16216	4679	0
	6	0	-4679	0
	7	0	-23403	0
	8	-16216	-32768	0
	9	16216	-32768	0
##END=		$$ JCAMP-CS
##TITLE=	Predicted 13C NMR Spectrum
##JCAMP-DX=	6.0	$$ MestReNova 17.0.0-41178
##DATA TYPE=	NMR PEAK ASSIGNMENTS
##DATA CLASS=	ASSIGNMENTS
##BLOCK_ID=	2
##ORIGIN=	Mestrelab Research S.L.
##OWNER=	ctheodore
##CROSS REFERENCE=	STRUCTURE: BLOCK_ID=1                                     
NMR SPECTRUM: BLOCK_ID=3                                     
##.OBSERVE FREQUENCY=	125
##.OBSERVE NUCLEUS=	^13C
##NPOINTS=	8
##XUNITS=	PPM
##YUNITS=	ARBITRARY UNITS
##PEAKASSIGNMENTS=	(XYWA)
(128.4235504186710557, 0.17043624818325042725, 0.0063163070979328495014, <1>)
(128.39058780840892382, 0.1704362332820892334, 0.0063163075595298323606, <2>)
(132.05493131588224287, 0.082570359110832214355, 0.0060597501653063545746, <3>)
(128.39058780840892382, 0.1704362332820892334, 0.0063163075595298323606, <4>)
(128.4235504186710557, 0.17043624818325042725, 0.0063163070979328495014, <5>)
(137.27218001792698487, 0.048570498824119567871, 0.0060597097561299051449, <6>)
(196.96014217813959135, 0.048570238053798675537, 0.0060596765671334651415, <7>)
(26.378634071622887092, 0.15056772530078887939, 0.0060596754904089777938, <8>)
##END=		$$ NMR PEAK ASSIGNMENTS
##TITLE=	Predicted 13C NMR Spectrum
##JCAMP-DX=	6.0	$$ MestReNova 17.0.0-41178
##DATA TYPE=	NMR SPECTRUM
##DATA CLASS=	XYDATA
##BLOCK_ID=	3
##ORIGIN=	Mestrelab Predictor
##OWNER=	ctheodore
##NUMDIM=	1
##$MNOVA/METADATA=	(ITEM,BASE64)
eyJhbmdsZSI6MC4wLCJheGVzIjp7IngiOnsibWF4IjoyMzAuMDI1MzAyNzgzMzA2MTYsIm1pbiI6LTk
uOTk5MjY4ODY0ODg3NjM4fSwieSI6eyJtYXgiOjAuMTg3NDc5ODc0MTE5MTYyNTYsIm1pbiI6LTAuMD
E3MDQzNjE5MzczMzMxODc1fX0sInBvaW50cyI6W3sieCI6NTMyMS4wLCJ5Ijo1ODM1LjB9LHsieCI6O
DcyMi4wLCJ5Ijo1ODM1LjB9LHsieCI6ODcyMi4wLCJ5Ijo4MjA4LjB9LHsieCI6NTMyMS4wLCJ5Ijo4
MjA4LjB9LHsieCI6NTMyMS4wLCJ5Ijo1ODM1LjB9XSwieiI6MC4wfQ==
##.OBSERVE FREQUENCY=	125
##.OBSERVE NUCLEUS=	^13C
##.SOLVENT NAME=	DMSO-d6
##.PULSE SEQUENCE=	
##.ACQUISITIONMODE=	SIMULTANEOUS (DQD)
##$ORIGINAL FORMAT=	Predictor
##$MNOVA/SCALES_VERSION=	9
##$PARAMETER FILE=	(parameters, ASCII, , 0)
$$ <?xml version="1.0" encoding="utf-8"?>
$$ <PredictorParameters>
$$     <Title>Predicted 13C NMR Spectrum</Title>
$$     <Origin>Mnova: NMR Prediction</Origin>
$$     <Name>Mestrelab Predictor</Name>
$$     <Version>1.7</Version>
$$     <Nucleus>13C</Nucleus>
$$     <Solvent>DMSO-d6</Solvent>
$$     <From>-10</From>
$$     <To>230</To>
$$     <Frequency>125</Frequency>
$$     <LineWidth>1.5</LineWidth>
$$     <Size>131072</Size>
$$     <DEPT>0</DEPT>
$$     <ProtonatedCarbons>0</ProtonatedCarbons>
$$     <ExcludeLabile>false</ExcludeLabile>
$$     <FastPrediction>0</FastPrediction>
$$     <ProtonDecoupled>1</ProtonDecoupled>
$$     <Reference/>
$$     <Options>
$$         <Settings>
$$             <Predictor Name="Mestrelab Predictor">
$$                 <Settings>
$$                     <Model>/Applications/MestReNova.app/Contents/Resources/data/13C.mbst</Model>
$$                 </Settings>
$$             </Predictor>
$$         </Settings>
$$     </Options>
$$     <MoleculeID>{aed67c62-27e9-43d6-bd9e-abda4d36bc46}</MoleculeID>
$$ </PredictorParameters>
$$ 
##XUNITS=	HZ
##YUNITS=	ARBITRARY UNITS
##FIRSTX=	28750
##LASTX=	-1249.7711181640625
##DELTAX=	-0.2288818359375
##XFACTOR=	1
##YFACTOR=	7.9365562769871203656E-11
##FIRSTY=	9.1022780424054872128E-09
##MINY=	6.5625802569968527678E-09
##MAXY=	0.17043624818325042725
##NPOINTS=	131072
##XYDATA=	(X++(Y..Y))
28750A15%%%%%%%%%%%%%%%%%%%%%%%%%%%%%%%%%%%%%%%%%%%%%%%%%%%%%Qq%QqQq%%%%%%%%
28734A15%%%%%%%%%%%%%%%%%%%%%%%%%%%%%%%%%%Qq%%%%%%%Q%%q%Qq%%%%%%%%%%%%%%%%%Q
28719A23qQq%%QqQqQq%%%%%%%%%%%%%%%%%%%%%%%%%%%qQqQ%%Qq%%Qk4J6QqQq%%%%%%%%q%%
28704A07QqJ6q%%%Q%q%%Qq%%%%%%%%%%%qQ%%%%qQ%%%%qQ%%%%%%%QqqQ%%%%qQ%%%%qQ%%Q%q
28688A15%%%%%%%%%%%%%%%%%%%%%%%qQ%%%%%%%%%%%%%%%qQ%%%qQ%%%%%%%%%%%%%%%%%%%Q%
28673A23%q%%Q%q%Qq%%Q%%q%Qq%%%%%%%%%%%%%%%%%%%%%Qq%%%%%%%%%%%%%%%%%%%%%%%%%%
28657A15%%%%%%%%%%%%%%%%%%%%%%%%%%%%%%%%%%Qq%%%%%%%%%%qQqQq%Q%%%%%%%%%%%%%%q
28642A07Q%qQ%%%%%%%%%%%%%Qq%%%%Qq%%%%%%Qq%%%%%%%%%%%%%%%%%%%%%qQ%%%%%%%%%%qQ
28626A15%%%%%%%%%%%%%%%%%%%%%%%%%%%%%%%%%%%%%%%%%%%%%%%Qq%%%%%%%%%%%%%%QqqQ%
28611A15qQqJ6qqQq%Q%%%%%%%qQ%%qQ%%%%%%%q%%Q%%%%q%QqQ%%%%%%%%%%qQ%%%%%%%%%%%%
28595A15%%qQqQ%q%Q%%%%%%%%%Qq%%%%%%%QqQq%%%%%%%%%%%%%%%%%%%%%%%%qQ%%%q%Q%%%%
28580A15%%%%qQ%qQ%%%%%qQ%%%%%%%%%%%%%%%%%%%Qq%%%%%%%%%%%qQ%%%%%%%%%%%%%%%%%%
28564A15%%%qQ%%qQ%%%%%%%%%%%%qQ%%%%%%%%%%%%%%%%%%%qQ%%%%%%%%%%%%%%%%%%%%Q%q%
28549A15%%%%%%%%%%%%%%%%%%%Q%%%q%%%%%qQ%%%%%%%%%%%%%%%%%%%%%%%%%%%%%%%%%%%%%
28533A15%%%%%qQ%%%%%%%%%%%%%%%%qQ%qJ6q%%%%%%%%%%%%%%%%%%%%%%%%%%%%%%%%qQ%%%q
28518A07Q%%%%%%%%%%%%%qQ%%%%%%%%%%%%%%%%%%%%%%%%%%%%qQ%%%%%%%%%%%%%%%%%%%%%%
28502A15%%%%%%%%qQ%%%%%%qQ%%%%%Qq%%qQ%%qQqQ%%%%q%%%QqQqQq%%Qq%QqQq%%Qq%%%%%%
28487A07QqQ%%%%%%%%%%%%%%%%%%%%%%%%%%%%%%%%%%%%%%%%%%%%%%%%%%q%%%%%Q%%%%%%%q
28471A07Q%%%%%qQqJ6%q%qJ6j6QqQqQ%%%%%%%%%qQq%Q%%%%%%%%%%%%%%%%Qq%%q%Q%%%%%%%
28456A15%%%%%%%%%%%%%%%%%%%%%%%%%qQqQ%qQ%%%%%%%%%%%%%%%%%%%%qQ%%%%%%%%%Q%q%%
28441A15%%%%qQ%%%%%%%%%%%%%%%%q%%QqQ%%q%Q%%qQ%%%%%%%%%%%%%qQ%%%%%%%%%%%%%%%%
28425A15%%%%%%%%%%%%%%%%q%Q%qQqQ%%%%%%%%%%%%qQ%%%qQqQ%%qQqQ%%%%%q%%Qq%QqQqQq
28409A07%%Q%qQ%j6K4%j6QQj6Q%%%%%%%%%%%%%%%%%%%%%%%%%%%%%%qQqQ%%%%%%%%%%%%%%%
28395A15%%%%%%%%%%%%%%qQ%%%%%%%%%%%%%%%%%%%%%%%%%%%%%%%%%%%%%%%Qq%%%%%%%%%%%
28379A15%%%%Qq%%qQ%%%%%qJ6q%%%%%%%%%%%%%%%%%%%%%%qQ%qQ%%q%J6q%Q%%q%%%%qQ%%%%
28364A15%%%%%%%%%%%%%%%%%%%%%%%%%%%qQ%%%%qJ6qQq%%%%%%%%%%%%%%qQ%QqQq%%%%%%%q
28349A07Q%%%%%%%%%%%%%%%%%%%%%%%%qQ%%%%%%qQq%%%%%%%Qq%%Q%%qQ%%%%q%%%Q%%%qQ%%
28333A15%%%%%%%%%%qQq%%%%%Q%%%q%Q%%qQ%q%%Qq%%%%Qq%%%%%Q%%%%%q%%Qq%%Q%%%%%%%%
28318A15%%%%%%%%%%%%%%%%%%%%%%%%%%%%%%%%qQ%%%%%qQ%%%%%%%%%%qQ%%%%%%%%%%%%%%%
28302A15%%%%%%%%%%%%%%%%%%%%%%Qq%%%%%%%%%%%%%Qq%%%%%%%%%%%%%%%%%%%%%%%%%%%Qq
28287A15qQ%%%%%%%%%%%%%%%qQ%%%qQqQq%Q%q%%Q%qQ%%%%%%%%%%%%%qQ%%%%%%%%%%%%%%%%
28271A15qQ%q%%%Qq%Q%qQ%%%%%%%%%%qQ%%%qQ%%%%%%%%%%%%%%%%%%%%%%%%q%Q%%qQqQ%%qQ
28255A15%%qQ%qQ%%q%Q%%%%%%%%%%%qQqQ%%%%%%%%%%q%Q%q%Q%%%%qQ%%qQq%%%Q%q%QqQqQq
28240A07%Qk4QQK4k4Q%%%%%%%QqQqqJ6qQj6%%J6qqQqQqQqQqQq%%%%%%%%%Q%%qQ%q%%QqQ%q
28226A07Q%%%%%qQ%q%Q%%%%%%%%qQ%%%%qQ%%%%%Qq%%%%%%%%%%%%%%%%%%%%%%%%%%%%%%%%%
28210A15%%%%%%%%Qq%%%%%%%%%%%%%%%%%%%%%%%%%%%%%%%%%%%%%%%%%%%%%%%%%%%%%%%%%%
28195A15%%%%%%%%%%%%%%%%%%%%%%%%%%%%%qQ%%%%%%%%%%%%%%%%%%%%Qq%%%%%%%%qQ%%%%%
28179A15%%%%%%%%%%qQqQ%%q%Q%%%%%%%%qQ%qQ%%%%%%%%%%%%%%%%%%%%%%%%%%%%%%%%%%%%
28163A15%%%%%%%%%%qQ%%%%%%%%%%%%%%%%%%%qQ%%%%%%%%qQ%qQqQ%qQ%%%%%%%%%%%%%%%%%
28148A15%qQqQqQ%%%%%%%%%%%%%QqQ%q%%q%%Q%%q%J6q%%%%%%%%%qQ%%%%%%%%%%%%%%%%%%%
28132A15%%%%%%%%%%%%%%%q%%Q%%%%%%%%%%%%%%%qQ%%%%%%%%Qq%%qQ%qQ%%%%%%%%%%%%Qqq
28117A07QqQ%%%%%%%%%%%%%qQ%%qQ%%%qQ%%%%%%%%%%%%%%%%%%%%%%%%%%%%%%%%%Qq%%%%%%
28101A15%%%%%%%%%%%%%%%%%%%%%%%%%%%%%%%%%%%%%q%%Q%%%%%%%%%%%%%%qQ%%%%%%%%%%%
28086A15%%%%%%%%%%qQ%%%%%%%%%%%%%%%%%%%%%%%%%%%%%%%%%%%%%%%%%%%%%%%%%%%%%%%%
28070A15%%%%%%%%%%%%%qQ%%%%%%%%%%%%%%qQ%qQ%%%%%%%%%qQ%q%Q%qQ%%%%%%%%%%%%%%%%
28055A15%%%%Qq%%%%%%%%%%%%%%%%%%%Qq%%%%%%%%%%%%%%%%%%%%%%%%%%%%%%%%%%qQ%qQ%%
28039A15%%%%%%%%%%%%qQqQ%%q%%QqQ%%%%%%%qQ%%%%qQ%%%%%%%%%%%%%%%%%%%%%%%%%%%%q
28024A07%Q%%%%%%%%%%%%q%QqQ%%%%%%%%%%%%%%%%%%%%%%%%%%%%%%%%%%%%%%%%%%%%%%%%%
28008A15%%%%%%%%%qJ6q%%%q%QqQ%%%%%%%%%qQ%qQqJ6%qqQ%qQ%%%%%qQ%%%%%%%%%%%%%%%%
27993A15%%%%%%%%%%%%q%Q%%%%%%%%%%Qq%%%%%%%%%%%%%%%%%%%%%%qQ%q%%%%%%%Q%%qQ%%q
27977A07%%%%Q%q%%Q%%%%%%%%%%%%qQqQ%%%%%%%%%%qQqQ%%%%%%%%%%%%Qq%%%%%%%%%%%Qq%
27962A15%%%%%Qq%%%%%%%%%%%%%%%%%%%%%%%%%%%%%%%%%%%%%%%%%%%%%%%%%%%%%%%%%%%%%
27946A15%%%%%%%%%%%%%qQ%%%%%%%%%%%%%%%%%%qQ%%%%%%%%%%%%%%%%%%%%%qQ%%%%%Qq%%%
27931A15%%%%%%%%%%%%%QqQq%%%%%q%Q%%%%%%%%%%%%%%%%%%%%%%%%%%%%%%%%%qQ%%%%%%%%
27915A15%%qQqQ%%%%%%%%%%%%qQ%%%%%%%%qQ%QqQq%%%Qq%%%%%%%%%%%%%%%%%%%%%%%%%%%%
27899A15%%%%%%%%Qq%Qq%%%%%%%%%%%%%%%%%%%%%%%%%%qQ%%%%%%%%%%%%%q%Q%%%%%%%%%%%
27884A15%%%%q%Q%%%%qJ6q%%%%%%%%%%%%%%%%qQ%%%qQ%%%%%Qq%Q%q%%%%%%%%%%%%%%%%%%%
27869A15%%%%%%%%%%%%%%%%%%%%%%%%%%%Qq%%Qq%%%%%%%%Q%qQq%%%Qq%%%%%%%%%%%%Q%%q%
27853A15%%%%%%%%%%%Qq%%Qq%%%%Qq%%%%%%%%%%%%%%%%%%%%Q%q%%%%%%%%%%%%%%%%%%%%%%
27837A15%%%%%%%%%%%%%qQ%%%%%%%%%%%%%%%%%%%Qq%%%%%qQqQ%%%%qQ%%%%Qj6Q%%%%%%%%%
27822A15%%%%%%%%%%%%%%%%%%%%%%%%%%%%%%%%%%%%%%%%%%%%%%%%%%%%%%%%%%Qq%%%%%%%%
27807A15%%%%%%%%%%%%%%%qQ%%%%%%%%%%%%%%%%%%%%%%%qQ%qQ%qQqQ%%%%%%%Qq%%qQ%qQ%%
27791A15qQ%%%%%%%%%%%%%%%%%%%%%%%%%%%%Qq%%%%%%%%%%%%%%%QqQqQqQ%q%%%Q%qQq%%%%
27775A15%%%%%%%%%%%%%%%Qq%%qQ%j6J6j6Q%J6qqQ%%%%%%QqqJ6%qQ%%qQq%Qq%Qq%Qq%%Qq%
27761A15%%Q%%qQqQq%%%%Qq%%qQ%Q%Qk4J6%j6%J6q%%%%q%%Q%qQ%%%%%%%%%%%%%%%%%%%%%%
27746A15%%%%%%%%%%%%%%%%%%%%%%Qq%QqQ%q%Q%q%%%%%%%Q%%q%%%%%%%%%%%Q%q%%%%%%%Q%
27731A23qQq%%%%QqQq%%%%%%%%%%%%%%QqQq%%%%%%%%%%%%%%%%%%%%%%%%%%%%%%%%%%%%%%%
27715A15Qq%%Q%q%%Qq%Q%%%qQq%%%%%%%%Qq%%Qq%%%%qQ%%%%%%%%%%%Qq%%%%%%%%%%%%%%%%
27700A15%%%%%%%%%%%%%%Qq%Q%q%Qq%Q%%q%Q%q%%%QqQ%%qQq%%Qq%Q%%%%%%q%%%%%%%%%%%%
27684A15Q%q%%%%%%%%%%%%%Q%qQq%%%Qq%%%%%%%%%Qq%%%%qJ6q%Q%%%qQ%l2J6J6qQ%Qq%%q%
27669A15%%%%%%Qq%%%%%%%%QqQ%qQ%qQqQq%Qq%%%%%%%%%%%%%%%%%%%%Q%%q%%%%%%%%%%%Qq
27654A15%%%QqQq%%%%%%%%%%%Q%%%qQqQ%%%q%QqQ%%%%q%%%%%%%QqQq%%%%%%%%%%%%%%%%%%
27638A15%%%%%%%%%%%%QqQq%%%qQ%%%%%%%%%%%%%%%%%%%%%Qq%%%%%Qq%%%%%%%%%%Qq%QqQq
27623A15%%Q%%qQ%%%q%Q%q%Q%%%qQ%%%%%%%qQqQ%%q%%Qq%QqQ%%q%%Q%q%Q%qQ%q%%%%%%%%%
27607A15%Qq%%%Q%%%%%qQ%%qQ%%%%qQ%qQq%%Q%%%q%Q%qQ%q%%%%%%Qq%%%%%Qq%%%%Qq%Q%q%
27592A15Q%%%qQ%q%Q%%qQq%QqQ%%%%qQ%%qQq%%Q%q%%Q%%%qQ%%%%qQ%%%%%%%%%%qQ%%%%q%%
27576A15%%QqQ%%qQq%%%%%Q%q%%%%QqQq%%Qq%Q%q%%%Qq%%%%%Qq%%Qq%Q%%%%%%%%%q%QqQ%%
27561A23%Qq%%q%%%%Q%q%%Q%%%%%%%q%%%%%%Qq%Q%%%%%%%%%%%%%%%%%%q%%%%QqQ%q%Q%%%%
27545A23qQ%%qQ%%q%Q%qQ%%qQ%%%%%%%%qQ%%q%QqQqQ%%j6J6%Qj6Q%qQ%%%%%%%q%Q%j6QQqQ
27530A23%%%%%%%%%%%%%%%%%q%%Q%%%%%%%%%%qQ%qQq%%%%%Q%qQqQq%Q%%%%q%QqQ%%%%q%Q%
27515A23%%%%%%%%%%%%%qQ%%%%%%%qQqQ%%qQ%%%%%%%%%%%%%%%%qQq%%%Q%%%%%%%%%%%%q%Q
27499A23%qQ%%%%%%%Q%%q%%%%%%%%%%%qQ%%%%%%%%%%%%%%%qQ%qQq%Q%%q%%%%%%Qq%Q%q%%%
27484A15%Q%%%%qQ%%%%%qQ%%%%%%%%%%%%qQ%%%%qQ%%%%%%%%%%Qq%%%%%%%%%qQq%Q%Qq%%%%
27468A23%%%%%%%%%%%%%%%%%%%%%%%%%%%%%%%%%%%%%%%%%%%%%%%%%%%%%%%%%%%%%%qQ%%qQ
27452A23%%%%%%%%%%%%%%%%%%%%%%%%%%%%%%%%%%%%%%%Qq%%%%%%%%%%%%%%%%qQ%%%%qQ%qQ
27437A23%%qQ%%%%%%%%%%qQ%%%%%%%%%%%%%%qJ6q%%%%%%%%%%%%%%%%%%%%%%%%%%%%%%%%%%
27422A23QqQ%%q%%%%qJ6qQ%%%%q%%%%%%%%%%%Q%qQqQq%Qq%%%%%%%%%%%Qq%%%%%%%%%%%%%%
27406A23%%%%%%%%%%%%%%%%%%%%%%%%%%%qQ%%%%%%%%%%%%qQ%%%%%%%%%%%%%%%%%%%%%%%%%
27391A23%%%%%%%%Qq%QqQ%%%qQqQqQ%q%%%%%%%%%%%%%%%%%%%%%%%%%%%%%%%%qQqQ%%%%%%%
27375A23%%%%%%%%%%%%%%%%%%%%%%%%%%%Qq%%%%Qq%%Q%qQ%%%%q%Q%%%%%%q%%%%%QqQqQ%q%
27360A23%%%%%%%%Qq%%%%%%%Qq%%%%%%%%%%%%%%%%%%%%%Qq%%Qq%Q%qQ%q%%Qq%%Q%qQ%%%%q
27344A23Q%%%%qQ%%%%%qQ%%qQ%%%qQq%QqQq%Qq%Qq%Q%%q%%%%%%%%%%%%%%%%%%%%Q%q%%%%%
27328A23%%%%%%%%%%%%%%%%%%%Qq%Qq%%%%Qq%Qq%%qQ%%%%%%%%%%%%%%%%%%qJ6q%%%%%%%%%
27313A23%%Q%q%%%%%%%%QqQq%%Q%q%%Q%q%%Q%%j6QJ6j6Qq%QqQq%%Q%%j6l2M8k4M8k4q%J6j6
27300A23qQ%%Q%k4J6j6Qk4M0j6j6N6n6M0j6%%%%%%Q%%qQq%qQQqqQ%q%QQq%%%%qQqQ%qQqQQ
27287A31q%Q%q%%Qq%%%%QqQqQq%%Qq%%%Qq%%%%%%Qq%%%%%%%QqQ%%%qQ%qQqQ%%%%%qQ%%qQ%
27271A31%qQ%qQ%%q%%%Qq%%%%%Qq%%%%%%QqQ%qQq%%%%%%%%%Qq%Q%%%%%q%Q%q%%QqQq%Q%qQ
27256A31q%Q%qQ%%qQ%q%%Qq%Qq%Q%%%%%%%%%%%%%%%%%%%%qQ%%%%%%%%%%%%Qq%%%%qQ%%qQq
27240A23Q%%%%%%qQq%Q%qQ%%%%%q%%Qq%Qq%%Q%%%%qQq%Q%%%%%%%%%%%%%qQ%%qQqQqQqQqQq
27225A23%%%%%%%%Q%%qQ%q%Qq%%%Q%qQ%%qQ%%%%%%%%q%Qq%%%Q%%%%%%%%%%%%%q%Q%qQqQ%q
27209A23Q%%%%%qQ%%QqqQ%%q%Q%%%%q%Q%%%q%Q%qQ%%%%qQ%%%%%%%%%%%%%%%%%QqqQ%%%%%%
27193A31%%qQ%%%%%%%%%%%%%qQ%qQ%qQ%%%%%q%%Q%%%%qQ%%%%%%%%%%%%%%%%%%%Qq%%%%%%%
27178A31%%%%%qQ%%q%Q%%%%%%%%%%%%%%qQ%qQ%qQ%%%%%%%%%%%%%%%%%%%%%%%%%%%%%%%%%%
27162A31%%%%%%%%%%%%%%%%%%%%%%%%%%%%%%%%%%%%%%%%%%%%%%Q%q%%Q%qQqQq%%%%%%%%%q
27147A23Q%%%%%%%%%%%%%%%%%%%%%%qQ%qQq%%%Q%%%%%%%%%%%%%%%%%%%%%%%%%%Q%q%Qq%%%
27131A31%%%%%%%%%%%%%%%%%%%%%%%%%%%%%%%%%%%%%%%%%%%%Qq%%%Qq%Qq%%qQ%%%%%%%%%Q
27116A39qQqQq%%%%%%%%%%%%%%%%%%Qq%%%%%%%%%%%%%%Qq%%%%%%QqQq%%%%Q%%qQ%%q%%%%%
27100A31%%%%%%%%%%%%Qq%%Q%q%%%%%%%%%Q%q%Qq%%%Qq%%QqQ%%q%%Qq%Q%%q%%Q%qQq%%Qq%
27084A31%%%%Qq%%%%%%%%%%%%%%%Qq%%%%%%%%%%%%%%%%%%QqQqQ%qQ%%q%%%%Qq%%%%%QqQq%
27069A31%%Q%%%q%%Qq%%Q%%q%%%Q%qQ%j6Q%%%Qq%%%Q%%qQqQq%%Qq%Q%%%%qQqQ%%q%Qq%%%Q
27054A39qQqQqQq%%%%%%%%Qq%Q%q%%Q%%%%%%%%%%qQ%qQqQqQ%%%%%%%%%qQ%qQ%%%qQ%%%%%q
27038A31Q%%%%%%%%%q%Q%%%%qQ%%q%%Q%%qQ%%%%%%%%q%%%%%%Q%q%Q%%q%%%%Qq%%Qq%%%%Q%
27022A39%%%%%%%%%%%%%qQ%%%%%%qQqQ%%%%%%%%%%%%%%%%%%%%%%q%%QqQqQ%qQ%%%%%qQ%%%
27007A39%%%qQ%%%%%%%%%%%%%%%%%%%%%%qQq%QqQqQ%%%qQ%%%%%%q%%%QqQ%%%%%%%%%%%%%%
26991A39%%%%%%%%%%%%qQ%%%%%%%%%%%%%%%%%%%%qQ%q%Q%%%%%%%%%%%%q%Q%%%%%%%%%%%%%
26976A39%%%%%%%%%%%%%%%%%%%%%%%%q%Q%%qQ%%%%%%Qq%%%%%%%%%%%%%%%%Qq%%%%%%%%%%%
26960A39%%%%%%%%%%%%%%%%%%%qQ%qQ%%%%%%%%%%%%%%%%%%%qQ%%%%%%%%%%%%%%%%%%%%%%%
26945A39%%%%%%%%%%%%%%%%%%%%Q%q%%Qq%%%%%Q%qQqQ%qQ%%%q%QqQ%%qQ%q%Q%qQ%%%%%%%%
26929A47%%%%%%%%%%%%%%%q%Q%qQq%%%%%QqQq%Qq%%Qq%%%%%%%%%%%Qq%%%%%%%%%%%%Qq%Qq
26913A39Q%q%%%QqQq%Qq%QqQ%%%%%%qQ%qQ%%%%%%%%%%%%%%%%%%%%%%%qQ%%q%Q%%%%%%%qQq
26898A39QqQ%qQ%%%q%Qq%Q%%%%%%%%qQq%Qq%%Qq%%Q%qQ%%%%%%qQ%%%%q%%%Q%%qQ%%%q%%%%
26882A39%%%%%%QqQqQqQ%%%%%%%%%%%%%%%%%%%%%%%%qQq%Q%qQ%q%%%%Q%%%%%%qQ%qQqQq%%
26867A39%%%%Q%qQ%%q%%Q%qQ%%%%%%%%%%qQ%%%%%%qQ%%%%%%%%qQ%%%%%%%%%%%%%%%%qQ%q%
26851A39Q%%%%%%%%%%%qQ%%%qQ%%q%Q%%qQ%q%Qq%%%Q%qQ%%qQ%%%%%%%%%%%%q%Q%%qQq%Q%%
26836A47Qq%Q%q%%Q%j6QqqQ%Q%%%%%q%QqQ%q%J6qQqqQ%%qQ%%%%%%%%%%%%%%%%%%qQ%%%%%%
26821A47%%%%%qQ%%%QqqQ%%%qQ%Qq%%%%%%%%%%%%%%%%%%%%%Qq%%%%%%%%%%%%%%%%%qQ%%%%
26805A47%%%%%%%%%%%%%%%%%%%%%%%%Q%%%q%%Qq%%%%%%%%%%Qq%%%%%%%%%%%Qq%%%%%%%%%%
26789A47%%QqQq%%%%%%%%%%%%%%%%%%%%%%%%%%%%%%%%%%%%%%%Qq%%%%%%%%%%%%%%%%Qq%%%
26774A47%%%%%%%Q%%%%%q%Qq%Q%%q%Q%%%%%%%%%q%Qq%Qq%%%Qq%%Qq%%%%%%%%%%%%%%Qq%Q%
26758A55%q%Q%%%%%%qQ%%qQ%q%Qq%Q%qQ%%%qQq%%Q%%%%%%qQq%%%Q%qQ%%%qQ%%%%%%%%%qQ%
26743A55%%%%%%%%%%%%%%%%%%qQ%%%%%%qQ%%%%%Qk4QQ%qQ%%q%%%QqQ%qQq%Qq%%Q%%qQ%qQ%
26727A55%qQq%Qq%%%%Q%%%%%%%%%%%%%%%%%%%%%%%%%%%%%%%%%%%%%%%Qj6%QqQq%Q%qQqQ%%
26712A55%%qQq%%Qq%%%%%QqQ%%%%%qQ%%%%%%%%%%%%%%%%%%%%%%%%%%%%%%%%%%%%%%%%%%qQ
26696A55qQ%%%%%%%%%%%%%%%%%%%%%%%%%%%%%%%%%%%%%%%%%%%Qq%%Qq%%%QqQq%%%%%%%%%%
26681A55%%%%%%%%%%%%Qq%%Qq%%%%%%%%%%%%%Q%%q%%%%%Q%%q%Q%%%%%%%%%%%%%%%%%%%%qQ
26665A63%%q%%Q%%qQq%%%%%%%%%%%%%%%Qq%%%%%%%%Q%%%q%%%%%%Qq%%%Q%qQq%%%Q%%q%%Qq
26650A55Q%q%%QqQ%%q%Q%%q%%%Q%q%QqQ%%%%%qQ%%%%%qQ%%%%%%%%%%%%%%%%%%%%qQqQ%%%%
26634A63%%%%%%%%%%%%qQ%%%%%%qQ%%%q%%%%Q%%qQ%%%%%%%qQq%QqQqQ%%%%%%%%%%%%%%%%%
26619A63%%%%Q%q%%Qq%%%%%%%%%%%%%%%%%%%%%%%%%%%%%%%%%%%%%%%%%%%%%Qq%%%%%%%%%%
26603A63%%%%%%%%%%%%%%%%QqQqQqQqq%Q%%%%%%%%Qq%qQq%J6%q%%%%%%%%%%Qq%%%%%%%%%%
26588A63%%%%%%%%%%%%%%%Qq%%%%%Qq%%%%%%%%%%%Qq%%%%%%%%%%%%%%%%%%%%%%%%%%%%%%Q
26572A71q%%%%%%%%Qq%%Q%qQ%%q%%%%Q%%%%%q%%Q%%qQqQqQq%Q%%qQq%%%Qq%%%%%%Qq%%QqQ
26557A71%%q%%%Qq%%Qq%%%Q%q%Q%%qQ%%qQ%%%qQ%%%%%%%%%%%%%%%%qQ%%qQ%%%%%%%%%%q%Q
26541A71%%%%%qQqQ%%%%%%qQ%%%%%%%%%%%%%%%%%%qQ%%%q%QqQ%%%%%%%%%q%Q%%%%%qQ%%%%
26525A71%%%%%%%%%%%%%%q%Q%%%%%%%%%%%%%%%%%%%%%%%%%%%%%%%qQ%%%%%%%%%%%%%%%%%%
26510A71%%%%%%%QqQq%%%%%%%%%%%%%%%%%%%%Qq%%%%%Qq%%Q%qq%J6q%%%%%%%%%%%%%%%%%%
26495A71%%%%%%Q%q%%%%%QqQqQ%%qQ%%qQ%qQ%%%%%%%%%%qQ%%%qQq%Q%qQq%%%QqQq%QqQ%%%
26479A79q%%%%%%%%Q%%q%Q%%qQq%Q%%q%Qq%Qq%Q%q%%QqQ%q%%%%%%%%%%%Qq%Q%%qQqQqQqQ%
26463A79%qQqQ%%%qQ%%%qQq%%QqQ%q%Q%%%%%%%%%qQ%q%Qq%Q%%%%%q%%%Q%qQ%%%%%%%%%qQq
26448A71Qq%Q%%%%%%%%%%%%%%%%%%%%%%%%%%%%%qQ%%%%%%%%%qQ%qQ%%%%%%qQ%%%%%%%%%%%
26432A79qQ%%%%%%%%%%%%%%%%%%%%%%%%%Qq%%%%%%%%%%%Qq%Qq%%%%%%%%%%%%%Qq%%%%%%%%
26417A79%%%QqQ%q%Q%%%qQ%qQ%%%%%qQ%%%%%%qQ%%Qq%%%%%%%%%%%%%%%q%%QqQ%%q%%%%%Q%
26401A87qQ%%%qQqQq%%Q%qQ%%%%%q%Q%%%%%%%%%%%qQ%qQqQqQ%%%%%%q%%Q%q%Qq%Q%%qQ%%%
26386A87%%%%%%Qq%%%%%%%%%%%%%%%%%%%%%%%%%%%%%%%%%%Qq%%%%%%%%%%%%%%%%%%%%%%%%
26370A87%%%%%%%%%%%Qq%Qq%Q%q%%%%%j6L2q%q%QqQ%qQq%%%qJ6%j6qK4%q%%%qJ6q%%%%%%%
26356A87%%%%%%Q%%%q%%Q%%%%%qQ%qQ%qQqQQj6Q%%qQqQ%qQq%%%Qq%Q%qQ%%%q%Q%q%%%%%%%
26341A87%%Q%%%%%%%%%%%%qQqQ%%%%%%%%%%%%%%%%%%%%%%q%Q%%%%qQ%%%%%%%qQ%%%%%%%qQ
26325A95%%%%%%%%%%%%%%%%%%%%%%%%%%%%%%%%%%%%%%%%%%%%%%%%%%%%%%%%%%%%%%%%qQ%%
26309A95%%qQ%%%%%qQ%%%%%%%%%%%%%%%%%%%%%%%%%%%%%Qq%%%%%%Qq%%%%Q%%q%Qq%%Q%qQ%
26294B03qQ%%%%qQ%%%q%%Q%qQ%%%%%%%%%%%%%%%%%%%%%%%%%%qQ%%%%%%%%%%q%Q%%%%%%%%%
26278B03%%%%%%%%%%Qq%%%qQqQq%%%%%Q%qQ%q%QqQ%q%Qq%%%%%%Q%%qQ%%%Q%%q%q%Q%qQ%%q
26263A95%QqQ%%%%%%%%%%%%%%%%%Qq%%%%%%%%%Q%%q%Q%q%%%%%%%%%%%%%Qq%Q%%q%%%%%%%%
26247B03%QqQq%Q%%%q%%%Qq%Q%qQ%%qQ%%%q%Qq%Q%%q%Q%qQ%%%%%%%%%%%%%%%qQ%%%%%%%%%
26232B11%%qQ%%%%%%%%%%%%%%%%%%%%qQ%qQ%qQ%%%%%%%%%%%%%%%%%%%%%%%%%%%%%%%%%%%Q
26216B19q%%%%%%Q%q%%%%%%%%%%%%%qQ%%%%qQ%%%%%%%qQ%%%%Qq%%Qq%%Q%q%%%%%%%%%%%Qq
26200B11%%%%%%%%%%Qq%%%Q%%q%%%%%%%%%Qq%%%%%%%%%%Qq%%%%%%%%%%%Qq%QqQqQ%%%%%%%
26185B19%%%%%qQ%%%%qQq%%Q%%%%%qQ%%%%%%%%q%%QqQqQqQ%%%%%%%%%qQ%%qQ%%%%%%%%%%%
26169B19%%%%Qq%%Qq%%%Qq%%%%%%%%%%%%%%%%%%%%%Qq%%%%Qq%%%%%%%%%%%%%%%%%%%%%%%%
26154B19%%%%%%%%%%%%%%%%%%QqQ%q%Q%qQ%%q%%%Q%%qQ%qQ%%%qQ%%%%%%%%qQqQ%%%%%%%%%
26138B27%%%%qQ%%%%%%%qQ%%%q%Qq%%%Q%%%%%%%%%Q%%qqQ%Qq%%%%%qQ%%%%%%Q%q%%%%%%%%
26123B27%%%%%%%%%%%%%%%%%%%%%%%%%%qQ%qQ%%%%%%%%%%%%%%%%%%%%%%%Qq%%Q%%%%%qQ%%
26107B35%qQqQ%%q%%%%%%Q%%%%%%%qQq%%Q%%%%%%%%%%%%%%%%%%%%%%%%%%%%%%%%%%%%%%%%
26092B35qQ%%%%%%%%%%%%%%%%%qQ%%qQqQ%%%%%%%%%Qq%%%%%%%Q%qQ%q%%%%%%%%%%%%%%%%%
26076B35%%%%%%%%%%%%%%%%%%%%Qq%Q%%qQ%qQ%%%%%%%%%q%QqJ6q%%%%%%%qQ%%qQ%%%%%%%%
26061B43%qQ%%q%Q%qQ%%qQ%%%%qQqQq%%Q%%%%%%%%%%%%%%%%QqQq%Qq%%Qq%%%%Q%%%%%qQq%
26045B43%%%QqQ%%q%Qq%%%%%%Qq%%%%%%Q%q%%Q%%qQ%%%%q%Qq%%%Qq%%QqQ%q%QqQqQ%%qQ%%
26030B51%%%%%qQ%%qQ%q%Qq%%%%%%QqQqQ%qQ%%q%Q%%%qQ%%%%%%%%%%%%%%%%%%%%%%qQ%Qq%
26014B51%%%%%q%%Q%%%%%%%%Q%qQqQj6QqJ6%q%%%%%%%%Qq%Qq%%%Q%%%qQ%%%%%%qQ%%%%%%%
25999B59%%%q%%Q%%%%%%%%%%%%%%%%%%%%%%%%%%%%%%%%%%%%%%%%%%%%%%%%%%Qq%%%%%%%%%
25983B59%%%%%%%%%Q%qQ%q%%%%%%%%Qq%%%Qq%%%%%%%%Q%%%%%%%%%%%%qQ%%%%%%%%%%%qQ%q
25968B59%%Q%%%%%%%%%%%%%%%%%%%%%%%%%Qq%%Q%q%%%%%%Qq%Qq%%Qq%%Qq%QqQqQ%q%%%%%%
25952B67%%%%%%%%%%%Qq%QqQ%%%qQq%qQ%%%%%%%%%Qq%%Qq%Qq%Q%%%qQ%%%%%qQ%%%%%%%%%%
25937B75%%%%%%%%%%%q%%Q%%%%%%%%%%%%%%%%%%%%%%%%%%%%%%%%%%%%%%%%%%%%%%%%%%%%%
25921B75%%%%%%%QqqQ%%%%Qq%%Qq%%Qq%%QqQ%%%%%%%%%%%%%%%%%%%%%%%qQ%%%%%%qQ%%%%%
25905B83%%%%Qq%%%%%%%%%%%%%%%%%%%%%%%%%Qq%%%%%qJ6q%Q%q%Qj6J6qQ%%%%qQ%%%%Qj6%
25891B83%Q%qQ%qQ%qQ%%%%Qq%q%%Q%qQ%%qQ%q%QqQqQ%%%%%J6j6qQ%QqqQJ6qqQ%%q%%%Q%qQ
25876B99%%%%%%q%%%%%%%%Q%q%%%Q%qQqQ%qQq%%%%%%Qq%%%QqQqQ%%%qQ%%%%%%%%%qQ%%%%%
25860B99%%%%%%%%%%%%%%%%%%%%%%%%%%%%%%%%%%%%%%%%%%Q%q%%%%%%Q%%qQ%q%%%Q%qQqQ%
25845C07%%%q%%Q%%%%%%%%%%%%%%%qQ%%%%%%%%%%%%%%%%%Qq%%%%%%%%%Qq%QqQ%q%%%%%QqQ
25829C15%q%%%Q%q%%Qq%%QqQqQqQ%qQ%%qQ%%%%%%%qQ%%%%%%%%%%%%%%%%%%%%Qq%%%%%Qq%%
25814C15%%%%%Q%qQqQq%%%%%%%%%%%Qq%%%Q%q%Q%%qQ%%%%qQ%%qJ6q%qQqQqQ%%qQ%q%Q%%qL2
25798C47l2j6L2k4M0o4L2J6Qk4Q%J6k4QJ6%l2J6Qq%%%%Qq%%%%QqQ%%qQ%%q%%Q%%%%%%qQ%q
25786C23QqQqQqQ%%%%%%%%q%Q%%%%%%%%%%%%%%%%QqQq%%Q%qQq%%Qq%%Q%%q%%%%Q%%%%%%q%
25770C31Q%%qQ%%%%%%q%QqQ%%%%%%%%%%%%%%%%%%%qQqQ%%%%%%%%%%%%%%%%%%%%%%%Qq%%%%
25755C39%%%%Q%%%q%%%%Q%q%Qq%QqQ%%%%%%qQ%%%%%%%%%%%%%Qq%%%%%%%%%%%%%%%%%%%%%%
25739C47Qq%Qq%%%%%Qq%%Qq%Qq%%%%%Q%%%qQ%%%%%qQ%q%%%%%Q%qQqQ%qQ%%%%%%%%%%%%%%%
25724C55%%%%%%%%%%%Qq%%Q%q%Q%qQ%%qQ%%%%%%%%%%qQ%%%%%%%%%%%%Qq%%%%%%%%%%%%Qq%
25708C63%%%%Qq%%%%%%%Qq%%Q%%%%%%%%q%Q%%%%%%%%%%%%%%%%%%%%%%%%%%%%%%%%QqQqQq%
25693C71%%%QqQ%%%%%qQ%qQq%%Q%%%%%qQ%qQ%%%%%%%%qQ%%%Qq%%%Qq%%%%%%%%qQ%%QqQ%%%
25677C87q%Q%qQq%Q%%%%%%%%%%%%%%%qQ%%%%qQqQ%%%%%%%%%%%%%%%%%%%%Qq%%Q%%qQ%qQ%%
25661C95qQ%%%%qQ%%%%%%%%%%%Q%q%q%Q%%%%%%%%%%%%%%%%%%%%Qq%Qq%QqQ%q%Q%%%%%%%qQ
25646D03%%%%%%%%%%%%%%%%%%%%%%%%%%%%%%%%%%%%Q%qQ%q%%%QqQ%%%%%%%%%%%%%%%%%%%%
25630D11%%%%%Q%q%QqQqQq%QqQ%%%%%%%%%%%%%qQ%%%%%q%Q%%qQ%%%%%qQ%%%%%%%%%%%%%qQ
25615D19%%%%%Qq%%Q%qQqQq%%QqQ%qQ%%%%%%%%%%%%%%%%%%%%%QqQqQqQq%%Q%q%%%%Q%%qQq
25599D27Q%%%qQqQq%Q%qQ%%%%%Q%q%%Qq%%%%QqQq%%%%Q%%%%%%%%%%%%%%%%%%%%%%%%%%%%Q
25584D51q%%%%%%%%%%%%QqQ%%%%%%qQ%%%%%%%%%%%%%%%%%%%%%%%%%%%%%%%%%%QqQ%%%%%%%
25568D59%%%%%%%%%%%%%%%%%%Q%%%%Q%q%qQqQ%%%%qQ%%%%%%%%%%%%%%%%%%%%%Qj6Q%%QqQq
25553D67Qq%Qq%Q%%%%%%%%%%%%%%%%%%%%%%%%%%%%%%%%QqQq%%Q%%%%%%%%%%%%qJ6j6%Q%%%
25538D83Qq%%%%%%%%%%%%%%QqQ%%%%%qQ%%qQ%%%%%%%%%%%%%%%%Qq%%QqQq%Q%%q%Q%%%qQ%%
25522D99%%%%%%%%%Q%%q%Qq%QqQq%Q%%%%%%%%Qq%%%%%%%%%%%%%%Qq%%%%%%Q%%%qQqQ%%%%%
25507E15%%%%%%%%%%%%%%%%%%%%%%%%QqQ%qQ%%%%qQ%%%%%%%%%%%%%%%%%%%Qq%%%%%Qq%Qq%
25491E23Q%%%%qQ%%%%%%%%%%%%%%%%%%%Q%q%Q%%%%%%%%%%%%%%Q%q%%%%%%Q%q%Q%qQ%%%%%%
25475E47%%%%%%%qQ%%%%%%Qq%%%%Q%%qQqQ%%%%%%%%%%%%%%%%Q%%qQqQ%%%%%%%%%%%%%%%Qq
25460E63%%%%%%Qq%%%%Qq%QqQq%Q%%%%%%%%%%%%%%%%%Qq%%%%QqQ%%%qQ%qQ%%%%%qQ%%%%%%
25444E79Qq%QqQq%%Q%%qQqQ%%%%%Qq%%%%%%%%%%%%%Q%%%q%%%%QqQ%%%%%Qq%%%QqQqQ%q%Q%
25429F03%%%Qk4J6%j6M0l2K4j6Qq%qJ6qQq%QqQj6K4qj6j6M0qJ6k4QqQqqJ6%q%%%QqQQ%%%q
25417F11%QqQqQ%%qQqQ%%%%%%Qq%%Q%q%Q%%qQ%qQ%qQ%%%%%%Q%q%Q%%%%%%%%%%%%%%%%%%%Q
25401F43%%%%%qQ%qQqQqQ%%%%%%%Q%%%%%q%Q%%qQqQqQ%%%%%%%%%%Qq%Qq%Q%%%%%%Qj6J6q%
25386F59%%%%%%%%%%%Q%%%%%%%%%%%%%%%%%%Qq%Q%%%%%%%%%%%%%Qq%Q%qQ%%%%%%%%%%%%%%
25371F83%%Q%%qQ%%%%%%%%%%%%%Qq%%%%%%%%%QqQ%%%%%%%%%%%%%%Qq%Q%%%%%%QqQqQ%%qQ%
25355G15%%%%%q%Q%%%%%%Q%q%%Q%q%QqQ%%%%%%%%%%%%%Qq%%Q%%%%%%%%%%%%%%%%%Q%%%%%%
25339G39%%qQ%%%%%%Q%%%%%%%%Q%q%%%%%%%Qq%%Q%%%%%%%%%%%%%Q%%q%QqQ%qQ%%%%Q%qQ%%
25324G71qQ%%%%%%%%%%%%Q%qQ%%%%%%%Qq%%%%%%Q%%%%%%%%%%%%%%%Q%qQq%QqQ%qQ%%Q%j6Q
25309G95Q%%%qQqQ%%%%%%%%QqQqQq%QqQ%%%%%%%%%%%Q%%%%%%%Q%%%qQ%%%%%%%%%%%Q%q%Q%
25293H35%%%%%%%%Q%qQ%%%%%%%%Qq%Q%qQ%%qQ%%%%%%%%%Q%q%Qq%%Q%%%%%%%Q%qQqQqQ%%%%
25277H67%%Qq%QqQqQ%%%%%%%%%%%Qq%%Q%%%%%%%Q%q%%QqQ%%%Qq%%Q%q%Qq%Q%%%%Q%%%%%%%
25262I07%QqQqQ%%%%%%%%%%%QqQqQ%%%%%%%%%QqQ%q%Q%%%%%%%%%%QqQ%%%%QqQ%%%%%%%qQq
25246I39Q%QqQqQ%%%%%%%%%%Q%%%%%%%%%Qq%%%Q%%%%%%%Q%%%%%%%%%%%Q%%%%%%%%%%Q%%%%
25231I95%%%%%%%%%%%Q%%%%%%%%Q%%%%%%%%%%%%QqQ%%%qQ%%Q%%%%%%%%Q%%%qQ%%%%%Q%qQ%
25215A043%%%%%Qq%%%Q%%%%%%Q%%%%%%%Qq%%Q%qQ%%%%%Qq%%%Q%q%%Q%%Q%q%Q%%%%%%%%%Q%
25200A091%%%%%%Q%qQ%%%%%%Q%%%%%Q%%qQ%qQQ%%q%QQqQ%%%%%%%%%%QqqJ6Qq%Qq%%%%Q%%%
25185A147%Q%%%%%%Qq%%%Qq%Q%%QqQ%%%%%%%%%%%%Q%%%%Qq%Q%%%%%QqQ%%%%%%Q%%%%Qq%%Q
25169A211%%%%%%Q%%%%%%%Q%%%%%%%%%%%%Q%%Qq%Q%%%%%Q%%%%%%%QqQqQ%%%%Q%%%%%%QqQ%
25154A275%qQ%%%%%%Q%%%%Q%%%%%%%Q%%%%%Q%%%%%%%%%Q%%%QqQqQ%%%Q%%%%Qq%Q%%%%QqQ%
25139A347%%%%%%%Q%%%%QqQ%QqQ%%qQ%%%%%Q%%QqQ%%%%%Q%%%%%%%Q%%%%Qq%Q%%%QqQ%%%%Q
25123A427qQ%qQ%Q%%%%%%%Q%%%Q%q%Q%%%%%%Q%%%Q%%%%Q%%%%QqQ%%%%%QqQ%Q%%%%%%Q%qQ%
25108A507%%Q%%%Q%%%%%%QqQ%%%Q%%%%%Q%%%%%%%%Q%%%Q%%%%Q%%Qq%%QqQQqQ%%%Q%%%Q%%%
25093A603%%%%QqQ%Q%%%Qq%Q%%%%Q%qQ%%Q%%%%Q%%%%Q%%%%%Q%%%QqQ%%Q%%%Q%%%%Q%%%%Q%
25077A707%Qq%Q%%%%QQ%%q%J6q%%Q%%%Qq%QQ%%%Q%%%%%Q%%Qq%Q%Q%%%%%Q%%%Q%%%%Q%%%Q%
25062A819%%%Q%%%%%QQ%%qQ%Q%%%Q%%Q%%Q%qQ%%Q%%%%Q%%%%Q%%%Q%Q%%%%Q%%Qq%Q%QqQ%%Q
25047A947%Q%%%%%Q%%%%Q%%%Q%%Q%%%%QQ%%Q%%%%Q%%%%Q%%%%%J6%%%%%Q%%Q%Q%%%Q%%%Q%%
25032B083%%Q%%Q%%%Q%%Q%%Q%%%%Q%%Q%%Q%%Q%%Q%%Q%%%Q%%%Q%Q%%%Q%%QqQ%%Q%%Q%%Q%%Q
25016B243Qq%Q%%Q%%Q%%Q%%Q%%QqQ%Q%Q%QqQ%Q%%%Q%%Q%%Q%%Q%%%Q%Q%%Q%%%Q%%Q%%Q%%Q%
25001B411QQ%%%Q%%Q%Q%%%Q%Q%%Q%%Q%%Q%QQ%%Q%%%Q%%Q%%Q%Q%%Q%%Q%%QQ%%%Q%%Q%Q%%Q%
24986B611Q%Q%%%QQ%%Q%%Q%Q%Q%%Q%Q%Q%%QQ%%%Q%QQ%%Q%%Q%Q%%Q%%QQ%Q%Q%%Q%%Q%Q%%QQ
24970B843%Q%Q%Q%%Q%%Q%Q%%QQ%Q%%QQ%%Q%QQ%%Q%Q%%Q%QQ%Q%%QQ%QqQQqQQJ6%qQQQ%Q%%Q
24955C091Q%Q%%Q%qJ6QQ%%QQqJ6QqJ6%%J6qQ%J6%%%QQ%QQ%QQ%Q%%QQ%%QQ%Q%QQQ%QQ%Q%Q%
24941C363%Q%Q%QQQ%QQ%QQQ%%Q%Q%QQ%Q%QQ%Q%QQ%QQ%QQ%Q%Q%Q%QQQ%Q%QQ%QQ%QQ%QQQ%Q%
24926C691QQ%QQ%QQQQ%Q%QQ%QQQ%J6qQQ%QQ%QQQ%QQQQ%QQ%J6%QQQ%QQ%QQ%J6%QQ%QQQ%QQQ
24911D067%QQQ%QQQ%QQQQQ%QQQ%QQQQQQQ%QQQQQ%QQQQQ%J6%QQQQ%QQQQQ%Q%J6QQQQQQQQQQ
24896D507%QQQ%J6Q%J6%J6Q%QJ6%J6%QQQQ%J6QQQ%J6%QQQJ6%J6%QQQQJ6QQQQQQ%QJ6Q%J6Q
24884D931Q%J6QQQQQQQJ6QQQQQQQQQQJ6QQQQJ6%QJ6QQQQQQQQJ6%J6QQQQJ6QQQQJ6QQQJ6%J6
24871E443QQJ6%J6QJ6%J6QQQQJ6QQJ6%J6QQQJ6QJ6QJ6QQJ6QQQJ6QQJ6QQQJ6J6QJ6J6Q%K4J6
24859E963%%J6J6QQJ6J6J6%J6QJ6QJ6QJ6J6QQJ6QQJ6QJ6QJ6QJ6J6QJ6QJ6QJ6QJ6J6QJ6QJ6
24849F475QJ6J6QJ6QQJ6J6J6QQJ6J6J6QJ6J6QJ6J6QJ6J6QJ6J6QJ6J6QJ6QK4QJ6J6QK4QJ6J6
24840G035J6QJ6J6J6J6QJ6J6J6J6J6J6J6J6J6QK4QJ6J6J6J6J6J6QJ6J6J6J6J6J6J6J6J6J6
24832G579J6J6J6J6J6J6K4QK4J6J6J6J6J6J6J6J6K4QJ6K4J6J6J6J6K4J6J6K4QK4J6J6J6K4
24824H179J6J6K4J6J6J6J6K4J6J6K4J6J6K4J6K4J6J6K4J6K4J6J6K4J6K4J6K4J6K4J6K4J6K4
24816H827J6K4J6J6K4K4K4J6K4J6K4K4J6K4J6K4K4J6K4K4J6L2QK4K4K4K4K4J6K4K4K4J6K4
24808I547K4K4K4K4K4J6L2K4K4J6K4L2K4K4K4K4K4K4K4K4K4J6L2K4K4K4L2K4K4K4L2J6L2K4
24800A0379K4K4L2J6L2K4K4K4L2K4L2K4K4L2K4L2K4K4L2K4L2K4L2K4L2K4K4L2L2K4L2L2K4
24793A1275L2K4L2L2L2L2K4L2L2L2K4L2L2L2L2L2L2K4L2L2L2L2L2L2L2L2L2M0L2L2L2L2L2
24785A2307L2L2M0L2L2M0L2L2M0L2L2M0L2L2M0L2M0L2L2M0M0L2M0L2M0M0L2M0M0L2M0L2M8
24778A3491M0L2M0M0M0M0M0M0M0M0M0M0M0M0M0M0M0M8M0M0M0M0M8M0M8M0M0M8M0M0M8M0M8
24770A4851M0M8M0M8M0M8M8M8M0N6M0M8M8M8M0M8M8M8M8M8N6M0N6M8M8M8M8N6M8N6M8M8N6
24762A6427M8N6M8N6M8O4M8N6M8N6N6N6M8O4N6M8N6N6N6N6N6O4N6N6O4N6N6N6O4N6N6O4O4
24755A8275N6O4N6O4O4N6O4O4O4P2N6O4O4O4O4O4P2O4O4P2O4P2O4O4P2Q0N6P2P2P2O4P2P2
24747B0443P2P2P2P2P2Q0P2P2Q0Q0P2P2P2Q0Q0Q0Q0P2Q0Q0Q8P2Q0Q8Q0Q0Q8Q0Q8Q0Q8Q0Q8
24740B3035Q8Q8Q8Q8Q0R6Q8Q8Q8R6Q8Q8R6R6Q8R6Q8J04R6Q8J04R6R6R6R6J04J04R6R6J04J04
24733B5947J04R6J12J04J04J12J04J04J04J12J04J12J12J20J04J12J12J20J12J20J12J20J20
24727B8483J20J20J12J20J20J28J28J20J28J20J28J28J28J20J36J36J20J44J20J44J28J36
24722C1267J36J36J44J36J44J36J44J44J44J44J52J36J44J52J52J60J44J52J60J52J52J52
24717C4483J60J60J60J60J68J60J68J68J68J60J76J76J60J76J76J76J76J84J68J84J84J76
24712C8227J92J84J92J84J92J92J92J92K00K00J92K00K00K00K08K08K08K08K08K16K16K16
24707D2627K16K24K16K24K24K24K24K32K32K32K32K40K40K32K48K40K56K40K56K48K56K56
24702D7819K56K64K64K56K72K64K72K80K72K80K80K80K88K88K88K96K96K96K96L04L04L12
24697E4027L12L12L12L20L20L28L28L28L28L36L44L36L52L44L52L60L52L68L60L68L68L68
24692F1523L84L76L84L92L92L92M00M08M00M16M16M16M24M24M32M32M40M40M48M56M56M56
24687G0707M64M72M72M80M88M88M96M96N12N04N12N20N28N36N28N52N44N52N52N68N68N76
24682H2115N84N92N92O08O08O08O32O24O32O40O48O56O64O72O80O80O96P04P12P20P28P36
24677I6531P44P52P60P68P76P84Q00Q08Q16Q24Q32Q48Q56Q64Q80Q88Q96R12R20R36R44R60
24672A15099R60R84R92J008J016J032J048J056J072J088J104J120J128J144J160J176J192
24668A33379J216J224J240J256J280J296J312J328J352J368J392J408J432J448J456J496J520
24664A56403J528J568J576J608J632J648J680J712J728J760J784J816J840J872J896J936J952
24660A85939J992K032K048K096K128K160K200K224K272K312K344K392K440K472K504K560K600
24656B24715K648K696K744K800K848K904K944L000L064L120L168L240L296L368L424L488L560
24653B77027L632L704L776L848L936M008M088M184M256M352M440M544M632M728M848M936N048
24649C49987N160N280N392N520N640N776N904O040O192O328O480O640O800O976P136P320P496
24645D56067P688P888Q088Q296Q520Q744Q968R216R472R720R992J0272J0560J0856J1176J1488
24641F07011J1832J2184J2544J2920J3312J3720J4144J4592J5056J5536J6040J6568J7112
24638G92571J7680J8288J8912J9560K0248K0968K1712K2512K3336K4192K5120K6072K7072
24635A078243K8136K9248L0424L1664L2968L4352L5808L7344L8984M0704M2536M4480M6536
24632A551427M8736N1056N3544N6184N9016O2024O5240O8696P2392P6352Q0608Q5200R0136
24629B420611R5456J01216J07432J14176J21496J29448J38119J47568J57912J69217J81664
24627C884315J95327K10409K27064K45536K66064K88920L14472L43128L75344M11728M52920
24624G215227M99792N53328O14752O85560P67608Q63200R75232J107376J264279J452024J678424
24622A7676802J953889K292247K712232L239561L910104M774688N906678P414151R459185
24620E9339537J2289967J6293060K2077217L0596402M3275548O1892468Q7161857J12952569
24618D45878625J13963316N2139331n2139331j13963363j12952569q7161810o1892468m3275548
24616A40596183l0596390k2077229j6293060j2289973r459185p414145n906678m774682l910102
24614B7874739l239569k712240k292239j953889j678424j452015j264288j107368r75240q63200
24612A0336267p67608o85560o14752n53328m99800m52920m11712l75352l43121l14479k88928
24609E028707k66049k45543k27064k10409j95327j81656j69225j57912j47568j38119j29448
24607B960387j21496j14168j07440j01216r5448r0144q5192q0616p6352p2392o8696o5248
24604A881979o2016n9016n6184n3544n1064m8728m6536m4480m2536m0704l8984l7352l5800
24601A265035l4352l2968l1664l0424k9248k8136k7072k6072k5112k4200k3336k2504k1712
24598I08235k0968k0256j9560j8904j8288j7688j7112j6560j6048j5536j5048j4592j4144
24595F83531j3728j3312j2920j2544j2176j1832j1496j1168j0864j0560j0272r984r728r464
24592E23483r216q976q736q528q288q096p880p696p496p320p144o960o800o640o488o336o184
24588C94699o040n912n768n640n520n392n280n160n056m936m832m736m640m536m440m352m264
24584C08195m176m088m016l928l848l776l704l632l560l496l416l360l304l232l176l120l064
24580B47299l000k952k896k848k792k744k696k648k608k560k512k472k432k384k344k320k272
24576B02819k232k192k160k128k088k064k024j992j960j928j896j872j840j816j784j760j728
24572A69355j704j688j648j632j600j584j560j536j512j496j464j456j424j408j392j368j352
24568A43531j328j312j296j280j256j248j224j208j192j176j160j144j136j112j104j080j080
24564A23195j056j040j032j024j000j000r76r68r60r44r28r28r04q96q96q72q72q56q40q40
24560A04363q24q16q08p92p92p76p68p60p52p44p36p28p20p04p04o96o88o72o72o64o56o48
24555H8243o40o40o32o16o16o08o00o00n92n76n76n76n60n60n52n44n44n44n20n28n20n12
24550G5587n12n04n04m88m88m88m80m72m80m56m56m64m48m48m48m40m32m32m24m24m16m16
24545F5467m16m08m00l92l92m00l84l84l84l76l76l68l68l68l60l52l60l52l44l44l44l36
24540E7259l36l36l28l28l20l28l20l12l12l12l12l04l04k96k96k96k88k96k88k80k88k72
24535E0507k80k80k72k80k64k72k64k56k56k64k56k56k48k56k48k40k48k40k40k40k32k40
24530D4875k32k32k32k24k24k24k24k24k16k16k16k16k08k16k08k08k08k08k00k00k00k00
24525D0139j92k00j92j92j92j92j84j92j84j84j84j84j76j84j76j76j76j76j68j76j68j68
24520C6123j68j68j68j60j60j68j60j68j52j60j60j60j52j52j52j52j52j44j52j44j52j44
24515C2675j44j44j44j36j44j36j44j36j44j36j28j36j36j36j28j28j36j28j28j28j28j28
24510B9699j28j20j20j28j20j20j20j20j20j28j04j20j20j12j12j20j12j12j12j12j12j12
24504B7115j12j04j04j12j04j12r6j12j04r6j04j04j04r6j04j04r6r6r6j04r6r6r6r6r6r6
24499B4475q8r6r6q8q8r6r6q0r6q8q8q8q8q8q8q8q0q8q0q8q0q8q0q8q0q0q0q0q0q0q0q0q8
24491B1635p2p2q0p2q0p2o4q0j04o4n6q8p2o4p2p2p2p2p2p2o4o4q0o4q0o4m8q8q0m0p2o4p2
24483A9283o4p2o4o4o4o4n6o4o4p2n6o4o4n6n6o4o4n6o4n6o4n6n6n6o4n6n6n6o4n6m8n6n6
24476A7291o4m8n6n6m8o4m8n6m8m8o4m8n6n6m8n6m8m8n6m8n6m8m8m8m8m8n6m8m8m8m8m8m8
24468A5587m8m8m0m8m8m8m8m8m0m8m8m8m0m0m8m8m0m8m0m8m0m8m0m8m0m0m0m8m0m0m0m0m0
24461A4131m8m0m0m0m0m0m8l2m0m0m0m0m0l2m0m0l2m0m0m0l2m0m0m0l2m0l2m0l2m0l2l2m0
24453A2867m0l2m0l2m0l2l2m0l2l2l2m0l2l2l2m0l2l2l2m0k4l2l2l2l2m0k4l2l2l2l2l2l2
24446A1763l2l2l2k4l2l2k4l2l2l2l2l2k4l2l2l2k4l2k4l2k4l2k4l2k4l2l2k4l2k4k4l2l2
24438A0795k4k4l2k4k4k4l2k4l2k4k4l2k4k4k4k4l2k4k4k4l2j6l2k4k4k4k4k4k4k4l2j6k4
24431I955k4k4k4k4k4k4k4k4k4k4k4k4k4k4j6k4k4k4k4j6k4k4k4k4k4k4j6k4k4j6k4k4j6k4
24423I179k4k4j6k4j6k4k4j6k4k4j6k4j6k4j6k4k4j6k4j6j6k4j6k4j6k4j6j6l2qk4j6k4j6
24415H491k4j6j6j6k4j6k4j6j6j6k4j6j6k4j6j6j6k4j6j6j6k4qk4j6j6k4j6j6j6j6j6j6j6
24407G883k4j6j6j6j6j6j6j6j6j6j6j6j6k4qj6k4qj6j6j6j6k4qk4j6qj6j6j6j6j6j6j6j6j6
24399G299j6qj6j6j6j6j6qj6j6j6qj6j6j6j6j6j6qj6j6j6qj6j6j6qj6qk4j6qj6j6%j6k4%k4
24390F747qj6j6qj6qj6j6j6qj6j6qqk4qj6qj6qj6j6j6qj6qj6qqj6j6qj6qj6qj6qj6qj6qj6
24380F203qj6qqj6qj6qj6qj6qj6qqj6qj6qj6qj6qqqqj6j6qqj6qqqj6q%k4qj6qqj6qqqqj6q
24369E667qqj6qqj6qq%j6qj6qj6qqj6qqqqqj6qqqqj6qqqqqqj6qqqqj6qqj6%j6qqqqqj6qqq
24357E147qqqqqqqj6qqqqqqqqqqqj6%j6q%qj6qqqqqqqq%j6qqq%qqj6qqqqqqqqqqqq%j6q%j6
24343D651q%j6%qqqqqqqqqq%j6qqq%qqqqqq%qj6%qqqq%j6%qqqqq%qqqqqq%qqq%j6%qqqqq%
24329D219qq%qqqqq%qqq%j6%qqqqq%q%j6%qqqq%qqqqq%qq%qq%qqq%qq%qqqq%qq%qq%qq%qq
24314C819q%qqq%q%qqqq%q%q%qq%qq%j6%q%j6%%j6%%q%qq%qqq%q%q%qqq%qq%q%qqq%q%q%q
24299C483q%q%q%q%qq%q%qqq%q%q%q%qq%qq%q%qq%%q%qq%%qqq%q%%qq%q%q%qq%q%q%q%q%q
24284C179q%%qq%%qq%q%q%%j6%q%q%q%q%%qq%q%%q%q%q%qq%%%q%q%q%qq%q%qq%%q%%%j6%%
24269B923%qq%%q%qq%%q%%q%qq%q%q%%qq%q%%q%q%q%%q%q%%%q%q%q%q%%q%q%%qq%Qj6qQ%q
24254B691q%%q%%q%qqQq%%%k4%%q%Q%qq%%%qq%q%%q%%q%%q%q%q%q%%%q%%q%q%%%q%%qq%%q
24239B483%%q%%q%q%%q%%q%%%q%q%%q%%q%q%%%%q%%q%q%%q%%q%%q%q%%q%%qQq%q%q%%q%%%
24223B307q%%%q%q%%%j6Q%q%q%%q%%%q%%q%%q%%q%%q%Qj6Qq%%q%%q%%q%%%q%q%%%%q%q%%%
24209B147%q%%q%q%%q%%%%qQq%%q%q%%%q%q%%%qQq%q%%%%q%%q%%q%%%%q%%q%%%q%%%q%%%%
24193B003%%q%qq%%%%%q%%qQq%%q%%%%q%%%q%q%%qQq%%%q%%%%q%%%%q%%%q%%%q%%q%%%%q%
24178A867q%%%%%q%%%q%%%%q%%%q%%%%%q%%q%%%%q%%q%%%%q%%%q%%%%%q%%%%%q%%q%%%q%%
24163A747%%%q%%%%q%Qq%%q%%%%q%q%%%%%%%q%%%qQq%%%q%%%%q%%qQq%%%%qQq%%%qQqq%%%
24147A643%%%q%%%q%%%%%q%%%%%q%%%%%%q%%qQq%%%%q%%%qQqq%Q%q%qQ%%q%%%%%%q%%%qQj6
24132A539Q%q%Qq%%%%q%%%q%%%q%Qq%%%%%q%%%%%q%%%q%%%qQq%%%%%%qQq%%%%q%%qQ%q%%%
24117A459%%q%%%%%%q%%qQq%%%%q%%%%%%q%%%%qQq%%%%%qQq%%%q%%%%%%%%%q%%%%%q%%%%%
24101A379q%%%%%%%%%qQq%%%%%q%%%%%q%%%%%%%qQq%%%%%q%%%%%q%Qq%%%%%q%%%%%q%%%%%
24086A307%q%%%%%%%%qQ%q%%%%qQq%%q%%Qq%qJ6q%%%q%%%%%qQq%%%%%qqQ%%%%qQq%%%qQ%q
24071A235%%%%%%qQ%q%%%%%%%q%%%%%%%q%%%%%%%q%%%%%%%%%%%%%q%%%%q%%%%q%%%%%%%%%
24055A179%%%%%q%%%%q%%%%%%%%%%qQq%%qQqQq%%%%%%%%%q%%%%Qq%%%q%%%%%qQq%%%%%%%%
24040A123%q%%%%%%%%%q%%%%%%qQq%%%%%qQq%%%%%%%%%%%%qQ%%q%%%%%qQq%%%%%%%%qQq%%
24025A067%%%%%q%%%%qQqQ%q%Qq%Q%%q%q%Qq%%%qQ%qJ6k4QQ%j6Q%Qq%qQq%qQ%%qJ6j6%Q%%
24011A027%q%%%%%%%%%j6J6qq%QJ6j6%%%k4L2%k4J6%%%k4J6%%q%%%%%%%Qq%qQ%%q%%%q%%Q
23997I87qQq%%%%%q%%%%%%%%%%%%%%%%%q%%%%%%%%q%Qq%%%%%q%%Qq%%%%%q%Q%q%Q%%q%%%Q
23982I47q%%%%q%Q%%q%%%%%%%%%q%%%Qq%%%%%%%q%Qq%%%%%%%qQ%q%%%%%%%%%%%%q%%%%Qq%
23966H99%%qQq%%%%%%%%%%%%q%Q%q%%%%%%%%%qQqQq%%%%%%%%%%%%q%%%Qq%%%%%%%%%qQ%%q
23951H59Qq%%%%%%qQ%q%Qq%Qq%%%Qq%%%%%%%%qQq%%%%%%qQ%%%q%Qq%Qq%%%%%%%qQq%%Qq%%
23935H27%%%%%%%%%%%%%qQqQ%qQ%q%%%%%%q%Qq%%%%%%%%%%q%qQQq%QqqQq%QqK4K4m8qJ6%%
23921H03%qqQQqQqqQqQq%Qq%%%%%%%%%%%%%q%%%%%%%%%%%%%%%%qQ%q%%%qQ%%%%%%%%%q%%%
23905G63QqQ%q%%%%qQ%qQ%qQ%%%q%%%%%%%Qq%qQqQ%q%%Q%%qQq%%%%%%%%%%%%q%%%%%%%%%%
23889G39%%%%%%qQ%%q%%%%Qq%%%%%%q%%%%%Qq%%%%%%%%%%%%%%%%q%Q%%qQq%%%%%%%%%%%%%
23874G15%%qQqQ%%q%Qq%Qq%%%%%%%%%%q%%%%%%%%%%%%%%%%%q%%%%%%%%%%%%%%%q%%Q%qQ%q
23858F83%%%Qq%%%%%qQ%qQq%Q%%%%%q%%%%%%%%q%Q%%%%%q%%%%%%%%%%%%%%%%%%%%%q%Q%q%
23843F59Qq%%%%%%%Qq%qQ%%%%%q%%%%%%%%%Qq%%%%%%%%%%%%%%%%%%%%%%%%q%%%%%%%%%%%%
23827F43%%%%%%%%q%%%%%%%%%%%%%%%%%%%%%q%Qq%%Qq%%%%%qQ%%qQ%%%%%%%q%%%%%%%%%%q
23812F11Q%%%%%%%q%%%Qq%%%%%%Qq%%%%qQ%%%%qQq%%%%%%Q%qQqQ%q%%%%%%%%%%%%%%%%%%%
23796F03%%%%%%qQ%%%qQq%%%%%%%%qQ%%%%%qQqQ%%%%qQq%QqQ%%q%qQq%Q%%%%%%qQ%q%%%Qq
23781E79%QqQq%%%Qq%%%%qQ%%%%%%%qQqQqQq%%%%%%%%%%%%%qQ%%%%%%%%%%%%q%%%Qq%%Qq%
23765E63Qq%%%%%qQ%%%%%%%q%Qq%%QqQq%Qq%%%%%%%qQ%%%%%%%%%%%%%%%qQq%%Q%qQ%q%%%%
23749E47%%%%%qQ%%%%qQq%%%Q%%q%%%%%%%%%Qq%%%Qq%%%%%%%%%%qQq%QqQqQ%q%Q%q%%%%%%
23734E31%%%%%%%%%%%%qQqQ%q%QqQ%%q%%Qq%qQ%%%%%%%%%qQ%q%Q%q%Q%qQ%q%%%%%%%Q%%q%
23718E15%%%%%%%%%%%%%%q%Q%q%%Qq%%Qq%%%%%%%%%%%%%%%%%%%%%%%%%%%%%%%%%%%%q%Qq%
23703D99%%%%%%%%%%%%%%%%%%%q%Q%%%%q%Qq%Q%%q%%%%Qq%%%%%%%%%%%%%%%%%%%%%%qJ6q%
23687D91qQq%%%Qq%%Q%%q%Qq%%%%%%%QqQq%%%%%%%q%QqQ%q%%%%QqQq%%%%%%%%%%%%%%%%%%
23672D75%%%%QqQ%qQq%qJ6q%qQq%Q%%%qQ%qQ%%qQ%%%qQq%%%%%%Q%q%%%%%%%%%%%%qQ%%%%q
23656D59%%%%Q%q%QqQqQq%Qq%%%%%%%%%%%%%%%%%%%%%%%%%%%%%%%%%qQ%%qQq%%%%%%%Qq%%
23641D51%%%%%%%%%%%%%%%%%%%%%%%%%%%%%%%qQqQ%%%q%%%%%%%%%%%%%%%%%%%%%%%%%%%%%
23625D43%%qQqQ%%%q%QqQ%%%q%Qq%Qq%Qq%%%%%%%%%%%%%%%%%qQ%%%%%%%qQ%%%%%%%%%%%%q
23610D27Q%%%%%%%%%%%%%%%%%qQ%%qQ%%%%q%Qq%Qq%%%%%Qq%%%%%%%%%%%%%%%%%%%%%%%%qQ
23594D27%%qQ%qQ%qQq%%%%%%%%%%%%%%%%%qQ%%%%%%qQq%QqQ%q%Q%%%%%%qQ%qQq%%%%%%%%%
23579D11%%%%%%%%%%%%%qQqQ%%qQ%%qQ%%%%%%%%%%qQqQ%q%%%Qq%Q%q%Qq%%%%%%%%%%%%%%%
23563D03%%%%%%%%%%QqQq%%%%%%%%%%qQqQ%qJ6k4QQqq%%J6qqK4qj6qqJ6j6QM0n6Q0j6m8QK4
23550D11j6J6k4Q%%QqJ6k4qP2n6L2q0M8Qqk4J6QqqK4J6j6k4K4%qqQqq%Q%%q%QQqqQqQqQ%%
23539C87%Q%q%%qQ%%%%%qQ%%Qq%%%%%%qQ%%%%%%%%%%%q%%%%%%%Q%qQq%%Qq%Q%q%%%%%%Qq%
23523C79%qQ%%qQ%%%%%%%%%%%%%%%%q%%Q%q%QqQ%%qQq%%%%Qq%%Qq%Qq%%%%%%%%%%%%%%%%%
23507C71%%%%%%%%%%%%%%%%%qQ%%%%%%%%%qQ%%%q%Q%%qQ%q%%%%%%%%%%%%%%%Qq%%%%%Qj6Q
23492C63%%%%%%%%%%%%%%%%%%QqQq%Qq%QqQq%%%%%%%%%%qQ%%%%%%%%%%%%%%%%%%%qQqQ%%%
23477C63%qQqQq%%%Qq%%Q%q%%%%%%%%%%%%%%%%%%%%%%%%%%%%%%%%%%%%QqqQ%%%%%qQ%qQ%%
23461C55%qQqQq%Q%%q%%%%%%%%%Qq%%%%qQ%%%Qq%Qq%%Qq%%%qQ%qQ%%%%%%%%%%%%%%%%%%%%
23445C47%%%%%%qQ%%%%qQ%%%q%%QqQq%%%Q%qQq%%%%%%%%%%%%%qQ%%q%%Q%qQ%%%%%%%%%%%%
23430C39qQ%%%QqQ%qQq%%%%%%%%%q%%Qq%Q%%qQ%%%%%%q%%%%%%%%%%%%%%%%%%%Q%q%Q%%q%%
23414C31%%Q%q%QqQqQq%Q%q%%%%%%%%%%%%%%%%%%%%%%%%%%%q%%%%%%%Qq%%%Q%%qQq%%%%Q%
23399C31q%%%%%%%Qq%%%QqQq%%%%Qq%Qq%%%%%%Qq%%%%%%%%%%%%%%%%%qQ%%%%%%%%%%%%%qQ
23383C23%q%Q%qQq%Q%%%q%%%%%Qq%QqQ%%%%%q%Q%%qQ%%qQ%%%q%QqQqQ%q%%Q%%%q%%QqQ%qQ
23368C23q%Qq%%%%%%%%qQ%%%%%%%%%%%%%qQ%%%%qQ%%%%%%%%qQ%%%%%%%%%%%%qQ%%%%%qQ%%
23352C15%qQq%Q%qQqQ%q%%%%%Qq%%%%%%%Qq%%%%%%%%%%%%%qQ%%%%%%%%%%%%%%%%%%%%%%%Q
23336C15q%%%%%%%%qQ%%%%%%%%%%qQ%%%%%%%%%%%%q%%Q%qQ%qQ%qQ%qQq%%%%Qq%%%%QqQqQ%
23321C07q%%%%%%%%%%%Qq%%Q%j6Q%q%Q%%%%%%%%%QqQQk4%%QQq%%%%%%%%%%%%%Qq%%%%%%%%
23306B99%%%%%%%%%%%%%%%%%%%%qQ%%%qQ%%%qQ%q%%%%%%Q%q%%%%%Qq%%%%%%%%%%%%QqQq%%
23290B91%%%%%%%%%%%%%%%%%%%%%%%Qq%%%%%%Qq%%%%%%%%%%%%%%%qQ%%%%%%Qq%q%Q%%%q%%
23275B83%QqQq%%%%%%%%%%Q%%%qQqQqQq%%%%%%%%%%%%%%%%%%%%%%%%%%%%%%%%%%%%%%%%%%
23259B83%%qQ%%%%%%%%%%%%%qQ%%qQ%%%%%%%Q%%qQq%%%%%%%%%%%%%%%%%%%%%%%%%%qQ%%%%
23244B83%%%%%qQ%%%%%%%%%%%qQ%%%%%%%%q%%%%Q%q%%%%%Q%q%%%%%%%%%%Q%qQq%%%%%%Qq%
23228B75%%%%%%%%%%%%%%%qQ%%%%%%%%%%%%qQ%%%%%QqqQ%%qQ%%q%Q%%%%%%%%%%%%%%%%%qQ
23212B75%%%%%%qQqQq%Q%qQqQqQ%%%%%%qQ%%%%%%%%%%%%%%%%%%q%%%Q%%qQqQ%q%%QqQq%%%
23197B67%Qq%Q%%q%%%Qq%QqqQ%%%%%%%%%%%%%Qq%%%%%%%%%%%%%%%%%%%%%%%qQ%q%Q%%%%%%
23181B67%%%%%%%%qQqQ%%%%qQ%q%Q%%%%%%%q%Q%qQ%%%qQ%qQ%%q%Q%%%qQ%%%qQ%%%%qQqQ%%
23166B67q%%%%%%%%QqQq%%Qq%Qq%%%Q%%%q%%Q%%%qQq%%%%%%%%%%%%%%%%%%%%%%%%%%%Qq%%
23150B59%%%%%%%%%%%%%%%%%%qQ%%%%%%%%%%%%%%%%%%%%%%qQ%%%%%%%%%%%%%%%%%%%%%qQ%
23135B59%%%%%%%%%%%%%qQ%q%Q%q%%Q%%%q%Qq%%%Q%q%Qq%%%Qq%%%%%Qq%%%%%%%%%%%%%%%%
23119B51%%%%%%%Qq%Q%q%%Q%q%%Qq%%%%Qq%%%%%%%%%%%%%%%%%%%%Qq%%%%%%%%%%%%%%%%qQ
23103B51%%qQ%qQ%qQ%%%%%%%%%%%%%%%%%Qq%%%%%%%qQq%Q%%%%%%%qQ%q%Qq%%Q%%qQ%%%%%q
23088B43%%%%%%%%%Qq%Q%q%%%Qq%Q%Qj6QqQ%q%%Q%q%Q%%q%%%QQj6qQ%%qJ6q%%%%%%%%%%%%
23073B43Qq%%%%%%Qq%%%%QqQ%qQqqQ%%%%%%%%%%%%%%%%%%%%%%%%%%%%%%%%%%%%%qQ%%%%%%
23057B43%%%%%%%%qQ%%%qQ%%%q%Q%%%%qQ%q%Q%%%%%%%%%%%q%%Q%%%%%%%%qQ%%%q%Q%%%qQq
23042B35Q%%%%%%%%q%%Q%%%%qQ%%%%%%q%Qq%%%Q%%%%qQ%q%%%%%Q%q%%Q%%%%%%qQq%%%Q%%q
23026B35%%%%%%%%Qq%%%Q%q%Qq%%%Qq%%%%QqQ%q%%%%%%q%Q%%%%%%%%%%%%%%%%%%%%%%%%%%
23011B35%%%%%%%%%%%%%%%%%%%%%%%%%%%%%%%%%%%%%%%%%%%%%%%%%%%%%%Qq%%%%%%%%%%%%
22995B35%%%%%%%%%%%%%%%%%%%qQ%%%%%%qQ%%qQ%%%%qQqQqQqQ%qqQQ%j6QQq%%Qq%%%Q%%q%
22980B27%%%%%%Q%qQq%Qq%%%qQ%%%Qq%%%%%%%%%%%%%%%%%%%%%%%%%%%%%qQ%%%%%%%%%%%%%
22964B27%%%%%Qq%Q%q%%%Qq%Qq%%Qq%%%%%%%%%%%%%%%Qq%%%%%%%%%%%%%%%%%qQ%%%%%%%%%
22949B27%%%%qQ%qQ%%%%%q%QqQ%%%%%%%%%%%%%%%%%%%%%%%%%%%%%%%%%%%%%%%%%%%%%%%%%
22933B27%qQ%%%%%%%%%%q%Q%%q%Q%%qQ%%q%QqQq%%QqQ%%%%%%%%%q%Qq%Q%%q%%%Qq%Q%qQ%q
22918B19%%%%%Q%qQ%%%%%%%qQ%qQ%%%qQq%%Q%%%%q%Q%%%q%%%%%%%Qq%%%%%%%%%%%%%%%Q%q
22902B19%%%%%%Qq%%%%%%%%%Qq%%%Qq%%%%%%%%%%%%%%%%%QqqQ%%%%%%%%%%%%%%%%%%%Qq%%
22887B19Qq%%%%%%%%%%%%%%%%%%%%%%%%%%%%%%%%%%%%%%%%%%%%%%%qQ%%%%%%%%%%%%%%%qQ
22871B19%%%%%%%%%%%%%%%%%%%qQ%qQ%%%%%%%%%%%%%%qQ%qQ%%%%%%%%%qQ%%q%Q%%q%Q%%%%
22855B19%%%%%%%q%Qq%%%Q%qQ%%qQ%%%%%qQ%%%Qq%%%%%%qQ%%%%%%qQj6QQq%%%%%%Q%qQ%%q
22840B11%%Qq%%%%QqQ%%%q%%%Q%%qQ%%%qQq%Qq%%%%%%%%Qq%%%%%%%%%%%%%%%%%%%%%%%%%%
22824B11%%%%%%%%%%%%%%%qQ%%qQ%%%%qQ%%%%%%%%%%%%%%%%%%%%%%%Qq%%%%%Q%q%%%Qq%Qq
22809B11Qq%%QqQ%%%%%%qQ%qQq%%%%%%%%%%%%Qq%%Qq%%%%Qq%%%%Qq%Qq%%qQ%%%%%%%%%%%%
22793B11%%%q%Q%%%Qq%Q%q%%%%%%%%%%%%%%%%%Qq%Qq%%Qq%%%%qQ%q%Q%%%%%%%%%%qQ%%qQ%
22778B11%%qQ%%%%%%%%%%%%%%%%%%%%%%%%%%%%%%%%%%%%%%%%%%%%%%%qQ%qQ%qQq%%%%%%%%
22762B03%Qq%%%%QqQ%%q%%%%%QqQ%qQqQ%%q%QqQqQ%qQ%%%%q%%%%%QqQqQ%qQqQ%q%Q%qQqQq
22747B03QqQ%%%%q%%%%Qq%%%%Qq%QqQq%Qq%Qq%%%Qq%%%Q%qQq%%%%%%%%%%%Qq%%%%%%%QqqQ
22731B03%%%%%%%%%%%%%%%%Qq%Qq%%%%%%%Qq%%%%Qq%QqQq%%%%%%%%QqQq%%QqQq%%%qQ%Q%%
22716B11q%Qq%%%%%%%%%%%Qq%Qq%%%%%%%%%%%%%%%%%%%%%%%%%%%%%%%%%%%%%%%qQ%%%%%%q
22700A95Q%%%%%%%Qq%%qQqQ%%%%qQ%%%%%%%qQ%%qQq%Q%%qQ%%%%%%%%%%q%Q%%qQ%%%q%Q%%%
22684B03%%%%%%%%%%%%%%q%%QqQ%%%%%%%%%%q%Q%%%%%%%%%%%%%%%%%qQ%%qQqQ%%%qQ%%%%%
22669B03%%qQ%q%Q%%q%%%Q%%%%%%q%Q%q%Q%%%q%%Q%%%%%%%%%%%%%%qQ%%%%%%%q%%Q%%%%%%
22653B03%%%%%q%QqQqQ%%qQ%%%%%%qQ%q%Qq%%%QqQq%%%%%%%%Qq%%%Q%qQqQq%%%QqQqQqQ%%
22638B03%%q%%QqQ%%qQq%%%%%%%qQQqQqQqQq%%Qq%%%%%%Qq%%%%%Qq%Qq%QqQ%%q%%%%Qq%Qq
22622A95%%%QqQq%%%%%%Q%qQq%QqQq%QqQ%%qQ%q%K4l2J6%%%q%%%qQ%%Qj6Q%%k4QQ%%Q%%%Q
22608B03qQqQq%%%%%%%Q%q%%%%qQ%qQ%%qQqQ%%%%q%Q%%%%q%Q%%%qQ%%%qQ%%%%qQ%%%%%%qQ
22592A95qQqQqQ%qQ%%%%%%Q%%%qQqQq%%Qq%%%%%%%%%%Qq%%%%%%Qq%%%Qq%%%%%%%%%%%%%%%
22577A95%%%%%%%%%%%%qQ%%%%%%%%%%%%%%%%%%%%qQ%%%%q%Q%%qQq%%%%%Qq%%%Q%%q%%%%%%
22561A87Q%%%%%%%%%%%%%%%%%%%%%%%%%%%%%%%%%%%Qq%%%%%%%%%%%%%%%%%%%%%%qQ%%%%%%
22545A95%%%%%%%%%%qQqQ%%%%%%qQ%%%%%%%qQ%%%qQ%q%Q%qQqQq%%%Qq%Qq%Q%%%%%%q%QqQq
22530A87%Qq%Q%%%%%%%%%%%%%%%%%%%%%q%Qq%%QqQq%%%%%%%%%%%%%%%%%%%%%Qq%qQ%%%%q%
22514A79J6%%%qQqQ%%%%qQqQq%%%%%%%Q%%qQq%%%%Qq%%%%%Q%q%%%%%%Qq%Q%%%%%q%%%Q%qQ
22499A95%qQ%qQ%j6QQ%q%%%%Qq%%QqQ%q%%%%%%%%%%%%%%%%%%%%%%%%%%%%%%%%%%%%%%%%%%
22484A87%%%%%%Q%%qQ%%%%%%q%%%%%Qq%%%%%Q%%%%qQ%%%%q%%%%%%%%%%Q%%%qQ%%%qQqQq%%
22468A87Qq%%%%%%%%%%%%%%%%%%qQ%%%%%%%%%%Qq%%%%%%%%%%%%%%%%%%%Qq%%%%%%Qq%%%%%
22453A87%%%%%%%%%%%%%%%%%%%%%%%%%%%%%%%%%%Qq%%%%%Qq%%%%%%%%%%%%%%%%%%%%qQ%%%
22437A87%%%%%%%%%%Qq%%Qq%%%%%%%%%%%Qq%%%%%%%%qQQq%%%%%%%%%%%%%%%%%%%%%%%%%%%
22421A87%%%%%%%q%%Q%%%%%%%%%%%%%%%%%%%%%%%%%%%%%%%%%%%%%%%%%%%%%%%qQ%%%%%%%%
22406A87%%%%%qQ%%%%%%qQ%qQ%qQ%q%%%Q%qQqQ%qQ%%%%%%%%%%Qq%%%%%%%%%%%%%%%%%%%%%
22390A87Qq%%%%%%%%%%%%%%%%%%qQq%%QqQq%%Q%%%%%%%%%%%%qQ%Qq%%%%%%%%%%QqQq%%QqJ6
22375B03j6%%%%qQ%%qQ%qQ%%%%%%%qQ%qQ%%qQ%%%%%qQ%%%%%qQq%Q%q%%Q%qQ%qQ%%%%%%%qQ
22359A87%%%%%%%%%%%qQ%%%%%%qQ%%%%%%%%%%%%q%QqQ%qQ%qQ%%%%%%%%%%%%%%%%%q%%%%%%
22344A79Q%%%%%%%%%%%qQ%%%%%%%%%%%%%%%%%%%%%%qQ%qQ%qQqQqQ%%%%%q%Qq%%%%%%%Qq%Q
22328A87q%%%%%%%%Qq%%%%%%Qq%%%%%%Qq%%Q%q%%%%%%%%Q%qQ%%q%Qq%Qq%%Q%qQq%Q%%%%qQ
22313A87%qQ%%qQ%qQ%%qQ%qQq%%Q%%%%q%Q%%qQ%qQ%%%q%Q%%%%qQ%%%%qQ%%qQ%qQq%%Q%%q%
22297A79Qq%Qq%%%%%%%%%%Q%q%Q%%%qQ%%%%q%%QqQq%%%%Q%%%%%%qQ%%qQqQq%%%Q%qQqQq%Q
22282A87j6Q%%%Q%qQqQ%%qQqQqQqQ%%%%%%%%%qQqQq%%%QqQ%q%%Q%q%Q%%q%%%%%%%%%%Q%%%
22266A87%%%%%%qQq%%QqQ%q%Q%%q%%%%%%%%%%%%%%%qQQ%q%%%%%%Qq%Qq%%Q%qQ%qQq%Qq%%%
22251A79%%%Q%q%QqQq%%%%%Q%q%%%%%%Qq%%%%%%%Qq%%%%%%Q%qQ%qQq%%%%%%%%%%QqQqQqQq
22235A79Q%%%q%QqQ%qQq%Q%qQ%%%q%%%QqQ%%q%%%%%%%%%%%%Q%q%%Q%qQ%q%%%%%%%%%%%QqQ
22220A87qQ%%qQq%%Qq%%Qq%%%%%%%%%%%%%%%%%%%%%%%%%%%%%%%%%%%%Qq%%Qq%%%%%%%Qq%%
22204A79%QqQ%qQqQq%%%QqQ%q%Q%q%QqQq%QqQq%%%%%%%%%%%%%%%Qq%Qq%%%%Qq%%%%%Qq%%%
22188A79%%%%%%%%%%%%%%%%%%%%%%%%%%%%%Qq%%%%%Qq%%%%%%%%Qq%Qq%Qq%%%%%%%%%%%%%%
22173A79Q%q%Q%%q%Qq%%%%%%qQ%%%%%%%%%%%%%%%%%Qq%Q%q%%%%%%%%%%Q%%%%qQq%Qq%%%%%
22157A79%%%%Q%%q%%%Qq%%%%%Q%q%%%%%%%%%%%%%%%%%%%%%%%Q%%q%%qQj6K4j6Q%%%Qq%%%Q
22142A87q%%%%%J6k4Q%Qq%%%QqQq%%%qQ%QqQq%%Q%q%Q%%qQq%%Qq%%%Qq%%%%%%Q%%qqJ6q%%
22128A79%Qq%%%%%%%%%%%%%%%%%%%%%%%%%%%%%%%%%%%%%QqQq%Qq%%%%Qq%Qq%%%%%%%%%%%%
22112A79%Q%q%%%%%%%%%%%%%%qQ%%%%%%%%%QqQq%%%%%%%%%%%%%%Qq%%%%%%%%%%%%Qq%%%%%
22096A79%%%%%%%%%Qq%%%%%%%%%%%%%%%%%%%%%%%%%%%%%%%%%%%%%%%%%%%%%%q%Q%%%%%%qQ
22081A79%%%qQq%%Q%%%%%%%%%%%%qQ%%%%%%%%%%%%%%%qQ%%q%Q%%%%%%%%%%%%%%%%%%%%%%%
22065A79%%%%%%%%%qQ%%qQ%%qQqQ%%%%%%%%%%%%%qQ%qQq%%Q%%%%%%%%%%%%%%%%%%%%%%%%Q
22050A87q%%%Q%%qQl2M0m0K4Q%QqqqQQj6Q%Qq%qQ%%%%%%q%%%%QqQ%%%%%%%%%%%qQ%%%%%%%
22035A79qQ%%%%qQ%%%qQ%qQqQ%q%Q%%%%%q%%%Qq%Q%%%%%%%%%%%%%%qQ%qQ%%%%%%qQ%%%%%%
22020A79%%%%%qQ%%%%%%%%%QqQ%q%Qq%%%%%%%%%%%%%%%%%%%%%%%%%%%%%%%%Qq%Qq%%%Qq%Q
22004A87q%%%%%%Qq%%%%%%%%%Qq%%%%qQ%%%%%%%%%%%qQ%%%%%%%%%%%%%%%%%%%%%%%%%%%%q
21989A71QqQ%%%%%%%%%%qQ%%%%%%%%%%%%%%%%%%%%%%%%%%%%%%%%%%%%%%%%%%%%%%%%%%%%%
21973A79%%%%%%%%%%%%%%%%%%%%%%%%%%qQ%%%%%%%%%%%%%%%%%%Qq%%%%%%%%%%%%%%%Qq%%%
21957A79%%%%%%%%%%%%%%%%%%%%%%%%%%%%%%%%%%%%%%qQ%%%%%%%%%qQq%Q%%%%%%%%%%%%%%
21942A79qQ%%%%%%q%Q%%%%%qQqQ%%%%%%%%q%Q%%%qQq%Q%%%%%%%%%qQ%%%qQq%Qq%Q%%%%%%%
21926A79%%%%%%qQ%%%%%%%%%%%Qq%%%%%%Qq%%QqQ%%%qQq%Qq%%%QqQ%qQ%%q%%%%Q%q%%Q%q%
21911A79%%%%%%%qQ%%%%%%%%%%%q%J6q%%%%Q%q%%%%%%%%%%%%%%%%%%%%%%%%%%%%%%%%%%qQ
21895A79qQ%%%%%%%%%%%%%%%%%%%%%%%%%%%%%%%%%%%%%%%%%%%%%%%%%%%%%%qQ%%%%%%%%%%
21880A79%%%%%Qq%%%%%%%%%%%%qQ%%qQ%%%%%%%%%%%%%%%%%%%%%%%%%%%%%%%%%%%%%%%%%%%
21864A79%%%%%%%q%Q%%%%%%%%qQ%%%%%%%%%%%%%qQ%%%%%%%%%%%%%%%%%%Qq%%%%qQ%%%%%%%
21849A79%%%%%%%%%%%qQ%Qq%%%%%%qQ%%%%%%%%qQ%%%%qQ%%%qQ%%%%%%%%%%%%%%%%%%%%%%%
21833A79%%%%%%%%%%%%%%%%%%%%%%%%%%%%%%%%%%%%%%%QqQq%%%%%%%%%%%%%%%%%%%%%%%%%
21818A79%%%%%%%%%qQ%qQ%%%%%Qq%%%%%q%%Q%%Qq%%%%%%Q%%q%%%%%%%%%%%%%%%qQq%Q%%%%
21802A79%%%%%%%%%%Qq%%%%%%%%%%%%%%%%%%%%%%%%q%Q%%%%%qQ%%%%%qQq%QQq%%%%%q%%Q%
21786A79%%%%%%%%%%%%%%%%%%%%%%%%%%%%%%%%%%qQ%%%%%%%%%%%%%%%%%%%qQ%%%%%%%%%%%
21771A79%%%%%%%%%%%%%%%%%%%%%%%%%%%Qq%%%%Qq%%%%%%%%%%%%%%%%%%%%%%%%%%%%%%%%%
21755A79%%%q%Q%%%Qq%%%%%%%%%%%%%%%%%%%%%%%%%%%%%%Q%qQq%%QqQq%%%%%%%%%%%%%%Qq
21740A79%Q%%q%Q%q%Qq%%QqQq%Qq%%%%%%%%%%%%%%%QqqQ%%%%%%%%%%%%%%%%%%%%%%%%%%%%
21724A79%%%%%%%%%%%%%%%%%%%%%%%%%%%%%%%%%%%%%%%%%%%%%%%%%%%%%%%%%%%%%%%%%%%%
21709A79%%%%%%%%%%Qq%%%%%%%%%%%%%%%%%%Qq%Qq%%%%%%%%%%%%%%%Q%q%%Qq%Q%qQ%%%%%q
21693A79Qq%%%%%%%%Qq%Qq%QqQq%%%%QqQq%%%%%QqQqQqQqQq%%%QqQqQ%%q%%%%Q%q%%%QQj6
21678A79j6J6q%K4q%%k4QK4j6%%%%%%%QQk4K4k4j6M8qqQl2J6J6q%%j6J6qQqQ%%%%qQ%q%%%
21666A79QqQq%%Qq%%%%%Qq%%qQ%%Qq%Qq%Q%%q%%%%%%%%%%%%%Q%qQ%qQ%q%%%%%%%%%%Q%qQ%
21650A87q%Q%q%%Qq%%QqQqQq%%%%%%%%%%%%%%%%%%%%%%Qq%%%%%%%%%%%%%%%%%%%%%Qq%%%%
21635A79%%%%%%%%%%%Qq%%%%%%%%%%%%%%%%%%%%%%%%%%%%%%%%%%%%%%%%%%%%%%%%%%%%%%%
21619A79%Qq%%%%%%%%%%%%%%%%%%%%%%%%Q%%qQ%%q%%%%%Qq%%%%%%Q%%%q%%Qq%Qq%%%%%%%%
21604A79%%%%%%QqQq%Qq%Q%%qQ%q%QqQq%%%%QqQ%%%qQ%qQ%%%%q%%Q%%%%%%qQ%%%%q%%%%Qq
21588A79%Qq%%%Qq%%%%QqQq%%%%%%%%%%%%%%%%%%%%%%%%Q%j6J6Qj6%Qq%%%%%%%%%%%QqQq%
21573A79%%%%%%%%%%%Qq%%%Q%q%%Qq%%%Qq%%%%%%%%%%%%Qq%%Q%q%Q%q%%Qq%%%%%%Q%q%%%%
21558A79Qq%%%%%%QqQq%Q%%%%qQ%%q%Q%%qQ%%%qQ%%%%%q%Q%%%%%%%%qQ%%%qQ%q%Q%qQ%%%%
21542A87%%%%%q%%%%%%Qq%%Qq%Qq%%%%%%Q%q%%Qq%%Qq%%%QqQ%%%%%%qQ%q%%%%%%Q%%%qQ%%
21526A87%qQ%%q%Q%%%%%q%%%%%%%%%%%Q%%qQ%%%%%qQ%qQ%q%%%%%%Qq%%QqQqQqQqQqQ%%%%%
21511A87%%%%%%%%%%%%%%q%Q%%%%qQ%%%%%%%%%%%%%q%Q%qQ%q%Q%%%qQq%%%Q%%%q%%%%%%Q%
21495A87%%q%QqQq%%%%%%%%%QqQ%qQ%qQ%%%%%%%%q%%%QqQ%%qQ%%%qQqQ%%%%%%%%%%%%%%%q
21480A79%%Q%%%%%%%%%%%%%%%%%%%q%%Q%%%%%%%%%%%%%%%qQqQ%%%%%%%Qq%%%%%%%%%%%%%%
21464A87%q%Q%%%qQ%%q%%Q%%%%%q%%Q%qQ%q%%%Qq%Q%%%%%%%%%qQ%%%%%%%%%%%%%%%%%qQ%q
21449A79Qq%Qq%QqQ%qQqQq%Q%q%Q%%qQqQ%qQ%%%%%%%%%%%%qQ%Qj6J6q%Qj6%Qq%Q%qQq%%%Q
21434A87q%Q%%qQ%qQ%q%%%Q%%%%%%%%%qQ%qQqQqQqQ%%%%%%qQ%qQ%%%%%%%%%%qQ%%%%%%%%%
21418A87%%%%%qQ%%%%%%%%%%%%%%%%%%%%%%%%%%%%%%%%%%%%%qQ%%%%%%%%%%%%%%%%%%%%%%
21403A87%%%%%%%%%%%%%%%%%%%%%%%%%%%%%%%%%%%%%%%%%%%%%%%%%%%%%%%%%%%%%%%%%%%%
21387A87%%%%%%%%%%%%%%%qQ%%%%%%qQ%%%%qQ%%%%%%%%%Qq%%%Qq%%Q%q%%%%%Qq%Qq%%%%%%
21372A87%%%%%%%%%%%%QqQqQq%%%%%%%%%%%%%%%%%%%%%%%%%%%%%%%%%%%%%%%%%%%%%%%%%%
21356A87%%%%%%%%%%%%%%%%%%%%%%%%%%%%%%%%%%%Qq%Qq%%%%%%%%%%Q%%q%Q%qQq%%%%%%%%
21340A87%%Qq%Q%%%q%%%%QqQ%qQq%%Q%%qQq%%%%%%Qq%%%%%%%%%%Qq%%%%%%Qq%%%%%%%%Qq%
21325A87Qq%Q%q%%%%Q%%q%Q%%qQq%%Q%%%qQq%%%%%%%%%%%%%%%%%%%%%%%%%%%%%%%%%%Qq%%
21309A87%%%%Qq%%%%%%%%%%%%%%%%%%%%%%%Qq%%%%%%%%%%%%%Qq%%%%%%%%%%%%%Q%q%%%%%%
21294A87%Q%%%%%q%%%Qq%%%%%%%%%%%%%%%%%%%%QqQ%%%q%Qq%%%%%%%%QqQ%%%qQ%q%%%%%%%
21278A87%%Q%%%%%%%%%%q%%%%%%%%%%%%%%%%Qq%%%%%%%Qq%%%%Qq%%%Qq%%%%%Q%%qQqQ%q%%
21263A87%%%%%%%%Qq%%QqQ%q%%%QqQ%%q%Q%qQqQqQqQ%%%%qQ%qQ%qQ%%%%q%%Q%%%%%%%%%%%
21247A95%qQ%%%%%%%%qQqQ%%qQ%%q%%%Qq%Qq%Q%%%%%%qQ%%%%%%qQq%Q%%%%q%%QqQ%%qQq%Q
21231A95%qQqQq%%Q%%qQq%Q%%%%%%%%%%%q%Q%%%%%%%%%%%qQ%qQ%%%%%q%Q%q%Qq%QqQ%%q%%
21216A87%Q%qQ%%%%%%%%%%q%%Qq%Qq%%Q%%qQ%qQQq%qqQ%Q%q%%Qq%QqqJ6qJ6qqJ6j6%Qq%Qj6
21201A79Q%Q%%%%q%Q%qQ%%qQq%Qq%%%%Qq%%Q%%qQqQq%QqQ%%q%%%%%%Q%q%Q%%%%%%%%%%%%%
21186A95qQ%%qQ%%%%%%%%%%%%%%%%%%%%%%%%%%%Qq%%%%%%%%%%%%%%%%%%%%%%%%%qQqQq%Qq
21170A87%Q%%qQ%qQ%q%%%%Q%%qQ%%%%%%%%%%qQ%%%%%%%%%%%%%qQ%%%%%%%%%%%%%%q%Q%%%%
21155A95%%%%%%%%%%%%%%qQ%%%qQ%%qQ%%%%%%%%%%%%%%%q%Q%q%Q%%%%%%%%%%%%%%%%%%Qq%
21139A95%%%%Q%%q%%%%%%%%%%QqQqQ%%qQq%Qq%%%QqQ%%q%%%Qq%%%Qq%%%%%Q%q%Qq%%%%%%%
21123A95%%%%%%%%%%%%%%Q%q%%%%%%%%%%%%%%%%%%%%%%%%%qQ%%%%%%%QqQqQ%Qj6%%%qQ%Qj6
21108A87Q%%%%%%%Qq%Qq%%%%%Qq%%%%Qq%Qq%QqQq%%%%%%%%Qq%%%%%%%%%%%%%%%%%%%%QqQq
21093A95%%%%%%Qq%%%%%%%%%%%%%%%%%qJ6%%q%%%%%%Q%%%%%q%Qq%%%%%%%Q%%q%%%%%%%%%%
21077A95%%%%%%%%%Qq%%%%%%%Q%qQqQq%Q%qQqQq%%%%%Qq%%%%%%%%%%%QqQ%qQqQqQq%%%Qq%
21062A95%QqQ%%qQqQqQ%%%%%%qQ%%%%%%%%%%%%%q%%Q%qQ%%%%%qQqQqQqQ%%qQqQ%qQ%%%qQ%
21046B03%%qQ%%%%%%qQ%q%Qq%%Q%q%%%%%%%%%%%%Q%%%%%%%qQ%%q%Q%qQ%%%%%%%%%%%Q%qQq
21031B03%Qq%%%%%%%q%Q%%qQqQ%qQ%%qQ%q%QqQ%%%%%%%%%%%%Qq%%%%%%Qq%%%%QqQq%%%%%%
21015B03%%Qq%%%%%%%%%%%%%%qQ%%%%%%%%%qQ%%qQ%qQq%%QqQ%%qQ%qQ%qQ%%%%%%%%%%%%%%
20999B03%%Qq%%Qq%Q%q%%%%%%%%%%%%%q%QqQ%qQ%qQqQqQq%%%Q%%%qQ%%%%%%%%%%%%%%%%%%
20984B03%%%%%%%q%%Q%qQ%%%%%%%%%%qQqQ%%%%%%%%%%%%q%QqJ6j6Q%qQqQ%%%%qQ%%%%%qJ6
20969B11q%qQq%%%%Q%%%%%%%qQ%q%Q%qQqQ%%%%%qQ%%%%%%%%%qQ%%%%%%%%%%%%%%%%%%%%%%
20953B03%%%%%%%%%%%%%%%%%Qq%QqQq%%%%Qq%%%%%%%%%%%%Qq%%%%%%%%%%%%%%%%%Qq%%Qq%
20938B03%qQ%%%%%%%%%%%%%%%%%%%%Q%%q%%%%%Qq%%%Qq%%Q%%%q%QqQqQ%%%%q%%Qq%%QqQq%
20922B03Qq%%%%%%%%Qq%%QqQ%q%Qq%%%%%%%%%%%%QqQ%q%Q%%%%q%%%%QqQ%qQqQqQ%qQqQq%Q
20907B11%qQqQqqQ%QqQq%Qq%%Qq%%%%%%%%%%%Qq%%%Qq%%%%%Qq%%Qq%%%%%%%%%%%Qq%Q%%%%
20891B11%%q%QqQ%%q%%Q%%%%%qQ%%%%q%Qq%%%%%%%%%QqQq%%%%Qq%%%%%Qq%Qq%Qq%Q%%qQ%%
20876B11q%J6qq%QqQq%Qq%%%%%Q%qQ%qQ%qQqQqQq%%Q%%%q%Q%%%%%%%%%%%%qQ%qQ%%qQ%%%q
20860B03%%%Qq%Qq%Q%%%%%%%%q%%%Q%%%q%QqQ%%%q%%%Q%%%%%qQ%%qQ%qQ%%%%%qQ%%%qQ%%%
20845B11%%%%%%%%%%%qQ%%%%%%%%%%%%%%%%%%%%%%%%%%%%%%%%%%%qQ%%%%%%%%%%qQ%%%%%%
20829B11%%qQ%%%%%%%%%%%%%%%%%%%%%%%%%%%%%%%%%%%%%qQ%%%q%%Q%%qQq%Q%%%%%%%%%%%
20814B11%%%%%%%%%%qQ%%%%%%%%%%QqqQ%%%%%%%%%%%%%%%%%%%%%%%%%%%%%%%%%%%%%%%%%%
20798B11%%%qQ%%%%%%%%%%%%%%qJ6q%%%%%%%%%%%%%%%%%%%%%%%%Qq%Qq%%Q%q%%%%%%%%%%%
20783B11%%%%%%%%%%%%%%%%%%%%%%%%%QqQq%%%%Qq%%%%%%QqQ%qQq%Qq%Qq%%%%%%%%Qq%%Qq
20767B11Qq%%%%%%%%%%%QqQqQ%qQqQ%qQq%%QqQ%%%%%%%%%%qQq%%%%%Qq%%Qq%%%%%%%%%%%%
20751B11%%Qq%%%%%%%%%%Q%%%%%%%%%%qQ%%%%%%%%q%%Q%%%%%j6J6%qQ%%qJ6k4Q%QQj6%%Qq
20737B11Q%%q%%Q%j6L2k4qK4j6qK4q%qQ%q%%%%%%%%%Qq%QqQ%%qQ%%%%%%%%%%%%%%%%%%%%%
20723B19%%%Qq%%%%Qq%%Qq%%%%%%%%%%%%%%%%%%%%%%%qQ%%qQ%%q%Q%%%%%%q%%Q%%%%%%%q%
20707B11Q%q%Q%%%%%%%%%%%qQ%%%%%%qQ%%%%%%%%%%%%%%qQ%%%%%%%%%%%Qq%%%%%QqQ%q%%%
20692B19%%%%%%%%%Qq%%Qq%%%%%%%%%%%%%%%%%%%%%%%Qq%%%%%%%%%%%%%%%%%%%%%%%%%%%%
20676B19%%%%%%%%%%%%qQ%%%%%%%%%%q%Q%%%%%%%%%%%%%%%%%%%%%%%%%%%%%%%%%%%%Qq%%%
20661B19QqQ%%%q%Q%q%%%%%%%Qq%%Qq%%%%%%%%%%%%%%%%%QqQq%Qq%QqQ%%%q%%%QqQ%q%%%%
20645B19Qq%%%%%%%%%%Qq%%qJ6QqQj6Q%qQqQq%%QqQ%%q%%QqQq%%%%%%%qQ%%%%%%%%Q%%%%%
20630B27%%q%%%%%%%%Q%qQ%%%%%%%%%%%%%%%qQ%%qQq%%Qq%%Q%%%%%%%QqQq%QqQq%%%%%%%%
20614B27qQ%%qQ%%q%Q%qQqQ%qQ%qQ%%%%%%qQqQqQ%%%%%%%%%qQ%%%%%%%%%%%%%%%%%%%%%%%
20599B27%%%%%%%%%%%%%%%%%%%%%%%%%%%q%Q%%%%%qQ%%%%%%%%%qQ%%%qQ%%%%qQqQ%qQ%%%%
20583B27%%%%%q%Q%%%%%%%%%%%%%%%%%%%%%%%%%%%%%%%%%%%%%%%%%%%%%%%%%%%%%%%%%%%%
20568B27%%%%%%%%%%%%%Q%q%%%%%%Qq%%Qq%Q%qQqQq%%%%%%%%Qq%%%%%%%%%%%%%%%%%Qq%%%
20552B27%%%%%%%%%%Qq%%%%%%%%%%%%%%%%Qq%%%%%%%%%%%%%%%%%%%%%Qq%%%%%%%%%%%%%%%
20537B27%%%%Qq%%%%%%%%%%%%QqQq%%Q%q%QqQq%%Q%%%qQ%qQqQq%%%Q%%%%%q%Q%q%Qq%Q%%%
20521B35%%%%q%Qq%QqQ%%qQ%%%%q%%%QqQq%%%%%%%%%%%%%Qq%QqQ%%q%QqQqQ%%%qQ%%%%%q%
20505B27%%%%%Qq%Q%%%%%%%q%Q%%%qQ%%q%Q%%%%%%%%%%qQ%%%%%%%%%qQ%%%qQ%%%%%%qQ%%q
20490B27Q%%%%qQ%%%%%%%%%%qQ%%%%%%qQqQ%%qQqQqQ%%%%%%qQ%q%%%%QqQ%%%%%%qQ%%%%%%
20474B35%%%%%%%%%%%%%%%%%%%%%%%%%%%%%%%%%%%%qQqQ%%qQ%qQ%qQ%%%%%%%%%%%%%%%%%%
20459B35%%%%%%%%%%%%%%%%%%%%%%%%%%%%%%%Qq%%%%%%%%Qq%%Qq%%%%%%%%Qq%Qq%%%%%%%%
20443B35%%%%%%%%%%%%%Q%%qQ%q%Qq%%%%%%%%Q%q%%%%%%%Qq%%%%%%%%%%%%%%%%%%%%%%%%%
20428B35%%%%Qq%%%Qq%%%%%%%Q%qQ%%q%%%%%QqQ%%%%%%%%%%q%%Q%%%%%%%%%%%%%%%%qQ%%%
20412B43%qQ%%qQ%%%%%%%%%%q%%Q%j6QqQqK4q%%%%%%%%%%%%%%%%%%%%%%%%qQqQ%%%%%%%qQ
20397B43%%q%%Q%%%%%%%%%%%%qQ%%%%%%qQ%%%%%%%%%%%%q%Q%%%%%%%%%%%%%%%%qQ%%%%%%%
20381B43%qQ%%%%%%%qQ%%%%%%%qQ%%%%%%%%%%%%%q%Q%qQqQqQ%%%%%%%%Qq%%%%%%%%%%%%%%
20366B43%%%%%%%%%%%%%%%%%%%%%%%%%%%%%%%%%%%%Qq%Qq%%%%%%%%%%qQ%%%%%%%%%%%%%%%
20350B43%%%%%%%%Q%q%Q%%q%Qq%Qq%%%%%%%%%%Qq%%%QqQqQq%Qq%%Qq%QqQq%%%%%%Q%qQqQq
20335B43Q%%q%%%%QqQ%%%%%%%%%%qQqQqQq%Q%qQ%%%%%%%%%%%%%%qQ%%%q%Q%%%%%%%%%%%%%
20319B51%%%%%%%%%%qQ%%%%%%%%%%%%%%%%%%qQq%%QqQ%%%%%%%%%%%%%%%%%%%%%%%%%%%%%%
20304B51%%%%%qQq%%%%%Qq%Q%%q%Qq%%Qq%%Qq%%%%%%%Q%%%%%%%%%%%%%%%qQ%%%%%%%%%%qQ
20288B51%%qQ%%%%%%%%%%%%%%%%%%%%%%QqQq%%%Q%qQq%%%%%%%%%%%%%%Qq%%%%Qq%%%%Qq%%
20272B51Q%qQ%%q%%Q%j6Q%%%%%%Qq%%%%Q%q%Qj6Q%Qq%%%%qQ%%%%%%Qq%%%%QqqQ%%%%%%%%%
20257B51%QqQ%j6J6q%qJ6%j6J6%%%q%%%%%%%%Qq%%QqQ%%%qQ%qQqQ%%%%%%%%%%%%%q%Q%%%%
20243B59%%%%%%%%%%%%%%%%%qQ%qQ%%%%%%%%qQ%%%%%q%Qq%Qq%Q%%%%%%%%Qq%%%%%%%%%%%%
20227B59qQ%%%%%%%%%%%%%%%%%%%%%qQ%%qQ%qQ%%%qQ%%%%%%%%%%%%%%%%%%%q%%QqQ%%%%%%
20212B59%%%%%%%%%%qQqQ%%%%Qq%qQ%%%%%%%%%%%%%%%%%%%%%%qQ%%%%%%%%%%%%%%%%%%qQ%
20196B59%%%%QqQ%%%%qQq%%%Qq%%%%%%QqQ%q%%%%%Q%%%q%%%%%Qq%%Qq%%Q%qQ%q%%Qq%%%%Q
20181B67qQ%%%qQq%QqQ%qQq%Qq%%%Qq%Qq%qQ%Qj6qL2q%k4%%QQqQQ%j6J6%q%%QqQ%qQ%%q%%
20166B59%%QqQ%%%Qq%qQqQqQq%Q%%%qQq%Q%%%%%%%%%%%%%%%%%%%%%%%%qQ%%%%qQq%Q%%%%%
20151B67%q%Q%qQq%QqQqQ%%%q%Q%%%%%qQ%%%%%%%%%%%%qQ%%%%%%%%%%%%%%%%%%%%%%%%%Qq
20135B67Qq%%%%%%%%%%%%%%%%%%qQ%%%%%%%%%%%%%%%%%%%%%%%%%%%%%%%%%%%%%%%%%%%%%%
20120B67%%Qq%%%%QqQq%%%%%%%%%%%%%%%%Q%q%%%%%%%%%%%%%%%%%QqQq%%%%Qq%%%%%%%%%%
20104B67%%%%%%%%%%%%%%%%%Q%%%%qQ%%%%%%%%%qQqQ%q%Q%%%%%%%%%%%%%%%%%qQqQ%%%q%Q
20088B75%q%%%%Q%qQqQ%%%q%Qq%%%Qq%%%%%%%QqQ%q%Q%q%%%Q%%%%%%%%%%%%%%%%%%%%%Qq%
20073B75%%%%%%%%%%%%%%%%%%%%%%%%%%%%%%%%%%%%%%%%%%%%%%%Qq%%%%%%Qq%%%%%%%%%%%
20057B75%%%%%%%%qQqJ6q%%%%%%%%%%%%%%%%%%%%Qq%Q%q%%%%%Qq%%%%Qq%%%%%%%Qq%%%%%%
20042B75%%%%Qq%%%%Q%qQ%%qQqQq%%%%%%Q%%q%%%%%%%%%qQ%%%%qQQqq%J6q%%%%%Qq%%Qq%%
20027B75Qq%%%%%%QqQ%%%%%%%%%%%%%%%q%Q%%%%%%qQ%%qQ%qQ%%%%%%%%%%%qQq%QqQq%%Qq%
20011B75%Q%%%%%%%%%%%qQ%%%%qQ%%%%%%qQ%%%%%%%%%qQ%%%%%%%%%%%%%%%%%%%%%%%%%%%%
19995B83QqQq%QqQ%q%Qq%%Qq%%%%%%%%%%Q%%%qQ%qQ%%qQq%%%%%%%%Qq%%QqQ%%q%Qq%%%%%Q
19980B91q%%%%%%Q%%%qQq%%%%%%%%Q%%%%%qQq%%%%%%Q%q%Qq%%%%Qq%%%%%%%Q%%qQq%Q%%%q
19964B83Q%%q%Q%%q%QqQ%%%%qQqQ%%%%qQ%%%%qQ%%%%%%%%%%%%%%%%%%%%%%%%%%%%%%%%%%%
19949B91%%%%qQ%%%%%%%%%%%%%%%%%%%%%%%%%%qQ%%%%qQqQ%%%qQ%qQqQ%%%%%%%%%%%%%%%%
19933B91%%%%%Q%%qQq%Qq%%qQ%%%%%QqQ%%%qQq%%%%%%%%Q%q%%%%%QqQq%%%%QqQq%%Qq%%%Q
19918B99%q%%Qq%%%%QqQ%j6J6q%%%%Qq%Q%qQ%qQqQ%%q%%Qj6Q%%%%%%%%%%%%%Qq%%%Qq%%%%
19903B91Q%q%%%%%%%%%%%%Q%%q%%QqQqQq%%%%%Q%q%%Q%%%%qQqQq%Q%qQ%q%QqQqQ%%%%%%%%
19887B99%%%q%Qq%%%%Q%%%%%%%%%%%%%%qQ%%%%%%qQ%%%%%%%%%%%%%%%%%qQ%%%%%%%%%%%%%
19872B99%%%%%%%%%%%%%%%%%%%%%%%%%%%%%%%%%%%%%%Qq%%%%%%%Q%q%%%%%%%%%%%%%Qq%Qq
19856B99Qq%%%%%%%%%%%Qq%%%%%%%%%%Qq%%QqQq%Q%qQqQqQ%%%%%%%q%QqQ%%q%%%%%%%%QqQ
19841C07%qQ%%%%%%%q%Q%%%%%%%%%%%%%%%%%%%%%%%%qQqQqQ%%%%qQ%%%%%%%%%%%qQ%qQ%%%
19825C07%%%%%%%%%%%%%%%%%%%%%%%%%%Qq%%%Qq%%%%%%%%%%%%%%%%%%%%%%Qq%%%Qq%qQ%%Q
19809C15q%%%%%%QqQq%QqQqQqj6K4%qq%%J6j6QQQl2QL2ql2J6m0N6j6j6K4Q%qq%Q%qqL2j6K4
19797C39l2m0M0qqJ6qJ6q%Qq%%%Q%qQq%%%%J6j6%Qq%Q%qQ%qQ%%%%Q%q%%%%%qQqQ%%qQ%%%%
19783C15%Qq%%%%%%%%%%%%%%qQ%%%%%%%%%%%%%%%qQ%%qQ%%%%%%%%%%%%%%%%%%%%%%%%%%%%
19768C15%%%%%%%%%%%%%%%%%%%%%QqqQ%%%%%%%%%%%%%%%%%%%%Qq%%Qq%%%%%%Qq%Qq%%%%%%
19752C15Qq%%%%%%%%Qq%Q%qQ%%%%%qQq%%%%%Q%q%%%%%%%Qq%QqQqQq%%%%%%QqQ%%%qQ%%%%%
19737C23%%%%qQ%%%%%q%QqQ%%%%%%%%%%%%%%%%qQ%%%%%%%%qQ%%%%%%%%%%%%%%%%%%%%%%%%
19721C23%%%%%%%%%%%%%%%%%%%%%%%%%%%qQqQ%qQ%%%%%%%%%%%%%%%%%%%%%%%%%%%%%%%%%%
19706C23%%%%%qQqJ6qQqQqQq%%%%Q%%%%%%%%%%%q%Q%%%%%q%QqQ%%%%q%%Qq%Q%%q%%%QqQ%%
19690C31qQq%%%%%%Qq%Q%qQ%%q%Q%qQ%%qQqQ%%%%%%%%%%Qq%%%%%qQ%%%qQ%%%%%%%%Qq%%%%
19675C31%%%q%%%%%%QqQ%%%%%%%%%%%%%%%%%%%%Qq%%%%Qq%Q%q%%%%%%%%%%%%%%%%%%%%Q%q
19659C31Qq%%%%%%%%%%%%%%%%%Q%%q%Qq%Q%%q%Q%q%%%%%%%%%Qq%QqQq%%%%Qq%QqQ%q%%%%Q
19643C39%qQ%%%%%%%%%%%%%%%%%%%%%%%Qq%%%%%%%%%%qQ%%%%%%%%%%%%%%%%%%%%%%%%%%%%
19628C39%%%%%%%Qq%%%%%%%%%%%%%%%%%%%%%%%Qq%%%%%%%%%Qq%%%%%%QqQq%QqQq%%Q%qQqQ
19612C47qQqQ%qQ%qQqQ%%qQ%qQ%q%%QqQ%%%%%%%%%%%%%%qQqQqQ%%%%%%%%%%%%%%qQ%%%%qQ
19597C47qQ%%%%%%%%%%%%%%%%%%%%%%%%Qq%%Qq%%%%%%%%%%%%QqQj6J6q%%Q%q%%Qq%%%QqQq
19582C47%%Qq%%Q%%%%%%qQ%q%%%%%%%%%Q%q%%Qq%%Q%q%%%%%%%%%%%%Qq%%%Qq%%%%QqQq%%Q
19566C55qQ%%%q%%%%Qq%%qJ6%%%%q%Q%q%%%%%%%%%Qq%%%QqQq%%%Qq%%%Q%%qQqQ%%%qQ%%%%
19551C55%%%%%%%%%%%%%%%%%%%%%%%%%%%%%%%%%%%%%%qQ%%%%qQ%%%%%%%%%%%%%%Q%q%Qq%%
19535C55Qq%%%%%%%%Qq%%%%%%%%Qq%%%%%Q%qQ%%%q%%%%%%%%%%%QqQ%q%%%%%Q%qQqQ%%%%qQ
19520C63%%%%%%%%%%%%%%%qQ%%%%%%%%%%%q%QqQqQqQqQ%%%%%%Qq%%%%%%%%%%%%%%%%%%%%Q
19504C71q%%qQ%%%%qQq%%%%Q%%%%%%%%%%%Q%q%%%QqQ%%%%%qQ%%%%qQq%%%%%Qq%%%QqQ%q%%
19489C63%%%%%%%%%%%Qq%%%%%%%%%%%%%%%%%%%%%%%Qq%Q%qQ%%%%q%%QqQ%%%%%%%%%%%%qQ%
19473C71%%%%%%%%%%%%%%%qJ6qq%Q%%%%%%%%%%%%%%%%%%%%%%%%%%%%%%%%%%%Qq%Q%%%%%%%
19458C79%qQ%%qQqQ%qQqQqQ%q%Qq%%%%%%%%%%%%%%QqQ%q%Qq%%QqQ%%%q%Q%qQ%qQ%qQ%%%q%
19442C71%%%%%%%%%%%QqQ%%%q%Q%%%qQq%Qq%%Q%%%%%%%%%%%%%%%%%%%%%%%%%%%%%%Qq%%%%
19426C79%%%%qQ%%%%%%%%%%%%%%%%%%%%%%%%%%%%%Qq%%%%Q%%%q%Q%q%%%%%%%%%%%Q%%%%%q
19411C79%Qq%%%%%%QqQqQqQ%%%%%%q%Q%%%q%Q%%%%%%%%%%%%qQ%%%%%%%%%%%%%%%%%%%%%%%
19395C87%%%%%%%%%%%%%%%%%%%Qq%%%%%%%%%%%%%%%%%%%%Qq%%%%Q%%qQ%%%qQq%%%%%%Q%%%
19380C95qQ%qQ%%%%q%Qq%%%%%%%%%%%%%%%Qq%%%QqQq%%%%Q%%%qQq%%%%Qq%%%%%Qq%Qq%Q%%
19364C95qQ%q%Qq%%%%Q%qQ%%%%%%%%%%%%%%%%%%%%%%%%%%%QqQq%%%%%%%%QqQq%%QqQq%%%%
19349C95%%Qq%QqQq%%%%%%%%Q%q%Qq%QqQ%%%qQ%%%%%%%%%%%q%Qq%Qq%Qq%Q%%%%qQ%%%%qQq
19333C95%%%%Q%%qQ%qQqQ%%%%qQ%QqQq%qJ6q%q%Q%qQ%%%%%%%%%qQ%%%%%qQ%%%%%%%%%%%q%
19318C95Q%%Qq%%Q%q%%%%%%%%%Q%qQ%%%%%%%%%%q%Qq%Q%%%%%qQq%%Q%%q%%%Q%%%qQ%%%%%%
19302D11%%%%%%%%%%%%%%%%%%%%%%%%%Q%%q%%%%%%%%%qQ%QqQq%Qq%%%%%%%%%%%%%%%%%%%%
19287D11%%%%%%%%%%%%%%%%Qq%%%%%%%%%%%%%%%%%%%%%Q%q%%Q%qQ%q%Q%%qJ6q%%%%%%%%%%
19271D19%%%%%%%%%%%%%%%%%%%%%%%%%%%%%%%%%%%%%%%%%%%%%%%%%%%Qq%Q%%%%q%Qq%%%%%
19256D19%%%%%Qq%%%%%%%%%%Q%q%%%%Q%%%%%%q%Q%%qQ%%%%%%%%%%%%%%%%%%%%%%%%%%%%%%
19240D27%%%%%%%%%%%%%%%qQ%%QqQj6QQ%k4J6%qQ%%%%%%%%%%%%%%%%%%%%%%%Qq%%Qq%%Qq%
19225D27Q%qQq%Q%%%%%%qQ%%%qQ%%qQ%q%%Q%qQqQ%q%qJ6%qQ%q%Q%qQ%%%%%%%qQ%%%%%qQ%%
19210D35qQ%%%%%%%%%%%%%%%%%%%%%%%%%Qq%Q%q%%%%%%%%%%Qq%Q%q%QqQ%%q%%%%%%%%%%Qq
19194D35%%Qq%%Qq%%%%%Qq%%%%%%%%%%%%%Qq%%%Qq%%Qq%%%%%%Q%%qQq%%Q%q%%%%%Q%%%%%%
19179D43%%%%%%%%%%%%%%%%%Q%%%q%Qq%%%%%Qq%%%%%%%%%%%%%%Q%qQ%qQq%%%%Q%qQ%q%%%%
19163D43%%%Q%qQ%qQ%q%Qq%%Q%%%%%%%%%%%q%%Q%%%%%%%%%%%QqQq%%%Qq%%%%%%%%%%%%%%%
19148D51Qq%%Qq%%%%%%Qq%%%%%%%%%%%%QqQ%q%%Qq%Q%%%q%%%Q%qQ%%%%%%%%%%%%%%%%%%%%
19132D59%qQ%%%%%%%Q%q%%%%%%%%%Qq%%%%%%%%%%%%%%%%%%%%%%%%%%%%%%%%%%%%%Q%q%%%%
19117D59Qq%QqQ%%q%Q%%%qQ%qQqQq%%QqQqQ%%%q%%Qq%%Q%%%%%%%%%%%%%%%%%%%%%%%%%%%%
19101D67%qQ%%%qJ6j6Qq%J6q%%%%%%%%Q%qQq%Q%%j6QQ%qQqQ%qQ%%%qQqQqQq%%Q%%%qQ%%%%
19086D75%%%%%%%%%%qQQj6%Q%%%%%%%%%%%%%%%%%%%%%%%%%%Qq%%%%%%%%%%%%%%%%%%%%%%%
19071D75%%%%%%%%%%%%%%%%%%%Qq%%%%%%%%%%%Q%%%qQ%%%%%%%%%%qQ%%%%%%%%%%%%%%%%%%
19055D83%%%%%%%%%%%%%%%%%%%%%%%%%%%%%%%%%%%%%%%%%%%%%%%%%%%%%%%%%Qq%%%%%%%%%
19040D83%%%%%Q%%%%q%Qq%%Q%q%QqQ%%%%q%Q%qQ%%q%Q%%%%%%qQ%%%%%%%%%%%%%%%%%%%%%%
19024D91%%Qq%%%%%%%%%%%%%%%%%%Qq%%%%%%%%%%%%%%Qq%Q%q%%%%%Qq%%Q%q%%QqQ%%%%%%%
19009D99%%%%%%%%%%%%%%%%%%%%%%%%%Qq%%QqQq%%%%%%%Q%%q%%%QqQ%%%%%%%%%qQqQ%%qQq
18993D99%Q%%Q%%q%qQ%%%%%%%%%qQ%%%%%%%%%%%%%%%%%%qQ%%%%%%%%%%%%Q%%q%%%QqQ%%qQ
18978E15%q%%%QqQqQ%%%qQ%%%%qQ%qQq%%%Q%qQqQ%%%%%%%%%%%%%%%%%%%%%%%%%%%%%%%Qq%
18962E15%%%%%%%%%Q%%qQ%%%%%%%q%QqQ%%q%Qq%Q%qQq%%%%%%%%%%%%Q%qQ%%%%%%%qQ%q%%Q
18947E23%q%Q%%%%%%%%%%%%%%%%q%%Q%%%%%%%%%%%%%%%%%%%%%QqQq%Q%%%%%q%Q%%q%%Q%qQ
18931E31%%%%%%q%Q%%%%%%%%%%%%%%%%%%%%%%%%%%%%%%%%%%%%%%%%%%%%%%%qQ%%%%%%%%%%
18915E31%%%%%%%%%%%%%Q%%q%QqQqQq%%Q%%%%qQqQ%%%%%%%%%%%qQ%%%%%%%qQq%Q%%%%%%%%
18900E39%%%%%%%%%%%%%%%%%%%%%%%%%%%%%%%%%Qq%Q%%%%%%%%%%%%%%%qQ%%%%%%%%%%%%%%
18884E47%%%%%%%%%%%%%%%%%%%%%%%%%%%%%%%%%%%Qq%%%QqQ%%%%%%q%Q%%q%%%%%%QqQq%Q%
18869E55%q%QqQ%%%%%q%%Qj6J6Q%k4J6j6%QQ%%%%%%%%%Qq%%%%j6qK4Q%j6%J6qQq%%Qq%Q%q
18855E55QqQq%Qq%%%%Q%%%%%%%%%%%q%Q%%%Qq%%%%%%%%%%%%%Qq%%%%%%%%%%%%%QqQqQq%%%
18840E63%%%Q%%%%%qQ%%%%%%qQ%%q%Qq%Q%%%%%%q%QqQ%%%qQ%%%%%%%%%%%%%%%%%%%%%%%Qq
18824E71Qq%%Q%q%%Q%%q%Qq%%Q%%%%qQ%%%qQq%QqQqQ%%qQ%%%%%%%%%%%%%%%%%%%%%%%%%Qq
18809E79%%%%%%Q%qQqQq%%%%Q%%q%QqQ%%%%%%%%%%%%%%%%%%%%%%%%qQ%%qQq%%Q%%%%%%%%%
18793E87%%%%%%%%%%%%%%%%%%%%%%%%%%%Q%%%%%%%%%%%%%%%%%%%%%%%%%%%%%%%%%%%%%%%%
18777E95%%%qQqQ%%%%%%%%%%%%%%%%Qq%%Qq%Qq%Qq%Q%qQ%qQ%qQqQq%%Qq%%Q%%%%%%%%%%%%
18762F03%%%%%%%%%%%%%%%%%%%%Qq%%%%%Q%qQ%%%%%qQ%%q%Q%%%%%%%%%%%%%%%%%%%%Q%q%q
18746F03QQq%%%%%%%%%%%%%q%QQq%%%%%Q%q%%%%Qq%%Qq%%Q%%%%%qQq%Q%%%%%%%%%%%%%%%q
18731F11Q%%%%%%%%QqQq%%%%%%%%%%%%Q%qQ%%%q%%%%%Q%%q%Q%qQ%%%q%%QqQ%%%%Qq%%%%%%
18715F27%%%%%%%%%%%%%%%%%%%%%%QqQq%Qq%Qq%QqQ%%%qQ%qQqQ%%%%%%%%%%%%%%%%%%%%Qq
18700F35Q%q%Qq%%%%%%%Qq%%%%%%Q%%%%%%%%%q%%%%Q%qQ%%%%%%%%%%%%%%%%%%%Qq%%%%%%Q
18684F51qQq%%%%%Q%%%q%%%%%Qq%Q%q%%Q%%%%%qQ%%%%%%%%%%%%%%%%%%%%%%%%%%%%%%%%%%
18668F51%%%%%%%%%%%%%%%%%Qq%Q%%qQ%%%%%%%%%%%%%%%%%%qQ%%%%%%%%%%%%%q%%Q%%%%%%
18653F59%%%%%%%%%%%%%%%%QqQ%%%%%%%%%%%qQ%qQ%%%%%%%%%%%%%%%%%%%Qq%%%Q%%%qQ%%%
18637F75%qQq%Qq%%%%%%%%%Q%%%%%%%Qq%%qQQqQQj6qJ6q%%%%Qq%%%%%%%%%Qq%%%%%%%%%Q%
18622F83q%QqQ%q%Q%%%qQq%Q%%%%qQ%qQ%%%%%%qJ6q%%%%%%%%%%QqQ%%q%QqQ%%%%%%qQ%%%%
18607F91%%%%%%%%%%%%%%%%%%%%%%%%%%QqQ%q%%Q%%q%%%Q%%q%QqQ%qQ%%%%%%%%%%%%%%%%%
18591F99%%%%QqQqQq%%QqQqQqQ%%qQ%q%%%%%%%%%%Q%%%%%%%%%%qQ%qQ%%%%%%%%%%%%%%%Q%
18576G15%%qQ%qQ%%%%%%%%%%%%%q%Q%%%%%%qQ%%%%%%%Qqq%Q%%%%%%%%%QqQq%QqQqQ%qQq%%
18560G15QqQq%Q%%%%%%%%%%%%%%Qq%Qq%Q%q%Qq%%%%Q%qQ%%%qQ%%%%%%qQ%%%%%%%%q%Q%qQq
18545G23Q%%qQ%%%%%%%%%%%%%%%%Q%%q%Qq%%%%%%%Q%%%qQ%%%qQ%%q%%Qq%%Q%q%Q%%%%%%%%
18529G39%%%%Qq%%%%Q%q%Qq%QqQ%%%%%%%%%qQ%%%%%Qq%%%%QqQ%qQqQ%%%%q%%Q%%qQqQ%%%%
18513G55%qJ6q%%%%%%%%%%%%%%%%%QqQq%%%Qq%Qq%%%%%Q%q%Q%%%%%%%%%%%%%%%%%%%%%%Qq
18498G63%%%%Q%q%%Qq%Qq%Q%qQ%qQ%qQ%%%%%%%%%%%%%%%%%%%%%%%%%%%%%%%Qq%%Qq%Qq%%%
18483G71QqQ%%%%%%%%%%%%%%%Qq%%%%Qq%Qq%%%Qq%Q%%qQqQqQ%%%%qQ%%%%%%%%%%%%%%%%%%
18467G87%%%Qq%%%%%Q%%qQ%qQ%%%%%%%qQ%%qQq%%Q%%%%%%%%%%%%%%%%%%%%%%%Qq%Q%%%%%%
18451H03%%%%qQ%%%%%%%%%%%%%%%Qq%%%%%%%%%Q%q%Qq%Q%q%%%Q%%%%%%%%%Qq%%%%%%%%%%%
18436H11%%%%%QqQq%%%Q%qQ%q%%Q%%%qQ%%%%%%%%qQ%%%%%%%Q%%%%q%Q%%%qQq%%Q%%%%%%%%
18420H27%%%%%%%%%%%%%%%%%%%%%%%%%Q%q%%QqQqQ%%%%%%%%%%%%%QqQ%%%%qQ%%%%%%q%QqQ
18405H43%qQ%%qQ%%qQqQ%%%%Qq%%%%Qq%%Qq%QqQ%%%qQq%QqQq%Q%Qq%Qq%%%%%Q%j6Q%%Qj6J6
18390H59j6QQ%%%qQqQ%%qQqQq%Q%%%qQqQ%%%%%%%%%%%%%%J6j6Qq%%%%Qq%%Q%q%Q%%%%%qQ%
18375H67%%%%%%%%%%%Q%qQqQ%%%q%%%QqQqQ%%%%%%%%%%%%%%%%Q%qQqQ%%%qQ%%%qQ%%%%%%%
18359H83%%%%%qQq%%%%QqQ%%%Qq%%%%%%Q%%%%%%%%%%%%%%%%%%%%Qq%%%%%%%%%%Qq%Q%%%%%
18344H99%%%%%%%%%%%%%%Qq%%QqQq%Q%q%Qq%QqQ%%%%%%%%%%%%%%%%%%%%%%Qq%Qq%Q%%q%Qq
18328I07Q%%%%%%%qQQq%%Qq%QqQ%q%%%Q%%q%Q%%%%%%%%%%%%%%qQ%%%%%%%%%%Qq%%%%QqQ%%
18313I31%%qQ%%%%%%%%%%%%%%Q%qQqQqQqQ%%%%%%%%%qQ%%%%%%%q%Q%Q%%q%%%%J6qQl2QJ6j6
18298I31J6L2%l2l2M0K4m8K4K4k4j6QqJ6Qj6Q%q%%%qJ6%%%qQ%qQ%qQqQ%%%%%%%%%%%%%%Qq
18285I55%%Q%%q%%%QqQ%%qQ%%%%%Qq%%%QqQ%%q%%%%%QqQq%%%QqQqQ%%%%%%%%%%%%%%%qJ6q
18270I71%%%Q%%q%%QqQ%qQ%%%%%%%%%%%%%%Q%%qQ%%%%%%%%%%%%%%%%%%%%%%%%%%Qq%%%Q%q
18254I87Q%%%%%%%Qq%%%%%%%%%Q%%qQ%%%Qq%%%%%%%%%%%%%%%QqQ%%%%%%%%%%%%%%%%qQ%%%
18239A011%%%%%%%%%%%%QqQ%%qQqQ%%%%%%%%%%%%%%%QqQq%%Q%%%%%%%%q%QqQqQ%%qQ%%%%%
18223A027%%%%%%QqQ%qQqQ%%%%%%%%Qq%Q%%%%%%%%%%%%%%%%%%%%%%%%%Q%qQ%%%%%%%%%%%%
18208A051%%%%%%%%%%%%%%%%%%%Qq%%%Q%%%%%%%%%%%%%%%%%Qq%%Qq%%Q%%%%%%%%%%%%%%%Q
18193A075%qQ%%%%%%%%%%%%%%%%%%%%%%%Q%%%qQ%%%%%%%%%%%%Qq%Q%q%Q%qQqQ%qQqQqQqQ%
18177A091%%%%%Qq%Qq%%%%%%%QqQ%%%qQ%%%%%%%%%%%%%%Q%%%%qQ%%%%%%%%%%%Qq%Q%%%%%%
18162A115%%qJ6j6Q%%%%Q%qQq%%%%Q%qQ%%%%Q%%q%%%%qQ%QqQqQ%%%%%%%%%%%%%%%Q%%%%%q
18147A131QqQ%%%%%%%%%%%%qQ%%%%%%%%QqQ%qQ%%%%%qQ%%%%%%%%%%%%%%%Q%q%Q%%%%%%%%%
18132A155QqQqQ%%qQ%%%%%%%%%%%%%%%%%%%%%Qq%Q%%%%%%%%%%%%%%%%Q%%%%%%%%%%%%%Q%%
18117A187%qQ%%%%%%%%%%%%%%%%Q%q%%%%Qq%Q%%%%%qQqQ%%%%%%%%%%%%%%QqQ%%%qQqQQq%%
18101A203%%%%%Q%%%%qQ%%%%Qq%%%QqQq%Qq%%%Q%%%%%%%Qq%%%%Q%%qQ%%%%%%%%%%%%%%%%%
18086A227Q%qQ%%%%%%%%%%Qq%QqQqQ%%qQqQ%%%%%%%%%%%%%%%%Qq%%Q%%qQ%%%%Qq%%%Q%%%%
18071A259%%%%%%%%%%QqQ%%%%%%%%%%%Qq%%%%%Q%%q%Q%%%%%%%QqQq%%%%%%%%Q%%%%%%%%Q%
18055A291%qQ%q%%Q%%%%%%%%%%Qq%%%Q%%%%%%%%%%%%%%%Qq%Q%%%%Qq%%%Q%%%%%%%%Qq%%Q%
18040A323q%Qq%%%QqQ%%%%%%%%%%%%Qq%%Q%%%%%%%%%%%%%%%%QqQ%%%%%%%%%%%%%%%%%%%Q%
18025A347%%%%%%%Q%%q%Q%%%%%%%Qq%%Q%%%%%%%%%%%%%%%%%%%Q%q%Q%%%%%%%%%%Qq%%%%Q%
18009A379%%%qQ%%%%%%%%%%%Q%%%Qq%Qq%%%%Qq%%%%%Q%%%%%%%%%Qq%%%Q%%%%%%%%%Qq%%%Q
17994A411%%%%%%%%%Qq%%%%Q%%%%%%%Q%%%qQ%qQ%%%%Qq%%Q%qQ%%%%%%%%%%%%%Qq%QqQ%%%q
17979A435Q%%%%%%%%%%%Q%%q%Q%%%%%%%%%%Q%%%%%%%%%Q%%%qQ%%%%QqQ%%%%%%%%%%%%%%%%
17963A475QqQ%%%%%%%%%%%%%%%Q%qQq%Q%%%%%%%%%Qq%QqQ%%%Q%qQqQ%%%%%%%%Q%qQqQ%qQ%
17948A515%%%%Qq%%Q%%%%qQ%%%%%%Q%%%%%%%Qq%%%%%%%Q%q%QqQ%%QqQ%%%%%%%%%%Qq%%QqQ
17933A555%%qQ%%%%QqQ%%%%%qJ6%j6%J6l2QQK4K4l2qQ%%Qq%%%Q%%qJ6j6%%J6J6l2Q%QqJ6j6
17920A579QQq%%QqQqQ%qQ%%%%Q%%%%%%%%%%%%Qq%%%Q%qQQq%qQQ%q%%Q%%%QqQ%q%Q%%%%%%%
17905A627%%Qq%Q%%%%%%%%%%%Q%%%%%%QqQqQqQqQ%qQQ%%%%%qQ%%%%%%%%%Q%%%%%%%%%%%%%
17890A667%%Q%%%%%%%%%%Q%qQ%%%%%%%%%Q%%%QqQ%%%%%%%%%%Q%qQ%%%%%%%Qq%Q%%%%%%%%Q
17874A723%%%%%qQ%%%%%%%%Q%qQ%%%%%Q%%%qQ%%%%%Q%%%%%%%%Q%j6Q%QQ%q%Q%q%Q%Q%qQq%
17859A763Q%%%%%%%%%%Q%%%%%%%%Q%qQ%%%%%%%Q%%%%%%%%%QqQqQ%%%%%%%%Q%%%%%QqQ%%%%
17844A819%%%%%%%%Q%%%%%%%Q%q%Q%Qq%%%%%%%%Q%%%%%%Q%%%%%%QqQ%%%%%%%%Q%%%%Q%q%J6
17828A883k4QJ6qqQQq%%Q%%%%%%%Q%qQQqQq%%%%Q%%%%%%Q%%%%%%%Q%qQ%%%%%%%%QqQqQ%%%
17814A923%Q%qQ%%%%QqQ%%%%%Q%%qJ6q%%%%Q%%%%%%%Q%%%Qq%%%%%Q%%%%%%%Q%%%%%%%%%%%
17798A979%Q%%%%%%Q%%%%%%Q%%qQ%%%%Q%%%%%%%Q%%Q%q%%Q%%%%%%%QqQ%%Q%%%%%%%%%Qq%Q
17783B051qQ%%%%%Q%%%%%QqQ%%%%Qq%%Q%%%%%QqQ%%%Q%%%%%Qq%Q%%%%Qq%QqQ%%%%%%%Q%%%
17768B115%Q%%%%%%%%Q%qQ%%%Q%%%%%%%QqQ%%%%Q%%%%%%%%%Q%%%%%Q%%%%%Q%%qQ%%Q%%%%%
17752B187%%%%Q%%%QqQ%%%%%%%Q%%%%%%%Q%%%%%%%%Q%%%%%%Q%%%Q%%%%%%%Q%%%%%Q%%%%%%
17737B259Q%%%%Q%%%%%%%%Q%%%Q%%%%%%%Q%%%%%Q%%%%%%%%Q%%%%Q%%%Qq%Q%%%%%%Q%%%%Q%
17722B347%%%%%%Q%%%QqQqQ%%%Q%%%%%Q%%%QqQ%%%Q%%%%%%%Q%%%QqQ%%%%QqQ%%Qq%QqQ%Q%
17706B435%%%%%%%Q%%%%Q%%%QqQ%%%%%Q%%%%%Q%%%%Q%%%Q%%Q%qQ%Qq%Q%%QqQ%QqQQqQqqJ6
17691B531qQqQ%%%%%Q%Qq%Qj6J6%%%QQq%%Q%%Q%%%%%%%Q%%%Q%%Q%%%%%%%Q%%%%QqQ%%Q%%%
17676B619QqQ%%%Q%%%%%%Q%%Q%%%%%%%Q%%Q%%%%%Q%%%Q%%%%%Q%%Q%%%Q%%%%%Q%%%%QqQ%%%
17661B723Q%%%Q%%%Qq%Q%%Q%%Q%qQ%%Q%%%Q%%%%%Q%%%Q%%%QqQ%%%Q%%%Q%Q%%%%%Q%%%%Q%%
17646B843%%Q%QqQ%%Q%%%%%Q%%%Q%%%%Q%%%Q%%%QqQ%%%Q%%Q%%%Q%%Q%%%%%%J6q%Q%%%Q%%%
17631B963Q%%%Q%%Q%%%Q%%%Q%%%Q%%%QqQ%Q%%%QqQ%%%Q%%%Q%Q%%%%%Q%%Q%%%Q%%%Q%%Q%%Q
17615C107%%%Q%%%Q%%%Q%%%Q%%%Q%%%Q%%Q%%%Q%%%Q%%%Q%%Q%%%Q%%%Q%%Q%%Q%%%Q%%Q%%Q%
17600C251%%%Q%Q%%%Q%Q%%%%%QQq%Q%%Q%Q%%Q%%QqQ%Q%%Q%%%Q%%%QQ%%%%QQ%%%%QqQ%%Q%Q
17585C411%Q%%Q%Q%%%%%QQ%%Q%%%Q%%Q%%%QQqQ%Q%Q%%QqQQ%%%Q%%Q%%%Q%%Q%Q%%Q%%QQqQ%
17569C587%%Q%Q%%%Q%Q%Q%%Q%%Q%%Q%%Q%Q%%Q%%Q%%Q%%Q%Q%Q%%Q%%Q%%Q%Q%%Q%Q%%%Q%Q%Q
17554C787%%Q%%Q%Q%%%QQ%%Q%%Q%Q%%Q%Q%%Q%Q%%%Q%QQqQ%Q%Q%%Q%Q%Q%Q%%Q%Q%%QQ%Q%%%
17539C995QQ%Q%%Q%%Q%Q%QQ%%%Q%Q%%QQ%%Q%Q%Q%%%QQ%%Q%Q%Q%Q%Q%Q%Q%%QQ%%Q%Q%Q%Q%Q
17523D243%Q%Q%Q%Q%%QQ%%QQ%Q%%Q%Q%Q%QQ%%Q%Q%Q%Q%Q%Q%%QQ%Q%Q%QQ%%%QQ%Q%Q%%QQQ%
17508D507QQ%%QQ%%Q%Q%QQ%Q%QQ%Q%QQ%%J6qQQ%%QQQ%Q%QQ%Q%Q%QQ%%QQ%Q%QQQ%%QQ%Q%QQ
17493D811%Q%QQ%Q%QQQ%%QQQ%QQ%Q%Q%QQ%Q%Q%J6%Q%Q%QQ%QQQ%QQQ%Q%QQ%QQ%Q%QQQ%Q%QJ6
17478E155%Q%%QQQ%Q%QQQ%QQ%QQQQ%QQ%QQQ%QQ%QQ%QQQ%QQQ%QQ%QQQQ%QQ%J6%%QQQQ%QQQ%
17463E523QQQQQ%QQQQQ%%QQQQQ%J6%J6%%QQQQQQ%J6%QQQQQqJ6Q%%K4qJ6Q%K4%%J6%Q%J6Q%
17449E907J6%QQQQ%J6%QQQ%J6QQQQ%J6%QQQQQJ6%qK4QQ%J6%QQQQQQQQQQQQQQQQQ%J6Q%J6Q
17436F347QQQQQ%J6QQQQQQQQQQQQQQQQQQJ6Q%J6QQQQQJ6%J6QQQQQQQQQJ6QQQJ6QQQQQQQQJ6
17422F867QQQQQJ6Q%J6QQQQJ6%J6QQQJ6QQQJ6QQJ6QQQQJ6QQQQJ6QQJ6QQJ6QQQJ6QQJ6QQJ6
17410G387QQQQJ6QJ6QQJ6QQJ6QJ6QJ6QQQJ6QQJ6QJ6QJ6QQJ6QQJ6QJ6QQJ6QJ6QJ6QQJ6J6QQ
17399G923J6J6QJ6QJ6QJ6J6QJ6QJ6QQJ6J6QJ6J6QQJ6J6QJ6J6QJ6QJ6J6QJ6J6J6QJ6QJ6J6Q
17389H459J6J6QJ6J6QJ6J6J6QJ6J6J6J6QJ6J6J6QJ6J6J6QJ6J6J6QJ6J6J6J6QJ6J6J6QK4J6
17381I003QJ6J6J6J6J6J6QK4QK4J6J6QJ6J6J6J6J6J6J6J6J6J6J6J6J6J6J6J6J6K4QK4J6J6
17373I571J6J6J6J6J6J6K4J6J6J6J6J6J6J6K4J6J6J6J6K4J6J6J6J6K4J6J6J6K4J6J6K4J6J6
17365A0163J6K4J6J6K4J6J6K4J6K4J6K4J6K4J6J6K4QL2J6J6K4L2QQK4K4K4J6K4J6K4J6K4K4
17357A0851J6K4K4J6K4K4J6K4J6K4K4K4J6K4J6K4K4K4K4K4J6K4K4K4J6L2J6K4K4K4J6K4K4
17349A1571K4K4K4K4K4K4K4J6L2K4K4K4K4K4K4K4K4K4K4L2K4K4K4K4K4K4L2K4J6L2K4K4L2
17342A2387K4K4L2K4K4K4L2K4K4L2K4K4L2K4L2K4L2K4L2L2J6L2L2K4M0J6L2L2K4L2K4L2L2
17334A3299K4L2L2L2K4L2L2L2L2L2L2K4L2L2L2L2L2K4M0K4L2L2L2L2L2L2M0L2L2L2L2L2L2
17327A4331L2M0L2L2L2M0L2L2L2M0L2L2M0L2M0L2M0L2M0L2M0L2L2M8L2M0M0L2M0M0L2M0M0
17319A5515M0M0L2M0M0M0M0M0M0M0M0M0M0M0M0M0M0M0M0M8M0M0M0M0M0M8M0M0M8M0M8M0M8
17311A6867M0M8M0M8M8M8M0M8M0M8M8M0M8M8M8M8M8M8M8M8M8M8M8M8M8M8M8M8N6M8N6M8M8
17304A8427N6M8M8N6M8N6M8N6N6M8M8O4M8N6N6N6N6N6M8N6N6O4M8N6O4N6N6N6O4N6O4N6N6
17296B0243O4O4N6N6O4O4N6O4O4O4N6P2N6O4O4O4O4O4P2O4O4P2O4O4O4P2P2O4P2O4P2O4P2
17289B2379P2P2P2P2P2P2P2P2P2Q0P2P2Q0P2P2Q0P2Q0Q0Q0P2Q0Q0Q0Q0Q8P2Q8Q0Q0Q0Q0R6
17281B4923Q0Q0Q8Q0Q8Q8Q8Q0Q8Q8Q8Q8R6Q8Q0J04Q8R6R6Q8R6Q8R6R6J04Q8R6J04R6J04R6
17274B7747R6J04R6J04J04J04R6J12J04J04J04J12J04J04J12J12J12J04J12J12J12J12J20
17269C0203J12J12J20J12J20J20J20J12J28J20J20J28J20J20J28J28J28J20J36J28J28J28
17264C2891J36J28J36J36J36J36J36J36J36J36J44J44J36J44J44J44J52J36J52J52J52J52
17259C5995J52J52J52J52J60J60J52J60J68J52J68J60J60J68J68J76J68J68J68J76J76J76
17254C9587J76J76J76J92J76J76J92J84J84J92J84J92J92J92K00K00K00J92K08K00K08K00
17249D3779K08K08K16K16K08K16K16K16K24K16K32K16K32K32K32K32K32K40K32K40K40K48
17244D8731K40K48K56K48K56K64K56K48K64K64K72K64K72K72K80K72K80K80K80K96K88K88
17239E4619K88L04K96K96L04L12L04L12L20L12L20L28L20L36L28L36L36L36L52L44L44L52
17234F1699L60L52L60L68L68L76L76L76L84L84L92L92L92M08M00M16M08M16M16M24M32M32
17229G0331M40M40M40M56M48M64M56M72M72M72M80M80M96M88N12N04N04N12N20N36N28N36
17224H0987N44N52N52N52N76N76N76N76N92O00O00O08O16O24O32O32O48O56O56O64O64O96
17218I4379O80O96P04P04P20P28P36P52P44P68P68P76P92Q00Q08Q16Q32Q32Q48Q56Q72Q80
17213A11491Q88Q96R12R28R28R52R52R68R84J000J000J024J032J048J064J072J088J104J112
17209A30443J136J144J160J184J192J208J232J248J256J280J296J312J336J352J368J392J408
17205A51947J432J448J472J488J520J536J560J584J608J632J656J680J704J736J760J784J816
17201A79363J840J872J904J928J960K000K024K056K096K128K160K200K232K280K312K344K392
17197B15091K432K472K520K552K608K648K704K744K800K848K896K952L000L064L128L168L240
17194B62867L296L368L424L496L560L632L704L776L848L936M008M096M176M264M352M448M536
17190C28787M640M736M840M936N056N160N280N400N520N640N776N904O048O192O328O488O640
17186D23371O800O968P144P312P504P696P888Q088Q296Q528Q744Q976R208R472R720R992J0272
17182E65979J0568J0856J1176J1496J1832J2184J2544J2912J3320J3720J4152J4600J5056
17179G30395J5536J6040J6568J7112J7688J8288J8904J9568K0248K0976K1712K2512K3328
17176I78875K4208K5112K6072K7080K8128K9256L0424L1664L2976L4352L5808L7344L8984
17173A380283M0704M2544M4480M6536M8728N1072N3544N6192N9008O2024O5248O8696P2384
17170B091443P6360Q0616Q5200R0136R5464J01208J07440J14176J21496J29455J38113J47576
17167C378683J57904J69232J81655J95336K10400K27073K45536K66064K88928L14472L43128
17165E978411L75352M11712M52928M99800N53320O14760O85560P67608Q63200R75240J107376
17162A3285267J264288J452015J678432J953888K292239K712242L239575L910104M774680
17160C6562730N906695P414148R459179J2289968J6293060K2077228L0596391M3275559O1892480
17158B45767438Q7161787J12952639J13963269N2139425n2139425j13963316j12952569q7161810
17156B45767438o1892480m3275536l0596379k2077234j6293054j2289962r459185p414151
17154D2469457n906686m774680l910098l239558k712241k292240j953887j678417j452016
17152A4549634j264288j107367r75232q63200p67608o85560o14752n53320m99792m52936m11704
17150F353875l75344l43128l14472k88920k66057k45535k27072k10408j95320j81656j69225
17147C536738j57912j47568j38111j29448j21496j14168j07432j01216r5456r0128q5200q0608
17145B167995p6352p2392o8688o5240o2024n9008n6184n3536n1064m8728m6536m4480m2536
17142A421227m0704l8976l7344l5800l4352l2968l1664l0424k9248k8128k7072k6072k5112
17139A003363k4192k3336k2504k1712k0968k0248j9560j8912j8280j7680j7112j6568j6032
17136G46259j5528j5056j4592j4144j3720j3312j2920j2536j2184j1824j1496j1168j0856
17133E76923j0568j0264r992r720r456r216q976q736q512q296q088p888p688p496p312p144
17129D37571o968o792o640o488o328o176o048n904n768n640n512n392n280n160n048m936m840
17125C38651m736m624m536m440m352m256m184m088m000l928l848l776l704l624l560l496l416
17121B70083l360l296l240l176l112l056l000k944k896k848k792k744k704k640k608k552k512
17117B20603k464k424k400k336k304k280k224k192k160k120k096k064k016j984j960j928j896
17113A83755j872j840j816j776j760j728j704j672j656j624j608j576j552j544j504j488j472
17110A55563j448j432j400j392j360j352j328j312j288j272j256j248j224j200j200j168j152
17106A33531j152j128j112j096j088j072j056j040j032j016j008r92r76r68r44r44r36r28
17102A15043r04q88q88q80q56q56q40q40q16q16q16p84p84p76p68p68p52p36p28p28p20o96
17096I7403p04o96o80o80o72o56o56o48o40o32o32o16o08o08o00n92n92n84n68n60n76n44
17091H3659n60n44n36n36n28n20n20n12n04n04m96m88m88m80m80m72m64m64m64m56m48m40
17086G2755m48m32m32m32m24m16m16m16m00m08m00m00l92l92l84l84l76l76l76l60l68l68
17081F3955l52l52l52l52l44l44l36l36l36l28l36l20l20l20l20l12l12l04l04l04l04k96
17076E6771k88k96k88k88k88k80k80k80k80k64k80k64k72k56k64k64k56k56k56k48k56k48
17071E0819k48k40k40k40k40k32k40k24k32k32k24k24k24k24k24k16k16k08k16k08k16k08
17066D5843k08k00k08k00k00k00k00j92k00j84k00j84j92j92j84j84j76j92j76j76j84j76
17061D1635j76j76j68j76j68j68j68j68j68j60j68j60j60j60j60j52j60j60j52j52j60j52
17056C8043j44j52j44j44j44j44j52j44j36j44j36j44j36j36j36j36j36j36j28j36j28j28
17051C4979j36j28j20j28j28j20j28j20j28j20j20j20j20j20j20j12j20j12j12j20j12j12
17046C2323j12j12j12j12j12j04j12j04j04j04j12j04j04j04r6j12r6j04r6j04r6r6j04q8
17041B9819j04r6q8j04q8r6r6q8r6q8r6q8q8q8q8r6q8q0q8q8q8q0q8q8q0q0q0q0q8q0q0q0
17033B6995q0q0q0q0q0p2q0p2q0p2q0p2q0p2p2p2p2p2p2p2p2p2o4p2p2p2o4p2o4p2o4o4p2
17026B4587o4o4p2o4o4o4o4o4o4n6p2n6o4n6p2n6o4o4n6n6o4n6o4n6n6n6n6o4n6n6n6n6n6
17018B2579n6n6n6m8n6n6n6m8n6n6m8n6m8m8n6n6m8m8n6m8n6m0m8n6m8m8m8m8m8m8m8m8m8
17011B0891m8m8m0m8m8m0m8m0m0n6m0m0m8m0n6m0m0m0m0m8m0m8m0m0m8m0m0m0m0m0m0m0m0
17003A9467m0m0l2m0m8m0l2m0m0l2m0m0l2m0m0l2m0l2m0l2m0l2m0l2l2m0l2l2m0l2l2l2m8
16996A8251k4l2l2l2m0k4m0l2l2l2l2l2l2l2l2k4m0l2l2k4m0k4l2k4m8qm0k4m8k4l2j6k4l2
16988A7203l2l2k4l2k4l2k4l2k4j6l2m0j6k4k4m0l2j6k4m0k4k4j6l2l2k4j6l2j6l2k4k4k4
16980A6323k4k4k4k4l2j6k4k4l2j6l2j6l2j6k4k4k4k4j6l2j6k4j6k4k4k4j6k4k4j6l2j6k4
16973A5563j6k4k4j6k4j6k4j6k4k4j6k4j6k4j6j6k4j6j6k4j6k4qk4k4j6k4j6j6j6j6j6j6k4
16965A4907j6j6k4j6j6k4j6j6j6j6k4j6j6j6j6j6j6j6j6j6j6j6j6j6j6j6k4j6j6j6j6qj6j6
16957A4339j6j6j6qk4qj6j6k4qj6j6j6qj6j6qj6j6j6qj6j6j6j6qj6j6qj6j6qj6qj6j6qj6j6
16948A3787qj6j6qj6qj6j6qqqj6j6qqj6qj6qqj6qj6j6qqj6qj6qqqj6qqj6qqj6qj6qqqj6qq
16937A3259j6qqqqqj6qqqj6qqqqqqqj6qqqqqqj6qqqq%j6qqqqqqqqqqqqq%j6qq%j6q%qj6%j6
16924A2763%qqqqqqq%qqqqqqqq%q%qqq%qqqq%qqq%qqqq%qq%qq%qq%qq%qq%q%q%qqq%q%q%q
16909A2379q%q%q%q%q%q%q%qq%q%q%q%%q%q%q%q%%q%q%q%%q%q%%q%q%q%%q%q%%%q%%q%%%q
16894A2147%qQq%%q%%q%QqQj6J6j6%qQ%q%q%%%%%q%%%%%%q%%%%%%q%%%%%%%q%%%%%%%%%%%
16880A2067%%%%q%%%Qq%QqQ%%%q%Qq%%Q%q%Q%%%QqQq%%Q%qQ%%%%%Q%%qQ%%%QqQ%qQ%QqQqQ
16865A2099%%%%Q%%%Q%%%%Q%Q%%%%Q%%%Q%%Q%%Q%%%%Q%Q%%%Q%%%QQ%%%Q%Q%%Q%%Q%%Q%Q%%
16850A2251Q%Q%%Q%Q%Q%Q%Q%Q%%Q%Q%Q%Q%%Q%Q%QQ%Q%Q%Q%Q%Q%QQ%Q%QQ%%QQQ%Q%Q%QQ%Q%
16834A2523QQ%QQ%QQ%QQ%QQQQ%Q%QQ%QQ%QQQ%QQQQQ%QQ%QQ%QQ%J6%Q%J6Q%QQQ%QQQQ%J6%Q
16820A2899Q%J6Q%QQQQQ%J6QQ%QQQQQQQQQQQ%J6%QQQQQJ6Q%QQQQQQQQQ%QJ6QQQQJ6QQQQQQ
16806A3363QQQQQQJ6%J6QQQJ6%QQQJ6QQQJ6QQQJ6%QJ6QQQJ6QQQJ6QQQQJ6QQQQJ6QJ6QQQJ6
16794A3867QJ6QQQQJ6QQQJ6J6QJ6%J6QJ6QJ6QQJ6J6QQQJ6QJ6QQQJ6J6QQJ6J6QJ6QJ6QQJ6Q
16783A4387J6QJ6J6QQJ6J6J6QJ6QJ6QJ6QJ6J6J6%J6J6QJ6J6QJ6J6QK4QQJ6K4QJ6QJ6J6J6Q
16774A4923J6J6QJ6J6J6QJ6J6J6QJ6J6J6J6J6QJ6QJ6K4QJ6J6J6J6J6QJ6J6J6J6J6QK4J6QK4
16765A5483QJ6J6J6J6J6K4QJ6J6J6J6J6J6J6J6J6K4QJ6K4J6J6J6J6J6J6J6QK4K4J6J6QK4J6
16757A6067J6J6J6J6J6K4J6K4J6QK4QK4K4J6J6K4J6J6K4K4QJ6K4J6K4J6J6J6K4J6J6K4K4J6
16749A6707J6J6K4K4J6K4J6K4J6J6J6K4K4J6K4J6K4K4J6K4J6K4J6K4J6L2J6K4J6K4J6K4K4
16741A7379K4J6K4J6K4K4J6K4J6L2K4K4J6K4K4J6K4K4J6L2J6K4K4K4K4K4K4J6K4K4L2J6K4
16734A8115L2J6K4K4K4K4K4K4K4K4K4K4K4K4K4L2J6L2K4K4K4L2K4K4K4K4K4L2K4K4K4K4K4
16726A8931L2K4K4K4L2K4L2K4K4L2K4L2K4L2K4L2K4K4L2K4L2K4L2K4L2K4M0K4K4L2K4L2K4
16719A9843L2L2K4L2L2L2K4L2L2L2L2K4L2L2K4L2K4M0K4L2L2L2L2M0K4L2L2L2L2L2L2L2L2
16711B0859L2M0K4L2M0L2L2L2L2M0L2L2L2L2M0L2L2M0L2L2M0L2L2L2M0L2M0L2M0L2L2M0M0
16704B1995L2M0L2M0M0L2M0M0L2M0M0L2M0M0M0L2M0M0M0M0M0M0L2M0M8M0M0L2M0M8M0M0M0
16696B3267M0M0M8M0M0M0M0M0M0M8M0M0M8L2M8M0M8M0M8M0M0N6M0M0M8M0M8M0M8M8M8M0M8
16689B4691M8M8M8M0M8M8M8M8M8M8M0M8M8M8N6M0N6M0M8N6M8M8N6M8M8M8N6M8N6M8M8N6M8
16681B6299M8N6M8N6N6M8N6N6M8O4M8N6M8O4N6N6M8O4M8N6O4N6M8O4N6N6N6N6O4N6O4M8O4
16674B8131O4N6N6N6O4O4N6O4O4N6O4O4O4N6O4O4O4O4O4O4O4O4O4O4O4O4O4O4O4P2O4P2O4
16666C0211P2O4P2O4P2P2O4P2P2P2O4P2Q0O4P2P2Q0O4Q0P2P2P2P2Q0P2Q0P2Q0P2Q0P2Q0P2
16658C2603Q0Q0Q0Q0Q0P2Q0R6P2P2Q0Q8Q0Q0Q8Q8Q0Q0Q8Q8Q0Q8Q8Q0R6Q0Q8Q8Q8Q8Q8Q8R6
16651C5371Q8Q8Q8R6R6Q8R6Q8R6R6R6R6Q8J04R6Q8J04R6R6R6J04J04R6R6J04J04R6J04J04
16644C8163J12R6J04J04J12J04J04J12J04J12J04J12J12J12J04J12J20J04J20J12J12J20J12
16639D0683J12J20J12J20J20J28J12J12J28J28J12J28J20J20J28J20J28J28J28J28J28J36
16634D3379J28J28J36J20J36J28J44J28J36J44J36J28J44J44J36J44J36J44J44J44J44J44
16629D6395J44J44J52J44J52J44J52J60J44J60J52J60J52J60J52J60J60J60J60J60J68J60
16624D9795J68J60J68J68J76J68J68J76J68J76J76J68J84J76J76J84J76J84J84J84J84J92
16619E3659J76K00J84J92J92J92J92K00J92K00K00K00K00K00K08K08K00K08K16K08K08K16
16614E8051K08K24K08K24K16K24K24K16K24K32K24K32K32K32K32K32K40K40K40K40K48K40
16609F3083K48K48K40K64K48K56K56K56K64K56K64K64K64K72K72K72K72K80K72K80K88K80
16604F8899K80K88K88K96K88L04K88L04L04K96L12L12L04L12L20L12L20L28L20L28L28L28
16599G5659L36L36L36L44L44L44L52L52L44L60L60L60L60L68L76L68L76L76L84L84L92L84
16594H3595L92M00L92M00M08M08M16M08M24M16M24M32M32M32M32M48M48M48M48M56M56M64
16589I2979M64M80M72M80M80M88M96M88M96N12N04N12N12N28N20N28N36N36N44N52N44N60
16584A04211N60N68N76N76N76N92N92O00O00O16O08O24O24O24O40O48O48O56O56O64O64O88
16579A17811O88O88O96P04P12P20P28P28P36P44P60P60P60P76P84P92P92Q16Q08Q24Q24Q40
16573A34491Q48Q48Q72Q72Q80Q88Q96R12R20R20R44R44R60R60R84R84J000J000J024J032J040
16569A54219J056J056J080J088J096J112J120J136J152J160J168J192J200J216J224J240J264
16565A73779J264J288J304J312J328J352J352J376J400J408J432J440J464J480J504J520J528
16561A97531J560J568J592J616J640J648J672J696J720J744J752J792J808J832J856J872J904
16557B26803J936J952J976K016K032K064K088K120K144K184K208K240K272K304K328K376K392
16553B63435K440K472K504K544K584K616K656K696K744K776K816K872K904K952K992L040L096
16549C10139L136L184L240L288L344L392L448L512L560L624L680L736L808L872L936M000M056
16545C70955M144M216M280M352M432M520M592M672M760M840M936N024N112N216N304N408N512
16541D52275N616N720N832N944O064O184O304O424O552O688O824O968P104P256P408P560P720
16538E64443P888Q056Q232Q408Q592Q784Q984R176R384R608R816J0056J0280J0528J0768J1032
16534G14035J1296J1568J1856J2144J2448J2760J3080J3416J3760J4120J4488J4864J5264
16531H85099J5672J6104J6536J7000J7472J7960J8472J9000J9544K0128K0712K1328K1976
16528A127003K2640K3336K4064K4808K5608K6424K7272K8168K9096L0080L1096L2152L3264
16525A485011L4440L5648L6928L8272L9672M1152M2696M4328M6040M7840M9736N1728N3840
16522B047331N6056N8408O0880O3496O6288O9208P2328P5616P9112Q2856Q6808R1032R5536
16519C004955J00327J05441J10927J16784J23081J29808J37056J44847J53241J62280J72080
16516D460827J82648J94119K06537K20072K34832K50863K68441K87704L08824L32072L57696
16514G304635L86024M17432M52304M91184N34616N83320O38096O99936P69984Q49647R40672
16511A4067850J045096J165465J304944J467447J657912J882544K149295K468442K853337
16509C0062332L321605L896833M610809N507270O647195Q116959J0041385J2604062J6080640
16507A00889090K0892938K7698193L7531300N2013877P3568481J05217195J48175147J92019387
16506G58005608J93737754Q8636826q8636826j93737707j92019434j48175053j05217195p3568435
16504B39025538n2013853l7531300k7698157k0892927j6080611j2604050j0041350q116947
16502E4046343o647157n507264m610800l896792l321591k853322k468415k149272j882520
16500B0709210j657896j467424j304920j165448j045064r40648q49639p69960o99912o38072
16497A0170227n83304n34600m91152m52288m17400l86008l57680l32048l08800k87673k68432
16495E750842k50856k34791k20056k06528j94088j82624j72049j62271j53208j44832j37033
16492C692506j29792j23047j16768j10904j05424j00304r5504r1016q6792q2824p9104p5608
16490B495419p2296o9192o6248o3480o0856n8384n6040n3816n1712m9712m7816m6024m4296
16487A755547m2680m1128l9648l8256l6904l5632l4408l3248l2136l1072l0056k9072k8152
16484A303155k7248k6400k5584k4792k4040k3312k2624k1944k1312k0688k0104j9528j8976
16481A006603j8448j7944j7440j6976j6520j6080j5656j5240j4848j4464j4088j3744j3392
16478H01763j3064j2736j2424j2120j1832j1552j1272j1008j0752j0504j0256j0032r792r584
16475F44835r368r160q960q760q568q392q208q032p864p696p544p384p232p080o944o800o672
16471E10171o528o408o280o160o032n928n808n696n592n488n392n280n184n096n000m920m816
16467D14563m736m656m568m488m408m336m264m192m112m048l976l912l848l776l728l656l592
16463C44267l544l480l432l376l312l264l216l168l120l056l024k976k928k880k840k800k760
16459B91091k704k672k640k600k552k520k496k440k416k376k344k312k280k248k216k192k152
16455B49931k120k096k064k040k016j984j960j928j904j888j848j832j816j784j760j736j720
16451B17435j696j672j648j624j616j592j560j560j528j512j488j480j456j440j424j400j384
16447A91355j376j352j336j328j304j288j272j264j256j224j224j200j192j176j168j144j136
16443A70115j120j112j104j088j072j064j056j040j024j016j008r92r84r76r60r52r44r28
16439A51675r20r20q96q96q88q72q64q56q48q48q32q16q08q08q00p92p76p68p68p60p44p44
16434A33451p36p28p20p12p04p04o96o80o80o80o64o56o56o48o40o32o32o16o24o08o08n92
16429A18835o00n84n84n84n68n76n60n52n52n44n44n36n28n28n28n12n12n04n12m96m96m96
16424A06939m80m80m88m64m56m64m80m48m56m64m40m48m32m32m16m24m32m08m08m24m00m08
16419I7187m00m00l92l92l92l76l84l84l68l76l68l68l60l68l52l52l44l60l44l36l44l36
16414H9091l36l28l28l20l28l20l20l12l20l12l04l04l04l04k96k96k96k88k88k88k88k80
16409H2331k72k80k80k72k72k72k64k64k64k64k56k56k56k56k48k48k56k40k48k40k32k40
16404G6651k40k24k40k32k32k16k40k16k24k16k24k16k16k08k16k08k08k08k08k08k00k00
16399G1851k00k00k00j92j92j92j92j92j84j84j84j92j76j84j84j76j76j76j76j68j76j68
16394F7787j68j76j60j68j60j68j60j60j60j60j60j52j52j60j52j52j52j44j52j44j44j52
16389F4331j36j44j44j36j44j36j44j36j28j36j36j36j36j28j28j28j28j28j20j28j28j20
16384F1403j20j20j20j28j12j20j20j12j20j12j12j12j12j12j12j04j12j04j12j04j04j04
16379E8915j04j04j04r6r6j04j04r6r6r6r6r6r6q8r6q8r6q8r6q8q8q8q8q8q8q0q8q0q0q8q0
16372E6051q0q8q0q0p2q0q0p2q0q0p2q0o4q0o4q0o4p2p2p2o4p2p2o4p2o4o4o4o4o4o4o4o4
16364E3683o4n6o4n6o4n6o4n6o4m8n6n6n6n6n6m8n6n6n6m8n6m8n6m8n6m0m8m8m8m8m0m8m8
16357E1915m0n6m0m8m0m0m0m8m0m0m0m8m0m0m0l2m0l2m8l2m0m0l2l2l2m0l2l2l2m0l2k4l2
16349E0651l2l2l2l2k4l2k4l2k4k4l2l2k4k4l2k4j6l2k4k4j6k4k4k4l2j6k4k4j6j6k4j6j6
16342D9827k4j6j6k4j6j6j6k4qj6k4qj6j6qj6qj6j6qqj6qj6qqj6qq%j6%j6qq%qqqq%qq%%q
16331D9315%q%%%%q%%%%%%%Q%%%%Q%Q%Q%Q%Q%Q%J6%QQQQJ6%J6QQQQQJ6QQJ6QJ6QJ6QJ6J6J6
16318D9627QJ6J6J6J6J6J6J6J6J6J6J6K4J6J6J6K4J6K4J6J6K4J6K4K4J6K4K4J6K4K4K4K4K4
16310E0267K4K4J6L2K4K4K4K4L2K4L2K4L2K4K4L2K4L2K4L2L2L2K4L2L2L2K4M0L2L2L2L2L2
16303E1203L2L2L2L2M0L2M0L2M0L2M0L2M0M0L2M0M0L2M0M0M0M0M0M0L2M8M0M0M0M0M0M8M0
16295E2451M0M8M0M8M0M8M0M8M0M8M8M8M8M8M0N6M8M0M8N6M8M8M8M8M8N6M8M8N6N6M8N6M8
16288E4027N6M8N6N6N6N6N6M0N6N6O4N6N6N6N6O4N6N6N6O4N6O4N6N6O4N6P2N6N6P2N6P2N6
16280E5939O4P2N6O4O4O4P2O4O4O4O4P2P2O4O4P2O4P2P2O4Q0O4P2P2P2P2P2P2P2Q0P2P2O4
16273E8203Q8P2P2Q0Q0P2O4Q8Q0Q0P2Q8P2Q0Q0Q0Q0Q8Q0Q0Q8P2Q8Q0Q8Q0Q8Q8Q0Q8Q8Q0Q8
16265F0875Q8R6Q8Q0R6Q8Q8Q8Q8R6Q8R6Q8R6Q8Q8R6R6R6R6R6R6R6R6R6J04R6R6R6J04R6R6
16258F3867J04J04R6J04J04J04R6J12R6J12J04J04J04J12J04J04J12J12J04J12J04J12J12
16252F6299J12J12J12J12J12J12J12J12J20J12J20J20J20J12J20J20J20J20J12J28J20J20
16247F8859J20J20J28J28J20J20J28J28J28J20J28J36J20J28J36J28J28J28J36J36J28J36
16242G1667J36J28J36J36J44J36J36J36J44J36J36J44J44J36J44J44J44J44J44J36J52J52
16237G4755J44J44J52J52J44J52J52J60J44J52J52J60J52J60J52J60J60J52J60J60J60J60
16232G8139J60J68J60J68J60J68J68J60J68J68J68J76J68J68J68J76J76J68J76J68J76J84
16227H1859J76J84J76J76J84J84J76J84J84J84J92J84J84J84J92J92K00J84J92J92J92K00
16222H5955J92J92K00K00K00J92K08K00K00K08K00K08K00K08K08K16K08K08K08K16K08K16
16217I0451K16K16K16K16K24K16K24K24K24K24K24K24K24K32K32K24K40K32K32K32K32K40
16212I5419K32K40K40K48K40K40K48K40K48K48K48K48K48K56K56K48K56K56K64K56K64K56
16207A00899K64K64K64K64K72K64K72K72K72K72K80K80K72K80K80K80K88K80K88K88K88K88
16202A06971K88K96K96K96K88L04K96L04L04K96L12L04L04L12L12L12L20L04L28L12L20L20
16197A13699L28L20L36L20L36L28L28L36L36L44L36L44L44L36L52L52L44L52L60L52L52L60
16192A21195L60L60L60L68L68L68L76L76L68L84L68L84L84L92L84L84L92L92L92L92M08L92
16187A29547M08M08M08M08M08M16M16M16M16M24M24M24M32M24M40M32M40M40M40M48M48M48
16182A38915M56M48M64M56M64M56M64M72M80M72M72M80M88M80M88M88M96M96M96M96N12M96
16177A49435N12N12N12N12N28N20N28N28N28N44N36N36N44N52N52N44N60N60N60N68N68N76
16172A61315N76N76N84N84N92N92N92O00O00O16O00O08O24O16O24O32O32O32O48O32O48O48
16167A74771O56O56O64O64O72O72O80O80O88O88O88P12P04P04P04P20P20P28P28P28P44P36
16162A90107P52P52P60P60P68P76P76P84P76P92Q00Q00Q00Q16Q08Q24Q24Q40Q32Q48Q40Q56
16157B07691Q56Q64Q72Q80Q80Q80Q96R04Q96R12R20R20R28R36R44R52R52R60R68R76R76R92
16152B27955R84J008J000J016J024J024J032J048J048J056J064J072J080J080J096J104J112
16148B45803J112J128J128J144J144J160J168J168J184J192J200J208J216J224J232J248J256
16144B65915J264J264J280J288J304J312J312J328J336J352J360J368J376J392J400J408J424
16140B88683J432J448J456J464J472J488J496J520J520J536J544J560J568J584J600J608J616
16136C14595J640J648J664J672J688J704J712J736J744J752J776J784J800J816J824J848J864
16132C44267J880J888J912J928J936J960J976J992K008K032K040K056K088K088K112K128K152
16128C78443K176K192K208K224K248K272K288K312K320K360K368K384K416K440K456K480K504
16124D18091K528K552K576K600K616K648K672K696K720K752K768K808K824K856K880K912K936
16121D64435K960L000L024L056L080L112L152L176L200L248L272L304L336L376L408L432L488
16117E19059L512L552L584L624L656L696L744L776L816L864L888L944L984M024M064M112M160
16113E84059M200M256M296M336M392M440M496M536M592M640M696M752M792M856M920M968N024
16109F62251N088N144N208N264N328N392N456N520N592N656N720N792N864N936O008O080O160
16105G57459O232O312O392O472O552O640O720O808O896O984P080P168P256P360P456P552P656
16101H74995P752P864P968Q072Q192Q288Q416Q528Q648Q768Q888R016R144R272R400R544R680
16097A022435R816R960J0112J0256J0400J0568J0720J0880J1040J1216J1384J1560J1736J1912
16094A173995J2104J2288J2488J2680J2880J3096J3296J3512J3744J3952J4184J4416J4664
16091A347299J4912J5152J5408J5672J5944J6208J6496J6784J7072J7368J7680J8000J8312
16088A562307J8648J8984J9328J9680K0048K0424K0800K1192K1592K2000K2424K2864K3304
16085A833595K3752K4224K4704K5200K5696K6224K6752K7304K7864K8448K9040K9648L0280
16082B182731L0928L1600L2272L2984L3704L4464L5224L6016L6840L7680L8544L9432M0368
16079B642787M1320M2296M3304M4368M5440M6552M7712M8896N0136N1408N2728N4088N5503
16076C266538N6961N8472O0048O1663O3353O5095O6913O8783P0736P2769P4864P7056P9320
16073D142571Q1695Q4153Q6712Q9375R2161R5039R8072J01201J04503J07929J11496J15248
16070E310155J19168J23255J27544J32033J36735J41673J46832J52272J57976J63976J70280
16068F881899J76904J83912J91272J99040K07248K15904K25064K34744K45016K55888K67416
16065I284307K79672K92688L06528L21280L37000L53768L71704L90880M11408M33448M57080
16063A3239763M82519N09896N39424N71312O05816O43192O83784P27920P76000Q28496Q85937
16060B0494059R48943J018152J094423J178689J272015J375664J491176J620304J765112J928137
16058C4186674K112385K321446K559737K832649L146742L510257L933430M429187N013927
16056F4046434N708898O541484P547795Q775968J0290804J2181165J4570538J7633714K1622689
16054A68919489K6907410L4042512M3876066N7727250P7672491J06962646J50452690K14199411
16052H80759965L00648814L88975659L93182089J83917120j69480379l78253809l73024404
16050A226725055k83055750j94200426j27054193p8819665m2901343j3610485J3610485M2901343
16049E43595021P8819618J27054240J94200520K83055656L73024404L78253809J69480191
16047B147483459j83917120l93181995l88975753l00648720k14199411j50452737j06962599
16045D09145124p7672491n7727250m3876042l4042571k6907386k1622689j7633761j4570527
16044A15092407j2181177j0290798q775997p547795o541473n708909n013951m429175l933424
16042E0669708l510259l146766k832649k559752k321448k112383j928146j765120j620304
16040B8872881j491173j375691j272006j178705j094433j018159r48935q85953q28504p76008
16037A8003314p27921o83783o43208o05824n71304n39439n09896m82537m57080m33448m11423
16035A1937451l90888l71704l53776l37008l21280l06528k92704k79672k67424k55888k45024
16032H515555k34760k25064k15920k07240j99056j91272j83912j76928j70280j63976j57984
16030F389163j52280j46840j41681j36736j32039j27544j23265j19167j15256j11512j07929
16027D974914j04503j01216r8072r5048r2161q9391q6712q4153q1695p9337p7064p4871p2768
16024C837923p0752o8784o6921o5104o3352o1680o0047n8480n6969n5503n4097n2736n1407
16021C052091n0144m8904m7720m6560m5448m4360m3328m2296m1320m0376l9448l8544l7688
16018B485955l6840l6032l5224l4464l3712l2992l2280l1600l0936l0288k9656k9048k8448
16015B064435k7872k7304k6768k6216k5712k5208k4704k4232k3760k3312k2864k2432k2008
16012A742043k1592k1200k0808k0432k0048j9688j9336j8992j8656j8320j8000j7688j7376
16009A489907j7080j6792j6496j6224j5944j5680j5408j5168j4912j4664j4432j4184j3968
16006A288955j3736j3520j3304j3104j2880j2696j2488j2296j2112j1920j1744j1568j1384
16003A126203j1216j1048j0888j0728j0568j0416j0264j0112r968r824r680r552r408r272
16000I83259r160r016q896q776q648q544q416q304q192q080p976p864p768p656p560p456p368
15996H43579p272p168p080o992o904o816o728o640o560o480o400o320o240o168o080o024n936
15992G31771n872n792n736n656n600n520n472n392n336n272n216n144n096n032m976m920m864
15988F40875m808m752m712m640m600m544m496m448m400m344m304m256m208m160m120m072m032
15985E65979l992l952l904l864l824l784l744l704l672l624l592l552l528l488l440l416l376
15981E03523l352l312l280l240l224l176l152l120l096l056l032l008k968k944k912k888k864
15977D50899k832k808k776k760k728k704k680k656k624k608k584k552k536k512k488k464k448
15973D06139k416k400k376k360k336k312k296k280k248k232k224k192k176k160k144k112k104
15969C67771k088k064k048k040k016j992j984j968j952j928j920j896j888j864j856j832j832
15965C34603j808j784j784j760j752j744j720j704j696j688j664j656j640j640j616j600j592
15961C05755j576j568j552j544j528j520j512j488j480j480j456j456j440j432j416j408j400
15957B80499j376j384j360j360j344j336j320j312j312j296j288j288j264j264j256j248j216
15953B58275j224j216j208j200j192j184j176j160j152j152j136j136j128j112j104j104j096
15950B38595j088j080j072j064j056j048j048j032j024j024j016j008j000j000r84r76r76
15946B21099r76r52r60r52r44r36r28r28r20r12r04r04q96q88q88q72q72q64q64q56q56q40
15941B01187q40q32q32q24q16q16q08q00q00p92p92p84p84p68p76p60p60p60p52p44p44p36
15936A83867p36p28p20p20p12p20p04o96p04o96o88o88o80o80o80o64o72o64o56o56o48o48
15931A68707o48o40o32o24o40o16o24o24o16o08o08o08o00n92o00n84n92n84n84n76n76n68
15926A55363n76n60n60n60n60n52n44n44n52n36n44n28n36n28n28n28n20n20n12n12n12n04
15920A43547n04n04m96m96m96m88m88m88m88m72m88m72m72m72m72m64m56m64m64m56m48m56
15915A33043m48m48m48m40m40m40m40m24m32m40m24m24m24m24m16m16m08m16m08m16m00m08
15910A23659m00m08l92m00l92l92l92l92l84l84l84l84l76l76l76l76l76l68l68l68l68l60
15905A15243l60l68l44l68l52l52l52l52l44l44l52l36l52l36l36l44l36l28l36l36l28l20
15900A07667l28l28l20l28l12l20l20l12l20l12l04l12l12l04l12l04l04l04k96l04k96k96
15895A00819k96k96k88k88k88k96k88k88k88k80k80k88k80k80k72k80k72k80k72k64k72k72
15890I4611k72k64k64k64k64k64k56k64k56k56k56k64k56k56k48k56k48k48k48k56k40k48
15885H8963k40k40k48k40k40k40k40k32k40k40k32k32k32k32k32k32k24k24k32k24k24k24
15880H3819k24k24k16k24k24k16k16k16k16k16k16k16k08k08k16k16k00k16k00k16k00k00
15875G9115k08k08k00k08k00k00k00k00j92k00k00j92j92k00j92k00j92j84j92j92j92j84
15870G4787j92j84j84j84j84j92j76j84j84j76j84j76j84j84j76j76j76j76j76j76j68j76
15865G0819j76j76j68j68j76j68j68j68j68j68j68j60j68j68j60j68j60j60j68j60j60j60
15860F7155j60j60j60j52j60j60j52j52j60j60j44j52j60j52j52j44j52j52j52j44j52j44
15855F3779j52j44j52j44j36j44j52j44j36j44j52j36j44j36j44j36j44j36j44j36j36j36
15850F0651j36j36j36j36j36j36j36j28j28j36j36j28j28j36j28j28j36j20j28j36j20j36
15845E7747j20j28j28j28j20j28j20j28j20j28j20j20j20j28j20j20j20j20j20j20j20j20
15840E5051j12j20j20j12j20j12j20j12j12j20j12j12j12j20j04j20j12j12j04j12j12j04
15835E2555j12j12j12j04j12j04j12j04j04j04j12j04j12j04j04j12r6j04j04j04j12r6j04
15830E0107j04j04r6r6j04j04j04r6j04r6r6j04r6j04r6r6r6r6r6r6r6r6r6r6q8j04r6q8r6
15823D7267r6q8q8r6r6r6q8q8r6q8q8r6q8q8r6q8q8q8q8q8q8r6q0r6q0q8q8q0q0r6q8q0q0
15815D4331q8q8q0q8q8q0q0q8q0q0q8p2q8q0q8p2q8p2q0q0q8q0p2q0q0q0q0q0q0p2q0p2q0
15808D1659q0q0q0p2q0p2p2q0p2q0p2p2p2q0p2q0p2p2p2q0o4q0p2p2p2p2o4q0o4q0p2o4p2
15800C9219p2o4q0o4p2p2o4p2o4p2o4p2o4p2o4p2o4p2o4p2o4p2o4o4o4o4o4p2n6p2o4o4o4
15793C6995o4o4o4o4o4n6p2n6p2o4n6o4o4n6o4o4o4o4n6o4n6o4o4n6o4n6o4n6o4n6o4n6o4
15785C4955n6n6n6o4n6n6o4n6n6n6o4m8o4n6n6n6n6n6n6o4m8o4n6m8n6n6n6n6n6n6n6n6m8
15778C3091n6m8o4m8n6m8n6n6n6m8n6n6m8n6n6m8n6m8m8n6m8n6m8n6m8m8n6m8m8n6m8m8n6
15770C1363m8m8m8m8m8m8n6m8m8m8m8n6m8m8m8m8m8m8m8m0n6m8m0m8n6m0m8m8m8m8m8m0m8
15763B9779m8m8m0m8m8m8m0m8m8m8m0m8m0n6m0m0m8m8m0m8m8m0m0m0m8m8l2m8m0m8m0m0m0
15755B8315m8m8m0m0m8l2m8m0m0m8m0m0m0m8m0m0m0m0m0m0m8m0l2m0m8m0l2m0m8m0m0l2m0
15747B6955m8l2m8m0l2m0m0m0m0l2m0m0m0m0m0l2m0m0m0m0l2m0m0l2m0m0m0l2m0l2m0m0l2
15740B5691m0m0l2l2m0m0l2m0l2m0m0l2l2m0l2m0m0l2l2m0l2l2m0m0l2l2m0l2l2m0l2l2m0
15732B4507k4m0l2l2m0l2l2l2l2m0l2l2l2m0k4m0l2l2l2l2l2l2l2l2l2m0l2l2l2l2l2l2l2
15725B3419l2l2l2l2l2l2l2l2l2l2k4m0l2k4l2l2l2l2l2k4l2l2l2k4l2m0k4m0l2k4l2k4l2
15717B2395l2k4l2l2l2k4l2l2k4l2k4m0k4l2k4l2l2l2k4l2k4l2k4l2k4k4l2l2k4l2k4l2l2
15710B1435k4l2k4l2k4k4l2k4l2k4l2k4l2k4k4k4l2k4k4l2k4l2k4k4l2l2j6l2k4l2k4k4l2
15702B0539k4k4k4k4k4l2k4k4k4k4l2l2j6k4l2k4k4k4l2j6l2k4k4k4k4k4l2j6l2j6l2k4k4
15695A9707k4k4k4k4k4l2k4k4k4k4k4k4k4k4k4k4k4k4j6l2k4j6k4k4k4k4k4k4k4k4j6l2j6
15687A8923k4k4k4k4k4j6k4k4k4k4k4k4k4j6k4k4j6k4k4k4k4j6k4k4k4j6k4k4k4j6l2j6k4
15679A8179j6k4k4k4k4j6k4j6k4k4k4j6j6l2j6k4k4j6j6k4k4k4k4j6j6k4j6k4k4j6k4j6k4
15672A7483j6k4j6k4j6k4j6k4k4j6k4j6k4j6j6k4k4j6j6k4k4j6k4j6j6k4j6k4j6k4k4j6k4
15664A6819j6j6k4j6j6k4j6k4qk4k4j6j6j6k4j6k4j6j6j6k4j6j6k4j6j6k4j6j6j6k4j6j6k4
15657A6187j6j6j6j6k4j6k4j6j6j6j6k4j6j6k4qk4j6j6k4j6j6j6j6j6k4j6j6j6j6j6j6k4j6
15649A5587j6j6j6k4j6j6j6j6j6j6j6k4j6j6j6j6qk4qk4j6j6j6k4qj6k4j6j6j6j6k4qj6qk4
15641A4987j6j6j6j6k4qj6j6j6j6j6j6j6j6j6j6j6j6qk4qj6j6j6j6j6k4qj6k4qj6j6j6j6j6
15632A4419qj6j6j6j6j6j6qk4qk4j6qj6j6j6j6qj6j6j6j6j6j6qj6j6j6j6qj6j6j6qj6j6j6
15624A3875j6qk4qj6j6j6j6j6qj6qk4qj6j6qqk4qj6j6qk4qj6j6qj6j6j6qj6j6j6qqk4qj6j6
15614A3299qj6qj6qj6j6qj6j6qj6j6qj6j6qj6j6qj6j6qqj6j6qj6j6qj6j6j6qqj6qj6j6qj6
15605A2771j6qj6qj6qj6qj6qj6j6qj6qj6qj6j6qj6qj6qj6qj6j6qj6qj6qj6qj6qj6qj6qj6q
15595A2243qj6j6qqj6j6%j6j6j6%j6j6qqj6qj6qj6qqj6qj6qj6qj6qj6qqj6qqj6j6%j6j6qq
15585A1739qk4qqj6qqj6%k4q%k4%qk4%qj6j6qj6qqj6j6%qql2Qj6qqj6qqqqj6qj6j6%j6qqj6
15574A1219qqj6qqj6qqqj6qj6qqqj6qqqqj6qqqqj6j6q%j6qqj6qqqj6qqqj6%qj6qqqj6qqqj6
15562A0699qqqqqj6qqqqj6qqqj6qqqj6qqqqj6qqqj6%j6%j6qqqqqj6%j6qj6qqqqqqqqqqqj6
15550A0195%j6qqqqqqj6q%j6qqqqqqqqqqj6qqqqqqqqqj6qqqqqqqqqqj6q%qj6qqqqqqqqqqq
15536I691qqqqqqqqqqqj6%qj6%qj6qqq%j6qqq%j6q%j6qqqqq%j6%qqqqqqqqqqqqqqqqqqqqq
15523I211qqqqq%qj6%qqqqqj6%qqqqqqqq%qqqqqqqqqq%qqqq%qqqqqqqqqqq%j6%qqqqqqqqq
15508H739%qqqqqqqqq%qqqqqqq%qqqqqqq%qqqq%qqqqq%qqqqq%qqq%j6%qqqqq%qq%qqqq%j6
15493H299q%qqqq%qqqq%qqqqq%q%qqqqj6%%j6%%j6Qk4%Qk4Q%j6j6%j6Qj6%j6%q%qqq%q%j6
15480G947%qqqqq%qq%qq%j6%qq%qqqq%qqq%qqq%qq%qq%qqqq%qqqq%q%qq%qqqq%q%qq%j6%q
15465G563q%qq%qq%qqqq%q%qq%qq%qqqq%%qqq%qqq%qq%q%j6%qq%qq%qq%q%q%qqq%q%qqq%q
15450G203q%q%qqq%qq%qq%qq%q%qq%qq%q%q%q%qqq%qq%q%q%qq%qq%qq%qq%q%q%q%qqq%q%q
15435F867qq%q%q%q%qqq%qq%q%qq%%q%qq%qq%%qqq%qqQq%qqq%q%qq%q%qq%q%q%qq%q%q%qq
15420F547%q%q%qq%%qq%q%q%q%q%qq%q%qq%q%qq%%q%q%q%qq%q%q%qq%%qqq%%%qq%qq%q%qq
15404F251%q%%qqQj6%q%q%q%q%qqQqq%q%qq%%q%q%j6%%qq%%qq%%q%%qq%q%q%q%q%q%q%q%q
15389E987%q%q%%qq%q%q%%qq%%q%q%qq%%q%q%q%q%q%q%%q%q%qq%%qq%%q%q%%q%q%q%%q%qq
15374E731%q%q%q%%q%q%q%q%%qq%%q%q%q%%%q%q%qq%%q%q%%q%q%%qq%q%%qq%%%qq%q%q%%%
15359E499q%q%q%q%q%%q%q%%q%q%%qq%%q%q%%q%%q%%q%q%q%q%q%qQq%q%q%%qq%%q%q%q%%%
15343E275qqQj6Qqq%%q%%q%q%%q%%q%q%%%q%q%q%%q%%j6Qq%%q%q%q%%q%q%%q%q%q%%q%%q%
15329E067%q%%q%q%%q%%q%q%%q%%q%q%q%%%q%q%%q%q%%q%q%%%q%%q%q%q%q%%q%%%q%%q%q%
15313D867%q%%q%q%%q%%q%%q%qQq%%qq%q%%q%%q%%q%%%q%q%%q%%q%%q%%q%%%q%%qq%%%q%%
15298D683q%q%%%q%%q%q%%%%q%q%q%%%%q%%q%%q%%q%qq%Qq%%q%%q%q%%q%j6Q%qQq%qQq%j6
15283D499J6j6Qq%q%%q%%%qqQj6Qq%%q%%%q%%%q%%q%%%q%qQq%q%%q%%q%%%q%q%%%q%q%%%q
15268D347%%q%%%%q%q%%%q%q%%%q%%%%q%%%q%q%%q%%%q%%q%%%q%q%%%%q%%q%%q%q%%%%q%%
15253D195%q%%q%Qqq%q%Qqq%%%%q%%q%%%qQqq%%q%%%q%%q%qQqqQq%%QqqQj6%%%q%%%q%%q%
15238D043%qQq%%q%%q%%%q%%%q%%%q%q%%%%j6%%%%%%%q%%%q%%q%%q%%qQq%q%%%qQ%%q%q%%
15223C907%%%q%q%%%%q%%%%q%%q%%%%%q%%qQq%q%%q%%%q%%q%%%%q%%%q%%q%%%q%%q%%%q%%
15208C771%qQq%%q%%%%q%%%%q%%%q%%%q%%q%%%%%q%%q%%%%q%q%%%%%q%%%%q%%q%%%q%%%qQ
15192C651q%%%%q%q%%qQq%q%%%%%q%%%%%q%%%q%%%q%%%q%%%qQq%%%%q%%%q%%q%%%q%%%%q%
15177C523%%qQq%%qQq%%q%%%%q%Qq%qQq%%q%%%%%q%%qQq%%%q%Qq%%%qQqq%%%%q%qQ%q%%q%
15162C411%%q%%%%q%%%qQq%qQq%qQq%%%%q%%%%%%q%%%%%q%%q%%%qQq%%%%%q%%%q%%%q%%%%
15146C307%%q%%%q%%%%q%%%q%%%%q%%qQq%%%%%q%%%q%Qqq%%%%%%%%q%%q%%%q%%%%q%Qq%%%
15131C203%%q%%%%q%%%q%%%qQ%%q%%%q%%q%%%%%%qQq%%q%%%%qQq%q%%%%%%%q%%%%%qQqj6J6
15116C107%qj6J6%Qqqk4QL2j6%qQqqQq%%%qJ6k4Q%qj6%Q%%QQj6%Qj6Qq%%%%qQq%%%%q%%%q
15103C019Qq%%q%%%%%%q%%%%%%q%qQq%%%%%q%%%qQq%%%qQq%%%q%%%%%%qQq%%%%qQq%%%q%%
15087B931%%%%%%q%%%%q%%qQ%q%%%%qQq%%qQq%%%%%%%q%%%q%%%qQq%%%%%%q%%%%%qQq%%%q
15072B843%%%%qQq%%%%%q%%%%%q%%%qQq%%%q%%%%%qQq%%%%%%%q%%%%q%%%%qQ%q%%%%%%%qQ
15057B771q%%%qQj6Q%%q%%%%%%%%%q%qQ%qQ%q%q%Qq%%%q%%%%%%q%%%%q%Qq%%%%q%%%%%q%%
15042B683%%qQq%%Qq%%%%%q%%%%%qQq%%%%qQq%%%%%qQ%%q%%q%%%%%%q%%%%%%%q%%%qQq%Qq
15026B611%%%%%%q%%%%%q%%%qQq%%%%%%q%%%%%%%%%q%%qQq%%%Qk4J6Qj6Qq%qQ%%%%q%%%%%
15012B547qQq%%%%q%%%%%%%q%%%%qQ%q%%%q%%%%%qQq%%%%%%%%q%%%%%%q%%Qq%%%q%%%%q%Q
14996B475%q%%%%%qQq%%%%%%%qQq%%qQq%%%%q%Qq%%%%qQqQq%%%%%%%%q%%%%%q%Qq%%%%%%q
14981B403Qq%%%%%q%%%%%%q%%%%%%%qQq%%%%%qQq%%%%%%%%%%q%%%%qQ%q%%%%%%%qQq%%%%%
14966B347q%%%%%%%q%%%q%Qq%%%%%%%%%q%%%%%%qQqQq%%%%%qQ%q%%qQ%qQqQqQq%%%%qQq%%
14950B283%%%q%%%%%%%%q%%%%%%q%%%%%%%%%%%%q%%%%%%%%q%%%%%%%q%Q%%q%qQ%q%%%%%%%
14935B227%%qQ%q%%%%%q%%%%%%q%%%%%%q%%%%%%%%%qQ%%q%%%%%%%q%%%%%%%q%%%%%%%%qQq
14920B163%Qq%%%%%qQq%%%%%%%%q%%%%%%%%q%Qq%%qQ%qQq%%%%%%%%%%q%%%%%%%qQ%q%%%%%
14904B115%q%%%%%%%%%qQqQ%q%%%%%%qQq%%%%%%%%%q%%%%%%%%%%q%Qq%%q%%%%Qq%qQq%Qq%
14889B059%%%qQ%q%Qq%%%%%q%%%%%%%qQq%%%%%%q%QqQq%QqQq%%%%%%%%%q%%Qq%%%qQq%%%Q
14874B019q%q%%%%%%%%%%qQq%%%%%%%%%%q%%%%%%q%%Qq%%%%%%%%qQ%qQq%%%%%%%%q%%%%%%
14858A963%%qQ%q%%%%%%%q%%%%%%%%%q%%%%%%%%%%%qQq%%%%%%%%%%%%%%%q%Qq%%%%q%%%%%
14843A915%%%%q%%%%QqQqQq%%%%%q%%%%%%%%%%%q%%%Qq%%%%%%%q%%%%%%%qQq%Qq%%%%%%%%
14828A875%q%%%%%%%%%qQq%%%%%%%%%%%%q%%%%%%%%qQ%q%%%%%%%%%%%%q%%%%%%q%Qq%Qq%%
14812A827%%%%%qQq%%%%%%%%%q%%%%%%%%%q%Q%%%q%%%%%%%%%qQ%qQ%q%%%%%%%%%%%%q%%%%
14797A787%%%%%%q%%%%%%%%%%qQ%%q%%%Qq%%%qQq%%%%%qQ%%q%%%%%%%%%q%%%%%%%%%qQqQq
14782A739%%%qQQq%%%%%%%%qQqQq%%%%%%%%%%%%q%%%%QqqQ%%%%%%%%q%%%%qQ%%%%%q%%%%%
14766A707%%%%%%%%%q%Qq%%%%%%%%%%q%%%%%%%%%qQ%%q%%%%%%%%%q%%%Q%q%%%%qQq%Q%q%%
14751A667%%%%%%%%qQ%%%%%qQq%%%%%%%%%q%%%%%%%%qQ%q%%%%%%%%%%%q%Qq%%%%%%%%%%q%
14736A627Qq%%%%%%Qq%%%%%%%%qQq%%%%%%%%%%%%%%%%%q%%%%%%%qQq%%%%Q%%q%%%%%%%%%q
14720A595%%%%%%%%%%%qQq%%%%%%%%%%%%%%%qQq%%%%%%%%%%%%%q%%%%%%%%%%q%QqQ%q%%%%
14705A563%%%Qq%Qj6Qq%%%%%%%%%%%%%Qqq%QqQq%%%%%q%Q%qQ%q%%%%%%%%%%%%qQ%%qQq%%%
14690A531%%%%%%%q%Qq%%%%%%%%%%%%%%%%%q%%%%%%%%%%qQq%%%%%%%%%%%%%%qQ%%qQqQq%%
14674A499%%%%%%%%%%%qQq%%%%%%%%%%%q%%%%%%%%%%%%%%%qQqQq%%%%%%%%%%%%qQ%qQq%%%
14659A467Qq%%%%%%%%%qQ%q%%%Q%q%%%%%%%%qQq%%%%Qq%Qq%%%%%%%%qQ%%qQq%%%qJ6%j6%%
14644A435Q%q%%%Qq%%%%%j6Q%K4j6Qqq%%%Qqq%Q%%qQq%Qq%Q%%q%Qq%%%%%Qq%%%%%%%Qqq%q
14630A403Q%%%%%%%%%%%%%%qQq%Qq%%%%%%%%qQ%%%q%%%Q%%q%%%%%%%%%%q%%Qq%%%%%%%%%%
14614A387%%%%%q%%%%%Qq%%%%%%%%%%q%%%%%%%%%%%%%%%%%%%%%%qQq%%%%%%%%q%%Q%%q%%%
14599A355%%%%%qQ%%%%%qQqQ%%q%Qq%%Qq%%%%%%qQ%%q%%Q%q%%%%%%%%%qQq%Q%%%qQq%%%%%
14584A331%%qQ%%qQ%q%%Q%q%%Qq%Q%%q%%%%%%q%Q%qQ%%q%Qq%%%%%%%%%%%%%%%q%%%%%%%%%
14568A307%%%%%%%%q%%%%Qq%%%%%qQ%qQ%%%q%%%Qq%%%%%%%%%%%%qQq%%%%%%%%%qQ%%%%qQq
14553A275Q%%q%qJ6qQq%Q%j6qJ6Qqj6J6Qq%qJ6m8M0Qqqq%K4k4Q%%%%%%%%Qq%%q%Q%qQ%qQq
14540A259%%%%%%%%%q%%%%%%%%%%%%%%%%%%%%%q%Qq%%%%%%%%qQ%%%%%%Qj6Q%%%%%%qQq%%Q
14525A243q%%%Q%%%%q%%%%%%%%%qQ%%%%qQ%q%%%%%%%q%Qq%%%%%%%Qq%%%%%%%%%%%%%q%Q%q
14509A211%%%%%%%%%%%%%%%qQqQ%q%%%%%%%%%%%%%%%%%%%%%%%%%q%%%Qq%Qq%%%Qq%%%%%%%
14494A195%%%%%%%%q%%%%%%%%%%%%qQ%%%%%q%%%%%%%%%%%%%%%%%%%%%%%%%qQq%%%%%%%%%%
14479A171%%%%%qQ%%qQ%q%Q%%q%%%%%%%%%%%qQ%qQq%Qq%%%%Q%q%%%%%%%%%%%qQqQ%q%%%%%
14463A147%%%%%%%%qQqQqQ%%%qQ%%%q%%%%%%%%%%%%%%%%Qq%%%%%%%%q%%%%%%%%%%%%%%%%%
14448A131q%%%Qq%%%%%%%%%Qq%%%%%%%%%q%%%Q%%%%%%qQ%%%%q%%%%%%%%%%%%%%%%%qQqQ%q
14433A107%%%%%%%%%qQ%%%%%%q%%Q%%qQq%%%%%%%%%%%%%%%%%qQ%%%q%Qq%%%%%%%%%%%%%%%
14417A091%%%%q%Qq%%Q%qQq%%%%%%%Qq%%%%QqqQ%q%Q%qQq%%%%%%QqQ%%%j6Q%%Qq%%%%%%%%
14402A075%%%%qQqQq%%%%%%%%%%%%%%%%qQ%%q%%Q%q%%%%%%%%%%qQ%%qQ%%%%%%%q%Qq%%%%%
14387A051%%%%%%%%%%%%qQ%%qQ%%qQ%%q%Qq%%%%Qq%%%%%%%%%%%%%%%qQ%%%%%%q%%%%%%%%%
14372A035%%%%%%%%%%%%%%%q%Q%%%qQqQ%q%%%%%%%%%%qQqQ%qQqQq%%QqQq%%%%%%%%%%%%%%
14356A019%%%%%%%%%%%q%%%%%%%%%%%%%%%%%%%%%%q%%Qq%%Q%q%%%%%%%Q%%qQqQq%%Qq%%%%
14341A003Qq%%%%%%%%%%%qQqQq%%%%%%%%%%%%%%%%%%%%%qQqQ%q%%%Qq%%%%%%%%%%%%%%%%%
14326I87%%%%qQqQq%%QqQ%qQq%%%%%%%%%%%%Qq%%%%%%%%%%%qQ%%%qQqQ%q%%qQ%%qQ%qQ%%%
14310I71%qQ%%%%%%q%Qq%%%%%%%%%%Q%qQq%%%%%%%%qQq%QqQq%%%%%%%%%%%%%%qQ%%q%Q%%%
14295I55%%qQ%qQ%%q%%Qq%Qq%%%%%%%%%qQ%%%%%qQ%%%%%%q%%%Qq%%%%%%%%%%%%%%%%%%%qQ
14279I39%%%%%%%%%%%%%qQ%%%%%q%%%%%%%Qq%%%%%%%%%%%%q%QqQqQq%%%%%%%%%%%%%%%%%%
14263I23%%%%%%qQqQqQqQ%q%Q%%qQ%q%%%%%%Qq%%Qq%%%%%q%Q%%%%%%%%%qQ%%q%Qq%Q%%qQq
14248I07%%%%%%qQ%%%%%%%%%qQ%%%%q%Q%%q%Qq%%%%%%%%%%%%%%%%%%%%%%qQqQ%%%%%qQqQq
14232H91%%%%%%%%%%%%%%%%%%%%%%%%%%%qQq%%%%%%%%%%%%%%%Qq%%%%%%%qQ%%%%%%%%%q%Q
14217H83%%q%%Q%q%%%Qq%%%%Qq%%%%%%%%%q%QqQ%%qQ%%q%Q%%%%%qQ%%q%%%%%Q%q%%%%%%%%
14201H67%%%%%%Qq%%%%%qQ%%%%qQq%%%%%Qq%%%%QqQq%%%%%%%%%%%%%%%%%%%%%q%Q%%qQ%%q
14186H51Q%q%%%%%%%%%%%Qq%%Qq%%%Qq%Qq%%q%J6k4QQqQ%qQQk4%QQq%%%Qj6Q%%%qqM0%m0K4
14171H51k4J6J6k4Qq%Q%Qj6%%Q%%%qQqQ%%%%%%qQ%%q%Q%%q%Qq%%%q%J6q%qQqQ%q%%%Q%qQq
14157H27%%%Q%q%%Qq%%%%%%%%%%%%%%%%qQ%qQqQ%qQq%%QqQq%%%%%%%%%%%%%%%%%%%%%%%%%
14142H19%%%%%%%%%%%%%%%%qQqQ%q%Q%%%%%%%qQqQq%Qq%%%%%%%%%%%%%qQqQ%%%q%Qq%%Qq%
14126H03%Qq%%%%%%%%%%%Qq%%%%%%%%%%%%qQ%%qQ%qQ%%qQ%q%%%%%%%%%%%QqQq%%%%%%%%%%
14110G95%%%%%%q%%%%%%QqQq%%%%%Q%q%%%%%%%%%%%%%%%%%%%%%%%%%%%%%%%%%%%qQ%%%%qQ
14095G87qQ%%qQq%%%%%%%%%%%%%%%%%%%%%qQ%%q%Q%q%%Q%qQ%q%%%%%%Qq%%%%%%%%%%%%%%q
14079G63QQ%qQ%j6%%Q%%q%Q%q%Q%qQq%%QqQq%%%%%%Qq%%%%%%%%%%%%%qQ%%%%%%%%%%%q%%%
14064G55Q%%qQ%%%qQ%q%Q%%qQq%QqQq%%%%%%%%%%%%%%%%q%%Q%%q%Q%qQqQ%qQ%%%%%q%%%%%
14048G47%%%%%%%%%%%%%%qQqQ%%%%%%%%%%%qQqQ%qQqQqQ%%%%%q%%%%Qq%%Q%%q%%%%%%%%qQ
14033G39q%%Q%%%%%%%%%%qQq%%%%%%Q%q%%%%%%%%%%%%%%%%%%%%%%%qQ%%%%%%%%qQq%%Qq%Q
14017G31%%%%%%q%%%%%%%Qq%%%Q%qQq%%%%%%%%%%%%%%%%qQ%qQ%%%%%%%%%%%%qQq%%%%%%%%
14002G15%%%%qQ%%%%Qq%%%%%%%%qQq%%%Qq%QqQ%q%%%%%%%%%%%%%%%%%%%%%%%%%QqQq%%Qq%
13986G07%%%%%%%%%%%%%%%%%%%%%%%%%%%%%%qQqQ%q%%Q%q%%%%QqQq%%%%%%%%%%%%%%%%%%%
13971F99%%%%%%%%%%%qQq%QqQ%qQqQq%%%%%%%%%%%Qq%%qQ%%%qQ%%%%%%%%%%%%%%%%%q%QqQ
13955F91%%%%%%q%QqQqQqQq%%QqQ%q%%%%%%%%%%%%QqQq%Q%qQq%%%%%%%%%qQQj6Q%qQ%qQ%%
13940F83q%Q%%qQqQqQq%%%Qq%%%%%Q%q%%%%%%%%%%%q%Q%qQ%%%%%%%q%QqQ%%q%QqQqQ%%%q%
13924F67%Qq%%%%%%%%%%%%%%%%%%%%%%%%%%%%%%%%%%%%%%%%%%%%qQ%qQ%%%%%qQq%%%%%%%%
13909F59%%%%Qq%%%%%%%%%%%%%%%%%qQ%%%%%%%%%%%%%%%qQq%%Qq%%Qq%%%%Qq%%%%%%%%%%%
13893F51%%%Qq%Qq%%%%%%qQ%%%%%%%qQ%%%qQq%%%Q%%qQqQqQq%%Qq%Qq%%%Qq%%%%%%%%%%%Q
13877F51q%Qq%%%%%%%%%QqQq%%%%%%%%%%%%%%%%%qQqQ%%%%qQ%%%%%qQq%Qq%%%%Qq%%%%Qq%
13862F35%%%%%%%%%%%%%%%%%%%%%%%%%%%%%%%%%%%qQ%%qQ%%%%%%%%%%%%%%q%%%%%%%%Q%%q
13846F27%%Qq%%%q%Q%%q%Q%%%%q%%Q%%%%%%q%Qq%%%%%%%%%%%%QqQ%%qQq%%%%%%%%%%Q%q%%
13831F19%%%%%%%%%%qQ%%qQ%q%%Q%%qQqQ%%%%%%%%%%%%%%%%qQ%%q%%%%%%%Qq%%%%%%%Qq%%
13815F11Qq%%%%%%%%%%%%%%%%%%%%%%%%%%qQ%%%qQ%%%%%%%%%qQ%q%%%%%%%%%%%%%%%%%%%%
13800F03%%%%%%%QqQq%Qq%%%Qq%%%%%%%%%%%%%%%%%%qQ%q%%%%Qq%%%%%%%%%%%%%%%%Qq%%%
13784E95%%%%%%%%%%%Qq%%%%%%%%%%%%qQ%%%%%%%%%%%%%qQ%%%%%q%Q%%%%%%%%%%%%qQ%%q%
13769E87%%%Qq%%%%%%Qq%%%%%%%%%%%%%qQq%%Q%%%%%%%%%%%%%%%%%%qQ%%%%%%%%%%%%%%%%
13753E87%qQqQqQq%%Qq%%Qq%Qq%%%%%%%%%%%%%%%%%%%%%%%%%%%%%%%%%qQ%%%%%%%%%%%%%%
13737E79%%%qQ%%q%Qq%Q%%q%%%Q%%%%qQq%%Qq%%%%%%%%%%%Qq%%%%%%%%%%%%%%%%%%%%%%%%
13722E71%%qQqQq%%%QqQq%%%%%Qq%%%%%Q%q%%Qq%%%%%%%%%%%%%%%%%%%qQ%qQq%Qj6QQ%Q%%
13707E71q%%%%%%%%%%J6k4J6%Qj6%qQ%qQqQq%Qq%%%%%%%%%%%%%%%%%%%%%%%%%Qq%qQqJ6q%
13692E55%%%%%%%qQ%%qQ%qQ%%%%%%qQ%q%Qq%%Q%%%%qQ%%%%%%qQ%Qq%%%q%%%%%%Q%qQ%q%%%
13677E47%%%%%%%%%%%%%%%%%%%%%%%%%%qQ%%%%%qQ%%q%%Q%q%Q%%%q%%%%%%%%%%%%%Q%q%%%
13661E39%%%%%Q%%%%%%q%%%%%%%%%%%%%%%%%%%%%%%%%%%%%%%%%%%%%%%%qQ%%%%%qQq%Q%q%
13645E31%Q%qQ%q%Qq%%Qq%%%%%%Q%q%%%%%QqQ%qQq%%QqQq%%%%%%%%%%%%%%%%%%%%%%%%%%%
13630E31%%%%qQ%%%%qQ%%%%%%%%%%qQ%%qQqQq%%%%%%Q%q%Qq%qQ%%%%%%%%%%%%%%%%%%%%%%
13614E23%%%%%%%%%%%%%%qJ6j6Qj6K4%k4J6q%QqQ%%qQ%%%%%%qQqQ%%%q%%Q%%q%Q%qQ%%qQq
13600E15%%QqQq%%%Q%%%qQ%%%%%qQ%%%q%%%%%%%%%%%%Qq%%%%%%%qQq%Q%q%Q%%%%%q%Q%qQ%
13585E15%%%%qQ%%%%%qQ%%%%%%%%%%%%%%%%%%%q%%%%%%%%%%QqQq%%%Qq%%%%%%%%%%%%%%%%
13569E07%qQ%%%%%%%%%%%%%%%%%%%%%%%%%%%%%%qQ%%%%%%%%%%%qQ%q%QqQqQq%%%%%%%%%%%
13553D99%%%Qq%%%%%%Qq%%%%%%%%%%%%%%%%%%%qQ%%%%%%%%%%%%%%%%%%%%%%%%%%%q%%%Q%%
13538D99%%%%qQ%%qQq%%%Qq%Q%q%%Qq%%%%%%%%%%%%%%%%%%%%Qq%%%%%%%%%%%%%%%%%%%%%%
13522D91%%%%%qQ%%%%qQ%qQq%%QqQq%QqQ%qQ%%qQqQqQqQq%Qq%%%QqQ%q%%%Q%qQ%qQq%%%%%
13507D83%QqQq%%Qq%%%%%%QqQ%q%%%%%%%%%%%%%%%%%%%%%%%%%%%%%%%%%Qq%%%%%%qQ%%qQ%
13491D83%%%%%%qQ%qQ%%q%%QqQ%%%%%%%q%%Qq%%%%%%%%%%%%%%%%%Qq%QqQq%%%%%%%%%%%%%
13476D75%%%%%%qQ%QqqQ%%Qq%%%%%%%qQQk4Q%Q%%%%%%%%%qQ%%q%Q%qQ%%q%QqQ%%%%%q%QqQ
13460D75%%qQq%%%Qq%%%%%%%Q%q%Qq%Qq%%%%%%%%%%%%%%%%%qQ%%%%%%%%%%%%%%%%%%qQ%%%
13445D67q%Q%qQ%%%%%%%%%qQq%%%%%%%%%%%Qq%Q%%q%%%%%%%%%%Q%q%%%Qq%%%%%%%%%%%%Qq
13429D59%%%%%%%%%%%%%%%%%%%%%%%%%%%%%qQ%%%%%%%%%qQqQ%%%%%%%%%%%%%%%%%%qQ%qQ%
13414D59%%qQq%Q%%q%%QqJ6q%%%%%%%%j6J6%%q%QqQq%%QqQ%q%%%%%%%%Qq%%%%%%%%%%Qq%%
13399D51%%%%%Qq%%%%%Qq%%%%%%%%%%%%%%%%%%%%%q%Q%qQqQqQ%%%qQ%q%%QqQqQqQq%%%%%%
13383D43%%%%%Qq%%%%%%%%%%%QqQqQqQ%qQqQq%%qQ%%QqQqQq%%%%%%%%%qQqQ%%qQ%qQ%Qq%%
13368D43%%q%Qq%Q%%%%%%%%%%%%%qQqQqQ%%%qQ%qQ%%q%%%%QqQqQq%%%%%Qq%%%Qq%%%%%Q%q
13352D35%%Q%%%%qQ%q%Qq%%%%%%%%%%%q%Q%%qQ%q%%Q%%%%%%%%%qQq%Q%%%%%%%%%%%%%%%%%
13336D35%%%%%%%qQ%%%%%%%q%%QqQ%q%%%Q%q%%%%%%%%QqQqQqQqQq%%Q%q%%Qq%%%%%%%%%%%
13321D27%%%%%%%%%%%%%%%%%%%Qq%%Qq%Qq%%%%%%%Q%q%Qq%%%%%%%%%%%%%%%%%%%%%%%%%qQ
13305D27q%%%Qq%%%%QqQ%%q%%%Qq%%%%%%Q%qQ%q%QqQq%Q%%%%%%%%qQq%%%Qq%%%%%%%%%%%%
13290D19%%%%%%%%%%%qQ%%%%%%%%%%%%%%%Qq%qQ%%%%%%%%%%%%%%%%qQqQ%q%%%%Q%%%%%%%q
13274D11Q%%qQ%%%%q%%Q%q%QqQ%qQqQq%%%%%%%%%%%%%%%Q%%%%q%%QqQ%%q%%%%%%%%%%%Q%%
13259D19q%Qq%%%%%%qQ%%%%%%%%%%%%%%%%q%Q%%%%%%%%%%%%%%%%%%%%%%%Qq%%%qQ%%%%%%%
13243D11%q%%QqQj6J6qQqJ6j6qJ6k4J6j6J6%%Q%%qQ%%qQ%qQq%%j6J6qJ6q%q%Q%%%%%%%Qq%
13230D03%%%%%%qQ%q%Q%%%%QqqQQq%%%Qq%%%%Qq%%%%%%%%qQ%%%%%%%%%%%%%%%%%%%%%%%%%
13215D03%q%%Qq%Q%%%%%%%%%qQqQ%q%%%%%%%%%%%%%Qq%%%%%%%Qq%%%%%%%%%%%%%Q%q%Qq%%
13199C95%%QqQ%q%%%%%%%%%%%%%%%%%%%%%%%%%%%%%%%%%%%q%QqQ%%qQ%q%Q%%%%qQqQq%%%%
13184C87%%%Q%%%%qQ%%qQ%%qQ%%%%qQq%%Q%%qQq%Qq%%Qq%%%Qq%%QqQq%Q%qQ%%q%%Qq%%%%%
13168C87%%%%%%%Qq%%Qq%%%%%%%%%qQ%qQ%%q%%%Q%%%%qQ%%%%%%qQ%qQ%%%qQ%%%%%%%%%%%%
13152C87%%%%qQqQqQ%%%%%%%%%%%%q%Qq%%Q%qQ%%%%qQ%%qQqQqQq%%%%Q%%%%qQ%%%%%%%%%%
13137C87%qQqQ%%%%qQ%%%%q%%%%Q%qQq%Q%%%q%%%Qq%%%%%%%%qQ%%%%%%%%Qq%%%%%qQqQ%q%
13121C71Q%%%%%%qQ%%%%%q%%Q%qQqQ%q%Q%%qQqQq%%QqQ%%%%%%%%%%%%%%%%%%%%%%%%%q%%Q
13106C79%qQq%QqQq%%%%%%%%%%%%%%%%%%%%%%%%%%Qq%%%%%%%%%%%%%%%%%%%%%%%%%%%%%%%
13090C71%%%%%%%Qq%%qQ%%%%%%%%%%%%%%%%%%%%%%%%%%q%Q%%%%%%%%%%%%%%%%%%%qQ%%%%%
13075C71%%q%Qq%%%%%%%%%%%%QqQq%Qq%%%%%%%%%Qq%%Q%%%%%q%%%%%%%%%%%%%%%%%%%%%%%
13059C63%%%%%%%%%%%%%qJ6q%%%%%%%%%%%%%%%%%%%%%%%%%%%%%%%%%%%%%%%%%%%%%%%%%%%
13044C63%%%%%%%%%qQ%%%%%%%%%%%%%%%%%%%%q%Qq%%Q%qQ%%%qQ%%%%%q%Qq%%%%%%Q%%%%%%
13028C63q%%%%%%%%%%%%%%%%%%qQ%%Qq%%%%%%Q%qQq%Q%%%q%%Q%%%q%QqQqQ%%%q%%%%Qq%%%
13013C55%%%%%%%%Qq%%%%%%%%%%%%%%%%%%qQq%Qj6%J6%%%%%%%%qQq%Qq%QqQ%q%QqQ%%%qQ%
12997C55qQqQqQ%q%Q%%%%%%%%%qQ%%qQ%qQq%QqQ%%q%%QqQ%q%QqQ%%%q%%%%%%%%%%%%%%%%%
12982C47%%%%%%%%%%%%%%%%%%%%%%%%%%%%%%%%%%%%%%%%%%%%%%%%%%%%%%%%qQ%%%%%%%%%%
12966C47%%%q%Q%%%%%%qQ%%%%%%%%%%%%%%%%%%%%q%%%Q%%%%qQ%%q%Q%qQqQ%q%Q%%%%%qQ%%
12951C47%%%qQ%qQ%%%%%%%%%%%qQ%qQq%QqQq%%Qq%Qq%%Q%q%%%%%%%%%%QqQq%%%%%%%%%%%%
12935C39%%%%%%%%%%%%%%%%%%%%%%%%%%%%%%%%%%%%%%%%q%Qq%%Qq%Q%qQqQ%%%%%q%Q%%%%%
12920C39%%%%%qQ%%q%Q%qQ%%%%qQ%qQ%q%Qq%%%Qq%%Q%%%%qQq%%%Qq%Qq%Q%%%%qQqQq%%%Qq
12904C31%%%%%%%%%%%%%%%%%%%Qq%Qq%%%%Qq%%%%%%%QqQq%%%Qq%Qq%%%%%%%%%%%Qq%%%%%Q
12888C39%q%Qq%qQ%%%%%%%%%%%%%%%qQ%q%%%Qq%%Q%%%%%%%%%%%%%%%%%%%%%%%%%%%%qQ%%Q
12873C39j6QqQqQ%%%%%%%%%%%%qQ%%%%%%%%%qQ%%q%%%%%%QqQqQq%Q%qQq%%%Q%%q%Q%qQ%q%
12858C23%%%%%%%%%%%%%%%%%%%%%%%%%%%%%%%%%%%%qQ%%%qQqQqQ%%%%%%%%%%%%%%%qQ%%%%
12842C23%%%%%%%%%%%%%%%%%qQ%%qQ%%%%%qQ%%%%%%%q%%Q%%%%%%%q%%%Q%%%%qQqQqQ%%%qQ
12826C23%%%%%%%%%q%Q%%%%%%qQ%%%%qQ%%%qQ%q%Qq%%Qq%%%%Qq%QqQqQqQq%%%%%%%%%Q%q%
12811C15Qq%%Q%q%%%%%%%%%%%%%%%%%%%%%%%%%%%%%%%%%%%%%%%%%%%%%%%%%%%%%%%%qQqQ%
12795C15%%%%%%%%%%%%%%%%%%%%%Qq%Qq%Qq%%%%%%%%%%%%%%%Qq%%%%%%Qq%%%%%%%%%%%%%%
12780C15%%%%%%%qQqQ%%%%%%%%%%%%qQ%%%%%%%%%q%Qq%QQj6%Q%qQ%qQqQq%QqQqqQ%%Q%%qQ
12764C15qQj6QQqQq%Qq%%%%qQ%%Qq%%QqQqQ%%%q%QqQqQQj6qJ6%j6QQ%%q%%%%%%%%%%%%%%%
12750C07%%%qQ%%%%%%%%%%%%%%%%%%%%%%%%%%%%%%%%qQ%%%%%%qQ%qQ%%%%%%qQq%%%%%%%%%
12734B99%Qq%%%%%%%%%%%%%%Qq%%Qq%Q%%%q%Qq%%%%Q%q%Q%q%QqQqQqQ%q%Qq%%Qq%Q%q%%%%
12719B99%%%%%%%%%%%%%%%%%%%%%%%%%%%%%qQ%%%%%%%%%%%%%%%%%%%%%%%%%%%%%%%%%%%%%
12703B99%%%%%%%%%%%%%%%%%%%%%%%%%%%%%%%%%%%%%%%%%%%%qQ%%%qQq%%Q%q%QqQ%%%%%%%
12688B99%%%%q%%%QqQ%%qQ%%%%%%%qQ%%%%%%qQ%qQ%%%%%%%qQqQ%%%%%%qQ%qQqQq%Q%%qQj6
12672B83L2%j6q%QQk4QQQj6%Q%%qQqQqQqQqQqQq%%%%%%%Qq%%%%%%%%%%%%%%%%%%%%%%%%%%
12658B91%%%%%Qq%%%%%%%%%%%%%%Q%q%%%%%%%%%%%%qQ%Qq%%%Qq%%%%%%qQ%%%%%%%%%%%%%%
12642B91%%%%%%%%%%%%%%%%%%qQ%%%%%%%qQ%%%%%%%%%%%%%%%%%%%%%%%%%%%%%%%%%%%%%%%
12626B91%%%%%%%%%%%%%%%%%%%%%%%%%%%%%%%%%%%%%%%%qQqQq%%%%%%%Qq%%%%%%Qq%Qq%Qq
12611B83Q%%q%%%%Q%qQq%QqQ%%%qQ%%%qQ%%%%qQqQq%%Qq%%%Q%%qQq%%%%%%%Qq%Q%%%%%%q%
12595B83%QqQq%Qq%%%%%%%%%%%%qQ%%%%%%%%%%%%%%%%%%%%%%%%Q%q%Qq%%%%%%%%%%%%Qq%%
12580B83%%%%%%%%%%%%%%%%%%%%%%%%%%%%%%%%%%%%%%%%%%%qQ%%%%%%%%%%%%%%%%%%%%%%%
12564B83%%%%%%%%qQ%%%%%%%qQ%%%%%%%%%%%q%Q%%qQqQ%%qQqQ%q%QqQqQqQq%%QqQq%%%%Q%
12549B83%q%Qq%Q%%%%%qQ%%%%%%%q%Qq%%%%%%%QqQ%q%%QqQq%%%%%%QqQqQ%q%%Qq%Q%q%%%%
12533B75%%Q%qQj6Q%%%%QqQj6Q%%Qq%%%%%%%%q%Q%qQ%%%%%%%%%%%%%%%%%%%%%%%%%%%%%%%
12518B75%Qq%%%%%%%%%%%%QqQq%%%%%%%%%%%%%%%%%%%%%%%%%%%%%%%%%%%%%%%%%%%%%q%%Q
12502B75q%%Q%q%Q%%qQq%%%%%%%%%%%%%%%%%%%%%%%Q%%q%%QqQ%q%%%%Qq%%%%%%%QqQ%qQ%q
12487B67%%%%%%%%Qq%Qq%%%%%Qq%Qq%%%%%%QqQq%Qq%%%%Qq%%%%%%%%%%%Qq%%%%%%%%%%%%%
12471B67%%%QqqQQq%%Q%qQ%q%%%%%%%%%%%%%%%%%%%%Qq%%%%%%%%%%%Qq%%Qq%%%%%%%%%%%%
12456B67%%%qQ%%%%%%%%%%%%%%%%%%%%%%%%%qQ%%%%%%%%%%%%%%%%%%%%%%%%qQ%q%Q%qQ%%%
12440B67%%%%%%q%QqQ%%%%%%%%%%%%%%%qQ%%q%QqQ%qQq%%QqQq%Q%%%%%%q%Q%%q%%%%QqQq%
12425B59%QqQqQq%%Q%q%Qq%Q%%qQ%qQ%%%%%%%%%%%q%%%%%%Qq%%%Q%%%%q%%%%Qq%QqQ%q%%%
12409B59%%%%%%%%%%%%%QqQq%Qq%%%%%%qQ%%%%%%%Q%q%%%%%%%%%%%%%%%%%%%QqQq%%%%%%%
12393B59%Q%q%Q%q%%%%%%%%qQ%%%%Qq%%%%%%%%%%%%%%%%%%%%%%%%%%%%%%%%q%Q%%%%%%%qQ
12378B59%%%%%%%%%%%%%%%%%%%qQ%%%%%%%q%QqQ%%%%%%%%%%%%%%%%%qQq%%%%%%%Q%%%%%%%
12362B59%%%%%%%%qQ%%%%%q%%Q%%%%%%qQ%qQq%%Q%%%%%%%%qQqQ%q%Q%%q%QqQ%q%QqQq%%%%
12347B51%%%%%%%%%%%%%%%%Qq%%%%%%%Q%q%%%%%%%Qq%%%%%%%%%%%%%%%%%%%%%%%%%%%Qq%%
12331B51%Q%q%Q%%qQq%Q%%%%q%Q%%qQ%%%%%%q%%Qq%%%%%%%%%%qQ%%Qq%%%%%Qq%Qq%%%%%%%
12316B51Qq%%%%QqQq%%%%%%%%%%%%%%%%qQ%%%%Qq%%%%qQq%J6j6Q%q%%qJ6qJ6Qk4qqL2j6k4
12302B19J6QJ6m0K4Q%Qq%Qj6qL2k4Q%qK4k4k4j6K4M0l2J6qQq%%qJ6%%%%Qj6Q%%%%q%QqQ%q
12290B43%Q%%%%%qQq%Qq%%%%%Qq%Q%%%%%%%%%%%%q%%Q%%q%%Qq%%%%Q%q%%%QqQ%%%q%%%%%%
12275B43%%%%%%Qq%%%Q%q%%%%Qq%Qq%Q%%qQq%%%%Q%q%%%%%%%Qq%%%Q%qQq%qQqQ%%%qQ%%%%
12259B43%%%%%%%%%%%%%%%%%%%%%%%%qJ6q%%%%%%%%%%%%%%%%%%%%%%%%%%%%%%%%%%%%%%%%
12244B43%%qQ%%%%%qQq%Qq%%Q%%%%%%%%%%%%qQ%%%%%%%%%%%%qQ%%%%%%%%%%%%%%%%%%%%%%
12228B43%%%%%%%%%%%%%%%%%%%%%%%%%%%%%%%%%%%%%%%%%%%%%%%%%%%%%%%%qQ%%%%%%%%%%
12213B43qQq%%Q%q%%Q%%qQ%%%%%%%%%qQ%qQ%q%Q%%q%QQ%q%q%Qq%%%%%Qq%%%Qq%%Q%q%Qq%%
12197B35%%%%%%%%%%%%%Qq%%%%%%%%%%%%%%%QqQqQq%%%%%%%%Q%%qQq%Qq%%Qq%%%%%%%%%%%
12181B35%%%%J6qj6J6q%Qq%%%%%Qq%%%%%%Qq%%%%Qq%%Qq%%%%QqQq%Q%%%%%qQq%%%%%Qq%%Q
12167B43q%%%%%%%%%%%%%%%%%%%%%%%%%%%%%%%%%%%%%%%%%%%%%%%%%%%%%%%%%%%%%%%%%%%
12151B35%%%%%%%%%%%%%%%%%%%qQ%%%%%%qQqQ%qQ%q%%Q%%%qQ%qQ%%%%%%%%%%%%%%%%%%%%%
12135B35%%%%%%%%%%%%qQqQ%%%%q%%Q%qQ%%%%%%%%%%%%q%%QqQ%q%Q%%qQ%%%%%%%qQ%%%%%%
12120B35%qQ%%%q%%%%Q%qQ%%q%Qq%%%%%%%%%%%%QqQq%Q%q%Q%qQq%%%%%Qq%QqQ%%qQq%%%%%
12104B27%%%%%%%%%%%%%%%%%%%%%%%%%%qQ%%%qQ%qQ%%%%%%%%%%%%%%%%%%%%%%%%%%%%%%%%
12089B27%%%%qQ%%%%%QqqQ%%%qQ%%%%%%%%%%%%Qq%%Qq%%%%%%Qq%%%%%%%%%%%%%%%%%%%%%%
12073B27%%%%%%%%%%%Qq%%%%%%%%%%%qK4j6%%%%qQ%%%%%%%%%%%%qQqQ%%%qQqQ%qQqQ%%%%q
12058B19Q%%%%%q%Q%%%q%%%Qq%Q%%%q%Q%%%%qQ%%%qQ%%q%Q%%qQ%%%%%qQ%%%q%Q%%%qQ%%%q
12043B19%%Q%%%%%qQ%%%%%qQqQ%q%%%%%Q%%%q%%%%%Q%q%%%%%%%%%%%Qq%%QqQq%%%Qq%%%%%
12027B19%%Qq%%%%%%Q%%q%Q%q%%%%Q%%%%q%%%QqQq%%Q%%%%%qQq%%%%%%%Q%%qQ%q%Q%q%Qq%
12011B19%%%%%%%%%%%Qq%%%%%%%%%%%%%%%Qq%%%%%%%%%%%%%Q%%%qQq%%QqQq%%%%%%%%%%%%
11996B19%Qq%%%%%%%%%qQ%%%%%%%%%%%%%%%%qQ%%%%%%%%%%%%%%%%%%%Qq%%%%%%%%%%%%%%%
11980B19%%%%%%%%%%%qQ%%%q%%%%%%Q%%q%%%Q%%qQ%qQ%qQ%%q%Q%%%q%%%Q%%%%%%%%%%%%%%
11965B19%%%%%%%%%%qQqQ%%%%%%%%%%%%%%%%%%%qQ%%%%%%%%%%%%%%%%%%%%%%%%%qQ%%%%%%
11949B19%qQqQ%%%%%%%%%%qQqQ%qQq%%QqQ%q%Q%qQ%%%q%Q%qQ%%qQq%%QqQqQq%%%%Qq%Q%%%
11934B19%%q%Q%q%%QqQq%Q%%%q%%%%%%Qq%Qq%%%%%Qq%%%Q%q%%QqQ%q%%%%Q%%q%%Q%qQqQq%
11918B11%%%%%%%%%%%%%%%%%%%%%%%qQ%%%%%%%%%%%%%%%%%%%%%%%%%Q%%%%%%qQqQ%%q%%%%
11902B11%%%%%%%%%%%%%%%%%%%%%%%%%%%%%%%%%%%%%%%%%%%%%%%%%%%%%%%%Qq%%%%%%%%%%
11887B11%%%%%%%%qQ%%%%%%%%%%%%%%QqQq%%%%%Qq%%%%%%%%%%%%%%%%%%%%%%%%%%%%%%%%%
11871B11%%%%%%%qQ%%%%%%%%qQ%%%%%%%%qQq%QqQ%qQ%q%%Q%q%Q%%qQ%%%qQ%%%q%Q%%%%%%%
11856B11%qQ%%%qQ%%%%%%%%%%%%qQ%%q%Q%%%%%%%%%%%%%%qQ%%%%qQ%%%%Qq%%%%%q%%%%%Qq
11840B03Qq%Qq%Q%%%%%%q%Q%q%%%Qq%%%Q%qQqQq%qQ%Q%%%%%qQ%%%%%qJ6j6%%%Q%qQqQ%%q%
11825B03Q%%%%%%%q%Q%%%%q%%QqQ%qQq%%%Qq%Qq%qJ6q%%%%%%%%%%%%%%Qq%Q%q%%%%%%%%%%
11810B03%%%%%%%q%QqQqQ%%%%%%%%%%qQ%%q%Q%%%%%%%%%%%%%%%%%%%%%%%%%%%%%%%%%%%%%
11794B03%%%%%%Qq%%%%%%%%%%%%%%%%%%%%%%%%%%%%%%%%QqQq%%%%%%%%%%%%%%%%%%%%%%%%
11779B03%%%qQ%%%%%Qq%%%%Qq%%Q%q%Qq%Qq%%%%%%%%%Qq%%%%%%%%%%%%%%%%%%%%%%%%QqQq
11763B03%%%%%%%%%%%%%%%%%%Qq%%%%%%%%%%%%%%%%%%qQ%%%%%%%%%%%%%%%%q%QqQ%%%%%%%
11748B03qQ%%%qQ%%%%%%%%q%Qq%%%Q%%%qQ%%%%qQq%%%Qq%Q%q%%Q%qQ%%qQq%Qj6QQ%%q%QqQ
11732B03%%%%%%qQq%Qq%%%%Q%%%%qQ%%%%%qQq%%Q%q%%%%%%%%%%Q%%q%%QqQq%%%%%%%%%%%Q
11717B03qQq%%%%Qq%%Qq%%%%Qq%Qq%Q%qQq%%%%%%%%%Qq%%%%%%%Qq%%%%%%%%%%%%%%Qq%%%%
11701A95%%%%%Qq%%%%%%%%%%%%%%%%%%%%%%%%%%%%%%%%%%%%%%%%%%%%Qq%%QqQqQq%Qq%%Q%
11685B03q%%%%%%Q%qQq%Qq%%%%Qq%%%%%%%%%%Qq%%Qq%%%Qq%Q%q%%%%%%%%%%%%%%%%%%%%%%
11670A95%%%%%%%%%%%%%%%%%%%%%%%%%%%%%%%%%%%%%%Qq%%%%%%%%%%%%%%%%%q%Q%qQ%%%%%
11654A95%%%%%%%%%%%%%%%%%%%%%%%%%%%%qQ%%%%%%%%%%%%%%%%qQq%Q%%%%%%%%%qQq%%%%%
11639A87QqQqQ%%%%qQ%%%%%%q%Q%%%%%q%Q%%%%%%%%%q%Qq%%Qq%%Q%qQqQqQ%qQ%qQ%%%%%%q
11623A87Q%%qQ%q%Qq%%%%%%%%%%%%%%QqQ%q%%%%Q%%%%%%%q%Q%%%q%%%QqQ%%%%%q%%%%%%%%
11608A87%%%%%%Q%%qQ%%%%qQq%%%QqQ%q%Q%q%Qq%Q%qQ%%qQq%Q%qQq%Q%q%%%Q%%qQ%q%Qq%%
11592A87Qq%%QqQ%%q%%%%%Qq%%%Qq%%QqQq%Qq%%%%%%%Qq%%%%%%%%Qq%%%%%%%%QqQ%q%Q%%%
11577A95%q%%%%Qq%%%%Q%%%q%%%%Qq%%%%Q%qQq%%%%%%%%%%%%%%%Qq%%%%%%%%%%%%%%%%%%%
11561A87%%%%%%%%%%%%%%%%%%%%%%%%%%%%%%%Qq%%%%%%%%%%%%%%%%%%%%%Qq%%%%%%%%%%%q
11545A79QqQ%%%%%%%%%%%%%%%%%%%%%%%Q%q%%Qq%Qq%%%%%%%%Qq%%%%%%%%qQQj6Q%QqQqQqq
11530A79Q%%%%%%%%%%%%%%%%%%%%%%%%%%%%%%q%Q%%%%%%%%qQq%%%%Qq%%QqQ%%%%%%%%qQqQ
11515A87qQ%q%Q%%q%Q%%%%qQq%Q%%%%q%%%%%%Q%%%%q%Qq%Q%q%%%Qq%%%%%Q%q%Q%%%%qQQq%
11499A87%qQ%%Qq%%%%%%%%%%%%%%%qQq%Q%j6J6%qQ%%%%%%%q%Q%q%%%%%%%%%%%%%%%%%%Qq%
11484A79%%%%%%%%Q%j6J6qQq%%%%%Qq%Q%q%QqQq%QqQq%%%%%%%Qq%%Q%%%%qQq%Q%q%%Qq%%%
11469A79QqQq%%%%Q%q%%%%%%%%%%%%%%%%%%%%Qq%%Q%q%QqQq%%%%%%%%%%%%%%%%%%%%%%%%%
11453A79%%%%%QqQq%%%%%%%%%%%%%%%%%%%Qq%%%%%%%%%%%%%%%%%%%%%%%%qJ6q%%%%%%%Qq%
11438A79%%%%QqQq%%%%%%%%%%%%%%%%%%%%%%%%%%%%%%%%qQ%%%%%%%%%%%%%%%%%%%%%%%%%%
11422A79Qq%%%%%%%%%%%%%qQ%%%%%%%%%%%%%%%%%%%%%%%%%%%%%%%QqQq%Qq%%%%%%%q%Q%%%
11407A79%%%%%%Q%%%%%q%%%%%%%%%%%%%%%%qQ%%%%%%%%%%%q%%%%Q%%%qQq%Q%q%%Qq%%Q%%%
11391A79qQ%%%%%%%%%%%%%%%%%%%%%%%%%%qQ%q%%QqQqQq%%%Q%%%%%q%Q%%%%%%%%%%Qq%%%%
11376A79%%%%%%%%%%%%qQ%%%%%%%%%%%%%qQ%qQ%%%%%q%Q%%%%q%%%%J6qj6J6Qj6%Q%%Qq%%q
11361A71%QQm0M0%qqqK4qqQq%%%Q%qQ%qQ%%qQ%%%%qQ%qQ%%%%%%qQ%qQ%%%%q%Q%qQ%%%%%%%
11346A79%%%%qQqQ%%%qQ%%q%Q%%%%%%%%%%%q%%%%%%%%Q%%%%%%q%%Q%q%Q%%%%%%%%%%%%%%%
11330A79%%%%%q%%%%QqQqQ%%%qQ%%%%qQ%%q%Qq%Qq%%%%Q%%%%%%%%%%%%qQqQqQq%%Q%%%%q%
11315A71%%%%%%%%Qq%%Q%q%%%%%%%%%%Qq%%%%Qq%%Qq%%%Qq%%%%%%%%%%%%Qq%%%%%QqQq%%Q
11299A79q%QqQ%%qQqQ%q%QqQqQ%%%qQqQ%q%Qq%%%%%Qq%%%%%%%%%%%%%%Q%%%q%%%%%%%%%%%
11284A71%%Qq%%%%%%%%%%%%%%%%%%%%%%%%%%%%%%%Qq%%%%%%%%%%%%%%%%%%%%%%QqQ%q%%%%
11268A71%QqQ%qQ%qQ%Qj6Q%qQ%%qQqQ%q%%%%%%%%%%%%%%Q%q%%%%%%%%%%%%%%%%%%%%%%%%%
11253A71%%%%%%%%%%%%%%%%qQqQ%qQ%%%Qj6%Q%%%qQ%%%qQ%%%%%%qJ6q%%%%%%%%%%%%%%%%%
11238A71%%%%%%%%%qQ%%%%%%%%%%%%QqQq%%%%%%%%%%%%%%%%%%%%%Qq%%%%%%%%%%%%%%%%%%
11222A71%%%%%%%%%%%%%%%%%%%%%%%%%%%%%%%%%%qQ%q%Q%%q%Q%%%%qQ%%%%%%%%%%%%qQqQ%
11207A71%%%qQ%%%%%%%%%%%%%%%%%%qQ%%%%%%%%%%%%%%%qQqQ%q%Q%%%qQ%qQ%q%%%%Q%qQq%
11191A63%Q%%%%%%%%%%%%%qQ%%qQ%%%%q%Q%%%qQ%%%%qQ%qQ%qQq%Q%%%%%%%%%%%%%%%%%%%%
11176A71%%%%%q%Q%%%q%%%Q%%%qQ%%%%%qQ%q%%%%%%Q%%%%%%%%%q%%%%%%%%%Q%%%%%%%%%qQ
11160A71%q%%%%Qq%%%%Q%%%q%Q%%q%Qq%QqQqQ%%qQ%%%%%%%q%Q%q%%%%%Q%q%Q%%qQ%%%%q%Q
11144A71qQqQq%%Qq%%%%%%Qq%%%%%QqQq%%%%%QqQqQq%%%%%%%%%%%Qq%Q%qQq%%%Q%%qQ%q%%
11129A63%Qq%QqQ%%%qQq%qJ6q%Qj6QQq%Qq%%Qq%%Qq%%%%%%%%%%%Qq%%%%Qq%%%Qq%%%Qq%%%
11114A63%%%%%%%%%%%%%%%%%%%%%%%%%%%%%%Qq%%%%%%%%%%%%%%%%%%%%%%%%%%%%%%%%%%%%
11098A63%%%%%%%%%%%%%%%%%%%%%%%%qQ%%qQ%qQ%%qQ%%%%%%%%%%%%%%%Q%q%Qq%%%Qq%%%%%
11083A63%%Qq%%%%Qq%%%%%%%%%%%%%%%%%%%%%Qq%%%%%%%%%Qq%%%%%%%%%%%%%%QqQqQqQqQq
11067A63%%%%%%Qq%%%%%%Qq%%%%%%%%%%%%qQ%%%%%%%%%%%%%%%%%%%%%%%%%%%%%%%%%%%%%%
11051A63%%%%%%%%%q%Q%qQ%%%%%%%%%%%q%%%%%Q%%%%qQ%q%%Qq%%%%%QqQqQ%qQ%qQqQ%qQq%
11036A55%Q%%%%%%%%%%qQqQ%%Qq%%%q%Q%%%%%%qQq%%%%Q%q%QqQ%%qQ%%%%%%q%Q%%%%q%%Q%
11020A63qQ%%%%qQ%%%%%qQ%%%%qQ%%%%%%qQ%%%%%%qQqQ%%%qQq%%Q%%%%%%%qQq%%%Qq%Qq%%
11005A55%%%Q%%%%%%%%%%%%qQqQq%%Q%%qQqQ%q%%%%Qq%Q%q%%%%%%%%%%%%Qq%%QqQ%q%%%%%
10989A55%%%%%%Q%%qQq%%%Qq%%%%%%%%Qq%%%Qq%%%%%%%%%QqQqQqQq%Q%%%q%%%Q%%%q%%%%%
10974A55%%Qq%%%Q%q%Qq%%%%%%%%%%Qq%%%%Q%%%%%%qQ%%qQqQq%%%%%%%%%%%%%%%%Q%%%qQ%
10958A63%q%%%%%Q%%qQ%q%%Qq%%%%%%%%%%%%%%%%%%%%%%%%%%%%%%%%%%Qq%Qq%Q%%%%q%%%Q
10943A63q%%%%Q%%%%qQq%%Qq%%%%Qq%%Qq%%%%%%%%%Qq%%%QqQq%%%%%%%%%%%%%%%%%%%q%%Q
10927A55%%%%%%%%%%%%%%%%%%%%%%%%%%%%%%%%%%%%Q%q%%Q%q%Qq%%%%%%%%Qq%%%%%%%%%%%
10911A55%%%%%%%%%%%%%%%%%%%%%%%%%%%%%%%%%%qQ%%%qQqQ%%%%%%qQ%%%%%%%%%%qQQq%%%
10896A55%%Qj6Q%%Qj6Q%%%%%%%q%Q%%qQ%q%J6q%Qq%%qQ%%%%%%%%%%%%%%%%%%qQQq%%%%%%%
10881A55Qq%Qk4K4q%Q%qQqQq%%%Q%q%%%%%%%%%%%%%%%%%%%%%%%%%%%%%%%%q%Q%%%qQ%qQ%%
10866A55Qq%qQqQ%q%Q%%%%%%%%qQ%%qQ%%%%%%%%%%%%%%%%%%%%%%%%%%%%%%%%Qq%%%%%%%%%
10850A55Qq%%%%%%%%%%%%%%%%%%%%%%%%%%%%%%%%%%%%%%%%%%%%%%%%%%%%%%%%%%%%%%%%%%
10835A55%%%%%%%%%%%q%%Q%%%qQ%%%%qQ%%%%%%%qQqQqQqQqQ%%%%%%%%qQ%%%%%%%%%%%%%%q
10819A47Q%%%%%%Qq%%%%%%%%qQqQ%%qQ%%%%qQ%qQqQ%%qQ%%q%%Q%qQ%%%%%qQ%q%QqQ%q%Qq%
10804A47%Qq%QqQ%qQ%%QqQj6QQj6J6j6qQK4qk4j6M0k4%J6K4qj6j6qL2j6%qL2k4%Q%%q%%Q%
10792A55%%%q%%%%Q%%%%q%Q%%%q%%QqQ%q%%%%%Qq%%Q%qQ%%qQqQqQ%%%%qQqQ%%q%QqQ%%%q%
10776A47%Q%%%%%%%%%%qQ%%%q%Q%qQ%%%%%qQq%QqQ%q%%%QqQ%q%Q%%%%%%%%q%%%%QqQ%%%%%
10761A55%%%%%qQ%q%%Q%qQ%%qQ%%q%Q%%q%Qq%Q%q%Qq%%%%%%%%Qq%%%%%%%QqQq%%%%%%%%%%
10745A47Q%%q%%Q%%%%%q%%Q%qQq%Q%%%%qQqQqQq%Q%q%Qq%Q%qQq%%%%%%%Q%qQqQq%%%%%%%%
10730A47%%Qq%%%%%Q%q%%%%%%Qq%%%%Q%q%%%%%%Qq%%Q%qQ%%q%Q%%q%%%%Q%qQq%Qq%%%%%%Q
10714A55q%%%%%%%%%%%%%%%%%%%%%%%%%%%Qq%%%%%%%%%%%%%%%Q%qQ%q%Qq%%%%%%%%%%%%Q%
10699A55%q%%%%%%%%%%%%%Qq%%%%%Q%%qQ%q%Qq%%%%%%%Q%q%Qq%%%%%%Qq%%%Qq%%%%%%%%%%
10683A47%Q%%qQq%%%Qq%Qq%%Qq%%%%%%%%Q%q%Qq%%%Qq%%%%%%Q%qQq%%%QqQ%%%q%Qq%%%%%%
10667A47%%%%%qQ%%%%%%%%%%%%Qq%%%%%qQ%%qQ%%%Qq%%%%%%%qJ6qQqqQ%%%%%%%%%%%%%Qq%
10652A47%%%%Qq%%%%%%%%%%%%%%%%%Qq%%%%Qq%%%%%%Qq%%%%%%%%qQ%%%%%%%%%%%%%%%%%%%
10637A47%%%%%%%%%%%%%%%%%%%%%%%%%%%%%%%%%%%%%%%%%%%%%%%%%%%qQqQqQqQ%%%%%%%qQ
10621A47%%%%%q%Q%qQ%%%%%%%qQ%%qQqQ%%%%%%%%%%%%%%%%%%%%%%%%qQ%%%q%QqQ%%q%%Q%%
10605A47%%%%qQ%%%%qQqQ%%qQ%%qQ%%%%%%%%%q%QqQqQ%%%%%%%qQ%Qq%%%%%%%qQ%%%%%%%%%
10590A47qQqQ%%%%%%%%%%%qQ%%%%%%%%%%%%%%qQ%%qQqQ%%%%%%%%%%%%%%%%%%%%%%%%%%%%%
10574A47%%%%%%%%%%%%%%%%%%%%q%%%Q%%%qQ%%%%%%%qQ%%%%qQ%%%%%q%Q%qQqQ%qQ%qQ%%%q
10559A39Q%qQq%Qq%%%%%%%Q%%%%qQqQ%%%qQ%%%%%qQ%%%qQ%%%%%%%%%%%%%%qQ%%%%%%q%%%%
10543A39%Qq%Q%q%Q%qQ%qQ%qQ%%q%%%%%%%Q%q%%Q%%qQq%%Q%q%%Qq%Q%q%%QqQ%%%%%qQ%%%%
10528A47%q%QqQ%%%%qQ%%%%%%%qQq%%Q%%%%%%%%%%%%q%%%%Q%q%%%%%%%%%%%%%Qq%%%%%%%%
10512A39%%Qq%%%%%%%%Qq%%Q%%%%%%%%%%%%%q%%%%%%Qq%%%%%Qq%Q%q%Q%q%%%%%%%Qq%QqQ%
10496A47%%%%q%%%%%QqQq%Q%%qQ%q%%%%%%%%%Qq%%%Qq%%%Qq%%%%%%%%Q%q%%%%%%%%%%%%%%
10481A39%%%%Qq%Q%q%Q%qQqQq%%%%%%%%%%%%%%%%%Q%qQqQq%%Qq%%%%Qq%%%%%%%%%%%%%%%%
10465A39%%%%%%%%%%QqQqQ%q%%%%%%%%%%%%%%%Qq%Qq%%%%%%%%%%%%%%%%%%%%%%%Qq%%%%%%
10450A39%%%%%%%%%%%%%Qq%%Qq%%%%%%%%%%%%%%%%%%%Qq%%%%Q%qQqQ%q%%%%%QqQq%%%%Qq%
10434A39%%%%%%%%%%%%Q%%qQqQ%%%qQqq%J6%j6QL2k4k4M0j6l2K4J6j6QqQ%qQ%%%j6%Qj6J6
10422A39q%QQq%%%qJ6qQj6J6j6Q%%%%%%Q%q%%%Q%qQq%%Qqq%Q%%%%%%%%qQ%%%%%%%qQ%qQ%q
10407A31QqQ%%%%%%%%%%%%%%%%%%%%%%%%%%%%%%%%%%%%%%%%%%%%%%%%%%%%%%%qQ%%%%%%%%
10392A39%%%%%%%%%%%%%%%QqQq%%%%%%%qQqQ%%%%%%%%%%q%Q%%%%%%%%%%%%%%%%%%%%%%%%%
10376A39%%%%%%%%%%%%%%%%%%%%%%%%%%%%%%%%%%%%%%%%%%%%%%%%%%%%Qq%%%%%Q%q%%%Qq%
10360A39%%%%%%%%%%%%%%QqQ%q%%%%%%%%%%%%%%%%%%%%%%%%%%q%Q%q%Q%%qQ%qQq%Q%%%%qQ
10345A39%%%%qQ%%%%%%%%%%%%%%%qQqQqQ%%%%%%%%%%%%%%qQqQ%%%%Qq%%%%%%%%%%%%%%qQq
10329A31QQq%j6J6q%QqQ%%q%%%Q%%%%%%%qQ%%%%%%%%%%%%%%%qQqQ%%%%%%%%%%%q%Qq%Q%%%
10314A39%%%%qQ%%%%%%qQQq%%%%%Qj6Q%%%%%%qQq%Q%qQ%q%Qq%%QqQ%qQ%%q%Q%%%q%Q%%%%%
10299A39%%%%%%%%%%%%%%%qQ%%qQ%q%Q%%qQq%%%%QqQq%%Q%%%%%qQ%%%%%%qQ%%%%%%%%%%%%
10283A39%%q%%Q%%qQ%%%q%%%%%%%%QqQqQ%q%%%%%%Qq%%Q%%%%%%%qQqQ%Qq%%%%%%%%%%%qQq
10268A31Qq%%%Q%%%qQ%qQq%Qq%%%%%%%QqQqQ%qQ%qQ%qQ%q%%%Qq%Q%%%%%qQ%%%%%%%%qQ%%q
10252A31Q%%%q%%Q%q%%Qq%Q%qQq%%qQ%%QqQ%qQ%%q%%%%%Qq%%%Q%%%qQ%q%%%%%Qq%%%%%%%%
10237A31%%Qq%QqQ%%%%%%%q%%%Qq%Q%%%%%%%%q%%Q%%q%%%%%%%Qq%%%%%%%%QqQqQqQq%%Qq%
10221A31Q%qQq%QqQ%%%%%%%qQ%q%%QqQq%Q%%%%%%%q%QqQq%Q%%qQqQ%%qQ%q%%%%%%%Qq%%Q%
10206A39%%%%q%%%%%Qq%%%QqQq%Q%qQqQ%%qQ%%q%%%Qq%%%%%%%%%%%%%%%%%q%QQj6QQq%%%%
10190A31%%%%%%%%Qj6J6%q%%%Qq%%%qQ%%Qq%Qq%%%%%Q%q%Qq%%QqQ%%%q%Q%q%Qq%%qJ6q%%%
10175A31%%%%%%%%%%%%%%%%%%%%%%%%%%%%%%%%Qq%%%%%%%%%%%%%%%%%%%%%%%%Qq%%%%%%%%
10160A31%%%%%%%%%%%%%%%%%%%%%%Qq%%%%%%%%%%%%%%%%%%%%%%%%%%%Qq%%%%%%Qq%%%%%%%
10144A31%Qq%%%%%%%%%%%%%Q%q%%%%%%%%%%%%%Qq%%%%%%%%%%%%%%%%%%%%%%%%%%%%%%%%%%
10129A31qJ6q%%%Qq%%%%%Qq%%%%%%%Qq%%%%%%%%%%%%%%%%%%%%%%%%%%%Qq%%%%Qq%%%%%%%%
10113A31%%%%%%%%%%%%%%%%%%%%%%%%%%%%%%%%%qQ%%%%%%%%%%%%%%%%qQqQ%%q%QQq%%%%%%
10098A31%%%%%%%%%%%%%%QqQ%%%%%%q%Qq%%%%%%%%Q%qQqQ%q%Qq%Q%%%q%%QqQq%%%%%%%%%%
10082A31%%%%%%%%q%Q%%qQ%%%%%%%%%q%Q%%qQqQ%Qq%%%%%%%%%%%%%%q%Q%%%%%%%qQ%%%%%%
10067A31%%%%%%%%%%%%%%%%%%%%%%%qQqQ%%%%%%%qQ%%%%%%%%%Qq%%%%%%%%%%%%%%qQ%%%%%
10051A31%%%%%%%%%%%%%%%%%%%%%qQ%%%%%%%%%qQ%%%%%%%qQ%%%%%%%%%%%%%%%%%%%%%%%%q
10035A23Q%%%%%%Qq%%Qq%%%%%%%%%Qq%%%Qq%%%%%%%q%Q%%%%%%%%%%%%%%%%%%%%%%%%%%%%%
10020A31%%qQ%%%%%Qq%%%%%%qQ%%%%qQ%%%%%%%%%%%%qQqQ%qQ%%%%%%qQ%%%%%%%%%%%Qq%%%
10004A31%%%%%%%%%%%%%%%%%%%%%%%%%%%%Qq%%%%%%%%%%%%%%%%%%%%%%%%%qQ%qQq%Q%%%%%
9989A31%%%%qQ%%%%%%%%%%%%%%q%%Q%qQ%%%%%%%%q%QqQqQqQ%%%q%%%%%Q%%qQ%qQ%qQq%Q%q
9973A23QqQ%%%%%%%%%%%%%%%%%%%%%%qQ%%%%%%%%%%%%%%%%%%%%%%%Qj6Q%%%%%%%qQqQQj6%
9958A23K4j6QqQj6%QqQqQqQ%q%%J6j6%Qj6J6%qJ6q%%%%%%%%%%%%%%qQ%%%qQ%%%%%%%q%Q%q
9944A23Qq%Qq%Q%%%%%qQ%qQ%%%%q%QqQ%%q%%%%%%%%%%QqQq%Q%%%%qQ%%qQ%%%qQq%%%%%%%%
9928A23%Q%qQqQ%%%%%%%%%qQ%%%%%%qQ%%qQ%qQ%%%%%%%qQq%%Q%%qQ%%%%%qQ%%qQ%%%%q%%Q
9912A31qQ%q%Q%%%%%qQ%%%%%%%%%%%q%%%%%%Q%%%qQ%%%%%%qQq%Q%%q%Qq%Q%%qQ%qQ%%%%qQ
9896A31%%%%%qQ%qQ%qQq%%QqQ%%qQqQ%qQ%qQ%qQ%%%%%%%%%%%%%Qq%%%qQ%%%%%%%%%%%%%%%
9881A31%%%%%%%%qQ%%%%%%%%%%q%Q%qQ%%%%%%%%%%%qQ%q%%%%%Qq%Q%%%%%%%%%q%Q%q%Q%%%
9865A31q%Q%%%%%%%%Qq%qQ%j6J6%j6J6qQqq%QQqQ%%%%%qQ%%%q%Q%%%q%Q%q%%Qq%Qq%%Q%%%
9850A31qQ%q%%%%%%Qq%%%%%%%%%QqQqQq%Qq%%%Qq%%%%Q%%%%q%%%%%Q%%%qQq%%%%Q%q%Q%%q
9834A23%QqQ%%%%qQ%%q%%QqQq%%%%%%Q%%%q%Q%%qQ%q%QqQq%%QqQqQ%%%q%%Q%%%q%Q%%qQ%q
9818A23%QqQqQq%%Qq%%%%%%%%%%%%%%Q%qQq%%%Q%q%%%%%%%Qq%%%%%Qq%%%%%%Qq%%%%%%%%%
9802A23%%%%%%%%%%%%%%%%%%%%%%%%%%%%Qq%Q%qQq%Qq%Qq%%%%%Qq%QqQ%q%%%%Qq%%QqQ%%%
9787A31qQq%%%%%%%%%%%%%%Q%qQq%%%%%%%%%%%%%%%%%%Q%qQq%%%%%%%%%%%QqQqQq%%%%QqQ
9771A31%%qQ%%%%q%%Qq%%%%Q%%qQ%q%%%Q%%%%qQq%%%%%%%%%Qq%Qq%%%%%Qq%%%%%%%Qq%%%%
9755A23Q%%%q%%%%Q%q%%%%%%%%%%%%%%%%%%Q%q%%QqQqQ%%%%q%%%%%%%QqQ%j6Q%%%Qq%%%%%
9740A23%%%%%%qQQq%%%Qq%%Qq%%%%%%%%%%%%%%%%%%%%%%%%%%%%Qq%%%%%%%%%%%%%%%Qq%%Q
9724A31j6QQq%%QqQq%Qq%%%%%%qQ%QqqJ6q%%%%Qq%%%%%%%%%%qQ%%%%%%%%%%%%%%%%%%%%qQ
9708A23%%Qq%%Q%q%%%%%%%%Qq%%%%%%%%%%%%%%%%%%%%%%%%%%Qq%%%%%%%%%%%%%%%%%%%%%%
9693A23%%%%%Q%%qQqQ%%q%%%%%%%%%%%%%%%%%%%%%%%%%%%%%%%%%%%%%%%%%%%%%%%%%%%Qq%
9677A23%qQ%%%%%%%%Qq%%%Qq%%%%%%%Qq%%%%Q%%%q%%%%%%%%%QqQq%Qq%qQ%%Q%q%%%%%%%%%
9661A23%%%Qq%%%%%%Q%qqQ%%%%%%%%Qq%%%%Qq%%%%%%%%Q%qQqQqQq%%%%%%%%%%%%%%%%qQ%%
9645A23%%%%%%%%%%%%%%%%%%%%%%%%%%%Q%%q%Qq%Qq%%%%%%%%%%%%%%%%%%%%%%%qQ%%%%%%%
9629A23%Qq%%Qq%%%Qq%Qq%%Qq%%%%%%Qq%Q%%q%%Qq%%Qq%%%%%Qj6QQ%k4J6qQ%%qQ%%%Qq%%%
9614A23%%%%%%%%%%%%%%%%%%%%%%%qQ%%%%%%%%qQqJ6j6QqQ%%%%%QqQq%%Qq%Q%q%%%%%%%Qq
9599A23%%%%qQ%%%%%%%%%qQqQ%%%%%%%%%%%%%%%%%%%%%%%qQ%%%%%%Qq%%%%%%%%%%%%%%%%%
9583A23%%%%%%%%%%%%%%%%%%%%%%%%%qQ%Qq%%%%%%%%%%%%%%%%%%%%Qq%%%%%%%%%%%%%%%%%
9567A23%%%%%%%%%%%%%%%%%%%%%%q%Q%qQqQ%qQ%%%%%%%%%%%%%qQ%%%%%%%%%%%%%%%%%%qQq
9552A15Q%%%%%%q%Q%%%qQqQqQ%qQ%%%%%%%%%%%%Qq%Qq%%%Qq%%%%%%%%%%%%%%%%%%%Qq%%%%
9536A23%%%%%%%%%%%%Qq%%%%qQ%q%Qq%Q%qQ%qQ%qQ%%%%%%%%%%%%%%%%%%%%%%qQ%%%qQ%%%%
9520A23%%%%%%%%%%%%%%%%%%%%%%%%%%%%%Qq%%%%%%%%qQ%%%%%Qq%%%%qQ%%%qQ%%%%%%%%%%
9504A23%qQ%%%%%%qQ%%%%%%%qQ%%%%%%qQ%%%%%%%%%%%%%%q%%%%Q%%%Qq%%qJ6j6%Q%qQJ6j6
9489A23%qK4%k4QqQqQ%%q%Q%%%%k4J6j6J6QqK4j6q%J6j6%Q%%qQ%qQ%qQqQ%%%%%%%%%%%qQ%
9476A23%%qQ%%%%%%%qQ%qQqQqQ%%%%%%%%%%%%%%%%%%%%%%%%%%%%%%%%%%%%%%%%%%%%%%%%%
9460A23%%%%qQ%%%%%%%%%%%%%%qQ%%%%%%%%%%%%qQ%%qQ%%%%%%qQ%%%%%%%%%%%%%%%%%%%%%
9444A23%%qQ%%%qQ%%%%%%qQ%%%%%%%%%%%%%%%%%%%%%%%%%%%%%%qQ%%%%%%%%%%qQ%%%%%%%%
9428A23%%%%%%qQ%%qQ%%%%%%%%%%%%%%%%%qQq%%%%QqQ%%%qQ%%%%%%qQqQ%%%%%%%%%%%%%%%
9413A23%qQ%qQ%q%%Q%%%%%qQ%%%%%%q%%Qq%%%QqQ%%%%qQ%qQ%%%%qQ%%%%%%%%%%%%%%%%%%q
9397A15Q%%Qq%%%%qQ%qQ%%qQ%qQqQqQqqQQ%%%qQq%QqQq%Qq%%Q%qQ%%qQ%%q%Q%%%qQ%%%%qQ
9381A23%%%%%%%q%Q%%qQ%%%%%%%%%%%%%%%%%%%qQqQ%%j6J6%qQ%qQ%%%qQ%%%%%%qQ%%qJ6qq
9366A15%Q%qQ%%q%QqQq%%%%Q%qQ%q%Q%%%%%%qQ%%qQ%%%%%%qQ%%%%%%%q%%%Q%%qQ%%q%Q%%q
9350A15Qq%Q%qQ%%%q%%Q%%%%qQ%%%%%%%%qQ%%%%qQ%%%%%%%%%%%qQ%%%%%%%%%%%qQ%%%%%%%
9334A23%%%%%%%%%%qQ%%q%Q%%%%%%%%%%%%%%%%%%%%%%%%%%%%%%%%%%%%%%%qQq%Q%qQ%%%%%
9319A23%%%%%%%%qQ%%%%%%%%%%qQ%%%%%%%%%%%%%%%%%%%%%%qQ%%%%%%%Qq%%%%%%%%%%%%qQ
9303A23%%%%%%%%%%%%%%%qQ%%%q%Q%%%%%%%%%%%%%%%%%%%qQqQ%%%%%%%%%%%%qQqQqQqQ%%%
9287A23qQ%qQqQqQq%Q%q%%%%%%%%%%%%Qq%%%%%%Qq%%%Q%q%%%%%%%%%%%%%%%qQqQ%%%%%%%%
9271A15%%Qq%%%%%%%%%%%%%%%%%%%%%%Q%%%%%%q%Q%%qQ%%%%%q%%%Qq%%%%%QqQqQqQq%%%%%
9255A15Qq%%%%%%%%%%%%%Q%q%Q%q%%%Q%%%%%%%%%%%%%%%%%%%%%%%qQ%%%%qQq%%Qq%%Qq%Q%
9240A23qQqQ%%%%qQqQ%qQ%q%Q%%q%%%%%%QqQ%q%Q%qQqQq%%%%%%Q%qQq%QqQ%%%%%%%%%qQq%
9224A15Qq%%Qq%%%%%%Qq%%%%%%%%%%%%%Qq%%%Q%q%%%Q%%%q%%%%Q%%q%%%%%%%%%QqQ%%%%%%
9208A23qQ%%q%%%Qq%Qq%%%%%%%%%Qq%QqQq%%%%%%%%%%%%%%%%Qq%%%%%Q%q%Qq%%%%%%%%%%%
9192A15%%Q%%qQq%%%%%%%QqQ%%%q%%%%%%%%%%%Q%q%Q%qQ%qQ%q%Q%q%Qq%Qq%%%%%%%%Q%%%q
9176A15Q%%%q%%%%%Qq%%%%%%Qq%Qq%Q%%%qQq%%%%%Qq%%QqQq%Q%%%qQqQ%%%q%%%Q%%%qQq%%
9161A15%%Qq%%Q%%q%Q%qQ%q%QqqQ%Qq%%%%%%%%%%%%%%%%%Qq%%%QqQ%%qQqQqQ%qQ%qQ%qQq%
9145A15%%%Q%qQ%%q%Qq%QqQ%%%%%qQqQqQq%%Q%qQqQqQq%%%%%%%%%%%%%%QqQq%Qq%%Q%qQ%%
9129A23%%%q%%%%Qq%%%%%%QqQq%%%%%%%%%%%%%%%%%%%%%%%%%%qQ%%%%%%%%%%%%%%%%%%%%Q
9113A23qQq%%%%%%%%Q%qQ%%q%%%Q%q%%%%%%%%%%%%%%%Qq%%%%%%%%%%%%%%%%%%%Q%qQ%q%%%
9098A15%%QqQ%q%%%Qq%%%%QqQq%%%%%%%%%Q%%q%Qq%%%%%%%%%%%%%%%%%%%%%%%%%%%%%%%Q%
9082A23qQ%%q%Q%%q%%%%%%QqQ%%q%%Qq%%%%%%%QqQq%%%Q%%%%%%qQ%%q%%%%%%%%%%%%%%%%%
9066A15%%%%%%%%%%%%%%%%%%%%%%Qq%%%%%%%%%%%%%%%%Qq%%%%%%%%%%%%%%%%%%%%%%%%%%%
9050A15%%Qq%%%%%%%%%%%%%%%%%%%%%%%QqQqQ%q%%%%%%%%%%%%Qj6Q%%%%%%%%%%%%%%%%%%%
9035A15%%%%%%%%%%%%Qq%Q%q%%QqQ%q%%%%%%%%%%%%Qq%%%%%%Qq%%%qQ%%qQ%%%%qJ6q%%%Qq
9019A15%%%%%%QqQq%%%Q%%q%qJ6q%%%%%%%%%%%Qq%%%%%%Qq%%%%%%%qQQqqQ%%qQk4J6L2m0J6
9004A15qQqJ6j6%Q%%Qq%Qq%%%%%%%%%Qq%%%%%QqQq%%%%%%%%%qQ%%%%%%%%%%Qq%%Qq%%%%%%
8989A15%QqQq%%%%Qq%Q%q%%QqQq%%%%Qq%%%%%%%%%%Q%%q%%%%%Qq%%%%%%%%%%%%%%%%%%%%%
8973A15%%%%%%%%%%%%%%%%%%%%%%%%%%%%%%Qq%%%%%%%%%%%%%%Qq%Qq%%%qQ%%%%%%%%%%%%Q
8957A23qQq%%%%%QqQ%q%%%%%%%%%%%%%%%%%%Qq%%%%%%%%%%%%%%%%qQ%%%%Q%%q%%%%Qq%%%%
8942A15%%%%%%%Q%q%%%%%%%%%%%%%Q%q%%%%%Qq%%Qq%%%Q%q%%%%%%%%%%%%%%%%Qq%%%QqQq%
8926A15Qj6Q%%%%Qqq%%%Q%qj6%QQQqQ%%q%QQq%%%%%%%%%%%%%%%%Qq%%%%%QqQ%q%%%%%%%%%
8911A15%%%%%%%%%%%%%%%%%%%%%%%%%%%Qq%Q%qQqQ%%%%%%qQ%qQq%%Q%q%QqQq%%%%%qQ%%%%
8895A15%%%%%%%%%%%%%%%%%%%%%%%%%%%%%%%%%Qq%%%%%Qq%%%%%Q%%%%%%%q%%%%%%%%%%%%%
8879A15%Qq%%%%%%%%%%%%%%%%%%%%%%%%%%%%%%%%%Qq%%%%%%%%%%%%%%%%%%%%%%%%%%%%%Q%
8863A23%q%%%%%%%%%%%%%%%%%%Qq%%%%%%%%%%%Qq%%%%%%%Qq%%%%%%%%Qq%%%%%%%%%Qq%%Qq
8847A15%%%%%Q%q%%%%%%Qq%%%%%%%%%%%%%Qq%%Qq%%%%%%%%%%Qq%Qq%%QqQqQq%%%%Qq%%%%%
8832A15%%%Qq%%%%%%%%%%%%%%%%%%%%%%%%%%%%%%Q%qQ%q%Qq%%Qq%%Q%q%Qq%%QqQqQq%%%%%
8816A15%%Qq%Qq%%%QqQq%%%%Qq%%%%%%Qq%%%%%%%%%%%%%%%Qq%%QqqQ%QqQq%%%Qq%%%%%%%Q
8800A23q%%%%%%%%%%%%%%%%%%%%%Qq%Q%q%%%%Qq%%%%%Qq%Q%%%q%Qq%%Qq%%Qq%Q%qQq%Qq%%
8784A15%%%%%%%%Qq%QqqJ6%%j6Q%%%%%%%%%%Q%%q%%%%%%%%%%%%%%%%%%%%%QqQq%%%%%%Qq%
8769A15%%%%%Qq%%Qq%%%%%Q%q%%%%Qq%%%Q%%qQ%q%Qq%%%Qq%%%%%%%%%%%%%%%%%%%%%%%%%%
8753A15qQ%%%%%%%%%%%%%%%%%%%%%%%%%%%qJ6q%Qq%%%%%%%%%%%%%%Q%q%%%%%%%%%%%%%%%%
8737A15%%%%%%%%%%%%%%%%%%%%%%%%%%Qq%%%%%%%Qq%%%%%%qQ%Qq%%%%%%%%%%%%%%%%%%%%%
8722A15%Qq%%%%%%Qq%%%%%%%%%%%%%%%%%%%%%%%%%%%%%%%%QqQq%%%%%%%%%%%%%%%%%%%Qq%
8706A15%%%%%%%%%%%%%%%%%%%%%%%%%%%%%%%%%%%%%%%%%%%%%%%%%%%%QqQq%%%%%%%%%%%%Q
8690A23qQ%%q%%QqQqQq%%%QqQq%%%%%%%%%%%%%%%%%%%%%%%%%%%%qQ%%%%%%%%%%%%%%%%%%%
8674A15%%%%%%%Qq%%%%Qq%%%%%%%%%Qj6%J6%%qQq%%%Qq%%%%%%%%%%%%%%%qQ%%%%%%qQ%%%q
8659A07Q%%%%%%%%%%%%%%%%%%%%%Qq%Q%q%%%%%%%%%%%Q%qQq%%%%%%%%%%%%%%%%%%%qQ%qQ%
8643A15%%%%%%%%%%%%%%%%Qq%%%%Qq%%%%%%%%%%%Qq%%%%%%Qq%QqQqQq%%%%%%%%%%%%%Qq%%
8627A15%%%%%%%%%%%%%%%%%%%%%%%%%%%%%%%%%%%%Q%q%Qq%%%%%%%%%%%%%%%%%%%%%%%%%%%
8612A15%%%q%Q%%qQ%%%%%%%%%%%%%%qQqQ%%qQ%%%%%%%%%%%%%%%%%%%%%%%%%%%%%Qq%%%%%%
8596A15%%Qq%%%%%Qq%%Qq%%%%%%%%%%%%%%%%qQ%%%%%%%%%%%%%%%%%%%%%%%%%%Qq%%%%%%%%
8580A15%%%%%%%qQ%%%%qQ%%Qq%%%%%%%qQ%Q%q%%%%%%%%%%qQ%%%%%%%%%%%QqQqQ%q%%%%%Qq
8564A15Q%q%qQ%Qq%q%QqQqQqQqJ6j6QqQ%%%%%%J6j6%%QQk4%K4%%%j6QJ6j6%J6j6qQk4K4j6
8552A07M8Qm8%j6J6%Qj6K4qQqj6QQj6Q0o4J6m0Q0Qm0j6j6%J6%l2%J6%J6j6J6j6%%QqQ%j6J6
8541A23%q%q%Q%%%QqQq%%Qq%qQQ%%q%Qq%%%%%%qQ%%%%%Q%%q%%%%%%%%%Q%q%%%%%%%%%%Qq%
8526A15%%%%%%%Qq%%%Q%qQq%%%%%%Qq%%%%Qq%%%%%%%%Qq%%%%%%%%%%%qQ%%%%%%%%%%%%%%%
8510A15%%%%Qq%%%%Q%%q%%%Qq%%%%Q%%%q%Q%q%Q%q%Q%q%%Qq%%%Q%q%%Qq%%%%%%%%%%%%%Qq
8494A15%%Qq%%%Q%q%%%%%%%%%%%%%%%%%%%qQ%%%%%%%%qQ%%%%%%%%%%%%%%%%qQ%%%%%%%%Qq
8478A15%%%%%%%%%%%%%%%%Qq%%%%%%%%%%%%%Q%q%%%%Qq%%%Qq%%%%%%%%%%%%%%%%%%q%Q%%%
8462A15%%%%%%%%%%%%%%%%Q%q%%%%%%%%%Qq%%%%QqQq%QqQq%qJ6%q%%%%%%%%%Q%q%%Qq%Qq%
8447A15%%%Qq%%%%%%%%%%%%%%%%%qQ%%%%%%%%%%%%%%%%%%%%%%%%%%%%QqQqQq%%%%Qq%%%%%
8431A15%Q%qQ%q%QqQq%%%%%%%%%%%%Qq%%%%%%QqqQqQ%%%%%%%%%%%%%%%%%%%Q%qQq%%%Qq%%
8415A15%%%%%%%%%Q%%%%%q%%%%%%%%%%%%%%%%%%%%%%%%%%%%%%%%%%%%%%%%%%%%%%Q%%%q%Q
8399A23%%q%QqQq%%%Q%q%Qq%%Q%q%%%%%%%%%%%%%%%%%%%%%%%%%%%%%%%%%%%%%%%%%%%%%%%
8384A15%%%%%%%QqQ%q%%%%%%Qq%Q%%q%%%%%%%%%%%%%%%%%%%%%%%%%%%%Qq%%%qQ%%%%%Qq%q
8368A07Q%%%%%%%%Qq%%%%%%Qq%Qq%%QqQq%%%%Qq%%Q%qQ%qQq%Qq%%%%%%%%%%%%Qq%%%%%%%%
8352A15%Q%q%%%%%%%Qq%%%%Qq%%%%%%%%%%%%%%%%%%%%%%%%%%%%%%%%%%%%q%Q%%%%%%%%%%%
8336A15qQQ%q%%%%Q%qQ%q%%Qq%%Q%%qQ%%qQ%%%%%%qQqQ%%%%qQq%Qq%%QqQ%q%Q%qQq%%%%%%
8320A15Q%q%%Qq%%%q%%J6%q%%Qq%%%%%%%%%%Q%qqQ%qQ%Q%qQq%%%%QqQ%qQ%%q%%%%%%%Qq%%
8305A15QqQq%%%%%%QqQqQqQq%%%%%%%%%%%%%%%%%%%%%%%%%%QqQq%%%%%%%%%%%%%%%%%%%%%
8289A15%%%%%%%%Qq%%Qq%%Qq%%%%QqQ%%%%%%%qQ%q%%%%Q%%%qQ%q%%%%%%%%%%%%%QqQq%%%Q
8273A23%%%%q%Q%%qQq%%%%%%%%%%%%Qq%Qq%%%Qq%%%%%Qq%%%Q%q%Q%q%%%%%%%%%qQ%%%Qq%%
8258A15%%%%%%%%%%%%%%%%Qq%Qq%QqQq%Qq%%Qq%%Qq%QqQq%Q%qQq%%%%%%Qq%%%%%%%%%%%%%
8242A15%%%%%%%%%%%%%%%%%%Qq%%%%%%%%%%%%%%%%%%%%%Q%q%Qq%%%%%%%%%%%Q%%%q%%%%%%
8226A15%Q%q%%%%%%%Q%%%%qQ%%%%q%%%%%%Q%Qj6%QqQq%Qq%QqQq%%Qq%%Qq%%%%%%%%%%%Qq%
8210A15Qq%%%%%%%Q%q%%QqQqQ%%%qQ%qQqQ%%qQqQqQ%qQ%q%J6k4QQq%%%%%%%Qq%%%%%%Q%qQ
8195A23qQq%Qq%QqQ%%%%%%q%%%%%%%%%%%%Qq%%%%%%%%%%%%%%%%Qq%Q%%%%%qQ%q%Qq%%Qq%%
8179A15Qq%Q%q%Qq%%%%%%%%%%%%%Qq%%%%%Qq%Qq%%Qq%Qq%%%Q%%q%Q%q%%%Q%%q%%%%Qq%%%%
8163A15%%%%Qq%%%%Q%q%%%Qq%%%%%%%%%%%%%%%%%%%QqQ%%%%%%%q%Qq%%%%Q%q%%%%%%Qq%%Q
8148A23%%q%%%%%%%%%Qq%%%Qq%%QqQqQ%qQq%%QqQ%%%%%qQq%%Qq%Qq%Q%%qQq%%Qq%%%%%%%%
8132A15%%%%%%%%%Qq%%%QqQq%Qq%Qq%%%%%%%Qq%%%Qq%%%%%%%%%%%%%%%%%%%%%%%%%%%%%%%
8116A15%%%%%%%%%%%%%Q%%%%%%%q%%%%Q%%qQ%q%QqQq%%%%%%QqQq%%%%QqQqQq%%%%%%%%QqQ
8100A23q%%%%%%%%Qq%Q%%%%qQqQ%%q%Q%%%%%%%%%%%%qQ%q%%QqQ%qQ%qQqQq%%%%%QqQqQq%%
8084A15QqqJ6%%q%Qq%%Q%q%Qq%%%%%%J6k4K4qqJ6%%j6Q%%%%%%%qQ%qQq%%Qq%QqQq%QqQ%q%
8070A15Q%%q%Q%qQqQ%qQq%Q%qQqQqQqQq%%%%%%%QqQqQqQ%%%%%%%%%%%%%%%%qQqQq%Q%%q%Q
8054A23%q%%Q%q%%Q%%q%QqQ%%%q%QqQq%%%%%%%%%%Q%qQq%Q%qQq%%Qq%%%%%%%%%%%%Q%qQ%q
8038A15Q%q%%Qq%%%%%%%%%%%%%%%Qq%%%%%QqQq%%%%%%%%%%%%%%Q%%qQ%qQ%%qQq%%%%Q%q%%
8023A15%%Q%%qQ%%qQq%%%%%%%Qq%%%QqQ%%%%q%QqQ%%%%%%%%%q%Q%%%%%%%%%%%qQ%%%%%q%%
8007A15%%Q%%%qQ%%%%%%%%%q%Q%%%q%%%%%%%%%%%%Q%q%%Q%q%Qq%%Q%%%%%%%%%%%qQ%%%%qQ
7991A23%%q%QqQ%qQ%q%%%%%%Qj6QQ%Qq%%%%%%q%%Q%%qQq%Qq%Q%%%%%%%q%Q%%q%%%%%Qq%%Q
7976A23qQ%%q%%%QqQ%qQ%%%%%%%qQ%%q%Q%%%%%%qQq%%%%%Qq%%Q%%%qQ%qQq%Q%%qJ6j6QqQq
7960A15QqQ%%qQ%%q%%%%%Qq%%%%Q%%%%%qQ%q%%%%%%Q%%qQqQ%q%%QqQ%%%%%%%q%Q%q%Q%qQ%
7944A23%%%%%%%%q%%%Q%qQ%%%%%%%%%%%%%%%%%%%%%%%%%q%%%%%%%%Q%%%q%QqQq%%%Q%qQ%q
7929A15%Qq%Q%%q%Q%qQ%%%%%%%q%%%%%%%%QqQ%%q%Qq%%Qq%%%%%%%Qq%Qq%%%%%%Q%%qQqQq%
7913A15%%%%%Qq%Q%%%%qQ%qQq%Q%%%q%Qq%%Qq%Q%%%qQ%%%q%Qq%Qq%%Qq%QqQ%qQ%qQq%%QqQ
7897A23%%%%qQ%qQ%q%Q%%qQ%%%%qQ%%%%%%%%q%Qq%%%Qq%%Qq%Q%q%%Q%qQ%%q%Q%%qQq%%%Qq
7881A15%Q%%%%qQqQq%%Q%%%qQ%%%%qQ%%%%%%%%%%%%%%%%qQ%%%%%%%%%%%%qQ%qqQ%%%Q%%%%
7865A23%%%%qQ%%%q%%%%Q%q%%%%%%%%%%Qq%%%%Q%%%qQ%qQq%%%%QqQ%q%%QqQqQqQ%qQ%%%%%
7850A23%%%q%%Q%%q%Qq%%%%QqQqQqJ6j6%Qq%%%%%%%%%%%%%%%%%%%%%%%%%%%%%%%%%%%Q%%q
7834A15Qq%%%Q%q%QqQ%%%%%q%Q%%%%%%%%%%%%%qQ%%%%%%%%%%%%%%%%%%q%%Q%qQ%%qQ%%%%%
7819A23q%%Qq%%%QqQ%%%%%q%%Q%%q%QqQ%%%%%%%%%%q%Q%%%%%%%%%%%q%QqQq%Qq%%Q%%%%%q
7803A15QqQ%%%%%%%%%%%%%%%%%%%%%%%%%%%%%%%%%%%%qQ%%qQqQ%qQ%%qQ%qQ%q%%Q%%%%%qQ
7787A23%%qQ%%%%%%%qQqQ%q%Q%%%q%Q%%%%%%%%%%%%%qQ%%%qQ%qQqQ%%qQqQqQ%%%%%%%%%%%
7771A23%%qQ%qQq%%%%%%Q%%%%qQq%%%Q%q%%Q%%%%%%%%%q%%%Qq%%%%Q%qQ%%%%qQ%%%%%%%%%
7755A23%%Qq%%%%%%%%%%Q%q%%%%Q%j6Q%%%%%%%Qq%%%%%%%%%qQ%%q%%Q%q%Q%qQqQ%%%q%Q%%
7740A23%%%%%%%%%%%%%%%Qq%%%%%%%%%%%%%%%%%%%qQ%Qq%qQ%%%%%%%%%%%%Qq%%%%Qq%%%%%
7724A23%qQq%Q%%%%%%%%%%%%%q%%Q%q%%Q%q%QqQqQ%qQ%%%%%%qQ%%%%q%Q%%%qQ%qQq%Q%qQ%
7708A23q%Q%%%%%%%%%%%%qQ%%%%%%%%%%%%%%%%%%%%%%%%%%%%%%%qQ%%%%%%%%%%%%%%%%%%%
7692A23%%%%Qq%%%%%%%%%%%%%%qQ%%%%%%%Qq%%%%%%%%%%%%%%%%%%%%%%%%%%%%%%%%%%%%%%
7677A23%%%%qQ%%%%qQqQ%%%%%%%%%%%%%%%qQ%%%q%QqQqJ6q%%%%%%%%%%%%%qQ%%%%qQqQ%%%
7661A23%%%%%%%%%%%%%%%Qq%%%%%QqQq%Qq%Qq%%%%%%%%%%%%%%%%%%%%%%%%%%%%%%%%%%%%%
7645A23%%%Qq%Qq%%%%%%%%%%%%%%%%qQqQ%%%%%qQq%%%%%%Q%%%%%%%%%%%QqQq%Q%q%%Q%%qQ
7629A31q%%Qq%%%%%%%%%%%%%%%%%%%%%%%%%%%%%%%%%%q%Q%%%%%%%%%qQ%%qQ%Qq%Q%q%qJ6j6
7614A15QQ%%%qQqQq%Qq%QqQ%qj6J6qQ%%%%%%%QqqJ6qQ%qQqQqQq%%%%%%%%%QqQq%%%%%%qQ%
7599A23%Qq%%Qq%Qq%%%%%%%%%%%%Qq%%%%%%%%%%%%%%%%Qq%%%%%%%%%%Qq%%%Qq%Qq%Q%q%%Q
7583A31q%%%%%%%Q%%%%%%qQ%q%%%%%%%%%%%%%%%%%%%%%%%Qq%%%%%%%%%%%QqQ%q%%%%%%%%%
7567A23%%%%%%%%%%%%%QqQ%%%%%%q%%%%Q%%%qQqQqQ%%%%qQ%%%qQ%qQ%%%%qQ%qQ%%qQq%%%Q
7551A31%%%%%qQ%q%%Q%%qQ%q%%%%%%%%%Qq%%%QqQq%%%%%%%%%%Q%q%%%%Q%%q%%%%%%%%QqQ%
7536A31%%qQ%%q%%%%%%%%%%%%%%%%%%%%%%%%%%%%%%%%%%%%%%%%%%%%%%%%%%%%%%%%%%%%%%
7520A23%%%%%%Qq%%%%Qq%QqQqQqQ%qQq%Q%qQqQq%Qq%%%%Q%q%%%%%Q%%%qQ%%%%%%%%%%%q%Q
7504A31q%Q%qQ%%%%%%%%%%qQ%q%Qq%%%%%%%%Q%q%Q%%%%%%%%q%QqQ%q%%Q%%%q%QqQqQq%%%%
7488A23%%%%Qq%%QqQ%q%%%Qq%%Qq%QqQq%%%%Qq%%%Qq%Q%%qQqQ%%%%%%qQ%%%%%%qQ%%%%%qQ
7472A31%%%%%%q%Q%q%%%QqQ%qQ%%%qQ%%%%q%Q%%%%%%%%%%%%%%%%%%%%%%%%%%%%%%%%%%%%%
7457A31%%%%q%Q%%%%%%%%%%%q%%%%%%%%%%QqQ%q%%%%%Q%%%%%%%%%%%%%qQ%%%qQ%%%%%%%%%
7441A31%%%%%%%%%qQ%%%%q%Q%%%%qQ%%%%%%%qQ%%q%%%Q%%%%%%q%%Q%%%q%QqQ%%%%%%%q%%%
7425A23%%%%%QqQqQ%q%%%%%%%%%%%QqQq%Qq%QqQ%%%%qQ%%%%%%qQ%%%%%%%%%%%%%%qQ%%%qQ
7409A31%%%%%%%%%%%%%%%qQ%%%%%%q%%%Qq%%Qq%Q%qQqQq%%Qq%Q%%%%%%qQq%Qq%%%%%Q%qQ%
7393A31qQ%%%%qQ%qQqQ%qQ%%%qQ%%%%%%%%%%%%%%%%%%%%%%%%qQ%%%%qQqQ%%%%QQqq%%%%%%
7378A31%%%%%%%qQ%%Qq%q%Q%%%%%%%%qQ%%%qQ%%%%qQ%%q%Q%%%qQ%q%%Qq%Q%qQqQ%%%%%%%q
7362A23%%QqQ%%%%%%%%qQ%%qQ%%%%%%%%q%Q%qQ%%%%%%%%qQq%Qq%%%Q%qQ%q%%QqQq%%%%Qq%
7346A23Q%%%%%%%%%%%%%%%%%%%%%%%%%%%%%%%%%%%%%%%%%%%%q%Q%%%%%%%%%%%qQ%%%qQ%%q
7330A23%Q%%%qQq%Q%qQq%%Qq%%QqQ%%%%%%%q%Q%%%%q%Q%%%%%%%%%%%qQ%%%%%qQqQq%Q%%%%
7315A31%%%%%%qQ%%%%%%%%%%%%%%%%%%%%%%%%%%%%%%%%%%%%%%%%%%%%%%%%%%%%%%%%%%%%%
7299A31%%%%%%%%%%%%%%%%%%%%%%%%%%%%%%%%%%%%%%%%%%%%%%%%%qQ%%%%%%%%%%%%q%Q%%%
7283A31%%%%%Qq%QqqQ%q%Q%%%%%%%%%Qq%%%%%%%%%%qJ6q%Q%q%%%%%%%qQ%%%%Qq%%%%%%%%%
7267A31%%%%qQ%%%%%%%%%%%%%%%%%%%qQ%qQqQ%qQ%%%%q%%%Q%%%%%%%%%q%%Q%qQ%%%%%%%%%
7252A31%%%%%%%%%%%%%%%%%%%Q%q%Qq%Q%q%%%%%%%%%Qq%%%%%%%%%%%%%%Q%q%%%Qq%%%%%%%
7236A31%%%%%%%%%%Qq%%%%%%%%Qq%%%%%%%%Qq%Qq%%%%Q%%%q%Q%%q%%%%%%%%%qQ%Qq%%%%Qq
7220A31%%%%%%%%Q%q%Qq%%%%%%%%%%%Qq%%%%%%%%%%%%%%%%%%%%%%%%%%%%%%%%Qq%QqQqQq%
7204A31Qq%%%%%QqQ%qQ%qQqQ%q%QqQq%%%%%%%%%%%%%%%%Qq%%%%%%%%%%%%%Q%q%%%%%Qq%%%
7188A31%%%%%%%%%%%%%%%%%%%%%%%%%%%Q%q%Q%q%%%%%%%%%%QqQqQ%%qQq%Qq%%QqQ%%q%QqQ
7173A39q%%Qq%%%Q%%%%%%q%Qq%%Q%qQ%%%qQ%qQq%Qq%Qq%%Qq%%%%QqQqQ%q%%%%Q%%%qQqQ%%
7157A39qQ%q%%%%%%%%%%%%%%%%%%%%%%%%qQ%%%%%%%%%%%%QqQq%J6j6Q%%q%Qq%qQ%%%Qq%%q
7141A23J6q%%q%%%J6%q%%%%%%Qq%qQ%%%%%%Qq%%%Q%q%%%%Qq%%%QqQqQ%j6Q%Qq%%%%%Qq%Q%
7126A39qQ%%%%%%%%qQq%Q%%%%%%qQ%q%Qq%%Q%q%Qq%Qq%%%%%Qq%%%%%%%Q%q%%QqQ%%qQ%qQq
7111A31Q%%%%%%qQqQ%q%%Qq%%%%%%Qq%%Qq%%Q%%%%q%%Q%%%qQ%%qQ%%%%%%%%%qQ%%%qQ%qQ%
7095A39%qQqQqQ%%%q%QqQqQqQ%%q%Q%%q%%Q%qQqQ%%%%%qQ%%%%%qQqQ%%qQ%q%Q%%%%%%%%%%
7079A39%%%%%%%qQ%qQ%q%QqQ%%%%%%%qQ%q%%%%Qq%%%Q%%%%%%qQ%q%Q%%%%%%%%%qQ%%%%%%%
7063A39%%%%%%%%%%%qQ%%%%%%%%%%%%%%%%%%%%%%%%%%%Qq%qJ6q%qQQq%Qq%%Q%qqJ6%q%%K4
7048A63j6qqJ6qj6J6J6l2J6j6K4qJ6j6%q%Q%%qQ%%%q%QqQq%QqQ%%q%Q%%%%%%%qQqQ%%%%%%
7035A39%%%%%%%%%%%%%%q%%Q%%%%%%%%%%Q%q%%%%%%%%%qQ%qQqQ%qQ%%%%%%%%%%%qQ%qQ%%q
7019A31%Q%%%%%%%%%%%%q%QqQ%%%%%%%%%%%%%%%%%%%%%%%%%%%%%%%%Qq%%%%%%%%%Q%%%%%%
7003A47%%q%%%Qq%%%%%%%%%%%%%%qQ%%%%%%%%%%%%%%%%%%%%%%%%%%%%%%%%%%%%%%%%%%%%%
6987A39%%%%%%%%%%%%%%%%Qq%%%%%%%%%%Qq%%%%%%%%%%%%%%%%%%Q%q%%Qq%%%%%%%%%%%%%%
6972A39Qq%%%%%%%%%Qq%%%%Q%%%q%%Qq%%%%Q%%%%q%Q%%%%%%%%%%q%%Qq%Qq%%%%%%%%%%%%%
6956A39%%Q%q%%%%%%%QqQq%%QqQ%%q%%%%%%%Qq%QqQ%%%%%%q%%%%%%Q%%%%%%%q%%%%%%%%%Q
6940A47q%Q%qQqQq%%%%%%%%%Qq%%%%%%%%%%%Q%%q%Q%q%%%Qq%%%%%%Q%%qQqQq%%%%%%%%Q%%
6924A47%%qQqQ%%qQqQqQ%%%qQqQq%%Q%%q%%Q%%q%QqQq%Qq%%%%QqQq%%%%Q%j6J6q%%Qq%%%Q
6909A47q%Q%%%q%%qQ%QqQq%Q%qQq%%%Qq%Qq%%%%%QqQqQ%q%Q%q%%%%%%%Qq%Q%%q%%%QqQqQ%
6893A47%q%%%%%%%%%%%%%%%%%%%Q%q%Q%%%%%%%%%qQ%%%%%%%%%%%%%qQ%%%%%%%qQq%%Q%%qQ
6877A47%%q%%%Qq%%%Qq%Q%%%q%%Q%%%%qQqQ%%%%%%%%q%Q%%qQ%%%%%%%qQ%%%%%%qQ%qQ%%%q
6862A39%Q%%%%%%%%qQ%qQ%%%%%q%Qq%QqQ%qQ%%%%%%%%Qq%%qQ%%%%%%q%Q%%%q%QqQqQ%%%%%
6846A47%%Qq%%%%q%Qq%QqQ%qQ%%%%%qQ%qQ%%%%%%%%%%%%qQ%%%%%%%%%%%%%%%%%%%%%%%%%%
6830A47qQ%%%%%%%%%%%%%%%%%%%%%%%%%qQ%%%q%Q%%%%%%%%q%Q%%%%%%%%%%%%%%%%%%%%%%%
6814A47%%qQQj6Qq%QQ%qQ%q%%Q%q%%%%qQ%%%%%%%%%%%%qQ%%%%%%%%%%%%%%%%%qQ%%%%%%%%
6799A47%%q%%QqQ%qQ%qQ%qQ%%qQQj6%Q%%%%%%%qQ%%%%%qQ%%qQ%Qq%%%qQ%Qq%%%%%%%%%%%%
6783A47%%%%%%%%%%Qq%%%%%%%%%%Qq%%%%%%%Qq%%%%%%%%%%%%%%%%%%%%%%%%%%%%%%%%QqQ%
6767A55%qQqQq%Qq%%%%Q%qQqQ%q%Qq%%%%%%%Qq%Q%qQ%%%%%%q%%%%%%Qq%Q%%qQ%%%%q%Qq%Q
6751A55%%%%%%q%%Qq%%QqQ%%qQ%q%%Qq%Qq%%Qq%QqQqQ%%%qQq%%%%%%%%%%%%%%QqQ%%qQq%Q
6736A55q%%%%%%%%%Q%qQ%%%qQq%%Q%%%qQqQ%q%Q%%q%%%%%%Q%%%%qQ%%%%%%%%q%%Q%%%q%%%
6720A47%%%%%%%%%Qq%%%%%%%%%%%%%%%%%%%%Q%q%%%%Q%%%qQ%%qQqQ%%%q%QqQq%%%%Qq%Q%%
6704A55qQ%%%%qQ%qQ%qQ%%%%%qQ%%%q%%%Q%qQ%%%%%qQq%%QqQqQ%qQq%%QqQ%q%Q%q%%Q%qQq
6688A47Q%qQ%qQ%qQ%qQq%Qq%%Q%q%Qq%%Q%%%%qQ%%%q%%QqJ6q%q%%J6k4K4l2M8j6q%q%Q%%q
6674A47%J6q%j6QQj6%J6J6m0L2qq%%QqQ%q%Qq%Q%q%%Qq%%%Qq%Qq%QqQ%%%%%q%%%%%QQq%%%
6660A55%%%qQq%%%%Q%%q%Qq%Q%%%%%%%%%%%%%%%%%%%%%%%%%%%%%%%%%qQqQ%qQ%q%%Q%%%%%
6644A55%%%%%%%%%%%%%%%%%%%%%%%%%%%%%%%%%%%%%%%%%%%%%%%%%%%%Qq%%%Qq%%%%%%%%%%
6628A55%%%%%%%%%%%%%%%%%%%%%%%%%Q%q%%%%%%%Qq%%%%%%%Qj6Q%qQ%%%%%%%%%%%%%%%%%%
6613A55%%%%%%%%%%%%%qQ%%%%%%%%%%%%%%%%%Qq%%%%%%%%Q%qQq%%%%%%%%%Qq%Qq%%%%%%%%
6597A55%%%%%%%%%%%%Qq%%%%%%%%Q%qQq%Qq%Qq%%%Qq%%%%%%QqQq%%%%%%%%%%%%%%%%%%%%Q
6581A63qQq%%QqQq%%qQQq%Qq%%%QqQ%%q%%%%%%%%%%%%%Qq%%%%%Qq%%%%%%%%%%%%%%%%%%%%
6565A55%%%%%%%%%%%Qq%%%%%%Q%%%qQ%%qQq%%%%%QqQ%%qQqQ%%%%%%%%qQq%%QqQ%%%%%%%%%
6550A63%%%%%%%%%%%%%%%%%%%qQqQq%Qq%%%%%QqQ%%%%%%%%%%%%%%%%%%%%%%%%%%%%%%%%%%
6534A63%%%%%%qQ%%qQ%q%%QqQ%%%%%%%%%%%%%%%%%%%%%%%%qQ%%%%%%%%%%%%%%%qQ%%%%%%%
6518A63%%%%%%%%%%%%%%%%q%Q%%%%%%%%%%%%%%%%%%%Q%q%%%%%%%%%%%%%%%%%%%%%%%%%%%%
6502A63%%%%%%qQ%%q%Q%%%%%%%%%%Qj6Q%q%Q%%%%%%%%%%%Q%q%%%%%%%%%%%%%%%%%%%%%%%%
6487A63%%%%%%%%%%%%%%%qQ%%qQ%%%%%%%%%%%%%qQ%%qQ%%%%%%%%%%%%%%%%%QqQq%Q%qQ%%q
6471A63%%%%%%%%%Qq%%%%%%%qQ%%%%%%%%%%%%%%%%%%%%%%%%%%%%Qq%Qq%%%%%%%%%%%%QqQq
6455A63Q%qQq%%%%%%%%%%%%%%%%%%%%%%%Q%qQqQ%%%%q%%Q%q%%%Q%q%Q%%%q%Qq%%%%%%QqQ%
6439A71qQqQ%Qq%%%%%%q%QqQqQq%%%%%%%%%%%%%QqQ%q%%%%%%%%%QqQ%qQ%q%Q%%qQ%q%%%Qq
6423A63Q%%%%%%%%q%%Q%%%%%%%%%%%q%%%Qq%%%%%%%%%Qq%%QqQ%qQ%qQ%q%Qq%%%%%%%%%%%Q
6408A71q%Qq%%%%%%%%%%%%%%%%%%%%Qq%%Qq%%%%Q%%%qQ%%%%%%%qQ%%%%%%%%%%%%%qQ%qQ%%
6392A71%qQ%%%%%%%%%%%%%%%%%%%%%%%%%Qq%%Q%q%%%%qQ%%%%%%%%%%%%%%%%%%Qq%%%%%%%%
6376A71%%%%%%%%%%%%%%%%%%%%%%%%%%%%%%%%%%%%%%%%%%%%%%%%%%%%%%%%%%%%%%%%%%%%%
6360A71%%%%%%%%%%%%%%%%%%%%%%%%%qQ%%%%%%%%%%%%%%%%%%%%%%%%%%QqQq%%%%%%%%%qQ%
6345A71Qq%QqqQ%%%%%%%%%%%qQ%%%%%%%%%%%%%%%Qq%Qq%%%%%%%%%%QqQ%%q%%%%Qq%%%QqQ%
6329A79%qQ%%%q%Qq%%Qq%%%qQ%%%Q%qQ%%q%%%%%%Q%%qQq%%%%Qq%%%%%%%%%%%%%%%%%%%Qq%
6313A71%Qq%%%QqQ%qQ%qQqQ%%q%%Qq%Q%qQ%%qQ%qQ%%%%%%%qQqQ%%%%q%%%Q%%%%%%%%%%%%%
6297A79q%Q%%%qQq%%Q%%q%%%%Qq%%QqQ%%%%%%qQq%Q%q%%%QqQqQ%qQ%%%%%q%%%%%%%QqQ%%q
6281A71%Q%q%QqQq%%%QqQq%%Qq%QqQqQq%Q%%%%%%%%%%%%%qQ%%%qQ%%%%%qQ%%q%%%Q%qQ%%%
6266A79%%%%%qQqQ%%%%%qQ%%%%%qQq%%%%%%%%%%Q%%%%%qQ%%%%%%%%%%%%%%qQ%%%%%%%%%%%
6250A79%%%%%%%%%%%%%%%%%%%%%%%%%%%%%%%%%%%%%%%%%%%%%%%%%%%%%%%%%%%%%%%%%%%%%
6234A79%%Qq%Q%q%%%%Qq%Qq%Q%qQq%%%%%%Q%q%Q%q%%%%%%%QqQ%qQ%%qQ%qQ%%qQ%qQ%q%%Qq
6218A79%Qq%%%%%Qq%%%Qq%%Qq%%%%%QqQqQ%qQqQ%qQq%Qq%%%qQqK4qqQqQqQ%qQ%qQq%qK4k4
6203A71M0k4%qQq%qQ%%%%Qq%QqQ%q%%%%%%%%%Q%%qQqQ%%%qQ%%q%%Q%qQqQq%%%%Q%qQqQq%%
6188A79QqQq%%Q%%%%%%%%%%%%%%%%%%%%%%%%%%%%%%%%%%qQ%%qQ%%%%%%%%%%%%qQ%%%%%%%%
6172A87qQ%%qQ%qQqQq%Q%qQQq%%%qQqQqQ%qQq%Q%q%%Q%%%%%%%%%%%%%%%%%%%%%%%%%%%%%%
6156A87%%%%%%q%%Q%%%%%%qQ%%Qq%%%%%%%%%%%%%%%%%%%Qq%%%%Qq%%%Q%q%%%%%%%%%%%%%%
6140A87%%%%Q%q%Q%q%%%Qq%%%%%%%%%%%%%%%%%%%%%%%%%%%%%Q%q%%%%%%%%%%%%%%%%%%%%%
6125A87%%%%%%%%Qq%%%%%%%%%%%%%%%%%%%%%%%%%%%%%%%Q%%qQ%%%%%%%%%%%q%qJ6q%%q%J6
6109A95Qq%%qQ%%%%qQ%%q%Q%q%Qq%Q%%%qQqQ%%%%qQ%%q%Q%qQ%%%%q%%Qq%Q%%qQ%q%Qq%%%%
6093A87Qq%Q%%q%QqQq%Q%%%%%%%%%%%qQ%%%qQ%%Qq%%%%Qq%%%%%%%%%%%qQ%%%%Qq%%%%%%%%
6078A95%%%%%%%%%%%qJ6q%%%%%%%%%%%%%%%%%%%%%%%%%%%%%%%%%%%%%%%%QqQq%%%%%%%%%Q
6062B03q%Q%q%%%%%%%%%%%%%%Qq%%%Qq%%%%%%%%%%QqQqQq%%Qq%%%%%%%%%%Qq%%%Q%q%%%%%
6046A95%%%%%%%%%%%%%%%%%%%%%%%%%%%%%%%%%%%%%%%Q%q%Qq%%Q%%q%%Q%qQ%%%q%%%%%%Q%
6031B03q%%%%Qq%%%%%%%%%Q%q%%%%%%%%%%%%%%Q%qQ%%%%%q%Qq%%%%Q%qQ%qQqQq%Qq%Q%%qQ
6015B03%%%%%%%%%%%%q%%Q%%%%%%qQ%%qQ%q%%%%%QqQ%%%%%%%%%%qQ%%%%%%%%%%qQ%%%%%%%
5999B03%%%%%%%%%%%%%%%%%%%%%%%%%%%qQ%%%qQ%%%%%%qQ%%%%%%%%%%%%%%%%%%%%%%%%%%%
5983B03%qQ%%%%%%%%%%%%%%%%%%%%%%%%%%%%%%%%%%%%%Q%Qj6qQ%Qq%%%%%%%%%Q%%q%qQ%%%
5968B03%%%%Q%%%qQq%%%%%%%%%Qq%%%%%%%%Q%q%%%%%%%%%%%%%%%%%%%%%%%%%%%Qq%Q%qQq%
5952B03%%%%%Qq%%%%%%QqQq%%%%%%%%%Q%%%%%%q%%%%%%%Q%%%%%%q%%Q%qQqQqQqQ%%%%%%%%
5936B11%%%%%%%%%%%%%%%%%%%%%%%%%%%%%%%%%%%%%%%%%%%%%%%%%%%%%%%%%%%%%%%%%%%%%
5920B11%%%%%%%%%%%%%%%%%%QqQq%%%%%%%%%%%%%%%%%%qQQqqQ%Q%q%qQ%%Q%q%%QqQ%q%%%%
5904B11%%%%%%%%%%qQ%%%%%qQqQ%%%%%%%Qq%%%%%%%%%%%%%%Q%%%%q%%Qq%QqQq%Q%qQ%qQ%%
5889B19%%%%%%q%%%%%%Q%q%%Q%%qQq%%%%%%%Qq%%%%%Qq%%%%%%%%Qq%%%%QqQ%Qq%%qQqQ%%q
5873B11Q%%%%%%%%%%%%%%%%%%q%qJ6qQ%%%%%%%%q%%Q%%%%%%%%%%%%%%%%qQqQ%%%%%%%%%%%
5857B19%%q%%%%Q%%%%%%%%%%%%%%qQQq%%%%%%%%%%%%%%%%%%%%%%qQ%%%%%Q%q%Qq%%%%%Qq%
5841B19%%%%%%Qq%%%%%%%%%Q%%q%%%%%%%%%%Qq%%%%%%%%%%%%%%%%%%%%%%%%%%%%qQ%%%%%%
5826B19%%%%%%%%%Qq%%%%%%%%%%%%%%%%Q%qQ%%%%q%%Q%%%%qQ%%%%%%%%q%Q%qQ%%%qQ%%%%%
5810B27%%%%%%%%%%%%%%%%%%%%%%%%%%%%%%%%%%%%%%%%q%Q%%%q%%Q%qQ%%q%QqQ%%%%%%%%%
5794B27%%%qQqQ%%%%%%qQ%%%%%%%%%%%%%%%%%%%q%Q%qQ%%%%%%%%%Qq%%%%%%%%%%%%%%%%%%
5778B27%%%%%%%%%%%%%Qq%%%%%%%Qq%%%%%%%%%%%Q%qQ%q%Qq%Qq%%Qq%Qq%Qq%%%%%%%%Q%%%
5762B35%%%%qQ%q%QqQ%q%%Q%%%q%Q%%%%%qQqQ%%%%qQ%%%%qQ%q%Q%%%%%%%%%%%%%%%%%%%%q
5747B27Q%%%%q%%%Q%qQqQ%qQ%%qQq%%Qq%QqqQQ%Qq%%%QqqQ%qQqQ%Qqq%qQ%%J6qQj6QqQQq%
5731B35qQ%qQ%%qQ%qQ%%Qq%%%%Qq%Qq%%%Q%qq%Q%%%%%%%%%%%%%%%%%Qq%Qq%Qq%%%%%%%%%%
5716B35%%%Qq%%Qq%%%%%%%%%%%Qq%%%Qq%%%%%%%%%%%%%%%%%%%%%%%%%%%Qq%Qq%%Q%%q%%Qq
5700B35Qq%%%%%%%%%%%Qq%%%Qq%%Q%q%Q%%%qQq%%%Q%%%q%%Qq%%QqQq%%%%Qq%Qq%%%%Q%%%%
5684B43%%%%%%%%%%qQ%%%%%qQ%%%%%%%%%%%%%%%%%%%%%%%%%%qQ%%%%%%%%%%%%%%q%%%Q%%%
5668B43%%%%%QqQq%%%%%%%%%%%%%%%%%%%%%%%%%%%%QqQ%q%%%%%QqQq%%Qq%%%%%%%%%%%%%%
5652B43Q%qQ%%qQq%%Qq%%Q%%qQ%%qQ%q%%%%%Q%%%%%%qQ%qQ%%q%QqJ6q%%q%%Q%%%%%qQ%qQ%
5637B51q%%Q%%qQqQ%%%%%%%qQ%%%%%%%%%%%%%%%%%%%%%%%%%qQ%%%%Qq%%%%%%%%%%%%Q%%q%
5621B51%%%%%%%%%%Qq%%qJ6qQq%%%%%%%%%%%%%Qq%%%%%%%%%%%%%%%%%%Qq%%%%%%%Qq%Q%%%
5605B59qQq%%%%%%%%%%%%Qq%Qq%%%%%%%%%%%%%%Q%q%Q%qQq%%Qq%Q%%%qQ%%%%qQqQ%%%%%%%
5590B59%%%%%%%%%%%q%Q%%%%%%%%%%%%%%%%%%%q%Q%%%qQqQq%Q%%%%%%%%%%%%%%%%%%%%%%%
5574B59%%%%%%%%qQ%%%%%qQ%%%%%%%%%%%%%%%%%%%%%%%%%%%%%%%Qq%%%%%%%%%%%%%%qQQ%%
5558B67q%%%%%%%%%%%%Q%q%%%%%%%%QqQq%%%Qq%%%%Qq%%%%%%%Q%%q%QqQq%%%%%%Q%%q%%Q%
5542B67%%%%qQ%%%q%QqQ%%%%%Qq%%%%%%%%%%%%%%%%%%%%%%%%%%%%%%%Qq%%%%%%%%%qQ%%%%
5527B67%%%%%%%%%%qQ%%%%%%%%%%%%%%%%%%%%%Q%qQqQq%QqQ%qQq%%%%Qq%Qq%%%%%%%%%%%Q
5511B75q%%QqQq%%%%QqQqQ%qQqQ%%%%q%Q%qQ%%qQ%%q%%QqQqQq%%qJ6%qQqQ%%%%%%%%%%%%%
5495B75%%%QqQq%Qq%%%%%%%%%%%%%%%%%%%%%%%%%%%%%%%%%%%%%%%%%%%Qq%%%%Q%q%%%Qq%%
5479B75Q%q%%%%%%%%%%%Qq%%%%Qq%Q%%qQqQ%q%%%%%Qq%%%%Qq%Qq%Q%q%%Qq%Qq%Qq%%%%Q%%
5464B83%%%%%%%%%%qQ%%%%%qQ%%%%qQ%%%%%%%%%%%%%%%%%%%%%%%%%%%%%%%%%%%%%%%%%%%%
5448B83%%%%%%%%%%%%%%%%%%%%%%%%%%%Qq%%%%Qq%%%%qQ%%%%%%%%%%%%%%%%%%%Qq%%Qq%%%
5432B83%%%Q%qQ%%%%%%%qQ%%qQ%q%Q%%%%%qQ%qQ%%qQ%%qQ%%%qQ%%%%%%%%%%q%Q%%q%%%Q%%
5416B91%%%%%%%%%%%%%%%%%qQ%qQ%%%%%%%%%%%%%%%%%%%qQ%%%%%%%%Q%%q%%%%%%%%%%%%%%
5400B91%%%%Qq%%%%%%%%%%%%%%%%Qq%Q%q%%%%%%%%%%%%QqQ%q%%%%%%%%%Q%qQ%%%%qQq%Qq%
5385B91Qq%QQj6QqQ%%%%%%%%%%%%%%%%%%%%%%%%%%%%%%%%%%%%%%%%%%%qQ%%%%%%%%%%%%%%
5369B99%%%%%%%%%%%%%%%%%%%%%%%%%%QqQ%%%qQ%qQ%%%%%%%%%%%qQ%%q%%Q%%%%%%%%q%%Qq
5353B99Q%%%%%%%%%%%%%%%%%%%%QqQq%%%%%%%%%%%%%%%%%%%%%%%%%%%%%qQ%%%%%%%%%%%%%
5337C07%%%%%%%%%%%%%%%%%%%%%%%%%%%%%%%%%%%%%%Q%q%%Qq%Q%%%%%%qQqQ%%q%QqQ%%%%%
5322C15%%%%qQ%%qQ%%%%%%%%%%qQ%%%%%%%%Qq%%%%%%%%%%%%%%%%%%%%%QqQqQq%%%%Q%q%%%
5306C15%%%%%%%%%%%%%%%%%%%%Qq%%%%%%%Qq%%%%%%%%%%%%Q%q%%%%%Qq%Q%qQ%%qQ%%qQ%%q
5290C15%%%%Qq%%%%%%%%Q%qQ%%%%%%%%%%%%%%%%%%%%%%%%%%%%%%%%%%%%%%%%Qq%%Qq%%%Q%
5274C31%%q%%%%%qQ%Q%%%%qq%Q%Q%%%qQqQ%qQqQq%qJ6q%qJ6qJ6q%%%%Qq%%%%%%%%%qQ%qQq
5259C23Q%%%Qq%%%%Qj6Qq%Q%%Q%q%Qj6Q%%%QqQq%%%%%%%%%%%%%%%%%%%%%%Qq%Q%%%q%%%%%
5244C31%%Q%q%QqQ%q%Q%%%q%Q%q%Q%%%%qQqQ%q%Qq%%%Q%%qQq%%%%%%Qq%%%%%QqQqQ%%%%q%
5228C31%%Qq%Q%%%%%%%%%%%%%%%%%%%Q%%%%qQq%%%%%%%%%%%%%%Qq%%%%Qq%%%%Q%%q%%Q%qQ
5212C47q%Q%%%%%qQ%%%Qq%%%%Qq%qQ%%%%%%%%%%%%%%%%%%%%%%%%%%%%%%Qq%%Qq%%%%%%%%%
5196C47%%%Qq%%%%%%%%%Q%%q%Qq%%%QqQ%qQqQ%qQ%%%q%%%QqQ%%qQ%%%%%q%%%Q%%%%q%%Q%%
5181C55%%%%%%%%%q%%Q%%%%%%%Qq%%%%q%%%QqQq%qL2q%Qqj6J6q%%Qj6QQj6QQq%Q%%%%%qQq
5166C55Q%qQqQ%q%%%Qq%%%%%%%%%%%%Qq%%%%%%Qq%Qq%%Q%%qQq%Q%%q%QqQ%%%%qQ%%%%%%%%
5150C63%%%qQqQ%QqqQ%%%%%%%%%%%%%%%%%%%%%%Qq%%%%%%%%%%%%%%%%QqQ%qQ%%%%%%%qQ%q
5134C63%Q%q%Q%%%%%%%%%%%%%%%%%%%%%%%%%%%%%%%%%%%%%%%%%%qQ%%%%%%%%%%%Qq%%%%%%
5119C71%%QqQqQ%%%q%%%%%%%QqQq%%Qq%%%Qq%QqQ%%%%%%%%%%%%%%%%%%%%%%%%%%%qQ%%%q%
5103C71QqQqQqQ%%%%%%%%%%%%%%%%%%%%%Q%qQqQqQ%%%%qQ%%%%%qQ%%qQ%%%%%%%%%%qQ%%%%
5087C87qQ%%%%%%%%%%%%%%%%%%%%%%%%%%%%%%%%%%%%%%%%%%%%%%%%%%%%%%%%%%%%%%%QqQ%
5071C95%%%qQ%%q%Qq%Qq%%%QqQq%%%%%QqQ%qQqQ%%%%%%%%%%%%%%%%%%%%%%%%%%%%%%%%%Qq
5055C95%QqQ%q%Qq%Q%qQ%%%%%%qQ%q%%%%%%%%Q%q%Qq%Q%%%qQ%%%%%%%%%%%%%%%%%%%%%%%%
5040D03%%%%Qq%%%%%%%%q%Q%%qQ%qQ%%%%%%%Q%qQq%Qq%%QqQ%%%%%%q%%Q%%qQqQ%%%%%%%%%
5024D11%%%%%%%%%%%%%%%Qq%%qQ%%%%qQ%%qQ%%%%%%%%%%%%%%%%%%%%%%%%%%%Q%%%%%%%%q%
5008D11QqQ%%%%%%%%%%%%%%%%%%%qQ%%%%%%%%%%%%%%%%%%%%%%Qq%%%%%%%%%%Qq%%%%%%%%%
4992D19Qq%QqQ%%%%q%%%Qq%Q%%%%%%%%%%%q%Q%%qQ%%%%%Qq%%%%%%%%%%%Q%%q%Qq%Q%%%qQ%
4977D35qQ%%q%%%%%%%%Qq%Q%%%%%%q%Q%%%%%%j6Q%%QqQ%qQ%%%%%%%%%%%%%%%%%%%%%%%%%%
4961D35%%%%%%%%%%%%%%%%%%%%%Q%%%%qQ%%qQqQ%%%%%%%%%%%%%%%%%%%%%%%%%%%%%%%%%%%
4945D43%%%%%%%%Qq%%%%Q%%qQq%%QqQqQ%qQ%j6Q%Q%%%%%%%%%%%%%%%%%%%%%%%%%%%%Qq%Q%
4930D59qQ%qQq%%%%%%%%%%%%%%%%%%%%%%%%%%%%%%QqQ%%q%%Q%%%%Qq%%%qQ%%%%%%%%%%%%%
4914D59%%qQ%%%%%%%%%Q%qQ%%q%%Q%qQ%%qQ%%%q%QqQ%q%Q%%%%%%%%%%%%%Qq%%%%%%Qq%%%%
4898D67%%%%%%%%%%%%%%%%%%Qq%%%%%%%%Q%%q%Q%%%%%qQ%%%%%%%%%%%%Qq%%%%%%%%%%%%%%
4882D75%%%%%%%%%%%%%%%Qq%%Q%qQqQ%%%qQ%q%Q%%%%%%%%%%%%%%%%%qQ%%%%%%%%Q%q%%%%%
4866D83%%%%%%%%%%Q%%%%%%qQ%qQ%qQ%%%%%%%%%%%%%%%%%%%%Q%qQ%q%%%%%%%%%%%%%Qq%Qq
4851D91Qq%Q%q%%Q%%%%%q%%%Q%q%QqQ%%qQ%%q%Q%%%%%%%%qQ%%%%%%%%%%%%%%%%%%%%%%%%%
4835D99%%%%%%%%%%%%%QqQq%Qq%Q%%%%%%%%%%%%%%%%%%%%%%QqQ%qQ%%qQ%q%Qq%%%QqQ%%%%
4819E15%%%qQqQ%qQ%%%%%qQ%%qQ%qQ%%%%%j6K4j6Q%Qq%%%%Qq%%Q%qQ%qQqQq%%qQJ6j6qQ%%
4804E15QqJ6k4QQJ6k4L2j6J6l2J6qJ6qj6L2qqj6Q%%%%qJ6k4Qj6N6m8L2m8M8j6K4j6qQ%q%Q
4794E31q%%%QqQ%q%Q%qQ%%qQ%qQ%Qq%qQ%%%%%qQ%%%QqqQ%%%%%qQ%%%%%%%%%%%%%%%Q%%%%q
4778E31%Q%%%%%%%qQ%%%%%%%%%%%%%%%%%%%%%%%%%%%Qq%%%%Qq%Q%%qQ%%qQ%%%%%%%%%%Q%q
4762E47%%Q%qQq%qQ%%%Q%%qQ%%%%qQ%%%%%%qQqQ%%%%%%%%%%%%Qq%%%%QqQq%%%%%%%%QqQq%
4747E55Q%%%%%%%%%%%%%%%%%%%%%%%%%%%%%%%%%%%%Qq%%%%%%%Q%%qQq%%Q%%%%%%%%%%%%%%
4731E71%%%%%%%%Qq%%%%%%%%%%%%%Q%q%%Q%%%%%qQ%%q%QqQ%%%%%%%%%%%%%%%%%%%%%%%%%%
4715E79%%%%%%%%%%%%%%%%%Q%%%%%%%%%%%%%%%%%%%%%%%%Q%qQq%%Qq%%%%QqQ%qQqQq%Q%%%
4699E95%qQ%%%%%%%%%%%%%%%%%%%%%%%%%%%Q%%%%%%%%%%%%%%%%%%%%Qq%%%%%%%%Qq%Q%%%q
4684F03%Qq%Q%%%qQqQ%%%%%%qJ6q%%%qQ%%%%%%%%%%%%%%%%%%%%%QqQ%qQ%%%%%%%%%qJ6q%%
4668F19%%qQ%qQ%%%%%%%%%%%%%%%%Qq%%%%%%%%Q%%%qQ%%%%%%%%%%%%%%Q%q%%%%Q%q%%Q%%%
4652F35%%qQ%%q%QqQ%%%qQ%qQ%%qQ%%%%%%%%%%%%%%%QqQ%%%%%%%qQ%qQ%%%%%%%%%%%%%%%%
4637F43%QqQq%%%%Q%qQq%Q%%%%%%%%%%%%%%%%Q%q%%%%%%%%%Q%qQqQ%%%%%%%%%%%%%%%Qq%%
4621F59%Qq%%%%%%%%%%%Q%%qQ%%%%%%%%%qQ%%%%%%%%%%%%Qq%%%%%%Q%%%%qQ%%%%%%%%%%%%
4605F75%%%%QqQq%Q%q%QqQq%%%Qq%%%Q%qQ%%%%%%%%%%%%%%qQ%%%%%%%Qq%%Q%q%%%Q%%%%%%
4589F91%%%%%%%%%%%%%%QqQ%%%%qQ%%%%%%%%%%%%%%%%%%%%%%%%%%%%%%QqQ%%%%%%%%%%qQ%
4573G07%%%%%%%%%%%%%%%%%%%Q%qQ%%q%%%%J6j6Q%%%%%%%%%%%%Q%q%%Q%%q%%%%Qq%%%Q%qQ
4558G23%%q%%%%Q%%%%%%%%Qq%%Q%qQ%%q%Q%%qQqQ%%%qQ%%%%%%%%%%%%%%%%%%%%%%%%%Q%%%
4542G39%%%%qQ%%%%%%%%%%%%%Qq%%QqQq%%QqQ%qQ%%q%%Q%%%%%%%%%%%%%%QqQ%%%%%%%%%%%
4527G55%%Qq%%Q%qQ%%%%%%%%%%%%%%q%%Q%qQ%%%%%%%%%%%Q%qQ%%%%%%%%%%%%%%%%QqQq%Q%
4511G79qQq%%%Q%%%Qq%%%%%%%%%%%%Q%q%Qq%QqQ%%%%%%%qQ%%%%%%%%Qq%%%%%%%Qq%%%%Q%%
4495G95qQq%Q%%%%Qq%%Q%qQ%q%Q%%%%%%qQ%%%%%%%qQ%%%%%%%%%%%QqQ%%%%%%%%%%%%%qQ%%
4479H11%Qq%%Q%%%%%%%%%%%%qQ%%%%%%%%%Qq%%Qq%%Q%%%%%%Qk4J6qQ%qQ%%%%%%%QqQqQ%%%
4464H35%Qq%%%%%%%%qQ%%%%Qq%%%%Q%%%%%%%%%%%%%%%Q%q%%Q%%qQ%%%%%%qQ%%%%%%%%%%%%
4448H51%%%Q%%qQ%%%%qQ%%%%%%Qq%%%%%QqQqQqQ%%%%%%QqQq%Q%%%%qQ%%%%%%%%%%%%QqQqQ
4432H83%q%QqQ%%%%%%%%%%%%%%%%%%%%%%Q%%%%%%%%%%%%%%%%Qq%%%Q%%%%%%%%%%%%%%%%Q%
4416I07%q%Q%%%%%%%%%%%%%%%%Qq%Q%q%Q%%%%%%%%%%%%%%%%Qq%Q%qQqQqQ%%%%%%%%%QqQ%%
4401I31qQqQqQ%%%%%%%%%%%%%%%%Qq%%%%QqQ%%%%%%qQ%%qQ%%%%Q%%%%%%%%%%%%%%%%%%QqQ
4385I55%%%%%%%%%%%%%Qq%%%%%Q%%qQ%%%%%%%%%%%%%%%%%Q%qQ%%%%%%%%%%%%%Qq%%QqQ%%%
4369I79%%%%%%%%%QqQqQqQ%%%%%%%%%%Qq%QqQ%%%%%%%%Qq%%%Q%qQ%%%%qQ%%%%%%%%%%%%%%
4353A003%%Q%%%Qq%%%%%%Qq%%Q%%%qQ%%%%%%%%%%%%%%%QqQ%%%%%%%%%%%%Qq%Q%%%%%%%%%%
4338A035%Qq%%Q%%%qQ%qQQqqQ%Q%j6Q%%%Q%%%%%qQ%Qq%%J6j6%Q%qQ%q%Q%%%%qQQq%%%%%%%
4323A059Qq%%%Q%%%Qq%%QqQ%%%qQq%Q%%%%%%%Q%qQ%%%%%%%%%%%%%Q%qQq%Q%%qQ%%%%%Qq%%
4307A091%%%%%%%%Q%%%%%%%%%%%%%Qq%%Q%%%%%%%%%Q%%%%%%%%%Qq%%%%%Q%%%%%%%%QqQqQq
4292A123%Q%%%%%qQ%%%QqQqQ%%%%%%%%%%%%%%%%QqQ%%%%%%%Qq%Q%q%Q%%%%%%%%%%%%Q%%%%
4276A163%%Q%q%%%Q%qQ%%%%%%%%%%%Q%%%%Qq%%%%%%%%%%QqQ%%%%%Qq%%Qq%%Q%%%%%%%%%%%
4261A195Q%%%qQ%%%%%%Qq%QqQ%%qQ%%%%%%%%%%%QqQ%%%%%%%%%%%Q%%%%%%%%%%%%Q%%%%%%%
4245A235Qq%Q%%%%%%%%%%%%%%QqQ%%%%%%Q%%qQ%%%%%qQQqQqq%J6%%%%Qj6Q%%%%%Q%%%%%%%
4230A275%%QqQ%%qQ%%%%%%%%%Q%%%%%%qQ%%%%%%%%%%%%Q%%%%Qq%%%Q%%%%%%%%%%Q%qQqQ%%
4214A315Q%qQq%Q%qQ%%%%%%Q%%%%%%%%%%%QqQ%%%%%%%%Q%%%qQ%%%Q%%%%%%%Q%q%%%%Q%%%%
4199A363%%%%%%%Q%%%%%%%%%%Q%%%%%%%%%%%Q%%%%%%%%%%Q%%%%%%%%%Qq%%QqQ%%%%%%%Q%%
4183A411%%%%%%%%%%%%%Qq%Q%%%%Q%%%%%%%%%%%%QqQ%%%%Qq%%Q%%%%%%%Q%q%Q%%%%%%%%Q%
4168A459%%%%%%%%%%%QqQ%%%%%%%Q%%%%%%%Qq%%Q%%%%Q%%%%%%QqQqQqQ%%%%%Q%%%%%%%%%%
4152A507%%%Q%qQ%%Q%%qQ%%%%%%%%%%%Q%%%%%%%%Q%%%%%%%%QqQ%%%%%QqQ%%%%%%%%Qq%QqQ
4137A563%%%%Q%%%%%%%%%%Q%%%%%QqQ%%%%%%%Q%%%%%%%%%Q%%%%%%%%%%%Q%qQ%%%%%Q%%%%%
4121A619%%%%Q%%%%%QqQ%Qq%%%Q%%%%qQ%%%%Q%qQ%%%%%Q%%%%%%%Q%%%%%%Qq%Q%%%%%%%Q%%
4105A683%%%Qq%Q%%%%%%%Q%%%%%%Q%qQ%%%Q%q%%Q%Qq%Q%%%%%%QqQ%Qq%%%%%%%Q%%%%Q%%%%
4090A747%%%%Q%%%%%QqQqQ%%%%%Q%%%%%QqQ%%%%%%%Q%%%%%%%%%Q%%%%%%Q%%%%%%Q%%%%%%Q
4074A819%%%%%%%%Q%%%%%Q%%%%%Q%%%%%%%%Qq%%Q%%%%%%Q%%%Qq%Q%%%%%Q%%%%%%QqQ%%%%%
4059A883Q%%%%%%Q%%%%QqQ%%%%Q%%%%%%QqQ%%%%Q%%%%%QqQ%%%%QqQ%%Qq%Q%%%%%%%Q%%%%%
4043A963%Q%%%%Q%%%%%QqQ%qQ%%%Q%%%%Q%%%%%Qq%Q%%%%QqQ%%qQ%%Q%%%%QqQ%%%Q%qQ%%Q%
4028B051%%%%%%Q%%%Q%%%%%Q%%%%%Qq%%Q%%Q%%%%%Q%%%%Q%%%%%%%%Q%%%%Q%%%%%%Q%%Qq%%
4012B131Q%%%Qq%Q%Q%%%%%QqQ%%%%%%Q%%Qq%Q%%%%QqQ%%%Q%%%Qq%%QqJ6q%%QQ%%%%%Q%%%%
3997B227%%QqQ%Q%%%%Q%%%%%QqQQ%%%%%qQQ%qQ%Qq%Q%%%Q%%%%%Q%%Q%%%%%%Q%%%%%Q%%%%q
3981B315Q%Q%%Q%%Q%%%%%%%Q%Qq%Q%%%Q%%%Q%qQ%%%Q%%Q%%Q%%%%%%%%Q%Q%%%%Q%qQ%%QqQ%
3966B435%%Q%%%Q%%%%%%Q%%%Q%%%%Q%%%%Q%%%Q%%QqQ%%%%%Q%%Q%%Q%%%Q%%%%%%Q%%%%Q%%%
3950B547Q%%%%%Q%%%QqJ6q%Q%%Q%%%Q%%%Q%%Q%%%%Q%%%Q%%%QqQ%Q%%%%%Q%%QqQ%Q%%Q%%%%
3935B675QqQ%%Q%%%%%Q%%%%Q%%%Q%%%Q%%%Q%%Q%%%%%Q%%%QqQQ%%%%%QQqQ%%%Q%%%Q%%%Q%%
3919B803Q%%%Q%%%Q%%Q%%%Q%%Q%%%Q%%Q%%%%%%Q%%Q%%Q%%Q%%%Q%%%Q%Q%%%%Q%%%Q%Q%%%%Q
3904B955%%%%Q%QqQ%%%Q%%Q%%Q%%Q%%%Q%%%%Q%Q%%%QQqQ%%%%QQqQ%Q%%%Q%%Q%%Q%%%Q%%%Q
3888C107%Q%%%Q%Q%%%%Q%%Q%%%Q%%QqJ6qQ%%Q%Q%%%Q%%Q%Q%%%Q%%Q%%%%Q%%Q%Q%%%Q%Q%%%
3873C267%Q%Q%%Q%%Q%%%Q%%%Q%%Q%Q%%Q%Q%QqQ%J6qk4K4%J6Qj6Q%Q%QQq%Q%Q%%QqJ6q%J6j6
3859C419J6%QQ%Qj6Q%J6q%Q%%%QQqQQQ%%%QQqQ%%Q%Q%qJ6%%%QQqQQ%%%Q%%QQ%Q%%QqQQ%%Q
3844C619%Q%%%%Q%Q%%Q%%Q%Q%Q%Q%Q%%Q%%%Q%Q%%Q%Q%%Q%%Q%%Q%Q%%Q%%Q%Q%%QQ%%Q%%Q%Q
3828C827%%QQ%%%Q%Q%QQ%%Q%Q%Q%%Q%Q%%Q%%Q%Q%%Q%Q%Q%%Q%Q%Q%Q%%Q%QQ%%Q%Q%%QQ%%Q%
3813D059Q%Q%%QQ%%%QQ%Q%Q%%Q%Q%Q%%Q%QQ%Q%%QQ%%%QQ%%Q%Q%Q%QQ%%Q%Q%%Q%Q%%J6%%Q%
3798D307%Q%Q%Q%QQ%%Q%QQ%%Q%Q%Q%QQ%Q%%Q%%QQ%%QQ%Q%QQ%Q%Q%Q%Q%Q%Q%Q%QQ%Q%%QQ%%
3782D579QQ%QQ%Q%QQ%%Q%Q%Q%%QQQ%Q%QQ%Q%Q%Q%Q%QQ%%QQQ%%QQ%Q%QQ%Q%Q%Q%QQ%QQQqQJ6
3766D899%%QQ%Q%Q%Q%QQ%Q%Q%QQQqJ6%QQ%Q%QQ%Q%QQ%QQ%QQQ%%QQ%QQ%QQ%QQ%Q%QQ%QQ%QQ
3751E227%QQ%Q%QQ%J6%QQQ%Q%QQqQQQ%QQQ%QQ%QQ%Q%QQQQ%QQ%QQQ%Q%QQQ%QQQ%Q%QQQQ%QQ
3736E595%QQQQ%QQ%Q%QQQQ%QQ%QQQQ%QQ%QQQ%QQQ%QQQQ%QQQQ%J6%QQ%QQ%QQ%QQQQ%J6%QQQ
3721E995%J6%QQ%QQ%J6%QQQQQ%QQQQQQ%QQQQQQ%QQQQQ%QQQQQQ%QJ6%QQQQ%J6%QQQQQ%J6%Q
3706F419QJ6%QQQ%J6%QJ6%QQQQQQQ%QJ6%QQQQQQQQQQQQ%QQQQQQQQQQQQQQQQQQQQQQQQ%J6Q
3692F899%J6Q%QQQQQJ6%J6QQQQQQ%J6Q%J6QQQQQQQQQQQQQQQQQQQQQJ6QQQQQQQQQJ6%J6QQQ
3678G395QJ6Q%J6QQQQJ6%J6QQQQQQQJ6QQQQJ6%J6QQQQJ6QQQQJ6QQQQQQQJ6QQJ6QQQQJ6QQQ
3665G915J6QQJ6QQQQJ6QQQJ6QQJ6QQQQJ6QJ6QQQJ6%J6QQJ6QQJ6QQQJ6QJ6QJ6%J6QQJ6QQJ6
3654H443QQJ6QJ6QQJ6QJ6QQQJ6J6QQQQJ6QK4%J6J6QJ6QQQJ6QJ6QJ6QQJ6QJ6QJ6QJ6J6QQJ6
3643H987QJ6QJ6QJ6QJ6QJ6QJ6QJ6QJ6J6QQJ6QJ6QJ6QJ6J6J6QJ6QJ6QJ6QJ6J6QJ6QJ6J6QJ6
3633I531J6QJ6QJ6J6QJ6QJ6QJ6QJ6K4%K4%K4J6J6QQJ6J6QK4QJ6QK4QK4%J6K4QQJ6J6J6QK4
3623A0115J6QJ6J6J6QK4%J6J6J6J6J6J6J6QJ6J6J6QK4QJ6J6J6QJ6J6J6J6J6QK4J6QJ6K4QJ6
3614A0683J6J6J6J6J6QJ6J6K4J6J6J6J6J6QK4J6J6QK4J6QJ6J6K4QK4J6QK4J6J6J6J6J6J6J6
3605A1275J6J6J6J6J6K4J6J6J6J6K4J6QK4J6J6J6J6J6K4J6K4QK4QK4J6J6K4J6J6J6J6K4J6
3597A1883J6J6K4J6J6K4J6K4J6J6J6J6K4J6J6K4J6K4J6K4J6J6J6J6K4J6K4K4J6J6J6K4J6K4
3589A2523J6J6K4J6K4K4J6K4J6J6K4J6K4J6K4J6K4J6K4J6K4K4J6K4J6K4K4J6K4K4J6J6K4K4
3582A3211K4K4J6K4J6K4J6K4K4K4J6K4K4K4J6K4K4K4K4J6K4K4J6K4K4K4J6L2J6L2J6K4K4K4
3574A3963K4J6K4K4K4K4K4K4K4K4K4K4J6L2K4J6K4K4L2J6K4K4L2K4J6L2K4K4K4K4K4K4L2K4
3566A4779K4J6L2K4K4L2K4L2J6K4L2K4K4K4K4L2K4K4L2K4K4K4L2L2K4K4K4L2K4K4L2K4L2K4
3558A5667L2K4L2K4K4L2L2K4L2K4L2K4K4L2L2K4L2K4L2L2K4L2K4L2K4L2L2K4L2L2L2K4L2L2
3551A6643L2K4L2L2L2K4L2L2L2L2L2L2L2K4L2L2L2L2L2L2L2L2K4M0L2K4M0K4M0L2L2L2L2L2
3543A7707L2L2M0L2L2L2L2M0K4M0L2L2L2M0L2L2M0L2L2M0L2L2M0L2M0L2M0L2L2L2M0L2M0M0
3535A8883L2M0L2L2M8L2L2M0M0M0L2M0M0L2L2N6L2K4M8M0M0M0L2M0M8L2M0M0M0M0M0M0M0L2
3527B0171M8L2M8M0M0M0M0M0M0M0M0M8M0M0M0M0M8M0M0M0M0M8M8M0M8L2M8M0M8M0M8M0M8M8
3519B1611M0M8M0M8M8M0M8M8M0M8M8M8M0M8M8M0N6M8M0N6M8M8M0M8M8M8M8M8N6M8M0N6M8M8
3512B3203M8M8M8N6M8M8N6M8M8N6M8M8M8N6M8N6M8N6N6M8N6M8N6N6M8N6N6M8N6N6N6M8O4N6
3504B4979M8N6N6N6N6N6N6O4N6N6M8O4N6N6O4N6N6N6N6O4N6O4N6N6O4O4N6O4N6N6P2N6O4N6
3496B6955O4O4O4O4O4O4N6P2O4O4N6O4P2O4O4O4O4O4O4P2O4O4P2O4P2O4P2O4P2O4P2P2O4P2
3488B9195O4P2P2P2P2P2P2P2P2P2P2P2P2P2P2Q0P2P2Q0P2P2Q0P2Q0P2P2Q8P2Q0Q0P2Q0Q0P2
3481C1715Q0Q8P2Q0Q8Q0Q0Q0Q0Q0Q0Q8Q0Q0Q8Q0Q8Q0Q8Q8Q0Q8Q8Q0Q8Q8Q8Q8Q8Q8Q8Q8Q8R6
3473C4587Q8Q8Q8Q8R6R6Q8R6R6Q8R6R6R6R6Q8R6R6R6J04R6R6R6R6J04R6J04R6J04R6J04J04
3466C7555R6J04J04J04J04J04J04J04J04J04J12J04J12J04J12J04J12J04J12J12J04J12J12
3460D0003J12J12J12J12J20J12J20J12J20J20J12J20J20J20J12J20J20J20J20J20J28J20J20
3455D2707J28J20J28J28J28J20J20J36J28J28J28J28J36J28J36J28J36J36J28J36J36J36J36
3450D5699J36J36J36J44J36J44J36J44J44J36J52J44J44J44J44J44J52J44J52J52J44J52J52
3445D9011J52J52J52J52J60J52J52J60J60J68J52J60J68J60J60J68J60J60J68J68J60J76J68
3439E2699J68J76J68J68J76J76J76J76J76J76J76J76J84J76J84J84J84J84J84J92J84J92J84
3434E6819J92J92J92J92J92J92K00J92K00K00K00K00K08K00K08K00K08K08K08K08K08K08K16
3429F1443K16K16K16K16K24K16K16K24K24K24K24K24K32K32K32K24K40K24K40K40K32K40K32
3424F6651K48K40K48K40K48K48K56K48K48K56K56K56K56K64K64K56K64K64K72K64K64K80K72
3418G2563K72K72K80K80K80K88K80K88K88K88K80K96L04K88L04K96K96K96L12L12L04L12L12
3413G9291L12L20L12L20L20L28L20L28L28L36L28L36L44L36L36L44L52L36L60L44L60L52L60
3408H7003L60L60L68L68L68L68L76L76L76L84L84L84L92L84M00L92M00M08M00M08M08M16M16
3402I5899M16M16M16M32M32M24M32M40M32M48M48M48M48M64M48M64M64M64M72M72M88M72M88
3397A06227M80M96M88M96N04M96N12N12N04N28N20N20N36N36N28N52N36N52N52N60N52N68
3392A17755N68N68N68N84N92N76O16N92O00O00O16O08O24O24O32O32O40O48O48O48O64O56
3387A31259O72O80O72O88O88O88P04P04P12P12P28P20P44P36P44P52P52P68P68P76P84P84
3382A47235Q00P92Q24Q08Q16Q24Q48Q16Q72Q56Q48Q80Q72Q88Q88Q96R12R20R12R36R36R44
3377A66323R52R60R76R76R92R92J008J016J024J024J048J048J064J064J080J088J096J112
3373A84843J112J128J144J144J160J176J184J184J208J216J224J232J256J256J272J288J296
3369B05323J304J328J328J352J360J376J384J400J416J432J440J456J472J488J504J512J528
3365B29403J552J560J584J592J608J632J640J664J680J696J712J728J752J768J792J800J832
3361B57995J840J864J888J912J928J944J968J992K008K040K056K088K104K120K152K176K208
3357B92283K224K248K280K304K328K360K392K408K440K472K496K536K560K592K616K656K688
3354C33883K720K752K784K816K864K888K928K960L000L048L080L120L152L200L240L280L328
3350C85043L368L416L456L504L552L600L648L696L752L792L856L904L960M008M072M120M184
3346D48931M248M304M368M424M496M552M624M696M752M840M904M984N048N128N208N288N360
3342E30155N448N536N624N704N800N888N984O080O176O272O384O488O584O696O808O928P040
3338F35595P160P280P400P536P664P792P936Q072Q208Q360Q512Q664Q824Q976R144R312R488
3334G75923R664R848J0032J0224J0416J0624J0816J1040J1256J1472J1712J1936J2184J2432
3331I29579J2680J2952J3208J3488J3776J4064J4360J4680J4984J5320J5656J6000J6360J6728
3328A133835J7096J7496J7896J8304J8744J9168J9640K0096K0584K1080K1600K2136K2680
3325A390355K3248K3840K4448K5072K5728K6400K7104K7808K8568K9344L0144L0976L1840
3322A744875L2736L3664L4632L5632L6672L7760L8888M0048M1272M2536M3856M5240M6664
3319B254475M8160M9728N1344N3056N4824N6680N8616O0648O2760O5008O7320O9776P2328
3316C024723P5024P7848Q0807Q3936Q7216R0681R4320R8151J02208J06488J11001J15784J20832
3313D269019J26183J31865J37880J44279J51065J58287J65984J74177J82928J92271K02257
3310F036195K12944K24408K36696K49912K64112K79416K95928L13760L33040L53944L76632
3308I176987M01304M28160M57472M89504N24608N63128O05511O52256P03920P61167Q24785
3305A5588802Q95656R74880J063680J163576J276328J404064J549352J715328J905727K125232
3303B9662625K379585K675936L023233L432832L919295M501267N203107O057050P105953Q407918
3301G6368801J0042670J2121336J4801500J8310741K2983854K9323469L8098867N0508481
3299B72559719O8439409R4848814J34154279J91866603K70201582L50153026L53286443J61631908
3297A897141783j61631908l53286443l50153026k70201582j91866603j34154279r4848838
3295C40999104o8439385n0508457l8098903k9323457k2983878j8310729j4801511j2121324
3294H6411460j0042659q407918p105953o057050n203101m501258l919296l432846l023242
3291C4718137k675919k379584k125241j905727j715311j549369j404055j276337j163568j063688
3289A7459338r74872q95664q24776p61168p03921o52255o05519n63128n24608m89512m57464
3287A0006451m28160m01296l76632l53960l33040l13752k95928k79416k64112k49912k36696
3284F473547k24408k12944k02264j92272j82920j74185j65976j58287j51065j44271j37888
3282D527067j31857j26191j20832j15776j11009j06488j02208r8151r4320r0673q7224q3936
3279C258402q0807p7848p5016p2336o9768o7328o5000o2768o0648n8616n6680n4824n3056
3276B403707n1344m9728m8160m6664m5240m3856m2544m1264m0056l8880l7752l6688l5624
3273A845907l4632l3664l2736l1840l0976l0144k9344k8560k7824k7096k6400k5720k5080
3270A461891k4448k3840k3248k2680k2136k1600k1080k0584k0096j9640j9168j8744j8304
3267A186323j7896j7496j7104j6720j6360j6000j5656j5312j4992j4672j4368j4064j3776
3264I81907j3488j3216j2944j2680j2432j2184j1936j1712j1472j1256j1040j0816j0624j0424
3261H15683j0216j0032r848r664r488r312r152q976q824q664q504q360q216q064p936p792
3257F72635p664p536p400p280p160p040o928o808o696o592o480o376o280o176o080n984n888
3253E58267n800n704n616n536n448n368n288n208n128n048m976m904m832m768m688m624m560
3249D70771m488m432m368m304m248m176m128m072m016l952l904l856l792l752l696l648l600
3245D02339l544l512l456l416l368l328l280l240l200l160l112l080l040l008k960k928k896
3242C47811k848k824k792k744k720k688k648k624k600k552k536k496k472k440k416k384k360
3238C03667k328k304k280k248k232k200k176k152k120k104k088k056k040k008j992j968j944
3234B67427j936j904j888j864j840j824j816j784j768j752j728j712j696j680j664j648j624
3230B37299j608j600j576j560j552j528j520j504j480j472j456j448j424j424j392j392j368
3226B11995j360j352j336j320j312j296j280j272j264j248j240j224j216j200j192j184j168
3222A90531j160j144j144j128j120j104j096j088j080j064j064j056j032j032j032j008j008
3218A72171j000r84r84r68r60r60r44r36r28r20r20q96r04q96q80q80q64q64q56q48q40q32
3213A52107q32q16q16q08q00q00p84p84p68p76p60p52p60p44p36p36p28p20p20p12p04p04
3208A35347o88o88o88o80o72o72o64o56o48o48o48o40o32o24o32o24o16o08o08o00o00n92
3203A21219n84n92n76n76n68n68n68n60n52n52n52n44n44n36n28n28n28n20n20n12n12n04
3198A09195n04n04m96m88m96m80m88m80m72m80m64m72m64m64m48m56m56m48m48m40m40m32
3193I8875m32m40m24m24m24m24m16m16m08m08m08m08l92m00m00m00l84l92l76l92l84l76l76
3188H9571l76l68l68l68l68l60l60l60l60l44l52l52l52l44l44l44l36l36l36l28l36l28l28
3183H1523l20l28l20l20l12l12l12l20l04l12l04l12k96l04k96l04k88k96k96k88k88k88k88
3177G4515k80k80k88k80k72k72k80k72k72k72k64k72k64k64k56k64k56k64k56k56k56k48k56
3172F8371k48k48k48k40k48k48k40k32k40k40k40k32k32k32k32k32k32k24k24k24k24k24k24
3167F2963k16k24k16k16k16k16k08k24k00k16k08k08k08k08k00k08k08k00k00j92k08k00k00
3161E8163j92j92j92j92k00j92j84j92j84j84j92j84j84j84j84j76j92j68j84j76j76j76j76
3156E3907j84j60j76j68j68j84j68j68j68j68j60j68j68j60j60j68j60j60j60j60j60j60j60
3151E0091j60j52j52j52j60j44j60j52j52j44j52j52j44j52j44j52j44j44j36j52j44j36j36
3146D6675j44j44j36j36j44j36j36j36j36j36j36j28j36j36j36j28j28j36j28j28j28j28j28
3140D3587j28j28j20j28j28j20j28j20j20j28j20j20j20j20j20j20j20j20j12j20j12j20j12
3135D0803j20j12j12j12j12j12j20j12j12j04j20j12j04j12j04j04j04j12j04j04j12j04j04
3130C8275j04j04j04j04j04j04r6j04j04r6j04j04r6r6j04r6j04r6r6r6r6r6r6r6r6q8r6r6
3123C5499q8r6r6q8r6q8r6q8r6q0r6q8q8q8q8q8q8q8q8q8q0q8q8q0q8q8q0q8q8p2q8q8q0q0
3116C2523q0q0q0q0q8q0q0p2q0q0q0q0q0q0p2q0q0p2q0q0p2q0p2p2q0p2p2p2q0p2p2p2p2q0
3108B9899o4p2p2q0o4p2p2p2p2o4p2p2o4p2o4p2o4p2o4p2o4p2o4p2o4o4o4o4o4o4p2o4o4n6
3100B7595o4p2n6o4o4o4o4o4o4n6o4o4n6o4o4n6o4n6o4n6o4n6n6o4o4m8o4n6o4m8o4n6n6o4
3092B5531n6m8n6o4n6n6n6m8o4m8n6n6n6n6n6n6m8n6n6m8n6n6n6m8n6m8n6m8m8n6n6m8m8n6
3085B3699m8n6m8m8m8m8n6m8m8m8n6m0n6m8m8m8m8m8m8m8m8m8m8m8m0m8m8m8m8m8m0n6m0m8
3077B2059m8m8m8m0m8m8m0m0m8m0m8m8m0m8m0m0m8m0m0m8m0m8m0m8m0m0m0m8l2m8m0m0m8m0
3069B0579m0m0m0m0m0m0m0m0m0m0m0m0m0m0m0m0m0m0m8l2m0m0l2m0m0l2m8k4m8m0l2m0l2m8
3061A9243l2l2m0m0m0l2m0l2m0l2m0m0l2l2m0l2l2l2m0l2m8k4m0m0k4m0m0l2l2m0k4m0l2l2
3053A8043m0l2l2l2l2m0l2l2l2l2l2l2l2m0l2l2l2l2l2l2l2l2l2k4m0k4l2l2l2l2l2k4l2l2
3046A6947l2l2l2k4m0k4l2k4k4m0m0k4k4l2l2l2k4l2k4l2l2l2k4l2k4l2k4l2l2l2k4l2k4l2
3038A5939k4k4l2l2k4k4l2k4k4l2k4l2k4k4l2k4l2k4k4k4l2k4l2k4l2k4k4k4k4k4l2k4l2k4
3030A5027j6l2k4k4k4l2k4k4k4k4k4l2k4k4k4k4k4k4k4k4k4k4k4k4k4k4k4k4k4k4k4k4k4k4
3022A4195k4k4j6l2k4j6k4k4k4k4k4k4k4k4k4j6k4k4k4k4k4j6k4k4k4k4k4j6k4k4j6k4k4j6
3015A3427k4k4j6k4k4j6k4k4k4j6k4k4j6k4k4j6k4j6k4j6k4j6k4k4j6k4j6k4k4j6j6k4k4j6
3007A2715k4j6k4j6j6k4j6j6k4j6k4j6j6k4k4j6k4j6j6k4j6j6k4j6j6k4j6j6k4j6j6k4j6j6
2999A2067k4j6j6k4j6j6j6k4j6j6j6k4j6j6k4j6j6j6j6j6j6k4j6j6k4j6j6j6j6j6j6j6j6j6
2991A1467k4j6j6j6j6j6k4j6j6j6j6j6j6j6j6j6j6j6j6j6j6j6k4j6j6j6j6j6j6j6j6j6j6j6
2983A0899j6qk4j6qj6j6j6j6qk4j6j6j6j6j6j6qj6j6j6j6j6qj6j6j6j6j6j6qk4qk4qj6j6j6
2975A0323qj6j6j6j6qj6j6j6j6j6j6qj6j6qj6j6qk4qj6j6j6qj6j6j6qk4qj6j6qj6j6j6qj6
2966I771qj6j6qj6j6qj6j6qj6qj6j6qj6j6qj6qj6j6qj6qj6j6qj6qqj6j6qj6j6qj6j6%j6j6
2956I235qj6j6qqj6qj6j6qqj6qj6j6qj6qj6qqj6j6qj6qj6qj6qqj6qj6qj6j6qqj6qqqj6j6q
2946H691%k4qj6qqj6qj6qqj6qj6qqqj6qqj6qqk4%j6qqj6qj6qqqj6qj6qqqqj6qqqj6qqj6qq
2934H147j6qqqj6qqj6q%k4qqqj6qq%j6qqj6%j6%qql2%j6J6m8q%q%j6q%j6qj6q%j6qj6%qq%
2922G667m0L2m8l2M0l2J6l2%qj6qq%j6qk4%qqq%j6qj6qqq%j6qqj6%qj6qqqqqj6q%j6q%qk4
2911G203%q%j6qqqqqqqqqqqqqqj6qqqqq%j6qq%j6%j6qq%j6qqq%j6%qj6q%qqqqqqqqqj6%qq
2898F739qq%j6qq%j6qq%j6%qj6q%qqqqqq%qj6qq%qj6%qqqqqq%j6%qqqqq%qj6%qqqq%qqqq%
2884F307qqqqqqq%j6q%qqqqqq%qqqq%qj6%qq%qqqqq%qqq%j6%qqqq%qqq%j6%qqq%qqqqq%qq
2869E875qqq%%qqq%qqqqq%qqq%qqq%qq%qqq%qqq%q%qqqq%qqqq%q%qq%j6%qq%qqq%qq%qq%q
2854E483%q%qqqqq%qqq%q%qq%qq%qq%qqq%q%qq%qq%qqq%q%q%qqq%q%qqqq%%qqq%q%qqq%q%
2838E123q%qq%qq%qq%q%qq%qq%q%qq%q%q%qqq%%qqq%q%j6qQq%qqq%%%j6%q%qq%%qq%q%qq%
2823D803q%q%qq%q%qq%qq%%qq%q%qq%q%q%q%q%q%%q%qq%qq%%q%j6%%q%q%%q%qq%qQj6%qq%
2808D515q%qq%%qq%q%q%%q%q%qq%q%q%q%q%qq%%%q%q%qq%%q%q%qqq%%%j6Qqq%q%q%q%q%%q
2793D243%q%%q%q%q%q%qq%%q%q%%qq%q%%qq%%qq%%q%q%%q%qq%q%%q%q%%q%q%q%%qq%q%%q%
2777C995%q%q%q%q%%q%%q%q%q%%%qq%%q%%%qqq%q%%%%qq%qQq%q%q%q%q%%q%q%%q%%q%q%%q
2762C771%q%q%%q%%q%q%q%%qq%%%q%q%q%q%%%q%qQqq%q%%q%%%qqQq%%q%qq%%%q%%q%qQqq%
2746C563%q%q%q%%q%%q%%q%%q%%q%%q%%%q%q%%q%q%%q%q%%q%qQq%%%qq%%q%q%%%q%%%q%qQ
2730C379q%q%q%%q%%q%%%q%%q%%q%%q%q%%%qqQq%%q%%%q%q%%q%%%q%%q%%qQqq%%%%q%%q%%
2715C203q%%q%%%q%q%q%%%%q%q%%%q%%q%%%%qq%%%%q%%qq%%%%q%%qQq%q%%q%%%q%q%%%%q%
2699C035%%%q%%qq%%%qQq%%%%q%%qq%%%%q%q%qQ%q%%q%%q%%%q%%%q%%%qQq%%%q%q%qQqQqq
2684B883Qqq%qQq%%%%%q%%%q%%q%%q%%%qQqqQq%%%%q%%q%%q%%qQq%%q%%%q%%%q%%q%%%%%q
2668B747%%%q%%%q%%%%q%%q%%q%qQq%%%%%qQq%%%q%%q%qQq%%%qQq%%%q%%q%%q%q%%%%%q%%
2653B619%%%q%q%%%q%%%%q%%%%q%%qQq%%%q%%q%%q%%%%%q%q%%%%%q%%%%%%q%%q%%%%%q%%%
2637B499%q%%%%%q%%q%%%%q%%%q%%%%%%q%%%q%%%q%%%%%%q%%qQq%%%q%%%%%%q%%q%%%q%%%
2622B387q%%%%%q%%%%%qQqq%%%%%%q%%%%q%%%%%q%%%%q%%%%%%q%%%%q%%%%%q%%%qQq%%q%%
2606B283%%q%Qqq%%%%%q%%%%q%%%%%q%%%%%q%%Qq%%q%%%%%q%%%qQq%qqQQq%%%q%%%%%q%%%
2590B187%q%%%%q%Qq%%%%%q%%%%qQq%q%%%%%%q%%%%q%%%%q%%%%%%qQq%%qQq%%%%%q%%%q%q
2575B083Q%%%%q%%%qQq%%%q%q%Q%qQ%q%%qQq%%%qQq%%%%%%qQ%q%%%%%q%%%%qQq%%q%%%%qQ
2559B011%q%%%%qQq%%%q%%Qq%%%%qQq%%%q%%%q%%%%%%%q%Q%q%q%%%%%q%%%%%%%q%%Qq%%%q
2544A923%%%%q%%Qq%%%%qQq%%%q%%QqQq%%qQ%q%%%q%%%%%%%qQq%%%%%q%%%%q%%%%%%%%%%q
2528A851%%%%%%qQ%q%%%qQq%%%%q%%%%%%qQq%%%%%%%q%%%%%q%%%%%%%q%qQ%%%q%%%%%%q%Q
2513A787q%%%%%q%%%%%%%q%%%%qQq%QqqQ%%%%q%%%%q%%%%%%%%%%%%qQq%%%q%%%%%%%%q%%%
2497A715%%%%%q%%%%%%%q%%%%%%%qQ%q%%%%qQq%%%%%qQq%%%%Qq%%%q%%%%%%%%%q%%%%%%q%
2481A651%%%%%%q%%%%%%q%%%q%Qq%%%%%%%%%qQq%%%%%q%Q%q%%%%%q%%%%%%%%%qQ%q%%%%%%
2466A595%%qQ%q%%%%%q%%Qq%%%%%%q%%%QqQqj6Q%%%%q%QQqq%Qq%%%%%%%%j6QQq%q%%%%%%Q
2451A547q%%%%qQqQq%%q%Q%q%%%%qQ%q%%%%%%%%%%qQj6%Qq%%Qq%Qq%%%%%%q%Qq%%%%%%%%q
2435A483%%%%%%%q%Q%q%%%%qQ%q%%%%%%%qQq%%%%%%%%q%%%%%%%%%%q%%%%%%qQ%%qQq%%%%%
2420A435%%%%q%%%Qq%%%qQ%%%qQq%%%%%%q%%%%%%%%%%%%%%%%q%%%%%%q%QqQq%%%q%%Qq%%%
2404A387%%%%%%%qQ%q%%%%%q%QqQ%q%%%%q%%%%%%%%%%%%%qQq%%qQ%%%%%%q%%%%%%%%qQ%qQ
2389A347q%%%%%%%q%%%%%%%%%%qQ%%%q%%%%%%%q%%Q%%q%%%%%%%%%%q%Qq%Qq%%%qQ%%%%%%%
2373A307q%%q%%%%%%%%%qQ%%%%%q%%%%%%%qQqQq%%Qq%%%%%qQ%qQ%qqQ%%j6K4j6J6%l2J6Q%
2359A267j6Q%%%%%%%q%Qq%%%QqqQ%%%q%%%%%%%%qQqQq%%%%%%%%%%%%%%%q%%%%%%%%%qQ%q%
2344A219%%%%%qQ%%qQq%%Q%q%%%%%%%%qQq%%%%%%%qQqQ%qQ%q%%%%%%%%%%%%q%Q%q%%%%%%%
2328A187%%q%Qq%%%%%qQ%%%q%%%%%%%qQq%%%%%%%%%%%%%%%%%%%%%%%%%q%%%%%%%%%%qQq%%
2313A147%%%%%%%qQq%%%%%%%%%%%q%%Q%qQq%%%%%%%%%qQ%qQq%%%%%%%%%%%%%%%q%Qq%Qq%%
2297A115%%%%%%q%%%%%%%%%%%%%%qQ%q%%%%%%%%%%%%%%%%%%qQ%q%%%%%%%%%%%%%%%%qQq%%
2281A083%%%%%%%%%%%qQq%%%%q%%Q%q%%%%%%%%%%%%%%%%%%q%%%%%qQ%%%%%%%%%%%q%%%%%%
2266A051%%%%%%qQq%%%%%%%%%%%%%%%%%qQqQq%%%%%%%%%%%%%%%%qQq%%%%%%%%%%qQqQqQq%
2250A019%%%%%%%%%%%%qQqQq%%Qq%%%%%%qQ%qQq%Qq%%Qq%qQqQ%q%%%%%%Qq%%%%%%%%%%%%%
2235I95%%q%%QqQq%%%%%%%%%qQ%%%%q%%%%%%%%%%%%%%%%%q%%%%qQQj6%Qq%%%Q%%%%%qQ%q%
2219I63K4j6q%%%%%%Qq%%%%%%%%q%%%%%%Q%qQq%%%%%%%%q%Qq%%%Qq%%%%%%%%%%%%%%q%%%Q
2204I47q%%%%%%%%%Qq%%%%qQ%%q%%%QqQq%%%q%%Q%q%%%Qq%Qq%%%%%%%%%%%%qQ%q%%%%%%%%
2188I15%%%%%%%%%%%%%%q%%%%%%Qq%%%%%%%%%%qQ%q%Qq%%%%%%%%%%%%%%%%q%%%%%%%Qq%%%
2172H91%%%%%%%%%%%%%q%%Q%qQq%%%%%Qq%%%%%%q%%Q%%qQq%%Qq%%%%%%%Q%q%%%%qJ6j6J6j6
2157H67Q%%j6Q%%%%%%%%%qQq%Qq%%%Qq%%%%%%%%qQqQ%qQqQ%%qQq%%%%%%%%%%%%%%%%%%qQ%
2142H51qQq%%%%%%%%%%%%%%%%%q%%Q%qQ%q%%%%%%%%%%%%qQ%%q%%Qq%%Q%q%%%%%%%qQ%%%%%
2126H27%q%qQ%%%%Qq%%%%Qq%%%%%%%qQq%%QqQj6Q%%%K4k4qQQq%%qQ%%%%%%%%%%q%Qq%%%Qq
2111H03%Qq%%%%%%Qq%%%%%%q%QQqq%Q%%q%%%%Q%qQ%%q%%qQ%%%%%%%%%qQqQqQq%%%%%%%%%%
2095G87q%%Q%q%%%%%%%%Qq%%%%%%Qq%%%%%%qQqQq%%Q%%q%%%%%%%%%%%%%%%%%%%%%%%qQ%q%
2079G63Qq%%%%%%%%%%%%%%%%%%%%%%%%%q%QqQq%%%%%%%%%%%%%%%%%%q%%Q%q%Q%qQ%q%%%%%
2063G47%%qQ%%%%%%qQ%qQqQ%q%%%%Q%q%%%%%%%%%%%q%Q%%%%%%%%%%q%Qq%Qq%%%%%%%%qQ%q
2048G23%%QqQq%Qq%%%%%%%%%%%%%%%%%%%%%%qQ%q%Qq%%Qq%Qq%%%%%%%%%%%%%%%%%QqQq%%%
2032G15%%%Qq%%%%%%%%%%%%%%%q%%%Qq%%%%%%%%%%qQq%Q%qQq%%%%%%%%%%%%%%%%%%%%%%%q
2016F91Q%%%%%%%%%%q%Qq%%%%%%%%%%Qq%%%Qq%qQ%Q%q%%%%%%%%%%q%%Qq%Q%%q%Qq%%%%%%q
2000F75%Q%%%%%%%%%%%q%QqQ%%%qQq%%%Qj6J6q%Qq%%%%%Qj6Q%qQqQ%%QqQj6Qq%Q%q%%QqQ%
1985F75Q%k4%%QqQqQ%%qJ6q%%%%%qQ%qQ%qQ%q%%%%%%%%%%%%%%qQ%%Qq%qQ%q%%%%Q%q%%%%%
1970F51%%%%%%%%%%%Qq%%Q%q%%qQqQ%%qQ%%%%%%%%%q%Qq%%%%qQ%%%%%%%%%%%%%%qQq%Q%%%
1954F43%%%qQqQ%%qQ%qQ%%%q%%%%%%QqQq%%%%%%%%%q%%%%%%%%%%%%%%%%%%%%%%%%%%%%%qQ
1938F27%%%%%%%qQq%Qq%%%%%%%%%Qq%%%%%qQqQq%Q%%qQ%q%Q%%%q%%%%Qq%Q%q%%Qq%%Qq%%%
1923F11Qq%%%%%%%%%%%%%%%%%%%%%%%q%Q%%%%%%%%%%%q%%%%%Qq%%%%%%%%%%Qq%%Qq%%%%%%
1907F03%%%qQqQ%%%%%%%%%%%%q%%%%%%%%Qq%%%%%%%%%qQ%%%%qQqQqQ%%%%q%Q%q%qQ%qQ%Qq
1891E87qQQq%Q%q%%%%%%%%%%%%%%%%%%%%%%%%qQ%%%%%%%qQq%%%%%%%%%%%%%%%%%%%%%%%%%
1875E79%%%%q%%%%Q%qQ%%%%qQ%q%Qq%%%%%%%%q%Q%q%QqQq%Qq%%%QqQ%%%%q%%%%%QqQ%%%%%
1859E71qQ%q%%%%%%%%%%%%%%%%%%%%%%%qQ%q%%%QqQ%%qQq%QqQq%%%%%%%%%Qq%%%%%%%%%%%
1844E55%qQ%%%%%%%%%%%%%%%%q%%%%%Qq%%%%%%%%%%%%%%qQ%%%%%%%%%%qQ%qQ%%%%%%%%%%q
1828E39%%Qq%%%Qq%%%%%%%%%%%%%%%%%%%%%qQ%q%Q%%qQ%q%Qq%Q%q%%%%%Q%%%%%qQq%qQ%%%
1812E31%%%%%%%%%%%%qQqQ%%%%%%%%%%q%Q%qQqQqQ%%q%Qq%%%%Qq%%%%%%%%%%%%%%%%%%%%%
1796E23%%%%%%%q%Q%%%%%%%%%%%%%%q%%%%%%%%%Qq%%Qq%Qq%%%%%%%%%%%Qq%%%%%%%%%%%%%
1780E15%q%QqQ%q%%%Q%qQ%%q%%%Q%%q%%%%Q%qQ%%%%%%%q%%%%%%%%%%%%%%%%%%%%%%%qQ%%%
1765E07q%%%%%%%%%%%%%%%%Qq%qQ%%%Qq%%%%%%%%%%%%%Q%qqQ%qQ%qQ%%qQ%%%%%%%%%k4J6%
1749D91%Qq%%%%%Qq%%%%%%%%%%%%%%%%%qQq%Q%%%qQq%Q%%%q%Q%%%%%%%%%qQ%q%%%%%%%%%%
1733D83%%qQ%%%%%%q%Q%%qQqQ%%%%%qQ%%%%%%%q%Q%%%%%%%qQ%%%%q%Qq%Qq%%Qq%Qq%%%Qq%
1718D75%%%%%%%%%%%%%%%%%%qQ%%%q%Qq%%Q%q%Qq%%Qq%%%%QqQq%%%%QqQq%%%%QqQqQ%%q%%
1702D67%%%%%%%%%%%%%%%%%%%%Qq%qQq%%Qq%Q%%%%qQ%q%%%%%%%%%%%%Qq%%QqQ%q%%%%%%%%
1686D59%%%QqqQ%%%%%qQqQ%%%%%%qQ%qQ%%%%q%%%%%%%%%%%%%%%%%%%%%%%%%%%%%%%%%%%%%
1670D51%%%%%%%%%%%%%%%%%qQ%%%%%%%%%%%%%%%%%qQqQ%q%Q%%%%%%qQ%qQqQ%qQq%Qq%%QqQ
1655D51%%q%%%Qq%%%%%%%%%%%%%%%%%%%%%qQ%%%%qQq%Q%qQ%%q%Q%q%Q%q%%Q%q%%%%%%%%%%
1639D35%%Qq%%%qQ%%%%%%%%%%qQ%%%%%%%qQqQq%%Q%%%%%qQ%%%qQ%qQ%%%%%%qQ%%%q%%%Qq%
1623D27%%%%%%%%Qq%%%%%%%%%%%%%%%%%%%%%qQqQ%%%q%QqQ%%%q%%Qq%Qq%%%Qq%%%%Qq%%%%
1607D19%%%%%%%%%%Qq%%Qq%%Q%q%%Qq%%%%%%%%%%%%%%%%%%%%qQqQ%%%qQ%%%%%%%%%qQ%%%%
1591D19qQ%qQ%qQq%%%Qq%%%Qq%%%%%%%%%%%%%%%%%Qq%%%%%%%%%%%%%%%%%%%%%%%%%%%%%%%
1576D11%%%%%%%%%%%%%%qQqQ%qQq%%Q%q%%%%%%%%Q%%q%%%%%%%%%%Qq%%%%%%%%%%%%%%%%%%
1560D03%%%%%q%%%%%%Q%qQq%%%%%%%Qq%%%%%%%%%%%%%%%%%%%%%%%%%%%Qq%Qq%%%%%%Qq%%%
1544C95%%QqQq%%%%qQ%%%%%q%QqQ%%%%%qQqQq%%Q%%%%%%%%qQ%q%%Q%q%%%%%Qq%%%%%%%%%%
1528C87%%%%%%%%%%%%Qq%%%%%%%%%Qq%%QqqQ%%%QqQj6Q%Qq%QqqQ%%Qq%j6J6%%qJ6j6%QqQ%
1514C87q%%Q%%%%%qQq%Q%%q%Qq%Q%%%%q%%Qj6QK4l2J6K4n6M0l2J6qQQ%%q%%Q%qqQ%%%%%%%
1500C79%%%Qq%%%%%%%%%%%%%%%qQ%%qQ%%%%%%%%qQ%qQ%qQqQq%%Q%%%%%%%%%%%q%%Q%%%%%%
1484C79%%q%%%%%%%%Q%q%%%%%%%%%%%%%%%%%%%%%%q%%Q%%%%%%%%%qQ%%%q%Q%%%qQ%%%%%%%
1468C71%%%%%%%%%%qQ%q%Q%%%qQ%qQ%qQq%%Q%q%%Qq%%%%%%%%%%%qQ%%%%%%%%qQ%qQqQ%%%%
1452C63%%%%%%Qq%%%%%%%Qq%%%%%%%qQ%%%qQ%%%%%%%%%%qQq%QqQq%%Q%%%%%%%%qQq%%%%Q%
1437C63qQ%%%%q%Qq%%%%%%%%%%%%%%%%%%%%%%%%Qq%%%%%%%qQ%%%%qQ%%%%%%%qqJ6%Qj6J6%
1422C63q%q%%J6j6J6j6Q%%%%%q%Qq%Q%q%QqQq%%%%%%QqQ%%q%%%%%Qq%%%%%%%%%%%%%Qq%%%
1407C47%%%QqQq%%%%%Qq%%%%QqQq%%%%%%%Qq%qQqQ%%%%Qq%%%%%%%qQ%%%%%%qQ%q%Qq%%%%%
1391C39QqQ%%qQq%Q%q%%QqQq%%%%%%%%%%%%%%%%%%%%%%%%%%%%%%%%%%%%%%%%%%%%%%%%%%q
1375C31%%%Q%%q%Q%%%%%%%qQq%%%QqQ%%qQ%%%%%%%q%%%%%%%%%%%%%%%%%%%qQ%%%%Qq%%%%%
1359C31%%Qq%%%%%%%%%%%%%%%%%%%%%%%%%%%%%%%%%%%%%%%%%%%%%%%%%%%%%%%%%%%%%Qj6Q
1344C31%%%%%%%%%%%%%qQqQ%%q%%%%%%Qq%%%%%%%Q%q%%Qq%Q%%qQ%%q%%Qq%%%%%%%%qQ%%%%
1328C23%%%%%%%%%%%%%%%%%qQ%%%%%%%%%%%%%%%%%%%%%%%%Qq%%%%%%%%%qQ%%qQ%%%qQ%%%%
1312C23%%%%%%%%%%%%%%%%%%%%%%%%qQ%qQq%Qq%%%%%%%%Qq%Qq%%%%%%%%%%%%%%%%%%%%%%%
1296C15%%%%%%%%%%%%%%%qQ%%%%%%%%%%%%%%%%%%%%%%%%%q%QqQ%q%Q%qQ%%%%%%q%qJ6%qQ%
1281C15%%%%q%%%%%%%%%%%%%%Q%q%%%%%Qq%%%%%%Q%q%%%Qq%%%Qq%%%%%%%%%%%%%%%%%%%%%
1265C07%%%%%%qQ%%%%%%%%%%%%%%%%%%%%%qQ%%%%%%%%%%%%%%%%%%qQ%q%QqQ%qQ%%%%qQ%%q
1249B99%Qq%%Q%qQ%%%%%%qQqQqQqQqQqQ%q%%%Qq%%%%%%%%%Qq%%%%%%%%%%%%%%%%%%%%%%%%
1233B99%%%%%%%%%%%%%%%%%%%%Qq%%%%%%%%%%%%%%%%%%%%qQqQ%qQ%qQ%qQ%%%qQ%%qQq%Qq%
1218B91QqQ%qQ%%q%%%%Q%%%%qQ%%%%qQ%%%%%qQ%q%Q%%%%%%%%%%q%%Q%q%Qq%Q%q%%%%QqQq%
1202B91%%%%QqQ%q%%%%%%%%%%%%%%%%%%%%%%%%%%%%%%%%%%%%%%%%%%%%%%q%Qq%%%%QqQqQ%
1186B91%%q%QqQq%%%Q%qQq%%%%QqQ%%%%%%%%%%%%q%%Q%qQq%Q%%q%%%%Q%%q%%Qq%%%%%%%%%
1170B83%%%Qq%%%q%QqQ%%%%%%%%%%%%%Qq%%%%%%%%%%%%%%%%%%%%%%%%%%qQ%qQ%%%%%%%%%%
1154B83%qQ%%q%Q%%%%%%%%%%%%qQ%%%%%qQ%%qQqQq%Q%%qQq%%%%%Qq%QqQ%%%qQ%%%%%%%%%q
1139B75%Qq%%%Q%qQqQ%q%%%%%Qq%%%%%%Qq%Q%q%%%%%%%%%%%%%%%%%%%%qQ%%%%%%%%qQ%%%%
1123B75%%%%%%%%qQ%%%%%%%%%%%%%%%%%%%%%%%%%%%qQ%q%Q%qQqQqQ%%%qQqQqQ%%%%qQ%%%%
1107B75%%%%%%qQ%qQq%Q%q%QqQqQ%%qQ%q%%%%%Q%q%%%%%%%%%%%%%%Qq%%%%%%Qq%%%%%%QqQ
1091B75qQq%%QqQ%qQ%q%%%%%%%%%%%%%%%%%%Qq%%%%Qq%%%%%%%%%%%%%%%%%%%%qQ%%%%Qq%%
1075B67%%%%%%%%%%%%%%%%%QqqQ%%%%%%%%%%Qq%%%%%qQ%%qQq%%Qq%%%Q%%q%Q%%%q%qQQ%q%
1060B59%QqQq%%QqQq%%%%%%j6K4j6J6qqJ6q%qJ6%k4J6j6%M0p2M8QP2j52Q0j6j6L2k4K4q%Q
1049B67%J6%j6R6j20%J04r6M8m8%%Q%%%qQQj6%Q%%qQ%qQ%qJ6q%%QqQ%q%qQQq%qQ%%%%qQqQ
1036B59%%%%%%%%%%%%%qQqQ%%%%qQ%qQqQ%qQ%%%%%%%%%qQ%%%%%%%q%Q%%qQq%Q%%qQqQ%%%q
1020B51Qq%%%%Qq%%%%%%%QqQqQ%qQ%qQ%qQ%%q%%%%%Qq%%Qq%%%Q%qQ%q%%%%%%%%%%%Q%%q%%
1004B51%%%%%%%%%%%%%%%%%%%%%%%%%%%%%%%%%%%%%%%%%%%%%%%%%%Q%%qQq%%%%%%%%%%%%%
988B51%%%%%%%qQ%qQqQ%qQ%%%%%%%%%%%%%%%%%%Qq%%%%%%%%%%%%%%%%%%%%%q%%QqQqQ%%qQ
972B51%%qQ%%%qQq%%%%%%%%%%Q%qQq%Qq%QqQq%%%%Qq%%%%%%%%%%%%%%%%Qq%Qq%%%%%%%%%%
956B43%%%%%Qq%%%%QqQq%%Qq%%%%%%%%%%%%%%%qQ%%%%%%qQ%%qQ%%qQ%%%%%%%%%%%%%%%%%%
940B43%%%%%%%%%%%%%%%%%%%%%q%QqQ%%qQ%%%%%qQ%%qQ%%%%%%%qQ%%%%%qQ%%%%%%%%%%%%%
924B43%qQ%qQ%%%%%%%%%%%%q%%%Q%%%qQq%%%%%Qq%%%%%%%%%%%%%%%%%%%%%%%%%%%%%%%%%%
908B35%%%%%%%%%%%%%%%%%%%%Qq%%%%%%%%%%%%%%%%%%%%%%%%%%%%%Q%%%q%%%QqQ%q%%%%%%
892B35%%%%%%%%Qq%%%%%%%%%%%%Q%%q%%%%%%%%%%%%%%%%%%%%%%%%%%%q%Qq%%%%%%Q%%qQ%q
876B27%Q%qQ%qQqQ%%%%%qQq%Q%qQq%%Q%q%%%%%%%%%%%%%%%%%%%%%%%%%%%%%%%%%%%%%Qq%%
860B27%%%%Qq%Qq%%%%%%%Q%%qQqQqQq%Q%qQ%%q%%Qq%%%%%%%%%%%%%%%%%%%%Qj6Q%%%%%qQ%
844B27%%%%%%%%%qQ%%%%%%%%%%%%%%%%%qQ%%%%%%q%%Q%qQqQ%qQ%%%%%%%%%qQ%%%%%%%%q%Q
828B27%qQ%%%qQ%%%qQ%qQ%qQq%%%Qq%Q%%%%qQ%%%%%%q%Q%Qq%%%j6J6%%%%%%%%%%%q%%%%Q%
813B27%q%Qj6Q%%%Qq%%%%Q%%q%%%%%%%Qq%%%Q%%%qQ%q%Qq%Qq%%%%%%%%%%%%%%%%%%%%Q%q%
797B19%%%%%%%%%%%%QqQ%%%%%%qQ%q%%%%%%%%%Q%%%qQ%q%%%%%%%%%Qq%%QqQ%%q%%Qq%%%%%
781B19%%%%%%%%%%%%%Qq%%qQ%%%%%%%%%%Q%q%%%%%%%%%%%%%%%%%%%%%%%%%%%%%%%%%%%%qQ
765B19%%%%%%%%%%%%%%%%%%%%%%%%%%%%%%%%%%%%qQ%%%%%%%%%%%qQ%%q%%Q%%%%%%%%qQq%%
749B11QqQ%q%QqQ%%%q%%%%Qq%%%Q%qQ%qQq%%%%%%%%%%%%%%%%%%%%%%%%%%%Q%qQq%%Qq%%%%
733B11%%%%Qq%%%%%%%%%%%%%%%Qq%%QqQ%%%%%q%%%%%%%%%%%%%%%%%%%%%%%qQ%%%%%%qQqQ%
717B11%%%%%qQ%%%%%%%%%%%%%%%%%%%q%Q%%qQ%%%%%%%%%%%%%%%%qQ%%%%%%%%%%%%%%%%qQ%
701B11%%qQ%%%%%%%%%%%%%%%%%%%%%qQ%%%%%%%%qQ%%q%Q%%%%%%%%%%%%%%%%%%%qQ%%%%q%%
685B03Qq%QqQqQ%%%%qQ%%%q%%%%%%Q%%qQ%%q%%Qq%%%%%%%Qq%%%%QqQq%%%Qq%%%%QqQqQqQq
669B03%%%%Qq%Q%%qQ%%q%%%%%%%%%%%%%%%%%%%%%%Qq%%%%Qq%%%%%%%%%%%%%%%%%%%%%%%%%
653B03%%%%%%%%%Qq%%%%%%%%%%%%%%%%%%%%%%%%%%%%%%%%%%%%qQ%%%%%%%%%%%%%%%%%%%%%
637B03%%%%qQ%%%%%%%%%qQ%%%%%Qq%%%%%%%%%%%%%%%%%%%%%%%%%%%%%%%%%%%qQ%%%%%%%%%
621B03%%%%q%Q%%%%%%%%%%%%%qQq%%QqQ%%%%qQ%qQ%%%q%%%%%Q%%%%%qQ%%%q%%%%Q%q%Q%qQ
605B03%qQ%qQq%QqQq%%Q%%%%%%%qQqQ%q%QqQ%qQ%q%%%QqQq%Qq%%%%%Qq%%%%%%%%%%%%%%%%
589A95%%%%%%%%qQ%%Qq%%Qq%Q%q%qJ6Qj6%%%Q%%q%%%%%%Qj6J6qj6QQ%qJ6%q%%%%%%qQ%%qQ
574A95%%%%%%%%%%qQqQ%%%%%%qQq%%Q%Qq%qQqJ6q%%%QqqQqQ%%%%%%%%%%%%%%%%%%%%%%%%%
558A95%%%%%%%%%%%%%%%%qQ%%%%%%%qQ%%%%%qQ%%%q%Q%%%%%%%%%qQ%%%%qQ%%%qQ%%qQq%%%
542A87%%%Qq%Q%q%%%Q%%qQ%%%%qQ%q%QqQ%%%%%%%%%q%%%%%Qq%Qq%QqQ%%%%%%%%%%%%%%%%%
526A95%%%%qQ%%Qq%%%%%%%%%%%qQ%%%%%qQ%%%q%%Qq%%Q%q%QqQ%%q%%%%%%%%%%%%%%%%%%%%
510A87%%Qq%Qq%%%%%%%%%%%%%%Qq%%%%%%%%%Qq%%%%%%%%%Qq%%%%%%%%%%%%%%%%%%%%%%%%%
494A87%%%%%%%%%%%%%%%%%%%%Q%q%%%%%qQ%%%%%%qQ%qqQQ%Qk4Q%%%Qq%Q%%%%%%%%qQ%%qQ%
478A87%%%%%%%%q%%Q%%%q%QqQ%%%%%%%%%qQ%qQ%%%%%%%%%%%%qQ%q%%QqQ%%%%%%%%%%%%%qQ
462A87qQ%q%Q%%q%Q%qQ%%%%%%%%%%%%%%%%%%%%%%qQ%qQ%%%%%qQ%%qQqQqQ%%%%%%%%%%%%%%
446A87%%%q%%%QqQ%%qQ%%%%%%%q%Q%q%%Qq%QqQ%%%%q%%QqQ%q%Qq%%%%%%%%%%%Qq%%%Qq%%Q
430A87q%%%qQ%%%%%%%%%%%%qJ6j6Q%%%%%%%%%%%%%%%%%%%%%%%%%%Qq%%%%%%%%%%%%%%%%%%
415A79%%%%%%%%%%%%%%%%%%%%%%%%%%%%%%qQ%%%%%%%%%%%%%%%%%%%%%qQ%%%%%%Qq%%%QqQ%
399A87qQq%%%%%%%Qq%%%%%%%%%%%%%%%%%%%qQ%%%%%%%%%%%%%%%%%%%%%%%%%%qQ%%%qQ%%%%
383A79%%%%%%%qQ%%%%%%%%%%%q%Q%q%Q%%%%%%%%%%%%%qQ%%%%%%%qQ%%q%QqQq%Q%%%%%q%Q%
367A79%qQq%Qq%QqQqQ%%%%%%%q%QqQ%%%%%%%%%%%%%%%%%q%%Q%qQqQq%Q%qQqQ%qQqQ%%qQ%%
351A79%q%%Q%qQ%%%%q%Q%%%%qQ%%%%q%Qq%%QqQq%Q%q%%%%Qq%Qq%%Q%%%%qQ%%%%qQq%QqQqQ
335A79q%%Q%%%q%Q%q%Q%%%%%%%q%Q%q%%%%%%Q%q%Q%q%%Qq%%%%%%%%%%%%%%Qq%%%%%Qq%%%%
319A71%%Q%q%%%%%%%%%%%%Qq%%%%%%%%qQ%%%%%%%%%%%%%%%%%%qQ%%%%%%qQq%%%Q%%%%%%%%
303A71%%%%%%%%%%%%%%%%%%%%%%%%%%%%%%Qq%%%%%%%%%%%%%%%%%%%%%q%QqQqQ%Qq%%%%%%%
286A71%%q%%Q%%%%%%Qq%Qq%%%%qQ%%%%%%%%%%%%%%%qQ%%%%%%%%%%%%%%%%%%%%qQ%%qQ%%%q
270A63QqQ%%%%%q%Q%q%%%%%Q%qQqQqQqQq%%%%%%%%%QqQ%%qQq%%%Q%%q%%%%Q%%qQ%qQ%%qQq
254A63Q%qQqQ%%%%%q%Qq%%qQQ%qQ%%q%%Q%%qQqQqQ%%%%%%%%%Qq%%qQ%%Qj6Q%%qQ%%%%%q%Q
239A71%%qQq%%%%%Qq%%%%%%%%%%%%%%%%%%%%%%%%%%%%%%%%Qq%QqQ%j6J6%%%%q%%%Qq%%Q%q
223A63Qq%QqQq%%%%%%Qq%%%%%%%%%%%%Q%%%qQ%qQq%%%%%%%%%Qq%Qq%%%%%%%%%QqQq%Q%%%q
207A63%%%%%%%%%%%%%%%%%%%%%%%%%%%%%%%%%%%%%%%%%%%%%%%%%%%%%Qq%%%Qq%%%%Qq%%%Q
191A71q%%%%Q%q%%%%%%%%%%%%%%%%%%%%%%%%%%%%%%%%%%%%%%%%%%%%%%%%%%%%%%%%%%%%%q
175A55QqQ%%%%%%%qQ%%%%%%%%%%%%%%%%%%%%qQq%QqQ%%%%%%%%%%%%%%%%%%%%%%%%%%%%%%%
159A63%%%%%qQ%%%qQ%%%%%%%%%%%%%%%%%%%%%%%%%%%%q%Q%qQqQq%%%%%%%Q%%%%%%%%%%qQ%
143A63%%%%%%%%%%%%qQ%qQ%qQ%%%%%%%%%%q%Q%%qQ%%%%q%QqQ%%q%%Q%%q%%%%Qq%%%%%Qq%%
127A55%QqQqQq%Qq%%%%%Q%%%q%%Q%q%%%%%%QqQq%Q%q%%Qq%%%Q%%j6Q%J6k4%QQqQQq%qQq%Q
112A63%q%%%%J6qj6%%Q%%%J6q%%qQq%Q%q%%Q%qQqQq%QqQqQqQ%q%%%Qq%Qq%QqQj6J6q%Q%%%
97A63%%%%q%Q%%%%%q%%Q%qQqQ%%%%%qQ%%q%%%QqQ%q%Qq%%%%%%%%%%%%%%%%%%%%%%%%%%%%%
80A55%%%%%%%%%%%%%%%%%%%%%%%%%%%%%%%%%%Q%%qQ%%q%Q%%%%%qQ%%qQq%%%%Qq%%%%%%%%%
64A55%%%%%%%%%%%%%%%%%%%%%%%%%%%%%%%%%%%%%%%%%%%%%%%%%%%%%%%%%%q%Q%%%%%%%%%%
48A55%%%%%%%%%%%%%%%%%%%%%%%%q%%Qq%%%%%%%%%%%%%Q%%%%%%%%%%%qQ%%%%%%%%%%%%Qq%
32A55%%%%%%%%%%%%%%%%%%%%%%%%%%%%%%Qq%%%%%%%%%%%%%%Q%q%%%%%%%qQ%%%%qQq%Qj6J6
16A55qQ%%%qQ%%%%%qQ%%%%%q%%%%%%%Qq%Qq%%Qq%QqQq%%%%%%%%Qq%%Q%%%%%%%%%%%%%qQ%%
0A55%%%qQ%%q%%Q%qQ%q%%%Qq%%%Q%qQq%Q%q%%Qq%%QqQ%q%%Q%%qQq%%%QqQq%%%%%%%%%%%%Q
-17A55qQq%Q%%%%q%Q%%q%%Qq%Q%%qQqQ%q%%%%%%%%Qq%QqQq%%%Q%q%Qq%%%%%%%%%%%QqQq%Q
-33A55q%Qq%QqQqQ%%qQqQ%q%%%QqQ%%q%%%Qq%%Qq%Qq%%%Qq%%%Q%%%%%%%%qQq%QqQq%%Q%%q
-49A47QqQ%q%%%%%%%%%%%%%%%%%%%%%%%Qq%%%%Q%%%qQqQq%%%QqQq%%%%%Qq%%%%%%%Qq%%%%
-65A47%%%%%%Qq%Qq%%%%%Q%q%%%%%%%%%%%%%%%%%%%%%%%%%%%%%%%%%%%%%%%%%%%%%%%%%qQ
-81A47%%%%%%%%%%%QqQ%q%%%%%%%%%%%%%%%%%%%%%%%%%%%%%%%%%%%%%%%%%%%%%%%%Qq%%Qq
-97A47%%%%%%%%%%%%%%%%Qq%%QqQq%%%%%%%%%Qq%%%%%%%%qQ%%%%%%%%%%%%%%%%Qq%%%%%%%
-113A47%%%%%%%%%%%%%%%%%%%Qq%%%%%qQ%%Qq%%%%%%%%%%%%%%%%%%qJ6j6%Q%%q%Qq%QqQ%%
-128A47%%%%qQ%%qQqQ%q%%QqQ%%%%%%%%%%%%%%%%%qQ%qQ%%qQ%%%%%%%%%%qQ%%q%Q%%%qQq%
-144A39Q%qQq%%%%Qq%%%%%Q%%%%%%%%%%qQ%%%%%%%%%qQ%%%%%%%%qQ%%%%%qQ%%%%%%%%%%qQ
-160A47qQ%qQqQq%Q%%%%%%%%%%qQq%%%Q%q%%%%%%%%%%%Q%qQ%%%%%q%%Qq%%QqQ%%%%%%qQqQ
-176A47qQ%%qQ%%%qQ%qJ6qqQqQqQ%%qQ%%qQ%%%%%%qQ%%%%qQ%%q%%%%Qq%%Q%%qQqQq%%%%%%
-191A39%%%%%%%QqQqQqQ%%%%%%q%%Qq%QqQ%%%qQ%%q%Qq%%QqQ%qQ%q%%%Q%q%%%%%%%%%%Qq%
-207A39%%%%Qq%%%%%%Qq%%%%%%%%QqQ%q%%Qq%%%%%%Q%q%%%%%%%%QqQ%qJ6j6%Q%qQ%%%%%qQ
-222A47q%Qq%QqQq%Qq%%%Qj6J6q%%%%%%%%%%%%%%%QqQqQq%Qq%%%%%%%%%%%%Qq%%%%%%%%%%
-238A39%%%Q%q%%%%%Qq%%%%QqQ%q%%Q%q%%%Qq%Qq%%%%%%%%%%%%qQ%%%%%qQ%%%%%%%%%Qq%%
-253A39%%%%%%%%%%%%%%%%%Qq%%%%%%%%%%%%%%%%%%%%%%%%%%%Qq%%%%%%%%%%%%%%Qq%%%%%
-269A39%%%%%%Qq%Qq%%%%%%%%%%%%%%%%%%%%%%%%%%%%%%Qq%%%%%%%%%%%%Q%q%%%%%%%%%%%
-285A39%qQ%%%%%%%%%%%%%%%%%%Qq%%%%%%%%%%%%%%%%%%%%%%%%%%%%%%%%Qq%%%%%%%%%%Q%
-301A47q%%Qq%%%%%Qq%%%Qq%%Qq%%%%Qq%%%%%%%%Qq%%%%%qQ%qQ%%%%%%%%%%%qQ%%%%%%%%%
-317A39%%%%%%%%%%%%%%%%%%%%%%%%%%%%%%%%%%%qQ%q%Qq%Q%%%%%qQ%%%qQ%qQ%%%%%%%%%%
-332A39%%%%%%%%%%%%%%qQ%%qQ%qQ%%%%%%%%%%qQ%qQ%%%%%%qQ%%%q%Q%%%%%%%%%%%%%%%%%
-348A39%%Qq%%%%Qq%%%%%%%%%qQq%%Q%qJ6j6%%%%%%%Q%%%q%%Q%Qj6%J6q%q%QqQ%%%qQ%q%Q
-363A39qQ%%qQ%%%%%%%%qQqQ%%qQ%q%QqQj6K4j6Qq%%%%Q%%q%%%%Qq%%QqQ%qQ%%%q%QqQq%Q
-378A39q%Q%%qQq%%%%%%%Qq%%%%%%%%%%%%%Qq%%Qq%%%%%%%%%%Qq%%%Qq%%%%Qq%QqQq%Q%qQ
-394A39q%Q%q%Qq%QqQ%%qQqQ%qQ%%%qQ%%%%%%%%%%%%q%%Q%qQ%%q%%%Q%%%%qQ%%q%%Q%%%qQ
-410A39qQq%Qq%%%%%Qq%%%%%%%%%%Q%%%q%%Q%qQ%qQq%Q%qQ%q%%Qq%%%%%%%%%Qq%%QqQ%%%%
-426A39%qQq%%%%QqQqQq%Qq%Qq%%%%%%Q%qQqQ%%%%%q%Q%%q%%%%%%%%%%%%%QqQ%q%%%%%%%%
-441A31%%%QqQq%Qq%%Qq%%%%%%%%%%%%%%Q%%qQ%%qqQQqqqJ6%K4j6l2M0l2L2j6qM0m8L2J6j6
-454A47j6Qj6J6%qQ%q%%%%%%%%%qQ%%Qq%%%%Q%%q%Qq%%%Qq%%%%%%%%%%%%%%%%qQ%%%%%%%%
-470A31QqQqQ%%%q%%%Qq%%%%%Qq%%%%%%%%%%%qQ%%Qq%Qj6Q%%%%%%%%qQ%%%%%%%%%Qq%%%%%
-485A31%%%%%%%%Qq%%%Qq%%%%%%%%%Qq%%%%%%%%%Qq%%%%%%%%%%%%%%%%%%%%%%%%%%%%%%%%
-501A31%%%%%%%%%%%%%%%%%%%%%%%%%%%%%%%%Q%q%Qq%%%%%%%%%%%%%%%%%%%%%%%%%%%%%%%
-517A31%%%%%qQqQqQqQ%%%%%%%%%%qQ%%%%%%%%%%%%%%%%%%%%%%%%%%%%%%%%%%%%qQ%%qQ%%
-532A31%q%%%Q%%%%qQ%%%%%%%%%%%%%%%%%%%%qQ%%%%%%%qQ%%%%%%%qQ%%%%%%%%qQ%%%%%%%
-548A31%%%%%qQ%%%%qQ%%%qQ%%%%%%%%%%%%%%%%%%%%%%%%%%%%%%%%%%%qQ%%%%%%%%%%%%%%
-564A31%%%%%%%%%%%%%%%%%%%%%qQ%%%%Q%q%%%%%%%%%%%%%%%%%%%%%%%%%%%q%%%Q%qQ%q%%
-580A23Q%%%%%%%%%%%%qQ%%%%%%q%%%Q%%qQqQqQ%qQQ%q%q%%Q%%%%qQ%qQ%%%%%%%%%q%Qq%Q
-596A31%%%%%%%%%%%%%%%%q%QqQ%%%q%%Qq%%%%QqQqQqQ%qQ%q%%%Q%q%Qq%Qq%%%Qq%%Q%%q%
-611A23Qq%%%%%%%QqQqQ%qQqQ%%%%%%%%%%%%q%%QqQ%%%%%%%%%%%q%%Qq%Q%qQq%%Qq%%%%%Q
-627A31%%%%%%%qQq%%%%%%Q%%%qQ%q%%Qq%%%%%%%Q%q%%%Qq%%%%%%%%%%%%%Qq%Qq%%%%%%%%
-643A23QqQ%%%qQ%qQq%%%%%%Q%%%qQ%%qQ%q%Q%%q%%QqQqQ%%%%%%%%%%qQ%%q%QqQ%%q%%%%%
-659A23%%Qq%Q%%%%qQq%Qq%%QqQqQq%QqQq%QqQq%QqQ%qQ%qQ%%%q%%%%%%%%%%%%%%%%%%%%%
-675A23%%%%Q%q%%%%%%%%%%QqQq%%Qq%%%%%%%%%%%%%%%%%%%%%%Qq%%%Q%%%%%qQq%%%%%%Q%
-690A31qQq%Q%%%%qQ%%qQ%%qQ%%%qQ%%%%%%%%%%%%%%%qQ%%%%%%%%%%%q%%%%%%Q%q%Qq%Qq%
-706A23QqQq%%Qq%%Q%%qQ%%%%q%%QqQqQqQ%qQq%%%QqQ%%q%Qq%%%%%%%%%%%%Qq%%%Qq%%Qq%
-722A23%%%%Qq%%%%Q%%%%%q%%%%QqQq%%%Q%%%%qQ%q%%Qq%QqQq%%%%%%%%%%QqQqQq%Qq%Q%%
-738A31%q%%Q%q%%%Qq%%%%%%%%%%%%%%%%%%%%%%%QqQq%Qq%%%%%Qq%%%%%%%Qq%%%%%Qq%%%%
-754A23Qq%Qq%%%Qq%%%%%%%%%%%%%%%%Qq%%%%%%%%%%%%%Qq%%qQ%%%%%%%%%Qq%%%%%%%%%%%
-769A23Q%q%%%qQ%%qQ%%%%%%Qq%%%%%%%%%%%%%%%%%%Q%q%%%qQQq%Qq%%%%Q%%q%%%%%%%%%%
-785A23%%%%%%%%%%%%%%%%%%%%%%%%%%%%%%%%Qq%%%%%%%%%%%%%%%%%%%%%%%%%%%%%%%%%%q
-801A15Q%%%%%%%%%%%%%%Qq%Q%q%%%%%%Qq%%%%%qQ%%%%%%%%%%%%qQqQ%%%%%%%%%%%%%%%%%
-817A23%%%%%%%%%%Q%%q%%%%%qQ%qQQ%ql2M8j6Q%qQj6%QqQ%%%%%%qL2k4%%Q%k4J6j6J6qJ6
-830A31qQqq%QqQqQqQ%qQ%%%%qQ%%%%%%%%%q%Q%qQ%%%q%Q%%%%%%%%%%%%%qQ%%%%%%%%%%%%
-846A23%%%%%%%%%%%%%%%%%%%%%%%%%%%%%%%%%%%%%%%%%%%%%%%%%%%%%%%%%%%%%%%%%%%%%
-862A23%%%%%%qQ%%%%%qQ%qQ%%%%%%%%qQ%qQ%%%%%%%%%%%%%%%%%%%Qq%%%%%%%%%%%%%%%%%
-877A23%%%%%%%%%%%%%%%%%%%Q%q%%%Qq%Q%q%%%%%%%%%%%%%%%%%%%%%%%%%%%%%%%%%%%%%%
-893A23%%qQ%q%%%%Q%qQ%%qQ%%%%%%%%%%%%%%%%%%%%%%%%%%%%%%%%%%%%%%%%%%%%%%%q%%%
-909A15%%%Q%qQ%%%%q%QqQ%%%%%%%%%%%%%%qQ%%qQqQqQqQ%%%%%%%%%qQ%qQQj6J6qq%Q%%%%
-924A23%%%%%%%%%%%%%%Qq%%%%%qQqQ%%%%qQqQ%qQ%%%%%q%Q%q%%Qq%%Q%%%%%%%%%%%q%%Q%
-940A23%%%q%%Q%qQ%qQ%qQq%Q%%q%%%%%%%Qq%%%Qq%Q%q%Q%%%qQ%qQq%Q%%q%Q%%%%%qQ%q%Q
-956A23%%%%%%%%%%%%q%Q%q%Qq%%Q%%%%%%%%%q%%%Qq%%%%Q%%qQq%Q%q%Q%%qQ%%%qQ%q%%%%
-972A15%Qq%Q%%qQ%%qQ%%%qQq%%%Q%%q%Qq%%Qq%%%Qq%%Q%q%Qq%Q%%qQqQ%%%%%%qQ%%%%%%q
-987A15Q%%%%%%%%%%%%%%%%%qQ%%%qQ%%qQ%%%%%%%%%%%%%%%%%%q%%%QqQq%%%Q%qQ%%%qQq%
-1003A15%%%%QqQqQ%q%%%%%%Q%%%qQ%qQ%%qQ%qQq%Q%%%qQ%%%%qQ%%qQqQqQ%%%q%%Q%%%q%%
-1019A15%Q%%%%%%%%%%%%%%q%Q%%%%%qQ%%%%%%qQ%%qQq%QqQqQq%%%%%%%%%Q%%%%qQq%%%%%
-1034A15%Q%q%Q%qQ%%%%%%qQ%q%QqQ%%%qQ%%q%Q%qQq%%QqQq%Q%qQqQqQq%Qq%%%%%QqQ%%q%
-1050A15Q%qQqQq%QqQ%%%q%QqQq%%Q%%q%%%Q%%qQq%%%Q%q%%Qq%Qq%QqQ%%q%Qq%%%%QqQ%%%
-1066A23%%%%%%%%qQq%%%%%%%%%%%%QqQqQqQq%%%%%%%%%Q%%%%%qQ%qQ%%qQ%q%%%%%%%%%%%
-1081A15Q%%%qQq%%Qq%%%Q%%%%%%%%%%%%%%%%%%%%qQ%qQ%%%qQq%%%%%%%%%%%%%%%%%%%%%%
-1097A15%%%%%Q%%q%%%%%%Qq%%%%%%Qq%%%QqQq%%Qq%Qq%%Q%%q%%%%%%%%%%%%%%%%%%QqQq%
-1112A15Qq%Qq%%%%%%%%%%%%%%%%%%%%%%%%%%%%%%%%%%%%Qq%%%%%Q%q%Qq%%%%%%%Qq%%Qq%
-1128A15%%%%%%%%Qq%Qq%Q%qQq%Q%%q%%%Qq%%%%%%%%%%%%%%%%%%%%QqQ%%q%%%%%Qq%%%Qq%
-1143A15%%%Qq%%Qq%%%%%Qq%QqQqQ%%%%%%%%%%%%qQ%%%%%%%qQ%qQ%%%%q%Qq%%%Qq%Qq%%%%
-1159A15Qq%%%%%Qq%%%%%Qq%QqQ%q%Qq%%%%%%%%%%%%%%%%%%%%%%%%%%%%%%%%%%%%%%%%%%%
-1174A15%%%%%%q%%Q%%%%%%%%%QqqJ6q%%%%%%%%%Qq%Q%q%Q%q%%%%%Qq%%%%%%%%%QqQq%%Qq
-1190A15%%Qq%Q%qQq%%%%%%%%%Q%%qQ%%%%%qQ%q%%%%%%%%%%%%%Qq%%%%%%%%%%%%%%%%Qq%%
-1205A15%%%%%%%%%%%%%%%%%%%%%%%%%QqQqQq%%%%%%Qq%%%QqQ%%%%%q%Q%%q%%%%%%%%%%%%
-1221A15%%%%%%%%%%%%%%%%%%%%%%%%%%%%%%%%%%%%%%%%%Qq%%%%%%%%%%%%%%%%%%%%%%%%%
-1236A15%%%%%Q%q%%%%%%%%Qq%%%%%Qq%%%%%%%%Qq%%%%%%%%%%%%%Q%q%%%%%%%
-1250A15
##$OBSERVED MULTIPLETS=	(I, X, Y, Hs, Vs, An, H, C, N, (J))
$$ I: Multiplet Index
$$ X: Strt Coordinate
$$ Y: End Coordinate
$$ Hs: Horizontal Chemical Shift
$$ An: Normalised Integral Area
$$ H: Hydrogens
$$ C: Category
$$ N: Name
$$ (J): Coupling Constants
(1, 196.89954541246828512, 197.02073894381089758, 196.96014217813959135, 0.56675658544907769887, 1, s, 7)
(2, 137.21158292036562898, 137.33277711548834077, 137.27218001792698487, 0.56676273248403774563, 1, s, 6)
(3, 131.99433381422923617, 132.11552881753524957, 132.05493131588224287, 0.96350903441136181993, 1, s, 3)
(4, 128.36038734769178404, 128.48671348965032735, 128.4235504186710557, 2.0730133612422436684, 2, s, 1&comma;5)
(5, 128.32742473281351181, 128.45375088400433583, 128.39058780840892382, 2.0730133315015799589, 2, s, 2&comma;4)
(6, 26.31803731671874047, 26.439230826527019502, 26.378634071622879986, 1.756944954911697554, 2, s, 8)
##$OBSERVED MULTIPLETS AREAS=	
(1, 0.50491754134996080783)
(2, 0.50492301767940861446)
(3, 0.85838016745404066565)
(4, 1.8468260209357489909)
(5, 1.8468259944401013151)
(6, 1.5652439683930905456)
##$OBSERVED MULTIPLETS PEAKS=	(I, X, Y)
$$ I: Multiplet Peak Index
$$ X: Peak x Position
$$ Y: Peak Intensity
(1, 196.96014217813959135, 0.048570238053798675537)
(2, 137.27218001792698487, 0.048570498824119567871)
(3, 132.05493131588224287, 0.082570359110832214355)
(4, 128.4235504186710557, 0.17043624818325042725)
(5, 128.39058780840892382, 0.1704362332820892334)
(6, 26.378634071622879986, 0.15056772530078887939)
##$PREDICTED PEAKS=	(X Y T A)
(128.409235795200658,  , 3, <1>)
(128.37591499744544876,  , 3, <2>)
(132.03990634525743531,  , 3, <3>)
(128.37591499744544876,  , 3, <4>)
(128.409235795200658,  , 3, <5>)
(137.25795215873091593,  , 3, <6>)
(196.93900386460248342,  , 3, <7>)
(26.374902757256233343,  , 3, <8>)
##$PREDICTEDCOUPLINGCONSTANTS=	J(A,B)	$$ (Hz)
160.02(1, 1)
2.12(1, 2)
7.8(1, 3)
1(1, 4)
0.62(1, 8)
2.12(2, 1)
160.52(2, 2)
2.01(2, 3)
1(2, 5)
7.8(3, 1)
2.01(3, 2)
160.01(3, 3)
2.01(3, 4)
7.8(3, 5)
1(4, 1)
2.01(4, 3)
160.52(4, 4)
2.12(4, 5)
1(5, 2)
7.8(5, 3)
2.12(5, 4)
160.02(5, 5)
0.62(5, 8)
1.5(6, 1)
7.78(6, 2)
1.17(6, 3)
7.78(6, 4)
1.5(6, 5)
3.84(6, 8)
3.03(7, 1)
0.55(7, 2)
0.55(7, 4)
3.03(7, 5)
5.69(7, 8)
0.62(8, 1)
0.62(8, 5)
128.29(8, 8)
##END=		$$ NMR SPECTRUM
##TITLE=	Predicted 13C NMR Spectrum
##JCAMP-DX=	6.0	$$ MestReNova 17.0.0-41178
##DATA TYPE=	NMR PEAK TABLE
##DATA CLASS=	PEAK TABLE
##BLOCK_ID=	4
##ORIGIN=	Mestrelab Research S.L.
##OWNER=	ctheodore
##CROSS REFERENCE=	NMR SPECTRUM: BLOCK_ID=3                                     
##.OBSERVE FREQUENCY=	125
##.OBSERVE NUCLEUS=	^13C
##NPOINTS=	6
##FIRSTX=	26.378634071622879986
##LASTX=	196.96014217813959135
##XFACTOR=	1
##YFACTOR=	1
##FIRSTY=	0.15056772530078887939
##XUNITS=	PPM
##YUNITS=	ARBITRARY UNITS
##PEAK TABLE=	(XYW..XYW)
26.378634071622879986,0.15056772530078887939,0.012119350980827756775
128.39058780840892382,0.1704362332820892334,0.01263261511908219184
128.4235504186710557,0.17043624818325042725,0.012632614195853462263
132.05493131588224287,0.082570359110832214355,0.012119500330599447188
137.27218001792698487,0.048570498824119567871,0.012119419512271894374
196.96014217813959135,0.048570238053798675537,0.012119353134259876897
##$MNOVA/PEAK_DATA_TABLE=	(T,F,A,ST,SP,APT,APC)
$$ Complementary to PEAK TABLE
$$ T: Type
$$ F: Flags
$$ A: Annotation
$$ ST: Shape Type
$$ SP: Shape Parameter
$$ APT: Attached Peaks Type
$$ APC: Attached Peaks Count
Compound,None,,0,0,0,0
Compound,None,,0,0,0,0
Compound,None,,0,0,0,0
Compound,None,,0,0,0,0
Compound,None,,0,0,0,0
Compound,None,,0,0,0,0
##END=		$$ NMR PEAK TABLE
##END=		$$ LINK
