##TITLE=	ethene 13c
##JCAMP-DX=	6.0	$$ MestReNova 17.0.0-41178
##DATA TYPE=	LINK
##BLOCKS=	4    
##ORIGIN=	Mestrelab Research S.L.
##OWNER=	ctheodore
##$MNOVA/METADATA=	(DOCUMENT,BASE64)
eyJuYW1lIjoiL1VzZXJzL2N0aGVvZG9yZS9Eb2N1bWVudHMvY2xhc3Nlcy9OTVIgZXhwZXJpbWVudC9
naXRodWIgZmlsZXMvZXRoZW5lL2V0aGVuZSAxM2MubW5vdmEiLCJwYWdlcyI6W3siaXRlbXMiOlsiMS
IsICAgICAgICAgICAgICAgICAgICAgICAgICAgICAgICAgICAgICIzIiAgICAgICAgICAgICAgICAgI
CAgICAgICAgICAgICAgICAgICBdfV19
##TITLE=	
##JCAMP-CS=	3.7	$$ MestReNova 17.0.0-41178
##BLOCK_ID=	1
##ORIGIN=	Mestrelab Research S.L.
##OWNER=	ctheodore
##$MNOVA/METADATA=	(ITEM,BASE64)
eyJhbmdsZSI6MC4wLCJwb2ludHMiOlt7IngiOjUzMjEuMCwieSI6NTgzNS4wfSx7IngiOjU1MjQuNzE
1NjIxNjIxNDQ0LCJ5Ijo1ODM1LjB9LHsieCI6NTUyNC43MTU2MjE2MjE0NDQsInkiOjYwMDQuMTIyNT
Q0NjkwOTc3fSx7IngiOjUzMjEuMCwieSI6NjAwNC4xMjI1NDQ2OTA5Nzd9LHsieCI6NTMyMS4wLCJ5I
jo1ODM1LjB9XSwieiI6MS4wfQ==
##NAMES=	
##ATOMLIST=	
$$ AN	AS	NH
	1	C	2
	2	C	2
##BONDLIST=	
$$ AN1	AN2	BT
	1	2	D
##MAXRASTER=	32768
##XY_RASTER=	
$$ AN	X	Y	Z
	1	-32767	18915	0
	2	32767	-18915	0
##END=		$$ JCAMP-CS
##TITLE=	Predicted 1H NMR Spectrum
##JCAMP-DX=	6.0	$$ MestReNova 17.0.0-41178
##DATA TYPE=	NMR PEAK ASSIGNMENTS
##DATA CLASS=	ASSIGNMENTS
##BLOCK_ID=	2
##ORIGIN=	Mestrelab Research S.L.
##OWNER=	ctheodore
##CROSS REFERENCE=	STRUCTURE: BLOCK_ID=1                                     
NMR SPECTRUM: BLOCK_ID=3                                     
##.OBSERVE FREQUENCY=	500
##.OBSERVE NUCLEUS=	^1H
##NPOINTS=	4
##XUNITS=	PPM
##YUNITS=	ARBITRARY UNITS
##PEAKASSIGNMENTS=	(XYWA)
(5.3902009250839064691, 0.16190078854560852051, 0.00075134547777455651385, <1>)
(5.3902009250839064691, 0.16190078854560852051, 0.00075134547777455651385, <1>)
(5.3902009250839064691, 0.16190078854560852051, 0.00075134547777455651385, <2>)
(5.3902009250839064691, 0.16190078854560852051, 0.00075134547777455651385, <2>)
##END=		$$ NMR PEAK ASSIGNMENTS
##TITLE=	Predicted 1H NMR Spectrum
##JCAMP-DX=	6.0	$$ MestReNova 17.0.0-41178
##DATA TYPE=	NMR SPECTRUM
##DATA CLASS=	XYDATA
##BLOCK_ID=	3
##ORIGIN=	Mestrelab Predictor, Modgraph NMRPredict Desktop
##OWNER=	ctheodore
##NUMDIM=	1
##$MNOVA/METADATA=	(ITEM,BASE64)
eyJhbmdsZSI6MC4wLCJheGVzIjp7IngiOnsibWF4IjoxMi41MDAwNzgxMjU0ODgyODUsIm1pbiI6MC4
wMDAxOTA3MzYwNTUzODE1OTYxNH0sInkiOnsibWF4IjowLjE3ODA5MDg2ODUxNzc1NjQ2LCJtaW4iOi
0wLjAxNjE5MDA3NjY3MzE1OTk3fX0sInBvaW50cyI6W3sieCI6NTMyMS4wLCJ5Ijo1ODM1LjB9LHsie
CI6ODcyMi4wLCJ5Ijo1ODM1LjB9LHsieCI6ODcyMi4wLCJ5Ijo4MjA4LjB9LHsieCI6NTMyMS4wLCJ5
Ijo4MjA4LjB9LHsieCI6NTMyMS4wLCJ5Ijo1ODM1LjB9XSwieiI6MC4wfQ==
##.OBSERVE FREQUENCY=	500
##.OBSERVE NUCLEUS=	^1H
##.SOLVENT NAME=	DMSO-d6
##.PULSE SEQUENCE=	
##.ACQUISITIONMODE=	SIMULTANEOUS (DQD)
##$ORIGINAL FORMAT=	Predictor
##$MNOVA/SCALES_VERSION=	9
##$PARAMETER FILE=	(parameters, ASCII, , 0)
$$ <?xml version="1.0" encoding="utf-8"?>
$$ <PredictorParameters>
$$     <Title>Predicted 1H NMR Spectrum</Title>
$$     <Origin>Mnova: NMR Prediction</Origin>
$$     <Name>Mestrelab Predictor, Modgraph NMRPredict Desktop</Name>
$$     <Version>1.7, 1.22 (5.076)</Version>
$$     <Nucleus>1H</Nucleus>
$$     <Solvent>DMSO-d6</Solvent>
$$     <From>0</From>
$$     <To>12.5</To>
$$     <Frequency>500</Frequency>
$$     <LineWidth>0.75</LineWidth>
$$     <Size>65536</Size>
$$     <DEPT>0</DEPT>
$$     <ProtonatedCarbons>0</ProtonatedCarbons>
$$     <ExcludeLabile>true</ExcludeLabile>
$$     <FastPrediction>0</FastPrediction>
$$     <ProtonDecoupled>0</ProtonDecoupled>
$$     <Reference/>
$$     <Options>
$$         <Settings>
$$             <Predictor Name="Mestrelab Predictor">
$$                 <Settings>
$$                     <Model>/Applications/MestReNova.app/Contents/Resources/data/1H.mbst</Model>
$$                 </Settings>
$$             </Predictor>
$$             <Predictor Name="Modgraph NMRPredict Desktop">
$$                 <Settings>
$$                     <Algorithm hoption="2" hsolvent="1" usnucleus="1">Fast Increments</Algorithm>
$$                     <JsAlgorithm>Fast Increments</JsAlgorithm>
$$                     <NMRSOAPDIR>/Applications/MestReNova.app/Contents/Resources/NMRPredict</NMRSOAPDIR>
$$                     <NMRTEMPDIR>/private/var/folders/3f/5b3_td5j7k3f1lyt31390d3jfxj842/T/NMRPredict-1574477954</NMRTEMPDIR>
$$                     <NMRUSDATABASEDIR>/Users/ctheodore/Library/Application Support/Mestrelab Research S.L./MestReNova/NMRPredict/NMR1HDatabase</NMRUSDATABASEDIR>
$$                     <Databases>ABCDEFGHIJKLMNOPQRSTUVWXYZ</Databases>
$$                 </Settings>
$$             </Predictor>
$$         </Settings>
$$     </Options>
$$     <MoleculeID>{cec06261-ba77-42bb-8a4c-d68021246a5f}</MoleculeID>
$$ </PredictorParameters>
$$ 
##XUNITS=	HZ
##YUNITS=	ARBITRARY UNITS
##FIRSTX=	6250
##LASTX=	0.095367431640625
##DELTAX=	-0.095367431640625
##XFACTOR=	1
##YFACTOR=	7.539092964539279416E-11
##FIRSTY=	6.3146252671231195563E-09
##MINY=	3.2989879716893710793E-09
##MAXY=	0.16190078854560852051
##NPOINTS=	65536
##XYDATA=	(X++(Y..Y))
6250H4%qQq%%%%%%Q%q%Q%%qQ%%%qQq%Qq%Q%%%q%Q%%%qQq%Q%q%Q%q%Qq%%%Q%qQ%q%Q%%%%%%
6243H4%q%Q%%q%%%%%%QqQ%%qQ%q%%%%%%Qq%%Qq%Qq%%%QqQ%%qQ%qQqQ%%q%Q%%qQ%qQ%%%qQq
6237G6Q%%%q%Qq%QqQqQqQqQqQq%%%%%%Qq%%Qq%%%%%%%%%%Qq%%%%%%%%QqQq%%Qq%%%%Q%q%%
6230G6%%%Qq%%%Qq%Q%qQ%qQ%%%q%%%Q%q%%QqQ%%%q%%%%%%%%%%%%%%%%%%Qq%%Q%qQ%q%Q%q%
6223G6%Qq%%Qq%Qq%%%%%%%%%Qq%%%%QqQqQ%%%%qQ%q%QqQqQ%%qQqQq%%QqQqQ%qQ%q%Qq%%%%
6217G6Qq%%Q%q%QqQ%%%%%qQ%q%Q%q%Qq%%Q%%%%qQ%%%%q%Q%qQqQ%q%%%%Qq%%J6%j6%qL2k4Q
6210H4%Qj6Q%q%%%%%Qq%%%%QqQ%q%%%Q%qQq%QqQ%%%%qQqQq%%%%%%%%%%%%QqQq%%%%%%Qq%%
6204G6%%%Qq%%%Qq%%Q%%q%Q%q%%%QqQq%%Qq%%%%Q%%q%%%%%Q%q%%%%%%%%Qq%Qq%%%%%%%%%%
6197G6%%%%%%%%%%%%Q%%qQq%%%%%%Qq%%QqQ%qQq%%%QqQq%Qq%Qq%Qq%%%%%%%%%Qq%%Qq%Qq%
6190G6%%%%%%%%%%Qq%%QqQq%%Q%q%%Qq%Q%%qQ%%q%Q%q%%%%%%Qq%%Q%qQqQq%%%QqQ%q%%%%%
6184G6%%Qq%%Qq%%Qq%Qq%%Qq%Qq%%%%%%Qq%%%%%%%Qq%Qq%%%%Q%q%QqQq%Q%qQq%Qq%%%%%%%
6177G6%%%%%%%Q%qQq%%%%%%%%%%%Q%%q%Qq%%%%%%%%%%%%%%%%%%%%%%Qq%%%%%%Q%q%%%%%%Q
6170H4q%%%Qq%%Qq%%%%%%QqQqQq%Q%q%%%Qq%Q%q%%%%%Q%q%%%%%%%%%%%%%%%%%%%%%%%%%%%
6164G6%%%%Qq%%%%%Q%q%qQQ%%%q%Q%qQ%%q%%Q%qQq%%%Qq%%%%%%%QqQq%%%%%%%%%%%%%%%%%
6157G6%%%%Q%q%%%%%%%%%Qq%%%%%%Q%q%%%%Q%%%q%%%%%%%Qq%%%%%%%%%%%%%Qq%%%%%Q%q%%
6150G6%%%%Qq%%%%%%%%%%%%%%%%%%%%%%%%%%%%%%%%%%%%%%%%%%%%%%%%%%%Qq%%%%%%Qq%%%
6144G6%%%%%%%%%Qq%%%%%%%%%%%Qq%%%%%%Qq%%Qq%%%%%%%%%%%%QqQq%%%%%%QqQqQ%q%%%%%
6137G6%Qq%%%%%%%%%%%%Qq%%%%%%%%%QqQq%Qq%%%%%%%%%%%%%%%%%%Qq%%%%%Q%q%%Qq%%Qq%
6130G6%%%%%%%%%%%%%%%QqQq%%%%%%%%%%%%%%%%%%%%%%%%%%Qq%%%%Q%qQ%q%%Qq%%%%%%%%%
6124G6%%%%%%%%%%%%%%%%QqQq%%%%%%%%%%%%%%%%%%%%%%%%Qq%%%%%%Qq%%%%%%%%%%%%%%%%
6117G6%%Qq%%%%%%%%%%%%%%%%%%Qq%%Qq%%%%Qq%Q%q%%%Qj6QqQ%%Qq%%%%Qq%%%%%%%%%%Qq%
6110G6%%%%%%%%%%Qq%%%%%%Qq%Qq%%%%%%Qq%%%%%Q%q%%Qq%%%%QqQq%%%%%%Qq%%%%%%%%%%%
6104G6%%%%%%%%%%%%%%%%%%%%%%%%%%%%Qq%%%%Q%qQq%%%%%%%Qq%%%%%%Qq%%%%%%Qq%%%%%%
6097G6%%%%%%%%%%%%%%%%QqQq%%%%Qq%%%%%%%Q%q%%%%%Q%q%%%%%%%%%%%Qq%%%%QqQq%%%%%
6090G6%%%%%%%%Qq%%Qq%%%Qj6J6q%%%Qq%%%%%Qq%%%%%%%%%%%%%%%%%%%%%%%%%%%%%%%%%%%
6084G6%%%%%%%%%%%%%%Qq%%%%%%%%%Qq%%Qq%%Qq%%%%%%%%%%%%%%%%Qq%%%%%%%%%%%%%%%%%
6077G6%%%Qq%%%%%%%%%%%%%%%%%%%%%%%%%%%%%%Qq%%%%%Qq%%%%%%%%%%%%%%%%%%%%%%%%%%
6071G6%%Qq%Qq%%%%%%%%%%%%%%%%%%%%%%%%%Qq%%%%%%%%%%%%%%%%%%%%%%%%%%qQ%%QqqQ%%
6064G6%qQ%%%%Qq%%%%%%%%%%%%%%%%%%%%%%%%%%%%%%%%%%%%%%%%%%%%%%%%%%%%%%%%%%%%%
6057G6%%%%%%%%%%%%%%%%%%%%Qq%%Qq%%%%%%%%%%%%%%%%%%%%%%%%%%%%%Qq%%%%%%%%%%%%%
6050G6%%%%%%%%%%%%%%%%%%%%%%%%%%%%%%%%%%%%%%%%%%%%%%%Qq%%%%%%%%%%%%%%%%%%%%%
6044G6%%%%%%%%%%%%%%%%%%%%%%%%%Qq%%Qq%%%%%%%%%Qq%%%%%Qq%%%%%%%%%%%%%%%Qq%%Qq
6037G6%%%%%Qq%%%%%%%%%%%%%%%%%%%%%%%%%%%%%%%%%%%%%%%%%%%%%%%%%%%%%%%%%%%%%%%
6030G6%%%%%%Qq%%%%%%%%%%%%%%%%%%%%%%%%%%%%%%%%%%%%%%%%%%%%%%%%%%%%%%%%%Qq%%%
6024G6%%%%%%%Qq%%%%%%%%%%%Qq%%%%%%%%%%%%%%%%%%%%%%%%%%%%%%%Qq%%%%%%%%%%Qq%%%
6017G6%qQ%QqqJ6%q%QqqQQk4K4qK4l2J6q%QqqQQqqQ%Qq%%%%%%%Qq%%%%%Qq%%%%%%%%%%%%%
6011G6%%%%%%%%%%%%%Qq%%%%%%%%%%%%%%%%%%%%%%%%%%%%%%%%%%%%%%%%%%%%%%%%%%%%%%%
6004G6%%%%%%%%%%QqQq%%%%Qq%%%%%%%%%%%%%%%%%%%%%%%%%%%%%%%%%%%%%%%%%%%%%%%%%%
5998G6%%%%%Qq%%%%%%%%%%%%%%%%%%%%%%%%%%%%%%%Qq%%%%%%%%%%%%%%%%%%%%%%%%%%%%%%
5991G6%%%%%%%%%%%%%%%%%%%%%%%%%%%%%%%%%%%%%%%%%%%%%%%%%%%%%%%%%%%%%%Qq%%%%%%
5984G6%%%%%%%%%%%%%%%%%%%%%%%%%%%%%%%%%%%%%%%%%%%%%%%%%%%%%%%Qq%%%%%%%%%%%%%
5978G6%%%%%%%%%%%%%%%%%%%%%%%%%%%%%%%%%%%%%%%%%%%%%%%%%%%Qq%%%%%%%%%%%%%%%%%
5971G6%%%%%%%%%%%%%%%%%%%%%%%%%%%%%%%%%%%%%qQ%%%qQQ%q%%%%%%%%%%%%%%%%%%%%%%%
5964G6%%%%%%%%%%%%%%%%%%%%%%%%%%%%%%%%%%%%%qQ%%%%%%%%%%%%%%%%%%%%%%%%%%%%%%%
5958G6%%%%%%%%%%%%%%%%%%%%%%%%%%%%%%%%%%Q%q%%%%%%%%%%%%%%Qq%%%%%%%%%%%%%%%%%
5951G6%%%%%%%%%%%%%%%%%%%%%%%%%%%%Qq%%%%%%%%%%%%%%%%%%%%%%%%%%%%%%%%%%%%%%%%
5944G6%%%%%%%%%%%%%%%%%%%%%%%%%%%%%%%%%%%%Qq%%%%%%%%%%%%%%%%%%%%%%%%%%%%%%%%
5938G6%%%%%%%%%%%%%%%%%%%%%%%%%%%%%%%%%%%%%%%%%%%%%%%%%%%%%%%%%%%%%%%%Qq%%%%
5931G6%%%%%%%%%%%%%%%%%%%%%%%%%%%%%%%%%%%%%%%%%%%%%%%%%%%%%%%%%%%%%%%%%%%%%%
5924G6%%%%%%%%%%%%%%%%%%%%%%%%%%%%%%%%%%%%%%%%%%%%%%%%%%%%%%%%%%%%%%%%%QQqj6
5918F8%Q%%QqqQ%%%%%%%Q%q%%%%%%%%%%%%%%%%%%%%%%%%%%%%%%%%%%%%%%%%%%%%%%%%%%%%
5911G6%%%%%%%%%%%%%%%%%%%%%%%%%%%%%%%%%%%%%%%%%%%%%%%%%%%%%%%%Qq%%%%%%%%%%%%
5904G6%%%%%%%%%%%%%%%%%%%%%%%%%%%%%%%%%%%%%%%%%%%%%Qq%%%%%%%%%%%%%%%%%%%%%%%
5898G6%%%%%%%%%%%%%%%%%%%%%%%%%%%%%%%%%%%%%%%%%%Qq%%%qQ%%%%%%%%%%%%%%%%%%%%%
5891G6%%%%%%Qq%%Qq%%%%%%%%%%%%%%%%%%%%%%%%%%%%%%%%%%%%%%%%%%%%%%%%%%%%%%%%%%
5884G6%%%%%%%%%%%%%%%%%%%%%%%%%%%%%%%%%qQ%%%%%%%%%%%%%%%%%%%%%%%%%%%%%%%%%%%
5878G6%%%%%%%%%%%%%%%%%%%%%%%%%%%%%%%%%%%%%%%%%%%%%%%%%%%%%%%%%%%%%%%%%%%%%%
5871G6%%%%%%%%%%%%%%qQ%%%q%J6qQq%%%%qQ%%%Qq%%%%%%%%%%%%%%%%%%%%%%%%%%%%%%%%%
5864G6%%%%%%%%%%%%%%%%%%%%%%%%%%%%%%%%%%%%%%%%%%%%%%%%%%%%%%%%%%%%%%%%%%%%%%
5858G6%%%%%%%%%QqQ%q%%%%%%%%%%%%%%%%%%%%%%%%%%Qq%%%%%%%%%%%%%%%%%%%%%%%%%%%%
5851G6%%%%%%%%%%%%%%%%%%%%%%%%%%%%%%%%%%%%%%%%%%%%%%%%%%%%%%%%%%%%%%%%%%%%%%
5844G6%%%%%%%%%%%%%%%%%%%%%%%%%%%%%%Qq%%%%%%%%%%%%%%%%%%%%%%%%%%%%%%%%%%%%%%
5838G6%%%%%%%%%%%%%%%%%%%%%%%%%%%%%%%%%%%%%%%%%%%%%%%%%%%%%%%Qq%%%Qq%%%%%%%%
5831G6%%%%%%%%%%%%%%%%%%%%%%%%%%%%%Qq%%%%%%%%%%%%%%%%%qQ%%%%%%%q%Q%%%%%%%%%%
5824G6%%%%%%%%%%%%%%Qq%%%%%%%Qq%%%%q%%%%K4%Qm0qN6k4M8qn6K4J6Qm8qQM0qn6M8l2J6
5819G6qQ%%Qq%QqqJ6q%%%%qQqQqQQq%%q%Q%%%qQ%%%%%%%%qQ%Qq%%%%%%%%qQ%%%%%%%%%%%%
5812G6%%%%%%%%%%%%%QqqQ%%%%%%%%%%%%%%%%%%%%%%%%%%%qQQqQq%%%%%%%%%%%%%%%%%%%%
5806G6%%%%%%%%%%%%%%%%%%%%%%%%%%%%%%%%%%%%%%%%%%%%%%%%%%%%%%%%%%%%%%%%%%%%%%
5799G6%%Qq%%%%%%%%%%%%%%%%%%%%%%%%%%%%%%%%%qQ%%%%%%%%%%qQ%%%%%%%%%%%%%%%%%%%
5792G6%%%%%%%%%%%%%%%%%%%%%%%%%%%%%%%%%%%%%%%%%%%%%%%%%%%%%%%%%%%%%%%%%%%%%%
5786G6%%%%%%%%%%%%%%%%%%%%%QqQq%%%%%%%%%%%%%%%%%%%%%%%%%%%%%%%%%%%%%%%%%%%%%
5779G6%%%%%%%%%%%%%%%%%%%%%%%%%%%%%%%%%%%%%%%%%%%%%%%%%%%%%%%%%%%%%%%%%%%%%%
5772G6%%%%%%%%qQj6L2j6qQ%%%%%%%%%%%%%%%%%%%%%%%%%%%%%%%%%%%%%%%%%%%%%%%%%%%%
5766G6%%%%%%%%%%%%%%%%%%%%%%%%%%%%%%%%%%%%%%%%%%%%%%%%%%%%%%%%%%%%%%%%%%%%%%
5759G6%%%%%%%%%%%%%%%%%%%%%%%%%%%%%%%%%%%%%%%%%%%%%%%%%%%%%%%%%%%%%%%Qq%Qq%%
5753G6%%%%%%%%%%%%%%%%%%%%%%%%%%%%%%%%%%%%%%%%%%%%%%%%%%%%%%%%%%qQQq%qQ%%%%%
5746G6%%%%%%%%%%%%%%%%%%%%%%%%%%%%%%%%%%%%%%%%%%%%%%%%%%%%%%%%Qq%%%%%%%%%%%%
5739G6%%%%%%%%%%%%%%%%%%%%%%Qq%%%%%%%%%%%%%%%%%%%%%%%%%%%%%%%%%%%%%%%%%%%%%%
5733G6%%%%%%%%%%%%%%%%%%%%%%%%%%%%%%%%%%%%%%%Qq%%%%%%%%%%%%%%%%%%%%%%%%%%%%%
5726G6%%%%%%%%%%%%%%%%%%%Q%q%%Q%q%%%%%Q%%q%%qQ%Qq%%%Qq%%%%%%%%%%%%%%%%%%%%%%
5719G6Qq%%%%%%%%%%%%%%%%%%%%%%%%%%%%%%%%%%%%%%%%%%%%%%%%%%%%%%%%%%Qq%%%%%%%%
5713G6%%%%%%%%%%%%%%%%%%%%%%Qq%%%%%%%%%%%%%%%%%%%%%%%%%%%%%%%%%%%%%%%%%%%%%%
5706G6%%%%%%%%%%%%%%%%%%%%%%%%%%%%%%%%%%%%%%%%%%%%%%%%%%%%%%%%%%%%%%%%%%%%Qq
5699G6%%%%%%%%%%Qq%%%%%%%%%%%%%%%%%%%%%%%%%%%%%%%%%%%%%%%%%%%%%%%%%%%%%%%%%%
5692G6%%%%%%%%%%%%%%%%%%%%%%%%%%%%%%%%%%%%%%%%%%%%%%%%%%%%%%%%%%%%%%%%%%%%Qq
5686G6%%%%%%%%%%%%%%%%%%%%%%%%%%%%%%%%%%%%%%%%%%%%%%%%%%%%%%%%%%%%%%%Qq%%%%%
5679G6%%%%%%%%%%%%%%%%%%%%%%%%%%%%%%%%%%%%%%%%%%%%%%%%%%%%%%qJ6%q%%%%%%%Qq%%
5673G6%%%%%%%%%%%%%%%%%%%%%%%%%%%%%%%%%%%%%%%%%%%%%%%%%%%%%%%%%%%%%%%%%%%%%%
5666G6%%%%%%%%%%%%%%%%%%%%%%%%%%%%%%%%%%%%%%%%%qQ%%%%%%%%%%%%%%%%%%%%%%%%%%%
5659G6%%%%%%%%%%%%%%%%%%%%%%%%%%%%%%%%%%%%%%%%%%%%%%%%%%%%%%%%%%%%%%%%%%%%%%
5653G6%%%%%%%%%%%%%%%%%%%%%%%%%%%%%%%%%qQ%Qq%Qq%%%%%%%%%%%%%%%%%%%%%%%%%%Qq%
5646G6%%%%%%%%%%%%%%%%%%%%%%%%%Qq%%%%%%%%%%%%%%%%%%%%%%%%%%%%%%%%%%%%%%%%%%%
5639G6%%%%%%%%%%%%%%%%%%%%%Qq%%%%%Qq%%%Qq%%%%%%%%%%%%%%%%%%%%%%%%%%%%%%%%%%%
5632G6%%%%%Qq%%%%%%%%%%%%%%%%%%%%%%%%%%%%%%%%%%%%%%%%%%%%%%%%%Qq%%%%%%%%%%%Q
5626H4j6QqQQq%J6qqqK4q%qQq%%Q%%%%q%%%%%Qq%Qq%%%%%%%%%%%%%%%%%%%%%%%%%%%%%%%%
5619G6Qq%%Qq%Qq%%%%%%%%%%%Q%q%%%%%%%%%%%%%%%%%%%%%%%%%%%%%%%%%%%%%%%%%%%%%%%
5613G6%%%%%%%%%%%%%%%%%%%%%%%%%%%%%%%%Qq%%%%%%%%%%%%%%%%%%%%%%%%%%%%%%%%%%%%
5606G6%%%%%%%%%Qq%%%%%%%%%%%%%%%%%%%%%%%%%%%%%%%%%%%%%%%%%%%%%%%%qQQ%q%%%Qq%
5599G6Qq%Qq%%%%%%%%%%%%%%%%%%%%%%%%%%%%%%%%%%Qq%%%%%%%%%%Qq%%Q%q%%%%%%%%%%%%
5593G6%%%%Qq%%%%%%%%%%%%%%%%%%%%%%%%%%%%%%%%%%%%%%%%%%%%%%%%%%%%%%Qq%%%%%%%%
5586G6%%%%%%%%%%Qq%%%%%%%%%%%%%%%%%%%%%%%%%%%%%%QqQq%%%%%%%%%%%%%%%%%%%%%Qq%
5579G6%%%%%%%%%%%%%%Qq%%%%%%%%%Qq%%%Qq%qJ6q%%%%%%%%QqQqQq%%%%Qq%%%%%%%%%%%%%
5573G6%%%%%%%%%%%%%%%%%%%%%%%%%%Qq%%%Q%q%%%%%%%%%%%%%%%%%%%%%%%%%%%%%%Qq%%%%
5566G6%%%%%%%%%%%%%%Qq%%%%%%qQ%%%%Qq%%%%%%%%%%%%%%%%%%%%%%%%%%%%%%%%%%%%%Qq%
5559G6%%Qq%%%%%%Qq%Qq%%%%%%%%%%%%%%%%%%%%%%%%%%%%%%%%%%%%%%%%%%%%%%%%%%%%%%%
5553G6%%%%%%%%%%%%Qq%Q%q%%%%%%Q%q%%%Qq%%%%%%%Qq%Qq%%Qq%%%%%%%%%%%Qq%%%%%%QqQ
5546H4q%%%%QqQq%%%%%%%%%%%%%%%%%%%%%%%%%%%%%Qq%%%%%%%%%%%%%%%%%%%%%%Qq%%%%%%
5539G6%%qJ6%qQq%Qq%%Qq%%%Qq%%%%%%%%%%%%%%%%%%%%%Qq%%%%%%%%%%%%%%QqQq%%%%%%%%
5533G6%%%%%%Qq%%%%%%%%%%%%%%%%%%%%%%%Qq%%%%%%%%%%%%%%%QqQj6K4j6%QqQq%%QqQq%q
5526F8J6q%%%%%%%%%%%Q%qQ%q%%%%%%%%%%%%%%%%%%%%%%%%%%%%%%%%%%Qq%Qq%%%%%%%%%%%
5520G6%%%%%%%%%%%%%%%%%Q%q%Qq%%%%%%%Qq%%%%%%%%%%Qq%%%Q%%%%j6Q%%%%%%%%%%%%%%%
5513G6%%%%%%%%Q%q%%%%%%%%%%%Qq%%%%%%%%%%%%%%Qq%%%%%%%%%%%%%%%%%%%%%%%%%%%%%%
5507G6%%%%Qq%%%%%%%%%%%%%%%%%%%%%%%%%%%%Qq%Q%%j6J6%q%Qq%%%%%%%%%%%%%%%%%%%%%
5500G6%%%%%%%Qq%QqQq%%%%%%%%%%Q%q%%Qq%%%%%%Qq%%%%%%%%%%%%%%%%%%%%%%%%%%%%%%%
5493G6%%%%%%%%%%%%%%%%%%%%%%%%%%%%%Qq%Qq%%Q%q%%%%Qq%%%%%%%%%%%%QqQ%%q%QqQ%%q
5487G6%%%%Q%q%%%%%%%%%%%%%%Qq%%%%%%Qq%%Qq%%%%%%Qq%%%%%%%%%%%%%%%%%%%%%%%%%%%
5480G6%%%%%%%%QqQqQq%%%QqJ6j6Q%%qQq%%QqQqQ%q%%%%%%%%%%%%%%%%%%%%%%%%%%%%%%%%
5474G6Qq%%%%%%%Qq%%%Qq%%%QqQq%%%%Qq%%%%%%%%Qq%%%%%%%%%Qq%%%%%%%%%%%%%%%%%%Qq
5467G6QqQ%%q%Qq%%%%%%Qq%%%%%Qq%%%%%%Qq%%%QqQq%%%%Qq%%%%%%%%%%%%%%%%%%%%%%%%Q
5460H4q%%Qq%%%%%%%%%%%%%%Qq%%%Qq%%%%%%Qq%%%Qq%QqQ%%q%Q%%qQq%%%%Qq%%Qq%%%%Qq%
5454G6%qQ%%%%Qq%Q%q%Q%qQq%QqQ%qQ%q%%Q%%qQ%q%%%%%Qq%%QqQqQ%qQ%qQqQq%QqQ%q%%%%
5447G6%Q%%qQqQ%%%qQ%q%%Qq%Q%%qQqQ%q%%%%%%%%%%%%%%Q%%%%q%QqQq%%QqQq%%Qq%%%%%Q
5440H4%q%%%%%QqQq%%%%%Q%q%Qq%%QqQ%qQ%%%qQq%%%%%%Q%qQ%%%%qQqQq%%%%%%%%%%Qq%%%
5434G6Q%%%%%q%%QqQqQq%Qq%Q%%q%%%%Qq%%QqQq%%J6qqJ6qj6QqQqQ%QQj6qQQq%QqQ%%qQqQ
5427H4%qQ%qQq%Q%%%q%Q%%%q%%QqQ%%q%Q%%qQq%Qq%%Qq%Qq%%%Q%%q%Qq%Q%qQ%%qQq%%%%%%
5421G6Qq%%%%Q%q%%%%%%Qq%%%%%%%%%%%%%%%Qq%%Q%q%Q%qQ%%qQ%qQqQ%qQ%qQqQq%Q%%%q%%
5414G6%%%Q%qQ%q%%%%%%%%%%%%Q%%%%q%%%QqQ%qQq%%%%Qq%%%Q%%%q%Q%%%q%%%%%QqQ%q%%Q
5407H4q%Qq%%%QqQq%%%%Q%q%%QqQ%qQ%%%%qQqQq%%QqQ%q%Q%%%%%%q%%Q%%q%%QqQ%%qQq%Q%
5401H4%%%%q%Q%qQ%%%qQ%q%QqQqQqQ%%q%%%Q%q%%QqQ%%%q%%%QqQq%%QqQqQqQq%Qq%Qq%%Qq
5394G6%%QqQ%qQqQq%Q%%%q%%QqQ%%q%Q%qQ%%qQ%%q%%%QqQqQ%%%%%%qQ%%qQ%qQ%qQ%qQq%Q%
5387H4qQ%%qQq%Q%%%%%qQ%%%%q%Qq%Q%q%QqQ%qQ%qQ%%%%%%%%%%qQ%%q%Q%q%Q%%qQq%Qj6QQ
5381H4qQ%%%q%%%%Q%q%Qq%QqQ%qQ%%%%%qQ%%%%%qQqQ%%%%%%qQq%QqQq%Qq%QqQq%Qq%%%Q%%
5374H4%q%%Q%%%%qQ%%%qQqQ%qQ%%%%%qQq%Q%%%qQq%QqQ%%%qQ%%%%%%%qQq%Q%%%%%q%%QqQ%
5367H4qQ%qQqQ%q%QqQ%%%%qQq%Q%%q%%%Q%%%q%Q%%qQ%%q%Q%%qQ%q%%Q%%%qQqQ%%%%%%%%%%
5361H4%%%%%%%%%%qQ%%q%Q%%%%%%%%qQ%%%%%%q%Q%%%qQqQqQq%%%Q%%%%%%%%qQqQq%Q%%%%%
5354H4%%qQ%%q%Qq%%Q%q%Qq%Q%%q%Q%qQ%%qQ%%%%q%%QqQ%%%%%%%%%%%%%%%q%%%Q%q%Q%%%%
5347H4q%QqQ%%%%%%qQ%%%%qQq%Q%%%%%%%qQ%%%%%%%%q%QqQ%%%%%%%%%%%%%%%%%q%Q%%%qQq
5341G6Q%%%%%%%%qQq%QqQqQ%qQq%Qq%Q%%%%%%%qQ%%%%%%%%%%%%%%%%%%%%%%%%%%%%%%%%%%
5334H4%%qQ%qQ%q%Q%%%%%%%qQ%qJ6q%%Qj6Q%%%%%%%%%%%%qQqQ%%%%qQ%%%%%qQ%%%%%%%%%%
5327H4%q%Q%%%%%qQ%qQ%%%qQ%%%%%qQ%%q%QqQqQ%q%%QqQ%%%%%%%qQ%%%%%qQ%q%Q%%%%%%q%
5321G6QqQ%q%Q%%%QqqQ%%q%Q%%qQ%qQ%%%%%%%%%%%%%%%%%%%%qQ%qQ%%%%%%qQ%%%%%%%%%%%
5314H4%%qQ%q%Q%%%%%%%%%%%%%%%%%qQ%qQ%%%%%%%%%%%%%%%%%%%%%%%%%%%qQ%%%%%q%%Qqq
5307F8J6%qQ%%%%%%%%%%qQ%%%%%%%%%%%%%%%%%%qQ%%%%%%%%%%%%qQ%%%%%%%%%%%q%Q%%%%%
5301H4%%%%%%%%%%%%%%%%%%%%%%%%%%%%%%%qQ%%qQ%%%%%%%%qQqQ%%%q%Q%%%%%%%%%qQ%%%%
5294H4%%%%%%%%%%%%%%%%%%%%%%%%%%%%%%%%%%%%%%%%%%%%%%%%%%%%%%%%%%%%%%%%qQ%%%%
5287H4%%q%Q%qQ%%%%%%%%%%%%%%%%%%%%%%qQ%%%%%%%%qQ%%%%q%QqQ%%%qQ%%%%%%%%%%%%%%
5281H4%%%%%%%%%%%%%%%%%%%%%%%%%qQ%%%%%%%%%%%%%%%%%%%%%%%%%%%%%%%%%%%%%%%%%%%
5274H4qQ%%%%%%%%%%%%%%%%%%%%%%%%%%%%%%%%%%%%%%%%%%%%%%%%%%%%%%%%%%%%%%%%%%%%
5267H4%%%%%%%%%%%%%%%%%%%%%%%%%%qQqQ%%%%%%%%%%%%%%%%%%%%qQ%%%%%%%%%%%%%%%%%%
5261H4%%%%%%%%%%%%%%%%qQ%%%%%%%%%%qQ%%%%%%%%%%%%%%%%%%%%%%%%%%%%%%%%%%%%%%%%
5254H4%%%%%%%%%%%%%%%%%%%%%%%%%%%%%%%%%%%%%%%%%%%%%%%%%%%%%%%%%%%%%%%%%%%%%%
5247H4%%%%%%%%%%%%%%%%%%%%%%%%%%%%%%%%%%%%%%%%%%%%%%%%%%%%%%%%%%%%%%%%%%%%%%
5241H4%%%%%%%%%%%%%%qQ%%%%%%%%%%%%%%%%%%%%%%%%%%%%%%%%%%QqqQ%%qQ%%Q%j6QqJ6j6
5234G6%j6M0j6Q%j6J6qQj6Q%%%%%%%%%%%%%%%%%%%%%%%%%%%%%%%%%%%%%%%%%%%%%%%%%%%%
5228H4%%%%%%%%%%%%%%%%%%%%%%%%%%%%%%%%%%%%%%%%%%%%%%%%%%%%%%%%%%%%%%%qQ%%%%%
5222H4%%%%%%%%%%%%%%%%%%%%%%%%%%%%%%%%%%%%%%%%%%%%%%%%%%%%%%%%%%%%%%%%%%%%%%
5215H4%%%%%%%%%%%%%%%%%%%%%%%%%%%%%%%%%%%%%%%%%%%%%%%%%%%Qj6Q%%qQqQ%%%%%%%%%
5208H4%%%%%%%%%%%%%%Qq%%%%%%%%%%%%%%%%%%%%%%%%%%%%%%%%%%%%%%%%%%%%%%%%%%%%%%
5202H4%%%%%%%%%%%%%%%%%%%%%%%%%%%%%%%%%%%%%%%%%qQ%%%%%%%%Qq%%%%%%%%%%%%%%%%%
5195H4%%%%%%%%%%%%%%%%%%%%%%%%%%%%%%%%%%%%%%%%%%%%%%%%%%%%%%%%%%%%%%%%%%%%%%
5188H4%%%%%%%%%%%%%%%%%Qq%%%Q%%q%%%Q%j6QqJ6q%%Qq%%%%%%%%%%%%%%%%%%%%%%%%%%%%
5182H4%%%%%%%%%%%%%%%%%%%%%%%%Q%q%%%%%%%%%%%%%%%%%%%%%%%%%%%%%%%%%%%%%%%%%%%
5175H4%%%%%%%%%%%%%%%%%%%%%%%%%%%%%%%%%%%%%%%%%%%%%%%%%%%%%%%%%%%%%%%%Qq%%%%
5168H4%%%%%%%%%%%%%%%%%%%%%%%%%%%%%%%%%%%%%%%%%%%%%%%%%%%%%%%%%%%%%%%%%%%%%%
5162H4%%%%%%Q%qQq%%%%%%%%%Qq%%Qq%%%%%%%%%%%%%%%%%%%%Qq%%%%%%%%%%%%%Qq%%%%%%%
5155H4Qq%%%%%%%%%%%%%%%%%%%%%%%%%%%%%%%%%%%%%%%%%%%%%%%%%%%%%%%%%%%%%%%%qQQ%
5148I2q%%%%%%%%%%%%%%%%%%%%%%%%%%%%%%%%%%%%%%%%%%%%%%%%%%%%%%%%%%Qq%%%%%%%%%
5142H4%%%Qq%%%%%%%Qq%%%%%%%%%Q%qQq%%%%%%Qq%%%%QqQq%%%Qq%Qj6J6j6QQq%qJ6q%%Qq%
5135H4%%%%Qq%%%%%%%%%QqQ%q%%Qq%%%%%%Qq%%%%%Qq%Q%q%%%%%%%%%%%%%%%Qq%%Qq%%%%%%
5129H4Q%q%%%%%Qq%%%QqQ%q%%Qq%%QqQqQq%%%%%%QqQqQq%%%%Q%q%%%%%QqQqQq%%Q%%q%%%%
5122H4Qq%%%%%%Qq%%%%%%%%%%%%%%%%%%%Q%q%%Q%q%%QqQq%Q%qQq%%%%%%%%Q%qQqQ%%q%%%%
5115H4%%%%%%%%%%%%%%%%%%%%%%%%%%%%%%%%%%qQ%Qq%%Qq%%%Qq%%%%Qq%%QqQqQq%%Q%qQqQ
5109I2qQ%q%Q%q%%%%%%%%%%%Qq%Qq%%%%%%QqQq%%%QqQ%%q%%%%%%Qq%QqQ%qQ%q%QqQq%Qq%%
5102H4%%%%%%Q%qQq%%%Q%%%qQq%%%%%%%Qq%%Qq%Qq%%%%%Q%%q%Q%qQq%%%Q%%qQq%Qq%Qq%%%
5095H4%%%Qq%%%%%%%%%%%%Q%%%qQ%%q%%%Q%%%qQ%qQ%q%%Q%qQ%%%q%Qq%%Q%qQq%Qq%Qq%%Q%
5089I2%q%Q%qQq%qK4j6Qj6J6%%%%q%%Q%%%%%q%%%Q%%qQ%q%Q%qQq%Q%%%%%%q%QqQqQ%q%Q%%
5082I2qQq%%%%%Qq%Q%q%Q%qQqQqQqQqQ%%qQ%qQqQ%q%%%%Q%%%qQ%%qQqQ%%q%Q%qQqQqQ%%%q
5076H4%Q%%%%q%%%Qq%Q%q%%Q%%%%%%%%q%Q%%%%%%qQq%Qq%Qq%Q%%qQq%%QqQ%qQ%qQqQ%%%q%
5069H4Q%%%%%%%qQq%Q%%qQ%%q%Q%%%%qQq%%%Q%%%%%%%qQ%%%%qQ%%%%%%%%q%Q%qQq%Q%%%qQ
5062I2%%q%Q%qQ%%qQ%%%%%q%Q%qQ%qQqQ%%%%q%Qq%Q%%%%%%qQ%%%%%%%%%%%q%Q%qQqQ%%%%%
5056I2%%q%Qq%Q%%%qQ%qQqQ%%q%%QqQ%%%%%%%%%qQ%%%%%%%%%%%q%%Q%qQ%%%%%%%%%%q%%Q%
5049I2%%qQ%q%Q%q%%Q%%%qQ%%%%%%%q%Q%%%%q%QqQ%%%%%%%qQ%%%%qQq%Q%%%q%Qq%Qq%QqQq
5042H4Qq%Q%qQq%QqQ%qQq%Q%qQQj6Q%qQ%j6J6qj6K4Ql2qK4j6J6qL2Qj6q%%q%Q%QqqJ6%q%%
5037I2qQ%%%%q%%%Q%%qQ%%%%%%%%%%%%%%%%%%%%qQ%%%%qQqQ%%%%%%%%%%%%%%%%%%%%%%%%%
5030I2%%%%%%%%%%%%%%qQ%%%%%%%%%%%qQ%qQ%qQ%q%Q%%%%%%%%%%%%%%%%qQ%%%qQ%%%%%%%q
5023H4Q%%%%%%%%%%%%%%%%%%%%%%%%%%%%%%%%%%%%%%qQ%%%%%%%qQ%%%%%%%%%%%%%%%%%%%%
5017I2%%%%%%%%%%%%%%%%%%%%qQQ%j6QqQ%%%qQ%%%%%%%%%%%%%%%%%%%%%%%%%%%%%%%%%%%%
5010I2%%%%%%%%%%%%%%%%%%%%%%%%%%%%%%%%%%%%%%%%%%%%%%%%%%%%%%%%%%%%%%%%%%%%%%
5004I2%%%%%qQ%%%%%%%qQ%%%%%%%%%%%%%%%%%%%%%%%%%%%%%%%%%%%%%%%%%%%%%%%%%%%%%%
4997I2%%%%%%%%%%%%%%%%%%%%%%%%%%%%%%%%%%%%%%%%%%%%%%%%%%%%%%%%%%%%%%%%%%%QqQ
4990A00qqQ%Qq%%%Qq%%%%%%%%%%%%%%%%%%%%%%%%%%%%%%%%%%%%%%%%%%%%%%%%%%%%%%%%%%
4984I2%%%%%%%%%%%%%%%%%%%%%%%%%%qQ%%qQ%%%%%%%%%%%%%%%%%%%%%%%%QqQq%%%%%%%%%%
4977I2%%%%%%%%%%%%%%%%%%%%%%%%%%%%%%%%%%%%%%%%%%%%%%%%%%%%%%%%%%%%%%%%%%%%%%
4970I2%%%%%%%%%%%%%%%%%%%%%%%%%%%%%%%%%%%%%%%%%%%%%QqqJ6q%%%%%%%%%%%%%%%%%%%
4964I2%%%%%%%%%%%%%%%%%%%%%%%%%%%%%%%%%%%%%%%%%%%%%%%%%%%%%%%%%%%%%%%%%%%%%%
4957I2%%%%%%%%%%%%%%%%%%%%%%%%%%%%Qq%%%%QqQq%%%%Qq%%%%%%%%%%%%%%%%%%%%%%%%%%
4950I2%%%%%%%%%%%%%%%%%%%%%%%%%%%%%%%%%%%%%%%%%%%%%%%%%%%%%%%%%%%%%%%%%%%%%%
4944I2%%%%%%%%Q%q%%%%Qq%%%%qQQ%%qQj6Q%%%%%%%%%%%%%%%%%%Qq%%%%%%%Qq%%%%%%%%%%
4937I2%%%%%%%%%%%%%%%%%Q%%%q%%%%%%%%%%%%%%%%%%%%%%%%%%QqQq%%%%%%%%%%%%Qq%%%%
4930I2%Qq%%%%%QqQq%%%%%%%%%%%%%%%%%%Qq%%%%%%%%%%Qq%%%%%%Qq%%%%%%Qq%%%%%%%%%%
4924I2%%Qq%%Qq%%%%%%%%%%%%%Qq%%%%%%%%%%%Qq%%%Q%q%%%%%%%%%%%Qq%%%%%%%%%%%%Qq%
4917I2%QqQ%qQ%%q%Q%q%Q%qQqQ%q%Qq%%%%%%%%%%QqQq%%%%%%%%Qq%%%%%%QqQq%Qq%%%%QqQ
4910A00q%%%%%%Qq%%%%%%%%%%%%%%%Qq%%Q%%q%Qq%%%Qq%Q%q%Qq%%Qq%%%%%%%Qq%%%%%%Qq%
4904I2%%Qq%%%%%%%Q%q%Qq%%Q%qQq%Qq%%QqQq%%%%%%%QqQq%%%Qq%%%%%Qq%%%Qq%%Qq%%%%%
4897I2Q%%qQqQqQqQqQ%qQ%%q%Qq%QqQqQq%%Qq%%Q%%qQq%%%QqQ%q%%QqQqQ%q%QqQ%%%%%%qQ
4890A00q%%QqQ%%%%q%%Q%%%%%%qQqQ%%qQqQqQq%%%%Qq%%%%Qq%%%QqQ%%%%qQ%qQ%q%QqQ%%%
4884A00qQ%qQ%%%%%q%Q%%%%q%%Q%q%Q%%%%%%%qQ%%%q%Q%qQ%%%%q%%%Q%q%Q%qQ%%%qQqQ%%%
4877A00qQqQq%%QqQ%%qQ%%qQ%%%qQq%Q%qQqQ%%%qQ%%%qQ%%%qQqQqQq%QqQ%%q%Q%%%%qQqQq
4871I2Q%%%%q%QqQ%%%%%%%%%%q%%%QqQ%qQ%%%qQq%QqQqQ%qQq%Q%%%%%qQ%%%%%%%qQ%%%%%%
4864A00qQq%%QqQ%%%%%%q%Q%%%%qQ%%qQqQ%%%%%%%%%%%%%%%%%%%%qQqQ%%%%%%%%%%%%%%%%
4857A00%%%%%%%%%%%%%qQqQqQ%%%%%%%%%%%%qQ%%%%qQ%%%%%%%%%%%%%%%%%%qQ%%%%%%%%%%
4851A00%%%%%%%%%%%%qQ%%%%%%%%%%%%%%%%%%%%%%%%%%%%%%%%%%%%%%%%%qQ%%%%%qQ%%%%Q
4844A08qqQ%Qq%Qj6%Qq%Qq%%Q%qQ%%%%%%%%%%%%%%%%%%%%%%%%%%%%%%%%%%qQ%%%%%%%%%%%
4838A00%%%%%%%%%%%%qQ%%%%%%%%%%%%%%%%%%%qQ%%%%%%%%%%%%%%%%%%%%%%%%%%%%%%%q%%
4831I2Q%%%%%%%%%%%%%%%%%%%%%%%%%%%%%%%%%%%%%%%%%%%%%%%%%%%%%%%%%%%%%%%%%%%%%
4825A00%%%%%%%%%%%%%%%%%%%%%%%%%%%%%%%%%%%%%%%%%%%%%%%%%%%%%%%%%%%Qq%%%%%%%%
4818A00%%%%%%%%%%%%%%%%%%%%%%%%%%%%%%%%%%%%%%%%%%%%%%%%%%%%%%%%%%%%%%%%%%%%%
4811A00%%%%%%%%%%%%%%%%%%%%%%%%%%%%%%%%%%%%%%%%%%%%%%%%%%%%%%%%%%%%%%%%%%%%%
4805A00%%%%%%%%%%%%%%%%%%%%%%%%%%%%%%%%%%%%%%%%%%%%%%%%%%%%%%%%%%%%%%%%%%%%%
4798A00%%%%%%%%%%%%%%%%%%%%%%%%%%%%%%%%%qQ%%%%%%%%%%%%%%%%%Qq%%%%%%%%%%%%%%%
4792A00%%%%%%%%%%%%%%%%%%%%%%%%Qq%%%%%%%%%%%%%%%%%%%%%%%%%%%%%%%%%QqQq%%%%%%
4785A00%%Qq%%%%%%%%%%%%%%%%%QqQq%%QqQqQq%Qq%%%%%%%%%%%%%%Qq%%%%Qq%%%Qq%%Qq%%
4778A00%%%%Qq%%%%%Qq%%%%%Q%q%%Qq%%%%%%%%%%%%%%%%%%%%%%%%%%%%%%%%%%%%%%%%%%%Q
4772A08q%%%%%%%Qq%QqQqQ%%qQ%q%%%%%%%%%%%%%%%%%%%%%%%%%%%%%Qq%%%%%%%%%%%%%%%%
4765A00%%%%%%%QqQ%%qQ%q%%%Qq%%%%%%Qq%Qq%%%%%%%QqQ%q%%Q%qQ%q%Qq%%%%Qq%%%%Q%%%
4759A08qQ%qQqQ%%%q%%Qq%%Qq%%%%Q%qQq%%%%%%Q%q%%Q%q%Q%%qQq%Q%%q%Q%%q%%%%%QqQq%
4752A00%%%%Qq%%%%%%%%%Qq%%Qq%Qq%%%Q%%q%%QqQqQ%qQqQ%q%QqQqQ%%q%%Qq%QqQq%K4k4%
4746A00Qj6Q%%%Q%%qQqQ%q%Qq%%%Q%qQqQ%%qQ%%%%qQq%%Q%q%Q%qQqQqQ%q%%Q%q%%%%Q%%%%
4739A08%q%Q%%%%%%qQ%qQ%qQ%%%q%QqQq%Q%%%%%%%%%%%qQ%%%%%%%%%%%%%%qQ%qQ%%%%%%%%
4733A08%%%qQ%%%%%%%qQqQq%QqQq%Q%%qQ%q%Qq%QqQqQ%%%%%%%%qQ%%%qQ%qQ%%%%qQ%%%%%q
4726A00Qq%%Q%%%%%%%%%%%%%%%%%%%%qQqQqQ%qQ%%%%%%%%qQ%q%QqQ%%q%%Q%%%%%%qQ%%%%%
4720A08%%qQ%qQqQ%%%%%%%%%%%%qQq%%Q%%%%%%%%%qQ%%%%%%%%%%%%%%%%%%qQqQ%%%%%%%%q
4713A00QqQ%%%qQ%%%%%%%%%%%%%%%%%%%%%%%%%%%%%%%%qQ%%%%%%%%%%%%%%%%%%%%%%%%%%%
4706A08%%%%%%%%%%%%%%%%%%%%%%%%%%%%%qQ%qQ%%%%%%%%%%%%%%%%%%%%%%%%%%%%%%%%%%%
4700A08%%%%%%%%%%%%%%%%%%%%%%qQ%%qQ%qQ%%qQ%%%%%%%%%%%%%%%%%%%%%%%%%%%%%%%%%%
4693A08%%%%%%%%%%%%%%%%%%%%%%%%%%%%%%%%%%%%%%%%%%%%%%%%%%%%%%%%%%%%%%%%%%%%%
4687A08Qq%%%%%%%%%%%%%%%%qQ%%%%%%%%%%%%%%%%%%%%%%%%%%%%%%%%%%%%%%%%%%%%%%%%%
4680A08%%%%%%%%%%%%%%%%%%%%%%%%%%%%%%%%%%%%%%%%%%%%%%%%%%%%%%%%%%%%%%%%%%%%%
4673A08%%%%%%%%%Qq%%%%%%%%%%Qq%%%%%%%%%%%%%%%%%%%%%%%%%%%%%%%%%%%%%%%%%%%%%%
4667A08%%%%%Qq%%Qq%%%%%%%%%%%%%%%%%%%%%%%%%%%%%%%%%%%%%%%%%%%%%%%%%%%%%%%%%%
4660A08%%%Qq%%%%%%%%%%%%%%Qq%%Qq%%%%%%%%%%%%%%%%%%%%%%%%%%Qq%%%%%%%%%QqQq%%%
4654A08%%Qq%%%Qq%%%%%%%%%%qQ%%%%%%Qq%QqQq%%%%Qq%%Q%qQqQqQ%q%Qj6K4qqj6L2%k4K4
4648A24k4K4j6QqQ%%qJ6j6%QqQq%%Qq%Qq%%%%Qq%%%QqQ%%q%QqQq%%QqQq%%%%%%%Qq%%%%%%
4642A08Qq%%%%Qq%%%Qq%%%%%%Q%q%%%Q%%%%%%qQqQq%Qq%%%%%Q%q%%%%%%%Qq%%%%%%Q%qQ%q
4635A08QqQqQ%%qQ%%qQ%%q%%QqQq%%%%%%Qq%%%%%%%%Qq%%Qq%%Q%%%q%Q%%q%%Q%%%q%QqQqQ
4628A16%%%%%%qQ%%%%%%qQ%%qQ%q%QqQ%q%Q%%%qQ%qQq%Qq%%Q%qQq%%Q%%%%%%qQ%%%qQ%qQq
4622A08Q%%%%%q%Qq%Q%q%%Q%%%qQq%Q%%q%%Q%%%qQqQ%%%%q%%%Q%%%%%%q%Q%%%%qQ%qQ%%%%
4615A16%%%qQ%%%q%Q%q%%QqQ%%%%%%%qQ%%%%%%qQqQ%q%%QqQ%qQq%%QqQ%%qQ%%q%Q%qQ%%%%
4609A16%qQ%%%%%%%%%%qQ%%%%%%%%%%%%%%%%qQ%%%%%%%%%%%%%%%%%%%%%%%%%%%%%%%%%%qQ
4602A16%%%%%%%%%%%%%%%%%%%%qQ%%%qQqQ%%%%%%%%%%%%%%%%%%%qQ%%%%%%%%%%%%%%%%%%%
4596A16%%%%%%%%%%%%%%%%%%%%%%%%%%%%%%%%%%%%%%%%%%%%%%%%%%%%%%%%qQ%%%%%%%%%%%
4589A16%%%%%%%%%%%%%%%%%%%%%%%%%%%%%%%%%%%%%%%%%%%%%%%%%%%%%%%%%%%%%%%%%%%%%
4582A16%%%%%%%%%%%%%%%%%%%%%%%%%%%%%%%%%%%%%%%%%%%%%%%%%%%%%%%%%%%%%%%%%%%%%
4576A16%%%%%%%%QqqQ%qQ%%%%%%%%%%%%%%%%%%%%%%%%%%%%%%%%%%%%%%%%%%%%%%%%%%%%%%
4569A16%%Qq%%%%%%%%%%%%%%%%%%%%%%%%%%%%%%%%%%%%%%%%%%%%%%%%%%%%%%%%%%%%Qq%%%
4563A16%%%%%%%%%%%%%%%%%%%%%%%%%%%%%%%%%%%%Qq%%%%%QqQq%%%%%%Qq%%%%%%%%%%%%%%
4556A16%%%%%%%Qq%%%%%%%%%%%%%%%%Qq%%%%%%%%%Qq%%Q%q%%Qq%%%%%%%%%QqqQ%Q%%qQq%%
4550A16%%%%%Qq%%%%%%%Q%q%%%%%%%%Q%q%QqQq%%%%%%%%Qq%Qq%%%%%%%Qq%%%Qq%%%%%%QqQ
4543A24%q%%Qq%Q%%qQ%%q%%%QqQqQ%%%%%%%%q%%%%%Q%%%%qQ%%q%QqQ%qQqQ%q%%Qq%Q%%%q%
4536A16%QqQ%q%Q%%qQ%%qQ%%q%%%%%Q%%qQq%%QqQ%q%%Q%qQqQqQ%%%qQ%%qQ%qQ%q%Q%qQ%%%
4530A24%qQq%Q%%%%qQ%%%%%%%%%%qQ%%%%q%QqQ%%qQ%qQqQ%%q%%Q%%%%%%%%%%%%%%%q%%Q%%
4523A24qQ%%qQ%%%%%%%%%q%Q%%%%%%%%%%%%%%%%%%%qQ%%%%%%%%%%%%%%%%%%%%%%%%%%%%%%
4517A24%%%%%%%%%qQ%%%%%%%%%%%%%%qQ%%%%qQ%qQ%%%%%%%%%%%%%%%%%%%%%%%%%%%%%%%%%
4510A24%%%%qQ%%%%%%%%%%%%%%%%%%%%%%%%%%%%%%%%%%%%%%%%%%%%%%%%%%%%%%%%%%%%%%%
4503A24%%%%%%%%%qQ%qQ%q%%%Q%qJ6q%qQ%%%%%%%%%%%%%%%%%%%%%%%%%%%%%%%%%%%%%%%%%
4497A24%%%%%%%%%%%%%%%%%%%%%%%%%%%%%%%%%%%%%%%%%%%%%%%%%%%%%%%%%%%%%%%%%%%%%
4490A24%%%%%%Qqq%Q%%%%%%%%%%%%%%%%%%%%%%%%%%%%%%%%%%%%%Qq%%%%%%%%%%%%%%%%%%%
4484A24%%%%%%%%%%%%%%%%%%%%%%%%%%%%%%%%%%%%%%%%%%%%%%%%%%%%%%%%%%%%%%%%%%%Qq
4477A24Q%q%%%%%%%%%%%%%%%%%%%%%%%%%%%%%%%%%%%%%%%%%%%%%%%%%%%%Qq%%Qq%Q%qQ%%q
4471A24%Q%q%%%Qq%%%%%%%%%%%%%%%%%%%%%%%%%%%%%QqQq%%%%%%%%%%%%%%%%%Qq%%%%Qq%%
4464A24QqQqQq%%Qq%%%Q%q%%Qq%%QqQqQ%q%QqQq%%%QqQq%%%%%Q%qQqQq%Q%q%%Qq%%%%Q%%%
4457A32q%%%%%Q%q%%%%%%%QqQ%qQ%%%qQ%q%%%Q%%%qQ%qQqQqJ6j6qK4%qqQ%%qQq%%%Q%qQ%q
4451A24Q%%%qQqQqQ%%qQ%%q%%QqQqQ%%%%%%%%%%%%%%qQq%Qq%Qq%%Q%qQ%%%%%%qQqQ%%%%%q
4445A24Q%qQ%qQqQq%Q%%%%%%%%%qQqQqQ%%qQ%qQ%%%%%%qQ%%%%%%%%%%%%%%%%%%%qQ%%%%%%
4438A32%%%%%%%%%%%%%%%%%%%%%%%%%%%%%%%%%%qQ%%%%%%%%%%%%%%%%%%%%%%%%%%%%%%%%%
4431A32%%%%%%%%%%%%%%%%%%%%%%%%%qQ%%%%%%%%%%%%%%%%%%%%%%%%%%%%%%%%%%%%%%%%%%
4425A32%%%%%%%%%%%%%%%%%%%%%%%%%%%%%%%%%%%%%%%%%%%%%%%%%%%%%%%%Qq%%%%%%%%%%%
4418A32%%%%%%%%%%%%%%%%%%Qj6Q%%%%%%%%%%%%%%%%%%%%%%%%%%%%%%%%%%%%%%%%%%%%%%%
4412A32%%%%%%%%%%%%Qq%%%%%%%%%%%%%%%%%%%%%%%%%%%%%%%%%%%%%%%%%%%%%%%%%%%%%%%
4405A32%%%%%%%%Q%%%%%q%%%Qq%%%%%%%%%%%%%%%%%%%%%%%%%%%%%%%%Qq%%%%%%Q%q%%%%Qq
4399A32%%%%%%%Qq%%%%%%%%%%%%%%%Qq%Qq%%%%%Q%q%%%%%%%%%%%%%%%%%%%%%%%Qq%%%%%%%
4392A32%%%%%%%%%%%%%Qq%%%%%%%%%%%%%%%%QqQq%%Q%q%%%%%%%Qq%Qq%Qq%%%%%Qq%%Q%qQq
4385A32%%%Qq%%Q%%qQq%%Qq%%%%Qq%%Qq%%%%%%Q%qQqQ%%%q%%%QqQqQ%qQqQ%%%qQ%%%%qQ%q
4379A32Q%qQqQq%QqQ%qQ%%qQqQ%%%%qQ%%%%%%%%qQ%%qQ%%%qQq%Q%%qQ%%%%%%%%%%%%%%%%%
4372A40%%%qQ%%qQ%q%Q%%%qQq%%Q%q%QqQ%%%qQ%%%%%%%%%%qQ%%%%%%%qQ%%qQ%%%qQ%%%%%%
4366A40%%%%%%%%%%%%%%%%%%%%%%%%%%%%%%%%%%qQ%%%%%%%%%%%%%%%%%%%%%%%%%%%%%%%%%
4359A40%%%%%%%%%%%%%%%%%%%%%%%%%%%%%%%q%QQq%Q%qqM0k4j6QQq%%%%%%%%%%%%%%%%%%%
4353A40%%%%%%%%%%%%%%%%%%%%%%%%%%%%%%%%%%%%%%%%%%%%%%%%%%%%%%%%%%%%%%%%%%%%%
4346A40%%%%%%%%%%%%%%%%%%%%%%%%%%%%%%%%%%Qq%%%%%%%%%%%%%%%%%%%%%%%%%%%%%%%%%
4340A40%%%%%%%%%%%%%%%%%%%%%%%%%%%%%%%%%%%%%%%%%%%%%%%%%%%%%%%%%%%%%%%%%%%%%
4333A40%%%%%%%%%%%%%%%%%%%%Q%qQqQq%%%%%%%%%Qq%Qq%%%%%%QqQ%q%%%Qq%%%%%%Qq%%Qq
4327A40%Q%%qQq%Q%q%%%Q%qQq%%%Q%qQq%%%%%%%Q%q%QqQq%%%%%%%Q%%%%%%q%%%%%%QqQ%%q
4320A40Q%%qQ%q%%Q%%%%%%%%qQqQqQ%%%%%%%%%%%%%%q%%%Q%%%%%qQ%qQq%Q%%%qQ%%%%%%%%
4313A48%%qQ%qQq%%QqQqQqQqQqQ%%%%%%%%%%%%%%%%%%%%%%q%QqQ%%%qQ%%qQ%%%qQ%%q%Q%%
4307A48%%%%qQ%%%qQ%%qQ%%%%%%%%%%%%%%%%qQ%%%%%%%%%%%%%%%%%%%%%%%%%%%%%%%%%%%%
4300A48qQ%%%%%%%%%%%%%%%%%%%%%%%%%%%%%%%%%%%%%%%%%%%%%%%%%%%%%%%%%q%Q%%%%%%%
4294A48%%%%%%%%%%%%%%%%%%%%%%%%%%%%%%%%%%%%%%%%%%%%%%%%%%%%%%%%Q%q%%%%%%%%%%
4287A48%%%%%%%%%%%%%%%%%%%%%%%%%%%%%%%%%%%%%%%%%%%%%Qq%%%Qq%%%Qq%%QqQq%%%%%%
4280A48%%%%%%%%%%%%%%%%Qq%%%%%%%%%%%%%%%%Qq%Qq%%%%%%%%%%Qq%%%%%%%Qq%%%%%%%%%
4274A48%%%%%%%%%%%%%%%%%%%QqQq%Q%%%%qQ%%qQ%%%q%Q%q%QqQq%Qq%%%%Qq%Qq%%%%%Q%%q
4267A48%%%%%%Q%qQq%%%Q%qQ%%q%Q%q%Qq%Qq%%%%%%Q%%%%%%%%%qQqQ%%q%%%QqQq%%Q%q%%%
4261A48Q%qQ%q%J6j6Q%%%%q%%qK4qj6J6Q%k4%L2m0qL2k4J6k4qL2m0M0J6k4J6J6k4%Q%Qj6J6
4256A64qqQQq%Q%qqQ%%q%QqQqQ%%%%qQ%q%Q%%%%qQ%%%%%qQ%qQ%qQ%%%%%qQ%%%qQ%%%%%%%%
4250A56%%%%%%%%%qQqQ%%%%%%%%%%%%%%%%%%%%%%%%%%%%%%%qQ%%%%%%%%%%%%%%%%%%%%%%%
4243A56%%%%%%%%%%%%%%%%%%%%%%%%%%%%%%%%%%%%%%%%%qQ%%%%%%%%%%%%%%%%%%%%%%%%%%
4236A56%%%%%%%%%%%%%%%%%%%%%%%Qq%%%%%%%%%%%%%%%%%%%%%%%%%%%%%%%%%%%%%%%%%%%%
4230A56%%%%%%Qq%%%%%%%%%%%%%Qq%%%%Qq%%%%%%%%%%%Qq%%%%%%%%%%%%%%%%%%%Qq%%%%%%
4223A56%%%%%%%%%%%%%%%%%%%%%Qq%%Qq%%%%%%%%%%%%%%%%%%%%%%%%%%%%%%%%%%%%%Q%q%%
4217A56%%%%%%QqQqQq%%%Qq%%%%Qq%Qq%%Q%%qQqQ%%%%%%%%%%%q%Q%q%Q%q%%Q%%%q%%Q%%qQ
4210A64qQq%Q%%%qQq%%%%%%QqQqQqQ%%%%qQq%Q%%%%%q%Q%qQ%%%%%%%%%%%%%%%%%%%%%%%%%
4204A64%%%%%%%%qQ%%%%qQ%%%%%%%%%%%%%%%%%%%%%%%%%%%%%%%%%%%%%%%%%%%%%%%%%%%qQ
4197A64%%%%%%%%%%%%%%%%%%%%%%%%%%%%%%%%%%%%%%%%%%%%%%%%%%%%%%%%%%%%%%%%%%%%%
4190A64%%%%%%%%%%%%%%%%%%%%%%%%%%%%%%%%%%%%%%%%%%%%%%%%%%%%%%%%%%%%Qq%QqQq%%
4184A64%%%%%%%%%%%%%%%%%%%%%%%%%%%%%%%%%%%%%%%%%%%%%%%%%Qq%%%%%%Qq%%%Q%qQqQq
4177A64%%%%%Qq%%%%%Qq%%Qq%%%%%%Q%%%q%%Qq%%%%%%Qq%%%%%%%%%Q%q%Qq%%Qq%%Q%qQ%q%
4171A64%%QqQqQ%q%QqQqQ%%qQ%%q%Q%q%%%%Q%qQqQqQ%%%%%%%%%%qQq%QqQqQ%%qQ%%qQqQqQ
4164A72%%q%%Qq%%Qq%%Q%qQ%%%%%%q%%QqQ%%%qQ%qQ%qQ%q%QqQq%QqQ%%%%%qQ%%%%%%%%%%%
4157A72%%%%%%%%%%%%qQ%%%%%%%%%%%%%%%%%%%%%%%%%%%%%%%%%%%%%%%%%%%%%%%%%%%%%%%
4151A72%%%%%%%%%%%%%%%%%%%%%%%%%%%%%%Qj6J6q%%%%%%%%%%%%%%%%%%%%%%%%%%%%%%%%%
4144A72%%%%%%%%%%%%%%%%%%%%%%%%%%%%%%%%%%%%%%%%%%%%%%%%%%%%%%%%%%%%%Qq%%%%%%
4138A72%%%%%%%%%%Qq%%%%%Qq%Qq%%QqQ%q%Qq%%%Q%qQqQq%%%%%%Qq%%%%%%Qq%%%%%%%%%%%
4131A72%%Qq%%Q%q%%%%%%Qq%%Qq%Q%q%Q%%qQ%%qQqQqQqQ%q%QqQqQ%%qQqQ%%qQqQ%q%Q%qQ%
4125A80%%%%%q%Qq%Q%q%%Q%%%%%%%%%qQ%%%%%%%%%%%%%%qQ%%%qQ%q%Q%%%%%%%%%%%%q%%Q%
4118A80%%%%q%Q%%%%%qQ%%%%%%%%%%%%%%%%%%%%%%%%%%%%%%qQ%%%%%%%%%%%%%%%%%%%%q%Q
4112A80%%%%QqqqJ6Qq%%%qQ%%%%%%%%%%%%%%%%%%%%%%%%%%%%%%%%%%%%%%%%%%%%%%%%%%%%
4105A80%%%%%%%%%%%%%%%%%%%%%%%%%%%%%%%%%%%%%%%%%%%%%%%%%%%%%%%%%%%%%%%%%%%%%
4099A80%%%%%%%%%%%%%%%%%%%Qq%%%%%%%%%%%%%%%Qq%Q%qQq%%%Q%q%%%%%%%%Qq%Qq%%Qq%%
4092A80%%%%Q%qQq%%%%%%%%%Qq%%%%%QqQq%%QqQqQ%%qQqQ%qQ%%qQ%qQ%qQq%Q%%%qQqQ%%qQ
4085A88%%%%%%%%%%%%qQ%%%%%qQ%%%%%%%%q%%Q%%%%%q%Q%%qQ%%%qQ%%%%%%%%%%%%%%%%%%%
4079A88%%%%%%%%%%%%qQ%%%%%%%%%%%%%%%%%%%%%%%%%%qQ%%%%qQ%%%%%%%%%%%%%%%%%%%%%
4072A88%%%%%%%%%%%%%%%%%%%%%%%%%%%%%%%%%%%%%%%%%%%%%%%%%%%%%%%%%%%%%%%%%%%%%
4066A88%%Qq%%%QqQq%%%%%%Qq%%%%%Q%qqQ%qQ%Qj6J6qq%J6qQqQq%%%%%%%%%%%%%%%%%%%%%
4059A88%Q%%q%%%%%%%Qq%%%%%Q%q%%%%%Q%q%QqQqQ%q%%%%Qq%Q%q%QqQ%%%qQqQ%qQ%q%Q%%%
4053A96%%qQqQqQq%Q%%%qQ%%%%%q%%Q%%qQ%qQ%%q%%Q%qQqQ%%%q%Q%%%%%%qQ%%%%%%%%%%%%
4046A96%%%%%%%%%%%%%%%qQ%%qQ%%%%%%%%%%%%%%%%%%%%%%%%%%%%%%%%%%%%%%%%%%%%%%%%
4040A96%%%%%%%%%%qQ%%%%%%%Qq%Qq%%%%%%%%%%%%%%%%%%%%%%%%%%%%%%%%%%%%%%%%%%%%%
4033A96%%%%%%%%%%%%Qq%%%%%%%%%%%%%%%%%%%%%%%%%%%%%%%%%%%%%%%%%%%%%Qq%Qq%%%%%
4026A96%%%Q%q%%QqQ%%q%Qq%%%%%Qq%%%%%%Q%q%%%%%QqQq%Q%%%q%%Q%%q%Q%%%qQq%Q%qQqQ
4020B04%qQqQ%%%%%%qQqQ%%%%%%q%Q%%%%%qQqQ%qQq%QqQ%%%%%qQqQ%%%%%%%qQ%%qQQqQqqJ6
4013B12j6Q%%%qQ%%%%%%qQqQ%qQ%%%%%%%%%%%%%%%%%%%%%%%%%%%%%%%%%%%%%qQ%%%%%%%%%
4007B04%%%%%%%%%%%%%%%%%%%%%%%%%%%%%%%%%%%%%%%%%%%%%%%%%%%%%%%Qq%%%%%%%%Qq%%
4000B04%%%%%%%%%%%%QqQq%%%Qq%%%%%%%%%%%%%%Qq%%%%%%%%%%%%QqQqQq%Qq%%%%QqQq%Qq
3994B04%%%%QqQq%Qq%%Q%%qQ%qQqQ%%q%%QqQ%q%%QqQqQ%%%%qQq%QqQq%QqQ%%%%%q%Q%%%%%
3987B12%%%%%%%%%%%%%%%%%%%%%%%%%%%%%%%%qQ%%%%%%%%%%%%%%%%%%%%%%%%%%%%%%%%%%%
3980B12%%%%%%%%%%%%%%%%%%%%%%%%%%%%%%%%%%%%%%%Qq%%%%%%%%%%%%%%%%%%%%%%%%%%%%
3974B12%%%%%%%%%%%%%%%%%%%%%%%%%%%%%%%%%%%%%%%%%%%%%%%%%%%%Q%q%%%%Qq%%%%%%%%
3967B12Qq%Qq%%%Qq%Qq%%%%%QqQ%%qqQ%K4j6qQq%%%%%QqQqQq%%%Q%%qQ%%qQqQq%%%%Q%%%%
3961B20%qQq%%%Qq%Q%q%Q%%q%Q%q%Q%qQ%q%Q%qQ%%%%%%%%%%%%%%%%%%%qQ%%%%%%%%%%%%%%
3954B20%%%%%%%%%%%%%%%%%%%%%%%%%%%%%%%%%%%%%%%%%%%%%%%%%%%%%%%%%%%%%%%%%%%%%
3948B20%%%%%%%%%%%%%%Qq%%Qq%%%%%%%%%%%%%%%%%%%%%%%%%%%%%%%%%%%%%%%%%%%%%%%%%
3941B20%Qq%Q%%%%q%Qq%%QqQq%%%%%%%%%%%%%%Qq%Qq%%%%%%Q%%q%%%%%%%%%%%%%Q%%%qQ%%
3935B28%%%qQ%%%%%%%%%%%%%%%%%%%%%%%%%%%%%%%%%%%%%%%%%%%%%%%qQ%%%%%qQ%%%%%%%%
3928B28%%%%%%%%%%%%%%%%%%%%%%%%%%%%%%%%%qQ%%%%%%%%%%%%%%%%%%%%%%%%%%%%%%%%%%
3921B28%%%%%%%%%%%%%%%%%%%%%%%%%%%%Qq%%%%%%%%%%%%Qq%%%%%Q%q%%%%%QQ%j6Q%%%q%Q
3915B36q%Qq%Qq%Qq%%Qq%%%Q%qQq%%Q%q%Qq%%Qq%%Qq%%Q%%q%Qq%Q%q%Q%qQ%%%%%%qQ%%%%%
3908B36%%qQ%%%%%%%%%%%%%%%%%%%%%%%%%%%%%%%%%%%qQ%%qQ%%%q%QqQqQ%%%%%%%%%%%%%%
3902B36%%%%%%%%%%%%%%%%%%%%%%%%%%%%%%%%%%%%%%%%%%%%%%%%%%%%%%%%%%%%%%%%%%%%%
3895B36%%%%%%%%%%%%%Qq%%%%%%%%%%%%%%%%Qq%%%%%%Q%qQ%q%%Qq%%%Q%q%%Qq%%%%Q%q%%Q
3889B44q%%Q%%q%%%%%Q%q%%%Q%%qQ%%%%%%%%%%%%%%%%%%%%%%%%qQ%qQ%%%%%%%%%%%%%%%%%
3882B44%%%%%%%%%%%%%%%%%%%%%qQ%%%qQ%%Qq%%%%%%%%%%%%%%%%%%%%%%%%%%%%%%%%%%%%%
3875B44%%%%%%%%%%%%%%%%%%%%%%%%%%Qq%%%%%%%Qq%%%%%%%Qq%%%%%QqQq%Qq%%Qq%%%%%Q%
3869B52qQq%%Q%%%%j6%J6qQ%q%%%L2l2QqJ6qqQj6QQj6QQq%%Q%%q%%%%Q%%%%%qQ%%%%qQ%%%
3863B52%%%%%%%%%%%qQ%%%%%%%%%%%%qQ%%%%%%%%%%%%%%%%%qQ%%%%%%%%%%%%%%%%%%%%%%%
3856B52%%%%%%%%%%%%%%%%%%%%%%%%%%%%%%%%%%%%%%%%%%%%%%%%%%%%%%%%%%%%%%%%%%%Qq
3850B52%%%%%%%%%%%%%%Qq%%%%%%%%%%%%QqQ%q%%%QqQq%%QqQ%%%%qQq%%%%%%QqQ%%%%%%qQ
3843B60%qQqQ%%%%%%%%%Qq%%%%%%%%%%%%%%%%%%%%%%%%%%%%%%%%%qQ%%%%%%%%%%%%%%qQ%%
3837B60%%%%%%%%%%%%%%%%%%%%%%%%%%%%%%%%%%%%%%%%%%%%%%%%%%%%%%%%%%%%%%%Qq%%%Q
3830B68q%Qq%%%%%%%%%%%%%%%%%%%%%QqQ%qQqQ%%qQq%Qq%%Qq%%%%Qq%%QqQ%q%%Q%qQqQ%qQ
3823B68qQ%%%%%%qQ%%%%%%%%%%%%%%%%%q%Q%%%%%%%%%%%%%%%%%qQ%%%qQj6Q%%QqQ%%qQ%%%
3817B68%%%%%%%%%%%%%%%%%%%%%%%%%%%%%%%%%%%%%%%%%%%%%%%%%%%%Qq%Qq%%%%%%%%%%Q%
3810B76q%%%%%%%%%%%%%%%%%%%%%%%%Qq%%%%%Qq%%Qq%Q%%qQ%q%Q%qQ%%%%%q%Q%qQqQ%%%%%
3804B76%%%%qQ%%q%Q%q%QqQ%%%%%%%%qQ%qQ%%%%%%%qQ%%%%%%%%%%%%%%%%%%%%%%%%%%%%%%
3797B76%%%%%%%%%%%%%%%%%%%%%%%%%%%%%%%%Q%q%%%%qQ%%%%%%%%%%%%%%%%%%%%%%%%%%%%
3791B76Qq%%%%%%%%%%%%%%QqQqQ%%qQq%Q%%%qQ%%qQ%%%%%%%%%%qQ%%%qQ%%%%%%%%%%%%%%%
3784B84%%%%%%%%%%%%%%%%%%%%%%%%q%Q%%%%%%%%%%%%%%%%%%%%%%%%%%%%%%%%%%%%%%%%%%
3778B84%%%%%%%%%%%%%%%Qq%%%Qq%QqQq%%%%Qq%%%%%%Q%q%%%%%%%%%%%%%%Q%q%%%%%Q%%qQ
3771B92%%%qQ%%q%%Q%%Qqq%K4k4Q%q%Q%%%%%%qQ%%qQ%%%qQqQ%%%%%%%%%%%%%%%%%%%%%%%%
3765B92%%%%%%%%%%%%%qQ%%%%%%%%%%%%%%%%%%%%%%%%%%%%%%%%%%%%%%%%Qq%%%%%%%%%%%%
3758B92QqQ%q%Qq%%%%%%Q%%q%Qq%%Qq%QqQq%Q%%%qQq%QqQ%%%%%%%%%qQ%%%qQqQ%%%%%%%%%
3751C00%%%%%%%%%%%%%%%%%%%%%%%%%%%%%%%%%%%%%%%%%%%%%%%%%%%%%%%%%%%%%%%%%%%%Q
3745C08q%%%%%%%%%%%%%%%%%%%%%%%Q%q%%Qq%%%Qq%%%%Qq%%%%%%Qq%%%QqQ%qQq%Q%qQ%%%q
3738C00Q%%%%%%%%%%%%qQ%%%%%%%%%%%%%%%%%%%%%%%%%%%%%%%%%%%%%%%%%%%%%%%%%%%%%%
3732C08%%%%%%%%%%%%%%%%%%%%%%%%%%%%%%%%%%%%%%%%%%%%%%%%Qq%%%%Qq%%%%%%%%QqQ%%
3725C16%%q%%%%Qq%%Q%qQ%qQq%Qq%Q%qQ%q%Q%%q%%Qq%Q%%%%%j6QJ6q%%%%%%%%%%%%%%%%%%
3719C16%%%%%%%%%%%%%%%%%%%%%%%%%%%%%%%%%%%%%%%%%%%%%%%%%%%%%%Qq%Q%q%%%%%%%%%
3712C16%Qq%Q%qQqQqQqQqQqQq%Qq%%%QqQq%%Q%%qQ%q%%Q%q%Qq%QqQ%%%%%%%%%%%%%%%%%%%
3706C24%%%%%%%%%%%%%%%%%%%%%%%%%%%%%%%%%%%%%%%%%%%%%%%%%%%%%%%%%%%%%%%%%Qq%%
3699C24%Qq%%%%%%%%%%%%Qq%Q%qQq%%%QqQ%%%%%%%%%q%Q%%%%%qQ%%%%%%%%%%%q%Q%%%%%%%
3692C32%%%%%%%%%%%%%%%%%%%%%%%%%%%%%%%%%%%%%%%%%%%%%%%%%%%%%%%%%%%%%%%%%%%%Q
3686C40q%%%%%%%%Qq%QqQq%%Q%%%%q%%%%Qq%%Q%%qQq%Q%qQ%%qQ%qQ%%%%%%%%%%%%%%%%%%%
3679C40%%%%%%%%%%%%%%%%%%%%%%%%%%%%%%%%%%%%%%%%%%%%%%%%%%%%Qq%%%%%%Q%qQq%%%%
3673C40QqQq%%qQ%J6l2K4qJ6j6Qq%Q%%%%qQ%qQ%qQ%%%%%%%%%%%%%%%%%qQ%%%%%%%%%%%%%%
3666C48%%%%%%%%%%%%%%%%%%%%%%%%%%%%%%%%%%%%%%%%%%%%%Qq%%%%%%%%%%%%%%Qq%Q%q%Q
3660C56%qQq%%Q%q%%%%Q%%qQ%qQqQ%%%%qQ%%qQ%%%%%%%%%%%%%qQ%%%%%%%%%%%%%%%%%%%%%
3653C56%%%%%%%%%%%%%%%%%%%%%%%%%%%%%%%%%%%%%%%%%%%%%%Qq%%Qq%%%%Q%%q%%QqqQQ%%
3647C64%%%%%qQqQqQ%%%%qQ%%%%qQ%%%%%%%%%%%%%%%%%%%%%%%%%%%%%%%%%%%%%%%%%%%%%%
3640C64%%%%%%%%%%%%%%%%%%%%%%%%%%%%%%%%%%%%%Qq%%%%%%QqQ%%%qQ%%%%q%%Q%%%qQ%%%
3634C72%%%%%%%%%%%%%%%%%%%%%%%%%%%%%%%%%%%%%%%%%%%%%%%%%%%%%%%%%%%%%%%%%%%%%
3627C72%%%%%Qq%%%Q%%%qQqQ%%%%%%%q%%Q%%%qQqQ%qQ%%%q%QqQqQq%QqQ%%%%%%%%%%%%%%%
3620C80%%%%%%%%%%%%%%%%%%%%%%%Qq%%%%%%%%%%%%%Qq%Qq%%%%%%Qq%%%%%%%%%%QqQ%%%%%
3614C88%%q%%QqQ%%%%%%%qQqQqQ%%%%%%%%%%%q%Q%%%%%%%%%%%%%%%%%%%%%%%%%%%%%%%%%%
3607C88%%%%%%%%%%%%%%%%%%Q%q%%%%Q%%%qQ%%%%%%qQ%%%%qQ%%%%%%%%%%%%%qQ%%%%%%%%%
3601C96%%%%%%%%%%%%%%%%%Qq%%qQ%%Qq%%%%Qq%%Qq%%%%%%%Q%%%%q%%%%%%Qq%%Qq%%%%Qq%
3594C96%QqQ%%%qQ%qQ%%qQ%%%%%%%%%%%%%%%%%%%%%%%%%%%%%%%%%%%%%%%%%%%%%%%%%%%%%
3588D04%%%%%%QqQqQ%q%%%%Qq%Q%q%Q%qQ%%qQ%%qQ%%%qQ%qQ%qQ%%%%%%%%%%%%%%%%%%%%%%
3581D12%%%%%%%%%%%%%%%%%%%%%%%%%Qq%%%%Qq%%%%QqQq%Qq%%%QqQ%%%q%%%%Qq%Q%qQ%qQQ
3574D28qQj6Q%%%%%%%%q%Q%%%%%%%%%%%%%%%%%%%%%%%%%%%%%%%%%%%%%%%%%Qq%%%%%Q%q%%
3568D20%QqQ%q%%QqQ%%%%%%qQ%%%qQ%%%%%%%%%%%%%%%%%%%%%%%%%%%%%%%%%%%%%%Qq%%%%%
3561D28%%%%%%%%%%%%%%%%%%%%%%%%%%QqQq%%QqQ%%qQ%%%%%%%%%%%%qQ%%%%%%%%%%qQqQ%%
3555D36%%%%%%%%%%%%%%%%%%%%%%%%%%%%%%%%%%%%%%%%Q%q%%%Q%q%QqQqQ%%%q%%%%%%%Q%%
3548D44q%%QqQ%%%%%%%%qQ%%%%%%%%%%%%%%%%%%%%%%%%%%%%%%%%%%%%%%%%%%%Qq%QqQqQ%%
3542D52%%%%%%qQqQ%%%%%%%%%%%%%%qQqQ%%%%%%%%%%%%%%qQ%%%%%%%%%%%%%%%%%Qq%%%%%%
3535D52%%%%%%%%%Qq%Q%%q%%%Q%%%%qQ%%%%%%%%%%%%%%%%%%%%%%%%%%%%%%%%%%%%%%%%%%%
3528D60%%%%%%%%%%%%%%%%Qq%%%Qq%Qq%Q%%%qQj6K4q%%%%%%qQ%%%%%%%%%%%%%%%%%%%%%%%
3522D68%%%%%%%%%%%%%%%%%%%%%%%%QqQq%%%%Q%qQ%%qQ%%%qQ%%%%%%%%%qQ%%%qQ%qQ%%%%%
3515D76qQ%%%%%%%%%%%%%%%%%Qq%%%%%Qq%%%%%%Qq%%Qq%Qq%%%%%%Q%q%%%%Q%%%%%%%%%%%%
3509D84%%%%%%%%%%%%%%%%%%%%%%%%%%%%%%%%%%%%%%%%%%%Qq%Qq%%%%%%%%%%Q%q%Q%%%%%%
3502D92%%%%%%%%%%%qQ%%%%%QqQqQq%%%%%%%%%%%%%%%%%%%%Q%q%QqQqQ%%qQ%%%%%%%qQ%%%
3496E00%%%%%%%%q%Q%%%%%qQ%%%%%%%%%%%%%%%%%%%%%%%%%Qq%%QqQ%%qQ%%%%%%%%%%%%%%%
3489E08%%%%qQ%qQ%%%%%%%%%%%%%%%%%%%%%%%%%%%%%%%%Qq%%%Qq%%%QqQq%Qq%%Qq%Q%%qQq
3483E08%%QqQqQ%qQ%%%%%%%%%%%%%%%%%%%Qq%%%%%%%%%%Q%%qQ%qQ%%qQQqqQ%J6j6QJ6l2k4
3476D92J6Q%K4m0QJ6%Qk4J6%qQq%QQj6Q%%%qQ%%%%%%%Qq%%%Qq%%%%QqQ%q%Q%qQqQqQqQ%%%
3471E32qQ%qQ%%%%%%%qQqQ%%%%%%%%%%%%%%%%%%%%%%%%%%%%%%%Qq%%QqQ%q%%%QqQ%qQ%%%%
3464E40qQqQ%%%%%%%%%%%%qQ%%%%%%%%%%%%%%%%%%%%%%%%%%QqQqQ%%%q%QqQ%q%Q%qQ%%%%%
3457E48%%%%%%%%%%%%%%%%%%%%%%%%%%%%%%%%%%%%%%%QqQ%%%%%%%q%Q%%q%QqQ%Qq%qQ%%%%
3451E56%%%%%%%%%%%%%%%%%%%%%%%%%%%QqQqQ%q%%Qq%%Q%qQ%qQ%%%%%qQ%%%%%%%%%%%%%%%
3444E64%%%%%%%%%Qq%%%Qq%%%Qq%%%Q%qQq%Qq%%Q%%%%%%qQ%qQ%%%%%%%%%%%%%%%%%%%%%%%
3438E72%%%%%%%%%%%%%Q%qQ%%%qQ%%%%%%%%%%%%%%%%%%%%%%%%%%%%%Qq%%%%%%%%%%%%%QqQ
3431E88q%Qq%QqQ%%%%%%%%%%%%%%%%%%%%%%%%%%%J6k4QqQ%%%%Q%q%Qq%%%Qq%Q%%%qQqQ%%%
3425E96%%%%%%%%%%%%%%%%%%%%%%%%%%%%%%Qq%%Qq%%%Q%qQqQq%%QqQqQ%%%%%%%%%%%%%%%%
3418F04%%%%%%%%%%%%%%%%%%%%Q%q%Q%qQqQq%QqQ%%%%%%%%%qQ%%%%%%%%%%%%%%%%%%%%%%Q
3411F20q%%%Q%%%%%qQ%%%%%%%%%%qQ%%%%%%%%%%%%%%%%%%%%%%%%%%%%%%%QqQ%q%QqQqQ%%%
3405F28%%%%%%%%%%%%%%%Qq%%%%Q%%q%%%%%Qq%%%%%%%%%%%%%%QqQ%%%%%qQ%%%%%%%%%%%%%
3398F36%%%%%%%%%%%%Qq%QqQq%Qq%Q%qQ%%%%%%%%%%%%%%%%%%%%%%%%%%%%%%%%%%%%Qq%%%%
3392F44%QqQ%%q%Q%%%%%%%%%%%%%%%%%%%%%%%%%%%%Qq%Q%%%%%q%Q%%%qQq%Q%%%%%%%%%%%%
3385F60%%%%%%%%%%%%%%%%%Qq%%QqQ%%%%%%%qQ%%%%%%%%%%%%%%Qq%%%%%Qq%Qq%%Q%qQq%%Q
3379F76%q%QqQqQ%q%Q%%%qQ%%%%%%%%%%%%%%%%%%Q%qQq%%%Q%%%%%%%%%%%%%%%%%%%%%%%%%
3372F84%%%%%%%Q%%qQq%Q%%%%%%%qQ%%qQ%%%%%%%%%%%%%%%%%%%%QqQ%q%%QqQ%q%Q%%%%%%%
3365G00%%%%%%%%%%%%%%%%%%%%%%%%%%%%Q%%%qQ%%%%%%qQ%%%%%%%%%%%%%%%%%%%%%%Qq%%%
3359G08Q%%%%%%%%%%%%%%%%%%%%%%%%%%%%%%%%Qq%Qq%%%QqQqQq%Q%%q%Q%%%%%%%%%%%%%%%
3352G24%%%%%%Qq%%%QqQ%qQ%%%%%%%%%%%%%%%%%%%%%%%%%%%%%%%%Qq%%QqQ%%qQ%%%%%%%%%
3346G40%%%%%%%%%%%%%Qq%%%%Q%qQ%%%%%%qQ%%%%%%%%%%%%%%%%%%%%Qq%QqQ%%q%Q%%%%%%%
3339G56%%%%%%%%%%%%%%%%%%%%%%%%%Qq%Q%qQ%%%%%%%%%%%%%%%%%%%%QqQ%qQ%%qQ%%%qQ%q
3333G64Q%%%%%%%%%%%%%%%%%%%%%%QqJ6qq%J6q%qQ%%%%%%%%%%%%%%%%%%%%%%Q%qQ%qQqQq%
3326G80Q%qQqQ%%%%%%%%%%%%%%%%%%%%%Q%%%%%%%qQ%%%%%%%%%%%%%%%%%%%%%%%%%%%%Q%qQ
3320H04%%q%Q%%%%%%%%%%%%%%%%%%%%%%Qq%%QqQqQq%Q%%%%%%%%%%%%%%Qq%Qq%%Qq%%Qq%%%
3313H12QqQ%qQ%%%%%%%%%%Qq%%%%%%%%%%%Qq%%Q%%%%%%%%%%%%%%%%%%%%%%%%%%%%%%Q%%%q
3306H28QqQ%%%Q%%qQq%%%Q%q%QqQq%%Q%%%%%%%%%%%%%%%%%%%%%%%%%%%%%QqQ%%%%%%%%%%%
3300H52%%%%%%QqQq%Q%%%%%%qQ%%%%%%%%%%%%%%%%%%%%%Qq%Qq%Q%%%%%%%%%%%%%%%%%%QqQ
3293H76q%%%%%Qq%Q%%%%%%%%%%%%%%%%%%%%%%Q%%%%%%%%%%%%%%%%%%%%%%%%%%%%%Q%qQq%Q
3287H92qQ%q%Q%%%%%%%%%%%%%%%Qq%Qq%Q%%%%%%%%%%%%%%Qq%%%%%%%%qJ6qQ%%q%QqQ%%qJ6
3280I16q%%%%Qq%%%Q%qQqQ%%qQ%%%%%%%%%%%%%%%%%%%Q%qQ%%qQ%%%%%%%%%%%%%%%Qq%Qq%Q
3274I32qQ%%%%%%%%%%%%%%%%%%%%Qq%QqQ%%%%%%%%%%%%%%%%%%Qq%QqQ%qQ%%%%%%%%%%%%%%
3267I48%%%%%%QqQ%%%%%%%%%%%%%%%%%%%Qq%QqQqQqQ%%%%%%%%%%%%%%%%%%%%%%%%%%Q%%%%
3261I72%%%%%%%%%%%%%%%%%Q%%%%%%%%%%%%%%%%%Qq%%Q%%%%qQqQ%%%%%%%%%%%%%%%%%QqQ%
3254I96%qQ%%%%%%%%%%%%%%%%%%%%%QqQqQ%%%%%%%%%Qq%%Q%q%Q%%%%%%%%%%%%%%%%%%%%Q%
3247A020qQ%%%%%%%%%%%%%%%QqQq%Qq%QqQ%qQ%%%%%%%%%%%%QqQ%%%%%%%%%%%%%%%%%%QqQq
3241A036%Q%qQ%%%%%%%%%%%%Qq%QqQ%qQ%%%%%%%%%%%%%%%%Q%%qQ%%%%%%%%%%%%%%%%%Q%qQ
3234A068%%%%%%%%%%%%%Qq%%%QqQq%QqQ%%%Qq%%Qq%%QqQq%%Q%%%qQ%%%%%%%%%%%Q%%%%%%%
3228A092%%%%%%%%%%%%%Q%%%qQ%%%%%%%%%%%%%%%Q%%%%%%%%%%%%%%%%%Qq%%Q%qQ%%%%%%%%
3221A116%%%%%%Qq%%Q%%%%%%%%%%%%%%%Qq%QqQ%%%%qQ%%%%%%%%%%%Q%%%%%%%%%%%%%%%%Qq
3215A140Q%%%qQ%%%%%%%%%%%Q%qQqQ%%%%%%%%%%%%%%%%%QqQ%%%%%%%%%%%QqQ%%q%Q%%%%%%
3208A172%%%Qq%Qq%QqQq%Q%%%%%%%%%%%%%Q%%%%%qQ%%%%Qq%%%Q%%%qQ%%%%%%%%%%Qq%%%Q%
3202A204%%%%%%%%%%%%%Q%%%%qQ%%%%%%%%%%%QqQ%qQ%%%%%%%%%%%%%Q%%%%%%%%%%%%%%%Qq
3195A228Q%%%%%%%%%%%%%%%%Q%%%%%%%%%%%%%Q%%qQ%%%%%%%%%%%Q%%%%%%%%%%%%%%%%QqQq
3189A260QqQ%%%%%%%%%Qq%%%Q%%%%%%%%%%%%%Q%%%qQ%%%%Qq%%%%Q%q%%%%Q%qK4q%%Qj6%Q%
3183A300%%%%%%%%%%%%QqQqQ%%%%%%%%%%%%%%%Q%%%%%%%%%%%%Qq%%Q%qQ%%%%%Q%q%QqQ%%%
3176A332%%%%%Q%qQ%%%%%%%%%%%%%Qq%Q%%%%%%%%%%%%%Q%%%%%%%%%%Qq%%%%QqQ%%%%%%%%%
3170A364%%%%Q%%%%%%%%%%%QqQqQ%%%%%%%%%%%%Q%%%%%%%%%%%%Q%%%%%%%%%%%%Q%%%%%%%%
3163A404%%Qq%%Q%%%%%%%%%%%%%QqQ%%%%%%%%%%QqQqQ%%%%qJ6q%Q%%qQ%%%%%%%%%%QqQqQ%
3157A444%%%%%%%Q%%%%%%%%%%%%%%%Q%%%%%%%%%%%%Q%%%%%%QqQq%QqQ%%%%%%%%%%%%%Q%%%
3150A484%%%%%%%QqQ%%%%%%%%%%%%%Q%%%%%%%%%%Q%%%%Qq%%%QqQqQ%%%%%%%%%%Q%%%%%%%%
3144A524%%QqQ%%%%%%%%%%Q%%%%%%%%%%%%Q%%%%%%%%%%Q%%%%%%%%%%%%%Q%%%%%%%%%%Q%qQ
3137A572%%%%%%%%Q%qQ%%%%%%%%Q%%%%%%Q%q%Q%qQ%%%%%%Q%%%%%%%%%%%%%%QqQ%%%%%%%%Q
3131A620qQ%%%%%%%QqQ%%%%%%%%%Qq%%Q%qQ%%%%%Q%%%%%%%%%QqQ%%%%%%%QqQ%%%%%%%%%Qq
3124A660Q%%%%%%Qq%QqQ%%%%%QqQ%%qQ%%%%QqQqQ%%%%%%%%Q%%%%%%%%%%QqQ%%%%%%%Q%%%%
3118A716%%%%%%%%Q%%%%%%%Qq%Q%%%%%%%Q%%%%%%%%%%Q%%%%%%%%Q%%%%%%%%QqQ%%%%%%%Q%
3111A772%%%%%%%%QqQ%%%%%Q%qQqQ%%%%%%QqQ%qQ%%%%%Q%%%%%%%%%%QqQ%%%%%%QqQ%%%%%%
3105A820Q%%%%%%%%%%Q%%%%%%%%Q%%%%%%%%%Q%%%%%%QqQ%%%%%%%Q%%%%%%%%Q%%%%%%%%Q%%
3098A884%%%%Q%qQ%%%%%QqQ%%%%%%%Qq%Q%%%%%%%Q%%%%%%%%Q%%%%%%%Q%%%%%%%%Q%%%%%%Q
3092A948qQqQ%%%%%%Q%%%%%%%%%Q%Qq%%QqQ%%%%QqQ%%%%%Qq%QqQ%%qQ%%qQ%Q%qJ6q%%Qq%J6
3086B012%Qqq%Q%%Q%%%%%Qq%Q%%%%%%%%%Q%%%%%QqQ%%%%%%%Q%%%%%%%Q%%%%%Q%%QqQqQ%qQ
3079B076%%%%%Q%%%%%%%%%Q%%%%%%%Q%%%%%Q%%%%%%%Q%qQ%%%%%Q%%%%%Q%%%%%QqQ%%%%Qq%
3073B140QqQ%%%%Q%%%%%Q%%%%%%%Q%%%%%%QqQ%%%%%%Q%%%%%Q%%%%%%QqQ%qQ%%Q%%%%%%Q%%
3066B220%%%%QqQ%%%%%Q%%%Q%%%%%%%Q%%%%%%%Q%%%%%%%Q%%%%%Q%%%%%QqQ%%%QqQ%%%%%%Q
3060B300%%%%%Q%%%%%%Q%%%%%%Q%%%%Q%%%%%%Q%%%%%%Q%%%%%Q%%%%%%%%Q%%%Q%%%%Q%%%%%
3053B380%%Q%%%%%Q%%%%%Q%%%%%%Q%%%%%%Q%%%%Q%%%%%Q%q%Q%%Q%%%%%Q%%%%QqQ%%%QqQ%%
3047B468%%Q%%%%%%Q%%QqQ%%%%Q%%%%%%Q%%%%%Q%%%%Q%%%%%QqQ%%Q%%%%%%%Q%%%%Q%%%%Q%
3040B564%%%%Q%%%%%Q%%%%Q%%%%%%Q%%%%%QqQ%QqQ%Q%qQ%Qq%%Q%%Q%%%%%%Q%%%%%Q%%%Q%%
3034B660%%%Q%%%%Q%%%%Q%%%%Q%%%%QqQ%%%Q%%%%%Q%%%%Q%%%Q%%%%Q%qQ%%Q%%%%%Q%%%Q%%
3027B764%%%Q%%%%Q%%%Q%%%%Q%qQ%%QqQ%Q%%%Q%%%%%%Q%%%Q%%%%Q%%%QqQ%%%%Q%%Q%%%%%Q
3021B876%%%%Q%%QqQ%%%Q%%%Q%qQQqQ%%%Q%%%Q%%%%%Q%%%%Q%%%Q%%%%Q%%QqQ%%%Q%%QqQ%%
3014B988Q%%%%%Q%%Q%qQ%%Q%%QqJ6qQqQ%%Q%%%%%%Q%Q%%%%Q%%%Q%%%%Q%%%Q%%%%Q%%%Q%%%
3008C108Q%QqQ%%%%Q%%Q%%%%Q%%Q%%%%Q%%%Q%%%Q%%%Q%%%%Q%Q%%%%%Q%%Q%%%Q%%Q%%%%%Q%
3001C244%Q%%%QqQ%%Q%QqQ%%%Q%Q%%%%%Q%%Q%%%Q%%Q%%%%Q%%Q%%%%Q%%Q%%%%Q%Q%%%%Q%%Q
2995C388%%%%QQ%%%%%Q%%Q%%%Q%Q%%%%Q%%%Q%%%Q%%Q%%%Q%%Q%%%Q%%Q%%%Q%%Q%%Q%%%%QqJ6
2988C540q%Q%J6q%Q%Q%%QqQ%%Q%%%Q%%Q%%%Q%%Q%%%Q%%Q%%Q%%Q%%%Q%Q%%%Q%%%Q%%Q%%%Q%
2982C692%Q%%Q%%%Q%%Q%%Q%%Q%%Q%%%Q%%Q%%Q%%Q%%Q%%Q%%Q%%%Q%Q%%%%Q%%Q%Q%%%Q%Q%%%
2976C860Q%%Q%Q%%Q%%Q%%Q%%%Q%Q%%QqQ%Q%%Q%Q%%%Q%Q%%Q%%Q%Q%%%Q%%Q%%Q%%Q%Q%%Q%%%
2969D044Q%Q%%Q%%Q%%Q%%Q%%Q%%QQ%%%Q%%Q%Q%%Q%%Q%%Q%Q%%Q%%Q%Q%Q%%Q%%%QQ%%%Q%Q%%
2963D244Q%%Q%%Q%%Q%Q%Q%%%Q%Q%Q%%Q%%Q%Q%%Q%%QQ%Q%%%Q%Q%%Q%Q%Q%%Q%Q%%Q%%Q%Q%%Q
2956D460%Q%%%QQ%%Q%Q%Q%%Q%Q%%Q%Q%%Q%Q%%Q%Q%Q%%Q%Q%Q%Q%%QQqQ%Q%Q%Q%%Q%Q%Q%Q%%
2950D684Q%Q%%Q%Q%Q%Q%%Q%Q%Q%Q%Q%%Q%Q%Q%%Q%Q%Q%%QQ%Q%Q%%Q%Q%Q%Q%Q%Q%Q%%Q%Q%Q%
2943D932Q%Q%Q%Q%%Q%Q%Q%Q%Q%Q%Q%Q%Q%Q%Q%Q%%QQ%%J6q%QQQ%Q%%Q%Q%Q%Q%QQ%%Q%Q%Q%Q
2937E196Q%Q%Q%%QQQ%%Q%Q%Q%Q%Q%Q%QQ%%QQ%Q%QQqQQQ%%QQ%Q%QQ%%QQ%%QQ%Q%QQ%Q%Q%Q%
2930E484Q%Q%Q%Q%J6%%Q%QQ%%QQ%QQ%Q%Q%QQ%QQ%%Q%QQ%QQ%Q%QQ%Q%Q%Q%QQ%QQ%Q%QQ%%QQ
2924E796%QQ%QQ%Q%QQ%Q%QQ%Q%QQ%Q%QQ%QQ%QQ%Q%QQ%QQ%QQ%Q%QQ%QQ%Q%QQ%QQ%QQ%QQ%Q%
2917F132QQ%QQ%QQQ%QQ%Q%QQ%QQQ%Q%J6%Q%QQ%QQQ%%QQQQ%QQ%QQ%Q%QQQQ%Q%QQQQ%QQ%QQQ
2911F508Q%Q%QQQ%QQ%QQQQ%QQ%Q%QQQQQ%Q%QQQQ%QQQ%QQ%QQQ%QQQQ%QQQ%J6%Q%J6%QQQ%QQ
2905F900Q%QQQ%QQQQ%QQQQ%QQQQ%QQQQQ%QQQ%J6%QQQQQ%QQQ%QQQ%J6%J6%QQQQ%QQQQQQ%QQ
2899G324QQ%QQQQQQQ%J6%QQQQQ%QQQQQQQQ%QQQQQQQ%J6%QQQQQQQQQ%J6%QQQQQQQQQQQ%QQQ
2892G788QQJ6qJ6QJ6%QQQQ%QQQJ6%J6QQ%J6qJ6QJ6Qj6K4QQ%J6QQ%J6QQQQQQQQQQQQQQQQQQ
2887H228QQQQQQQQQQQQQJ6%J6QQQ%J6QQQQQQQQQQQQJ6%J6QQQQQQQJ6%QJ6QQQQQQQQJ6QQQQ
2881H740QQQJ6Q%J6QQQQJ6QQQQQQQJ6QQQQQJ6QQQQQQJ6QQQJ6%J6QQQJ6QQQQJ6%J6QJ6QQQQ
2876I260QJ6QQQJ6QQQJ6QQQJ6QQQJ6QQQJ6QQQJ6QQQJ6QQJ6QQQJ6QQJ6QQJ6QQQJ6QQJ6QQJ6
2871I804QJ6QQQJ6QQJ6QQJ6QQJ6QJ6QQJ6QQJ6QJ6QQQJ6J6QQJ6QJ6QQJ6QJ6QJ6QJ6QQQK4QQ
2866A0356J6QQJ6QJ6QQJ6QJ6QJ6QJ6QQJ6J6QQJ6QJ6J6QJ6QQJ6J6QQJ6J6QJ6QJ6QJ6J6QJ6Q
2862A0892J6QJ6QJ6QJ6J6J6QQJ6J6QJ6QJ6J6QJ6J6QJ6J6QQJ6J6QJ6J6QJ6J6QJ6J6QJ6QJ6J6
2858A1436J6QJ6QJ6J6J6QJ6QK4QJ6QJ6J6J6QJ6J6J6QJ6J6J6QJ6J6J6QJ6QK4J6QJ6J6J6J6Q
2854A1988J6J6QK4QJ6J6QJ6J6J6J6J6QJ6J6J6J6J6J6QJ6J6J6J6J6J6J6QK4QJ6J6J6J6J6J6
2850A2540J6QK4QK4QJ6J6J6J6J6J6J6J6J6J6J6J6J6J6J6J6J6J6J6J6J6J6J6J6J6J6J6J6J6
2847A3092J6J6J6K4QK4J6J6J6J6J6J6J6J6J6K4J6J6J6J6J6K4QJ6J6K4J6J6K4J6J6J6J6J6K4
2844A3692J6J6J6J6J6J6K4J6J6K4J6J6J6J6J6K4J6K4J6QJ6M0QJ6K4QK4J6K4J6K4J6J6J6K4
2840A4324J6J6K4J6J6K4J6K4J6J6K4J6K4J6J6K4J6K4J6K4J6K4J6J6K4J6K4J6K4J6K4J6K4K4
2837A4988J6J6K4J6K4J6K4J6K4J6K4K4J6K4J6K4K4J6K4K4J6K4J6K4K4J6K4K4J6K4J6L2J6J6
2834A5684K4K4K4J6K4K4K4J6K4K4J6K4K4K4J6K4K4K4K4J6K4K4K4K4J6K4K4K4K4K4K4J6L2J6
2831A6444K4K4K4K4K4K4K4J6K4K4L2K4K4J6L2J6K4K4K4L2J6K4K4K4K4K4K4L2J6L2K4K4K4K4
2827A7260K4K4K4L2K4K4K4K4K4L2K4K4K4L2J6L2K4K4K4K4L2K4L2K4K4K4L2K4K4K4L2K4K4L2
2824A8140K4K4L2K4K4L2K4L2K4K4L2K4L2K4L2K4L2K4L2K4L2K4L2K4L2K4L2K4L2K4L2L2K4L2
2821A9084K4L2L2K4L2K4L2L2L2K4L2L2K4L2L2L2K4L2L2L2K4L2L2L2L2L2K4L2L2L2K4M0K4L2
2818B0100L2M0K4K4M0L2L2L2L2K4M0L2L2L2L2L2L2L2L2M0L2K4M0L2L2L2L2L2L2L2M0L2L2L2
2814B1204M0L2L2L2M0L2L2M0L2M0L2L2M0L2L2M0L2L2M0L2M0L2M0L2M0L2L2M0L2M0M0L2M0M0
2811B2412L2L2M0M0M0L2M0M0L2M0M0L2M0M0M0L2M0M0M0L2M0M0M0M0M0M0M0M0M0M0M0M0M0L2
2808B3708M0M0M0M8M0M0M0M0M0M0M0M0M8M0M0M0M0M8M0M0M0M8M0M0M8M0M0M8M0M0M8M0M8M0
2805B5132M8M0M8M0M0M8M8M0M8M0M8M0M8M8M0M8M8M8M8M0M8M0M8M8M8M8M8M8M0M8M8M8M8M8
2802B6684M8M8M8M8M8M8M8N6M0N6M8M8M8N6M8M8M8M8N6M8M8M8N6M8M8N6M8N6M8N6M8N6M8N6
2798B8388M8N6N6M8N6N6M8N6M8O4M8N6M8N6N6N6N6N6N6M8O4N6M8N6O4N6N6N6N6N6N6N6O4M8
2795C0252O4N6O4M8O4O4N6N6O4M8O4O4N6N6O4N6O4O4N6N6Q0M0Q0O4M8O4P2N6N6O4N6Q0N6P2
2792C2324N6O4O4P2O4N6P2O4O4O4O4P2O4O4O4P2O4P2O4O4P2O4P2O4P2P2P2O4P2O4P2P2O4P2
2789C4596P2P2P2P2P2P2P2P2P2P2P2P2P2P2Q0P2P2P2Q0P2Q0P2P2Q0Q0P2Q0Q0P2Q0P2Q0Q0P2
2785C7124Q8P2Q0Q0Q0Q0Q0Q0Q0Q0Q0Q0Q8Q0Q0Q0Q8Q0Q8Q0Q0Q8Q8Q0Q8Q0Q8Q8Q8Q0Q8Q8Q8Q8
2782C9948Q8Q8Q8Q8Q8Q8Q8Q8R6Q8Q8R6Q8R6Q8Q8R6R6Q8R6R6Q8R6R6R6R6R6R6R6R6R6R6R6J04
2779D3100R6R6J04R6R6J04J04R6J04R6J04J04R6J04J04J04J04J04J12J04J04J04J04J12J04
2776D5660J04J12J04J12J04J12J12J12J04J12J12J12J12J12J12J12J12J12J12J20J12J20J12
2774D8220J20J20J12J20J20J12J20J20J20J20J20J20J28J20J20J28J20J20J28J20J28J28J28
2772E1012J20J28J36J28J28J20J36J28J28J28J36J36J28J36J28J36J36J36J36J36J36J36J36
2770E4044J36J44J36J36J44J44J36J44J44J44J36J52J36J52J44J44J52J44J44J52J52J52J44
2768E7356J52J52J52J52J60J52J52J52J60J60J52J60J60J52J68J52J60J60J68J60J68J60J68
2765F0988J68J68J60J76J60J76J68J68J68J76J68J76J76J68J76J84J68J84J76J84J76J84J76
2763F4972J84J84J84J84J84J84J92J84J92J84J92J92J92J92J92J92K00J92J92K00K00K00K00
2761F9364K00K08K00K00K00K08K08K08K08K08K08K16K08K16K08K16K08K24K16K16K24K16K24
2759G4212K24K24K24K24K24K32K24K32K32K32K32K32K40K32K40K32K40K40K40K40K48K40K48
2757G9588K48K48K48K56K48K48K56K56K56K56K64K56K64K64K56K64K72K64K72K64K80K72K72
2754H5572K72K80K72K88K80K80K80K88K88K80K96K88K96K88K96K96K96L04K96L04L04L04L12
2752I2260L04L12L04L20L12L20L12L20L20L28L20L28L28L28L28L36L36L36L36L36L44L44L44
2750I9756L44L52L44L52L52L60L60L60L60L68L60L68L68L68L76L76L76L84L76L84L84L84L92
2748A08204L92M00L92M00M00M00M08M08M00M16M16M16M16M24M16M24M32M32M32M32M32M48
2746A17340M40M48M48M48M48M56M56M56M64M72M64M80M72M72M80M88M80M88M88M96N12M80
2744A27676N04N04N12N12N12N12N20N28N20N36N28N36N44N44N44N52N44N60N60N60N68N68
2742A39444N68N84N76N84N84O00N92O00O00O08O08O16O16O24O24O32O32O40O40O40O56O48
2740A52916O64O56O72O72O72O80O88O88O88P04O96P12P12P20P12P36P28P36P36P52P52P52
2737A68444P60P68P68P84P76P92P92Q00Q00Q08Q16Q24Q24Q32Q40Q40Q56Q48Q64Q72Q72Q80
2735A86460Q88Q96Q96R04R12R28R20R36R36R44R52R60R68R76R76R92R92J008J008J016J032
2733B06500J032J040J048J056J064J072J088J088J096J112J112J120J136J144J152J152J168
2732B25180J176J192J192J208J208J232J232J248J248J264J280J280J296J304J320J328J336
2730B46524J344J360J376J376J400J408J408J432J440J456J464J480J488J504J520J520J544
2728B71044J560J560J592J592J608J624J640J656J664J680J696J712J728J744J760J768J792
2727B99420J808J824J840J856J872J888J904J928J944J960J976K000K016K032K056K072K096
2725C32492K112K136K152K184K192K216K240K264K280K304K328K360K368K400K424K448K464
2724C71364K504K520K544K576K592K632K656K680K704K736K760K800K824K848K880K920K936
2722D17476K984L008L040L072L104L144L168L216L240L288L312L352L392L432L464L512L544
2720D72748L584L632L664L712L760L792L840L896L928L984M024M080M120M176M216M272M328
2719E39756M384M432M480M544M600M656M704M776M832M888M960N016N080N152N208N280N352
2717F22100N416N496N568N632N712N784N864N944O032O104O192O272O360O456O536O632O720
2715G24820O824O920P016P112P216P320P432P536P648P752P880P984Q112Q240Q352Q488Q608
2714H55260Q752Q880R016R160R304R448R592R752R912J0064J0224J0400J0560J0736J0920
2712A001980J1088J1288J1472J1664J1864J2064J2272J2488J2704J2928J3152J3384J3616
2711A161964J3872J4112J4376J4632J4904J5176J5456J5744J6048J6344J6656J6976J7304
2710A363564J7640J7984J8336J8704J9072J9456J9840K0256K0664K1088K1528K1984K2440
2709A622556K2912K3400K3912K4424K4960K5496K6072K6648K7248K7864K8504K9152K9824
2707A962972L0520L1240L1984L2736L3536L4344L5192L6048L6952L7872L8832L9824M0840
2706B422892M1912M3000M4136M5312M6528M7792M9096N0448N1864N3312N4832N6400N8032
2705C065556N9720O1496O3319O5224O7209O9272P1416P3656P5992P8432Q0952Q3607Q6377
2704D002228Q9264R2280R5432R8736J02191J05817J09592J13568J17744J22112J26704J31536
2703E307204J36600J41952J47560J53487J59729J66304J73255J80609J88360J96584K05280
2702G156924K14488K24280K34648K45680K57416K69896K83216K97408L12568L28776L46128
2701A0171428L64704L84648M06064M29096M53896M80664N09544N40783N74648O11369O51287
2699A5578131O94744P42159P93960Q50682R12936R81375J056825J140160J232470J335009
2699B5318451J449146J576613J719448J879960K060945K265832K498592K764152L068416L418671
2698D8020226L823851M295057M846134N494575O262601P178606Q279502R613524J1244392
2697A09058468J3257601J5768793J8937017K2983557K8220752L5095517M4254930N6643677
2696C44220312P3642162R7234807J30120824J75409547K34749048L02006089L48728530L10920289
2695B017031608J30452039j30451841l10920487l48728530l02006089k34749048j75409547
2695F45218105j30120824r7234807p3642162n6643677m4254930l5095493k8220789k2983544
2694A57021879j8937030j5768805j3257576j1244411r613505q279502p178606o262595n494581
2693F0985268m846147m295044l823851l418671l068425k764134k498601k265823k060960j879954
2692C0063658j719438j576642j449134j334992j232480j140160j056825r81383r12928q50682
2691A7808994p93960p42150o94753o51287o11369n74648n40783n09544m80656m53904m29088
2690A1326852m06072l84648l64704l46128l28776l12568k97408k83208k69904k57416k45680
2689G830340k34656k24272k14488k05280j96576j88368j80609j73255j66304j59729j53487
2688E733316j47568j41936j36608j31536j26713j22103j17744j13568j09600j05809j02191
2687D377940r8736r5432r2280q9256q6376q3616q0952p8432p5992p3656p1416o9272o7209
2686C315315o5224o3327o1480n9728n8032n6400n4832n3320n1848n0456m9096m7792m6528
2684B597252m5312m4136m3000m1912m0840l9824l8832l7872l6952l6056l5184l4344l3528
2683B089460l2744l1984l1232l0528k9824k9160k8496k7864k7248k6648k6072k5504k4952
2682A717204k4424k3904k3408k2920k2432k1976k1536k1088k0664k0256j9840j9464j9064
2681A436228j8704j8336j7984j7640j7304j6976j6656j6352j6040j5744j5464j5168j4904
2679A218956j4632j4376j4112j3872j3624j3376j3152j2928j2704j2480j2280j2064j1864
2678A047492j1664j1472j1280j1096j0920j0736j0560j0400j0224j0072r904r752r592r448
2677I00372r304r160r016q880q744q616q488q360q224q112p992p880p752p648p544p424p320
2675G59908p216p112p024o912o816o728o632o536o456o360o272o192o112o016n944n872n784
2674F49924n712n640n560n496n416n344n288n216n144n080n016m952m896m832m768m720m648
2672E62196m600m544m488m424m384m320m272m224m176m128m072m024l984l928l880l848l800
2670D91100l752l712l672l624l592l544l512l464l432l392l352l320l280l240l216l176l136
2669D32684l104l072l048l008k976k936k920k880k856k816k792k768k736k712k680k648k632
2667C84100k600k568k544k520k496k472k448k424k400k368k360k328k304k280k264k240k216
2665C43268k192k176k160k128k120k096k072k048k040k016k000j976j968j936j928j904j888
2664C08620j880j856j840j816j808j792j768j760j744j728j712j696j680j672j648j640j624
2662B78956j608j600j576j568j560j544j528j512j504j496j472j464j456j440j424j424j400
2661B53380j400j376j376j360j344j336j336j312j304j296j280j280j264j256j240j232j224
2659B31164j216j208j192j192j168j176j152j160j136j128j128j112j112j096j088j088j064
2657B11748j072j056j048j040j032j024j024j008j000j000r84r84r76r68r60r52r44r44r28
2656A92804r28r20r12r04q96q96q88q80q72q72q56q56q56q40q40q32q24q24q16q08q00q00
2653A73884p92p84p84p84p68p60p68p52p52p44p44p36p36p20p20p20p12p12o96o96o96o88
2651A57620o88o80o72o72o72o56o64o48o56o48o32o40o40o24o24o24o16o16o08o08o00o00
2649A43532n92n92n92n76n84n76n76n68n68n60n60n52n52n52n44n44n44n36n28n28n28n28
2647A31252n12n20n20n04n12n04n04n04m88m88m96m88m88m80m80m72m80m64m72m64m64m64
2645A20484m56m56m48m48m56m40m40m40m40m32m32m32m32m24m24m16m24m08m16m08m16m00
2643A10996m08m00m00m00l92m00l92l84l92l84l84l76l84l76l76l76l68l68l68l60l68l60
2641A02580l60l60l52l60l44l52l52l44l52l36l36l44l36l36l36l36l28l28l28l28l20l28
2639I5084l20l20l12l20l12l12l12l12l12l04l04l04l04k96l04k96k96k96k96k88k88k88k88
2637H8100k88k88k80k88k80k72k80k80k72k72k72k80k64k72k64k72k64k64k56k64k56k64k56
2634H1852k56k56k56k48k48k56k48k48k48k48k40k48k40k40k40k40k40k32k32k40k32k32k32
2632G6252k32k32k24k32k24k24k24k24k24k24k16k24k16k16k16k16k16k16k08k16k08k08k08
2630G1204k08k08k08k00k08k08k00k00k00k00k00k00j92k00j92k00j92j92j92j92j92j84j92
2628F6644j92j84j92j84j84j84j84j84j84j84j76j76j84j76j76j76j76j76j76j76j76j68j76
2626F2500j68j68j68j76j68j68j60j68j68j68j60j60j68j60j60j68j52j60j60j60j60j60j52
2623E8740j60j52j52j52j60j52j52j52j44j60j44j52j52j36j52j52j44j44j44j44j52j36j44
2621E5308j44j44j36j44j36j44j36j44j36j36j36j36j36j36j36j36j36j28j36j28j36j28j36
2619E2164j28j28j28j36j28j28j20j36j20j28j28j20j28j28j20j28j20j20j20j20j28j20j20
2617D9284j20j20j20j12j20j20j20j12j20j12j20j12j12j20j12j12j12j12j12j12j12j12j12
2615D6636j12j04j12j12j04j12j04j12j04j04j12j04j04j12j04j04j04j04j04r6j04j04j04
2612D4196r6j04j04r6j04j04r6r6j04r6r6j04q8j04r6r6r6r6r6r6r6q8r6r6r6r6r6q8r6q8
2610D1292q8r6r6q8q8q8q8r6q8q8q8q8r6q0q8q8q8q8q8q8q0q8q8q0q8q0q8q0q8q8q0q0q8q0
2606C8332q0q8q0q0q0q0q0q0q0q0q0q0q0q0q0p2q0q0q0p2q0p2q0q0p2p2q0q0p2p2p2q0p2p2
2603C5684p2q0p2p2p2p2p2p2p2p2p2p2p2p2p2o4p2p2p2o4p2p2p2o4p2o4p2o4o4p2o4p2o4p2
2600C3292o4o4o4p2o4o4p2o4o4o4o4o4o4n6p2o4o4n6o4o4o4p2o4n6n6n6o4n6p2o4n6n6p2n6
2597C1140n6o4n6o4n6o4n6n6o4n6n6o4n6n6o4m8o4n6n6n6n6n6n6n6n6n6n6n6n6n6n6n6n6n6
2593B9188n6n6m8n6m8n6n6n6m8n6n6m8n6m8o4m8m8n6m8n6m8n6m8m8n6m8n6m8m8n6m8m8m8n6
2590B7412m8m8m8m8m8m8m8n6m8m8m8m8m8m8m8m8m0n6m8m0m8m8m8m8m8m0m8m8m8m8m8m0m8m0
2587B5804m8m8m0m8m8m0m8m0m8m8m0m0m8m0m8m0m8m8m0m0m8m0m0m0m8m0m0m8m0m0m8m0m0m0
2584B4324m0m0m8m0m0m0m0m0m0m0m8m0m0m0m0m0m0l2m8m0l2m0m0m0m0m0m0l2m8l2m0m0m0l2
2580B2972m0m0m0m0l2m0l2m0m0l2m0m0m0l2m0m0l2l2m0l2m0m0l2m0l2l2m0l2m0l2m0l2l2m0
2577B1724l2m0l2m0l2l2m0l2l2m0l2l2l2m0k4m0l2l2l2m0l2l2l2l2l2l2m0k4l2m0l2l2l2l2
2574B0580l2l2l2l2l2l2m0k4l2l2k4m0l2k4l2l2l2l2l2l2l2l2l2l2k4l2l2k4l2l2l2l2l2k4
2571A9524l2l2k4l2l2l2k4l2l2k4l2k4l2l2k4l2l2k4l2k4l2k4l2k4l2k4l2k4l2k4l2k4l2k4
2567A8548l2k4l2k4k4l2l2k4k4l2k4k4l2k4k4l2k4k4l2k4k4l2k4k4k4l2k4k4k4l2k4k4k4k4
2564A7644l2k4k4l2j6l2k4k4k4k4k4l2k4k4k4k4k4k4k4k4k4k4l2k4k4k4k4k4k4k4k4k4k4k4
2561A6796k4j6k4l2j6k4l2j6l2j6k4k4k4k4j6k4k4k4k4k4k4k4k4j6k4k4k4k4j6k4k4k4k4k4
2558A6012j6k4k4k4k4j6k4j6k4k4k4j6k4k4k4j6k4k4j6k4j6k4k4k4j6k4j6k4j6k4k4j6k4j6
2554A5292k4k4j6k4k4j6k4j6j6k4k4j6k4j6k4j6k4j6k4j6k4j6k4j6j6k4k4j6k4j6j6k4j6j6
2551A4612k4j6k4j6k4j6j6k4j6j6k4j6k4j6j6k4j6j6k4j6j6k4j6j6k4qk4k4qk4j6k4qk4k4
2548A3948qk4j6j6k4j6j6j6j6k4j6j6j6j6j6k4j6j6j6k4j6j6j6j6j6k4j6j6j6j6j6j6j6k4
2545A3356j6j6j6j6j6j6j6j6k4qk4qk4j6j6j6j6j6j6j6j6j6j6j6j6j6j6j6j6j6j6j6j6j6j6
2541A2788j6j6j6j6j6j6j6j6j6j6j6j6j6qj6j6j6j6j6j6qk4j6qj6j6j6j6j6j6qk4qj6j6j6
2538A2236j6j6j6qj6j6j6j6qj6j6j6j6j6qj6k4%k4qj6j6j6qj6j6j6qj6j6j6qj6j6j6j6qj6
2534A1692j6qj6j6qj6j6qk4qj6qj6j6j6qj6qj6j6qj6j6j6qj6j6qj6j6qj6qj6qj6j6qj6j6q
2530A1148j6qj6j6qj6j6qj6qj6j6qj6qj6qj6qj6qj6qj6j6qj6qj6qj6j6qj6qqj6j6qqj6j6q
2526A0612qj6qj6qj6qj6j6qqj6qj6qqj6qqqk4qj6j6qqqj6qqj6j6qqqj6qj6qj6qqj6qj6qj6
2522A0068qqj6qj6qqj6qqj6qj6qqj6qqqj6qqj6qqj6qqj6qqj6qqj6%j6qqj6qqj6qj6qqqj6q
2517I540qqj6qqqj6qqqj6qqqj6qqqj6qqqqj6qqqj6qqqj6qqqj6qqqqqj6qqqqqj6qqj6%qj6q
2512I004qqqj6qqqqqqqj6qqqqqj6qqqqqqj6%j6qqqj6%j6qqqqqqqqqj6q%j6qqqqqqqqqj6qq
2506H484qqqqqqqqqqqqj6qq%j6%j6qqqqqqqqqqqqqqqqj6%qqj6%qqqqqqqj6q%qqj6qq%qq%j6
2500G988j6qQj6Qqk4%qj6q%qj6%qqj6%qqqqqqq%j6q%qqqqqqqqqqqqqqq%qqqqq%j6%qj6%qq
2495G548qq%j6q%qqqqqq%qqqqqqqq%qqqqqqq%qqqqqq%qqqqq%qqqqqq%qqqq%qqq%j6%qqqqq
2488G092%qqqq%qqq%qq%j6%j6%qqq%qqqqq%qqq%qqq%qqqq%qqq%qqq%qqq%q%j6%qqqq%qq%q
2482F692qq%qq%qqq%qqq%qqq%qq%qqq%qqq%qqq%qq%qqq%qq%qqq%qqq%q%qq%qq%qq%qq%qqq
2476F300%j6%%j6%%qqq%q%qqq%q%qq%qqq%q%qqq%q%qq%q%qq%qq%qq%q%qq%qq%qq%qq%q%qq
2469E956q%qq%q%qq%q%q%qqq%q%q%qq%qq%q%qq%q%qq%q%q%qq%qq%q%q%q%qq%q%qq%q%qq%q
2463E628%qq%q%q%qq%q%q%qq%q%q%q%q%qq%q%qq%%q%qq%q%q%qq%q%%qq%q%q%q%qq%%qqq%%
2456E332q%q%qq%q%q%q%q%q%q%q%q%q%qq%%qq%%qq%q%%q%q%qq%q%qq%%q%q%qq%Qj6%%qq%%
2450E060qq%%q%qq%%q%q%q%q%q%%qq%%q%q%qq%%%q%qq%%qq%%q%q%q%q%q%%qq%%q%q%q%q%%
2444D804q%q%q%q%q%%q%q%%q%q%q%q%q%%q%q%q%%q%qq%%%q%q%q%%%qq%%q%q%q%q%%q%q%q%
2437D564%q%q%q%%q%q%q%%q%q%%q%q%%q%q%%q%q%%q%q%q%%%q%q%%qq%%q%%q%q%%q%%q%q%%
2431D348q%q%q%%q%%q%q%%%q%q%%qqQq%q%%q%%q%q%%q%q%%q%q%%q%%%q%q%q%q%%%q%q%%q%
2424D140%q%%q%q%%q%%q%qQq%q%q%%q%q%%%q%%%qq%%q%%%q%q%q%%%q%%q%%q%%q%%q%%q%%q
2418C948%%q%q%%q%%q%%q%%q%%%q%q%%%q%q%%q%%q%%q%%%q%%q%%q%%q%%q%%%q%q%%%q%%q%
2411C772%q%%%q%%q%%%q%q%%%q%%q%q%%qQq%q%%%q%%q%%%q%%q%q%%%%q%q%%%q%%q%%%%q%q
2405C604%%%q%%q%q%%%q%%%q%%%q%qq%J6j6QQqk4QqQj6Qq%%%q%%%%q%%q%%%q%%%q%%q%qQq
2399C460%%q%%%q%%q%%%q%%q%%%q%%qQq%q%%%%q%%q%%%q%%q%%%q%%%q%%q%%%q%%%%q%%q%%
2392C316%q%%q%%%q%%%q%%q%%%%q%%%%q%%q%%%q%%q%%%%%q%%%q%%%q%%%q%%%q%%%%q%%q%%
2386C180%q%%%q%%q%%%%%q%%%q%%%q%%%q%%%q%%%q%%%%q%%qQq%%%q%%%q%%%q%%%%q%%%q%%
2379C052%%q%%qQq%%%q%%q%%%%%q%%q%%%%q%%%%q%%%q%%%q%%%%q%%%q%%%%%q%%%q%%%%q%%
2373B932%q%%%%q%%%%qQq%q%%%q%%%%%q%%%%q%%q%%%%%q%%%q%%%%%q%%%%q%%%%%q%%%q%%%
2366B820q%%%qQq%%q%%%qQq%%%%q%%%%q%%%q%%%%%q%%%qQq%%%%q%%%%q%%%qQq%%%%q%%%%q
2360B708%%%q%%%%%q%%%%q%%%%%q%%%%q%%%q%%%%%%%q%%%q%%%%qQq%%%q%%%%qQq%%%q%q%%
2353B604Qq%Qq%q%%%%q%Qq%%q%%%%%%q%%%%q%%%%%qQq%%%q%%%%%q%%%q%%%%%q%%%%%q%%%%
2347B516%qQq%%q%Qq%%%q%%%qQq%%%%%q%%%%q%%%%%%q%%%%%q%%%%qQqQq%%qQqqQqQ%q%%%%
2340B428q%%%%%q%%%%q%%%%%%%q%%%%%%q%%%qQq%%%%%q%%%%q%%%%%%%q%%%%%%q%%%q%%%%%
2334B340%%q%%%%qQq%%%%q%%%%%%q%%%%%%%q%%%qQq%Qq%%%qQqqQ%qQq%Qq%%q%%%%%q%%%%%
2327B260%%q%%%%%%q%%%%q%Qq%%%%%q%%%%%%q%%%%q%%%%%%%%q%qQ%%%q%%%%q%%%%%%%%q%%
2321B180%%%%q%%%%%qQ%q%%%%%%q%%%%%q%Qq%%%%q%Qq%%qQq%%%%%%q%%%%%q%%%%%%%%q%%%
2314B108%%%q%%%%%%%qQq%%%%%%q%%%%%q%Qq%%%%%%%q%Qq%%%%q%%%%%qQq%%%%%q%%%%%%qQ
2308B044q%%%qQqQq%%%Qq%q%%%Qq%%%%qQ%qq%J6l2qK4%J6q%qqJ6q%qqQ%%q%Qj6%QqQq%%%%
2302A980%qQq%%%%%%%%q%%%%%%%%q%%%%%%q%%%%%qQq%%%%%%%%%%q%%%%%%%q%%%%%%%%%q%%
2295A916%%%%q%%%%%%%qQq%%%%%%qQ%q%%%%%%%%qQj6Q%%%q%%%%%%%q%%%%%%%%%%qQq%%%%q
2289A852%%%%%%%%qQ%q%%%%%%%q%%%%%%%%q%%%%%%%%%q%%%%%%%%%%q%%%%%%%%%q%%%%%%%%
2283A804%%q%%%%%%%q%%%%%%q%Qq%Qq%qQqQ%qQq%%%%%%%q%%%%%%%%qQq%%%%%%q%%%%%%%%%
2276A748%q%%%%%%%%qQq%%%%%%%%q%%%%%%%%%%q%%%%%%%%%%%q%%%%%%%%%%qQq%%%%%%%q%%
2270A692%%%%%%%q%%%%%%%%%%q%%%%%%%%%q%%Qq%%%%%%%q%%%%%%%%%q%%%%%%%%q%Q%q%%%%
2263A644%%%qQq%%%%%%%%qQqQq%%%%%%%%q%%%%%%%%%%%%qQq%%%%qQ%%q%%%%%%%%%q%%%%%q
2257A588Q%%%q%%Qq%qJ6qqQ%qQq%%%%%%%%%q%Qq%%%%%%%%%q%%%%%%%%%%%q%%%%%%%%%%%q%
2250A548%%%%%%%%%%%%q%%%%%%%%%%qQq%%%%%%%%%q%%%%%%%%%%%%%%q%%%%%%%%%qQqQq%%%
2244A508Qq%%%%%q%%%%%%%%%%q%Qq%%%%%%%%qQqQq%%%%%%%%qQq%%%%%%%%%%%%q%Q%q%%%%%
2237A468%%%%qQq%%%%%%%%%qQq%%%%%%%%%%%%%q%%%%%%%%%%%q%%%%%%%%%%%%%qQq%%%%q%Q
2231A428%qQ%qQ%q%%%%%%%%%%q%%%%%%%%%%%%qQ%q%%%%%%%%%%q%%%%%%%%%%%%qQ%qQq%%%%
2224A388%%%%%qQ%%q%%%%%%%%%%q%%%%%%%%%%qQ%%%%q%%%%%%%%%qQ%%q%%%%%Qq%%%qQ%%q%
2218A348%%%%%%%%%%%%%%%q%%%%%%%%%%%%%%%q%%%%%%%%%%%%%qQ%q%%%%%%%qQq%%Qq%%%%%
2211A316%%%qQqQ%q%%%%%%%%%%qQqQqQq%%%%%qQ%%%%%qQ%q%%%J6j6Qq%q%Qq%%%Qq%%%%%%%
2205A284%%%q%Q%q%%%%%%%%%%%%%qQ%q%Qq%%%%%%%%%%%%q%Qq%%%%%%%%%%%%qQ%q%%%%%%%%
2199A252%%qQ%q%%%%%%%%%%%%%%%%q%%%%%%%%%%%%%%%q%Q%%q%%%%%%%%%%%%%%%%q%%%%%%%
2192A220%%%%%%q%%%%%%%%%%%%%%%%%%%q%%%%%%%%%%%%qQ%qQq%%%%%%%%%%%%%%%%q%QqQq%
2186A188%%%%%%%qQ%q%%%%%Qq%%%%%%%%%qQ%q%Qq%%%%%%%%%%%qQ%qQq%%%%%%%%%%%%%%%%%
2179A164%%q%%%%%%%%%%%%%q%%%%%%%%%%%%%%%%%qQq%%%%%%%%%%%%%%%%%qQ%q%%%%%%%%%%
2173A132%%%qQqQ%%%%q%%%%%%%%%%%Qq%%qQqQ%q%%%%%%%%%%%%%%%%%qQq%%%%%%%%%%%%%q%
2166A100%%Qq%%%%%%%%%%%%%%qQq%Qq%%%%%%%%%%%%%%%%%%%%q%%%%Qq%%%%%%%%%%%%%%%%%
2160A084qQq%Qq%%%%%%%%%%qQq%Q%q%%%Qq%%%%%%%%%%qQq%%%%%%%%%%%%%%%%%%%qQqQqQ%q
2153A052%%%%%%%%%%%qQ%%%%%%%%%q%%%%%%%%%%%%%%qQqQq%%%%%%%%%%%%%%%%%%q%%%Qq%%
2147A028%%%%%%%%%%%qQ%%q%%%%%%%%%%%%%%%%%%%%%qQ%qQ%q%%%%%%%%%%%%%%%%%qQ%q%Q%
2140A012q%%%%%%Qq%%%%%%%qQqQ%q%%Qq%%%%%%%%%%%%%qQqQq%%Qq%%%%%%%%%%%%%%%%q%%Q
2134I88qQqQq%%%%%%%%%%%%%%%%%%%%qQq%%%%%%%%%%%%%%%%qQ%%q%%%%%%%%%%%%%%%%%%%%
2127I64%%%%%q%Qq%%%%%%%%%%%%%%%%%%%qQ%%q%Qq%%%%%%%%%%%%%%%%%%%%qQ%qQ%q%%%%%%
2120I40%%%%%%%qQ%%%%%%%q%%%%%%%%%%%%%%%%%%%%%%%%%qQq%%%%QqQq%QqqQ%%%%%%%%qQ%
2114I24%%q%%%%%%%%%%%%qQ%%%%%%%qQqQqQ%q%%%%%%%%Q%%%qqqJ6qqJ6qqK4qQqq%%%%Qq%%
2108I00%Qq%%%%%%%%%%%%%%%q%%%%%%%%%%%%%%%%%%qQ%%%%%%qQ%%q%%%%%%%%%%%%%%%%%%%
2101H84%%%%%qQ%q%%Qq%%%%%%%%%%%%%%%%qQ%%qQ%%q%%Qq%%%%%%%%%%%%%%%%q%Q%qQq%%%%
2094H60%%%%%%%%%%%%%%%%%%%%%%%%%%%qQ%qQq%%%%%%%%%%%%%%%%%%%%%%qQq%Qq%Qq%%%%%
2088H44%%%%%%%%%%%%%%%qQ%%%%qQqQq%%Qq%Qq%Qq%%%qQ%%%%%qQ%%%q%%%%%%%%%%%%%%%%%
2081H28%%%%%qQ%%%%%%qQqQq%%%%%%%%%%%%%%%%%%%%%%%qQ%%%qQq%Q%qQq%%%%%%%%%%%%%%
2075H12%%%%%%%%%qQ%qQ%q%Qq%%Q%q%%%%%%%%%%%%%%%%%%%q%Q%%q%%%%%%%%%%%%%%%%%%%%
2068G96%qQ%%%%qQq%Qq%%%%%%%%%%%%%%%%%%%%%%qQqQ%%q%%Qq%%%%%%%%%%%%%%%%%%%%%%%
2062G80%%%%%%%qQqQ%q%QqQ%q%%%%%%%%%%%%%%%%%%%%%%%%%%qQ%%%%%qQqQq%%%%%%%%%%%%
2055G64%%%%%%%%%q%%%Q%q%%%%%%%Qq%%%%%%%%%%%%%%%%%qQ%%qQ%%q%%%%Qq%QqQq%Qq%Qq%
2048G48%%%%%qQ%%%%%%%%%%%qQ%q%Qq%Q%q%%%%%%%%%%%%%%%%%%%%%%%%%%%%%q%Q%q%%%%%%
2042G32%%%%%%%%%%%%%%%%%%qQ%%%q%Q%qQq%%%%%%%%%%%%%%%%%%%%%%%%%%QqqQqQ%qQ%%%q
2035G16%QqQq%%%%%%%%%%%%%%%%%%%%qQ%%%%%%%qQ%q%%%%%%%Q%q%%%%%%%%%%%%%%%%%%%%%
2029G08%%%%qQ%qQ%%%%%q%Qq%%%%%%%%%%%%%%%%%%%%%%%%%%%%qQ%%%%%q%%%QqQq%%%Qq%%%
2022F92%%%%%%%%%%%%%%%qQ%%%%%%%%qQqQqQq%%%%%%%%%%%%%%%%%%%%%%%%qQ%%%qQ%qQ%qQ
2015F84qQq%%%Qq%%%%%Qq%%%%%%%%%%%%%%%%%%qQ%qQj6J6%qJ6j6Q%qQq%%%Q%%q%%%%%%%%%
2009F68%%%%%%%%%%%%%%%%%%%%%%%qQq%%%%Qq%%%%%%%%%%%%%%%%%%%%%%%%qQ%%%%qQq%Q%%
2003F60qQq%Qq%%%%%%%%%%%Qq%%%%%%%%%%%%%%%%%%%%%%%%qQ%%%q%%Qq%%%%%%%%%%%%%%%%
1996F44%%%%%%%%%%%%%qQqQ%%q%Q%%%%q%%Qq%Q%q%%%%%%%%%%%%%%%%%%%%%%%%%%%%%%%%%%
1990F36%%q%%%%QqQqQq%%%%Qq%%%%%qQ%%%%%%%%%%%%%%%%%%%%qQ%%%%q%%%%Q%q%Qq%%%%%%
1983F20%%%%%%%%%%%%%%%%%%%q%Q%%%%%qQqQ%q%Q%qQq%Qq%%%%%Qq%%%%%%%%%%%%%%%%%%%%
1976F12%%%%%%%%%%%%qQq%Qq%Q%%qQq%%%%%%%%%%%%Qq%%%%%%%%%%%%%%%%%%%%%%%%qQ%%q%
1970E96%Qq%Q%q%%QqQq%%Qq%%%%%%%%%%%%%%%%%%%%%%%qQ%%%%%q%%%Q%%q%QqQq%%%%%%%%Q
1963E96qQqQ%q%qQ%%%Qq%%%%%%%%%%%%%%%%%qQ%%%q%Q%q%QqQqQ%q%%%%%%%%%%%%%%%%%%%%
1957E80%%%%%%%%%%%%%%%%%%%%qQ%%%%%q%Q%%q%Qq%%Qq%%%%%%%%%%%%%%%%%%%%%%%%%qQ%%
1950E72%%%%%%q%Qq%QqQ%q%Qq%%%%%%%%%%%%%%%%%%%%%%%%%%%%%%%%%%%%%%%%qQqQ%%%%q%
1943E56Q%qQ%q%%%%%Qq%Qq%%%%%%%%%%%%%%%%%%%%%%%%%%%%%%%%%%%%%%%qQ%%%qQq%Qq%Q%
1937E56qQ%q%%%Q%q%%Qq%%%%%%%%%%%%%%%%%%%%%%qQ%%%%%%%%%%%%%%%%qQ%%%%qQq%Q%q%%
1930E40%%%%%%%%%%%%%%%%%%%%%%%%%%%%%%%%%%%%%%%%%%%%q%%%Qq%%%%%%%%%%%Qq%%%%%%
1924E32Qq%%%%%%%%%%%%%%%%%%%%%%%%%q%QqQ%qQqQ%%%q%Qq%QqQ%%qQq%%%Qq%Qq%%Qq%%%%
1917E24%qQqQQq%QqqQ%%%%%%q%Q%%%qQQqqQ%K4k4j6K4j6J6qq%j6qL2Qq%%q%%Qq%Qq%%Qq%%
1911E16%Qq%%%%%%%Qq%%%%%%%%%%%%%%%%%%%%%%%%%qQqQ%%%qQq%Q%%qQq%%%%%%Qq%%%%%Qq
1905E08%%%%%%%%%%%%%%%%%%%%%%%%%%%%%%%q%QqQ%%qQ%%%%%%%%qQqQqQq%%%%QqQq%%%%%%
1898E00%%%%%%%%%%%%%%%%%%%%%%%%%%%%%%%%%%%%%qQ%%%%%q%Q%qQq%Q%%qQ%q%Q%q%%%%%%
1892D92%%%%%%%%%%%%%%%%%%Qq%%%%%%%%%%%%%%%%%%%%%%%qQ%%qQq%%%%%%%QqQq%%%Qq%%%
1885D84%%%%%%%%%%%%%%%%%%%%%%%%%%%%%%%%%%%%%%%%%%%%%qQ%%%qQ%q%Qq%QqQq%%%%%%%
1878D76%%%Qq%%%Qq%%%QqQq%%%%%%%%%%%%%%%%%%%%%%%%%%%%%%%%%%%%%%%%%%%%%%%qQqQ%
1872D76%%%qQ%q%Q%%q%%%%%%%%%Qq%%%%%%%%%%%%%%%%%%%%%%%%%%%%%%qQ%%%%q%Q%qQqQqQ
1865D68qQqJ6qq%%QqQq%%%%%QqQqQq%%%%%%%%%%%%%%%%%%%%%%%%%%%%%%%%%%%%%%%%%%%%%
1859D60%%%%%%%%%%%%qQ%%qQqQq%QqQq%%%%%%%%%%%%%%%%%%%%%%%%%%%%%%%%%%%%%%%%%%%
1852D52%%%%%%%%%%%%%%%%%%%%%%%%%%%%%%%%%%%%%%%%qQqQ%%%qQqQq%Qq%%%%%%%%%%%%%%
1846D44%%%%%%%%%%%%%%%%%%%%%%%%%%%%%%%%qQ%%%qQ%qQqQ%q%%%Q%%qQ%%q%%%%QqQq%%%%
1839D36%Qq%Qq%%%%%%%%%%%%%%%%%%%%%%%%%%%%%%%%%%%%%%%qQ%%%%%%%%%%%%%%%%%%%%%%
1832D36qQq%%%%%%Q%q%%%Q%q%%%%%%%%%%%%%%%%%%%%Qq%%%%%%%%%%%%%%%%%%%%%%%%%%%%%
1826D28%%%%%%%%%%%%%%%%%%%%%%%%%%%q%%%Qq%%Qq%%Qq%%%%%%%%%%%%%%%%%%%%%%%%%%%%
1819D20%%%%%%%%%%%%%%%%%%%%%%%%%%%Qj6%J6j6%QqqQ%Qq%Q%qQq%%Qq%%QqQq%Qq%%%%%%Q
1813D20q%%%%Qq%%%%%%%%%%%%%%%%%%%%%%%%%%%%%%%%%%%%%%%%%%%%%%qQ%%%%qQ%%%%%%%%
1806D12qQ%%%%%%%%qQ%q%%Qq%%%%%Qq%%%Qq%Q%q%Qq%%%%%%Qq%%%%%%%%%%%%%%%%%%%%%%%%
1800D04%%%%%%%%%%%%%%%%%%%%%%%%%%%%%%qQ%%qQ%qQqQq%QqQqQq%%Qq%QqQ%%qQq%%%%%%%
1793C96Qq%%%%%Qq%%%%%Q%qQq%%%%%%%%%%%%%%%%%%%%%%%%%%%%%%%%%%%%%%%qQ%qQ%%%%%%
1787C96%qQ%%%qQ%%%q%Qq%Qq%%%%%%%%%%%%%%%%%%%%%%%%%%%%%%%%%%%%%%%%%%%%%%%%%%%
1780C88%%%%%%%%%%%%%%%%%%%%%%%%%qQ%%%%%%q%Q%%%%%qQ%q%Q%q%%QqQ%q%QqQqQq%%%Qq%
1774C80Q%%q%%%%%%%%%%%%%%%%%%%%%%%%%%%%%%%%%%%%%%%%%%%%%%%qQ%%%%%%%%qQqqJ6qQ
1767C80%qQ%qQ%%%%%q%Q%%%qQq%Q%qQq%%%%%Q%%qQq%%%%%%%%%%%%%%%%%%%%%%%%%%%%%%%%
1760C72%%%%%%%%%%%%%%%%%%%%%%%%%%%%%%%qQ%%%%%%%%%%%%%%%qQq%%Q%qQ%qQ%qQ%%%q%Q
1754C72q%%%%%%%Qq%%%%%Q%q%%%%%Qq%%%%%%%%%%%%%%%%%%%%%%%%%%%%%%%%%%%%%%%%%%%%
1747C64%%%%%%%%%%%%%%%%%%%%qQ%%%%%qQ%%%%%%%q%Qq%Q%qQq%%%%%%%%Qq%%QqQ%q%%%%Qq
1741C56%%%%%%%%%%%%%%Qq%%%%%%%%%%%%%%%%%%%%%%%%%%%%%%%%%%%%%%%%%%%%%%%%%%%%%
1734C56%%qQ%%%%%%%%%%%%%%%%%%%%qQ%q%Qq%%%%%Q%%q%%Qq%%%%%%Qq%%%%%%%%%%%%%%%%Q
1728C56q%%%%%%%%%%%%%%%%%%%%%%%%%%%%%%%%%%%%%%%%%%%%%%%%%%%%%%%%%%%%%%%%%%%%
1721C48%%%%%%%%%%qQqQ%%q%QqQQk4L2j6QqQj6Qq%%Q%qQq%Qq%Qq%%%%%%%%%%%%%%%%%%%%%
1715C40%%%%%%%%%%%%%%%%%%%%%%%%%%%%%%%%%%%%%%%%%%%%%%%%%%%%%%%%%%%%%%%%%%%%%
1708C40%%%%%q%Qq%QqQ%%q%Q%%%qQqQq%%%%Qq%%%%%%Qq%%%%%%%%%%%%%%%%%%%%%%%%%%%%%
1702C32%%%%%%%%%%%%%%%%%%%%%%%%%%%%%%%%%%%%qQ%%%%%%qQ%%%%%%%%%%%%%%%%%%%%%%%
1695C32%q%%%%%%Q%q%%Q%qQqQ%%%%%qQ%qQq%%%%%%%%%%%%%%%%%%%%%%%%%%%%%%%%%%%%%%Q
1688C32q%%%%%%%%%%%%%%%%%%%%%%%%%%%%%%%%%%%%%%%%%%%%%%%%%%%%%%%%%%%%%%%q%%Qq
1682C16%%Qq%Q%qQq%Q%%%qQ%qQqQqQq%Q%%%qQqQ%%q%%Qq%%%%%QqQq%Q%%q%%%%%Q%q%%%%%%
1675C16%%%%%%%%%%%%%%%%%%%%%%%%%%%%%%%%%%%%%%%%%%%%%%%%%%%%%qQqQ%Qqq%Q%%%%%q
1669C08Q%%qQ%%%%%%%%%%%%qQ%%qQ%%q%QqQ%%q%%Q%%%%%%qQ%q%QqQq%%%Qq%%%%%%%%%%%%%
1662C08%%%%Qq%%%%%%%%%%%%%%%%%%%%%%%%%%%%%%%%%%%%%%%%%Qq%%%%%%%%%%%%%%%%%%%%
1656C08%qQ%%%%%%%%%%qQ%%%%%%%%%%%%%%qQqQqQ%q%Q%%%%%q%%%%%%%%Qq%%Q%qQq%%%%%%Q
1649C08q%%%%Qq%Qq%%%%%%%%%%%%%%%%%%%%%%%Q%q%%qQ%%%%%%%%%%%%%%%%%%%%%%%%%%%%%
1642C00%%%%%%%%%%%%%%%%%%%%%%%%%%%%%%%%%%%%%%%%%qQ%%%%%%%q%Q%%%%q%Q%%%qQq%%Q
1636C00%qQ%qQq%%%%Qq%%%%%%%%%%%%%Qq%Qq%%%Qq%%%%%%%%%%%%%%%%%%%%%%%%%%%%%%%%%
1629B92%%%%%%%%%%%%%%%%%%%%%%%%Qq%%%%%%Qq%%%%%%%%%%%%%%%%%qQ%%%%qQ%%%qQ%%%%%
1623B92%%%%%%%%%%qQ%%Q%%qk4L2q%%%qQ%qQ%%%%%qQ%qQq%QqQq%%%Qq%%%%%%Qq%%%%%%%%%
1616B84%Qq%%%%%%Qq%%%%%%Qq%%%%%%%%%%%%%%%%%%%%%%%%%%%%%%%%%%%%%%%%%%%%%%%%%%
1610B84%%%%%%%%q%Q%%%%%%qQ%%%%%%%%%%%%%%%%%%%%%%%%%%%%qQ%%%%%%q%QqQ%%%qQ%q%Q
1603B84%%%%%q%Qq%%Qq%%%%%%QqQq%%%Q%%q%%%%%%%%%%%%%%%%%%%%%%%Qq%%%%%%%%%%Q%q%
1597B76%%%%%%%Qq%%%%%%%%%%%%%%%%%%%%%%%%%%%%%%%%%%%%%%%%%%%%%%%%%%%%%%%%%%%%
1590B76%%%%%%%%%%%%%%%%%%%%%%%%%%qQq%Q%%%qQ%q%Q%qQqQ%%%%%%%%qQ%%%%q%QqQ%%qQq
1583B68Q%%q%%%%%%%%%%%%%%Q%q%%%%%%%%%%%%%%%%%%%%%%%%%%%%Qq%%%%%%%%%%%%%%%%%%
1577B68%%%%%%%%%%%%%%%%%%%%%%%%%%%%%%%%%%%%%%%%%%qQ%%%q%%%Q%QqqQ%%%%%%%%qQ%%
1570B68%%%%%%%%%%%qQ%%%%%%%%%%%%%%%%qQ%%qQ%%qQ%%q%%Q%qQ%%qQ%%%%q%%Qq%%QqQ%%%
1564B68%q%%%%Q%q%%Q%q%%%%%Qq%Qq%%%%%%%%%%%%%%Q%q%%%%%%%%%%%%%%%%%%%%%%%%%%%%
1557B60%%%%%%%%%%%%%%%%%%%%%%%%%%%%%%%%%%%%%%%%%%%%%%%%%%%%%%%%%%%%%%%%%%%%%
1550B60%%%%%%%qQ%%%%%%%%%%%%q%Q%%q%%Q%%%%%qQ%qQ%%qQ%qQ%%%qQ%qQqQ%%%%qQqQq%Q%
1544B60q%%%QqQq%%%%%%%%QqQqQq%%%%Q%q%Qq%%%Q%q%%%%%%%%%%%%%%%%%%%%%%%%%%%%%%%
1537B52%%%%%%%%%%%%%%%%%%%%%%%%%%%%%%%%%%%%%%%%%%%%%%%%%%%%%%%%%%%%%%%%%%%%%
1531B52%%%%%%%%%%%qQ%qQqQ%%%%%%%%%%%%%%%%%%%%%%%qQ%%%qQ%%%qQ%q%Qq%%%Qq%Qq%Qq
1524B44QQj6%j6J6QqK4k4Qk4K4%q%%J6q%%%%qQ%qQq%%%%%%%%%%%%%%%%%%%%%%%%%%%%%%%%
1518B44%%%%%%%%%%%%%%%%Qq%%%%%%%%%%%%%%%%%%%%%%%%%%%%%%%%%%%%%%%%%%%%%%%%%%%
1512B44%%%%%%%%%qQ%%%%%%%%%%%%%%%%%%%%%%%%qQ%%qQ%%%%qQ%%qQ%%%qQ%%%%%%%q%QqQ%
1505B44%%%%%%qQ%%%%%q%Q%%q%Qq%%%%%%Qq%Qq%%QqQqQqQq%%Q%%%%%%%%%%q%QqQq%Qq%%%%
1499B36%%%Qq%%%%%%%%Qq%%%%%%%%%%%%%%%%%%%%%%%%%%%%%%%%%%%%%%%%%%%%%%%%%%%%%%
1492B36%%%%%%%%%%%%%%%%%%%%%%%%%%%%%%%%%%%%%%%%%%%%%%%%%%%%%%%%%q%%Q%%%%%%%%
1485B36%%%%%%%%%qQ%%%%%%%%%%%%%%%%%%%%%%%%%%%%%%%%%%q%Q%qQ%q%%Q%%%%%%q%%Q%q%
1479B28Q%q%Qq%%%Qq%%Q%q%%%%%Qq%%QqQ%qQ%%%q%%%%%%%%%%QqQq%%qQ%%%Qq%%%%%%%%%%%
1472B28%%%%%%%%%Qq%%%%%%%%%%%%%%%%%%%%%%%%%%%%%%%%%%%%%%%%%%%%%%%%%%%%%%%%%%
1466B28%%%%%%%%%%%%%%%%%%%%%%%%%%%%%%%%%%%%%qQ%%qQ%%%%%%%%%qQ%%%%%qQqQ%%qQ%%
1459B28%%%%%%%%%%%%%%%%%%%%%%%%%%qQqQqQq%Q%qQqQqQq%Qq%%%%%Q%%%q%%%%Qq%%%%Qq%
1453B20%%QqQ%q%%Q%qQq%%%%%%Qq%%%%%%Q%qQq%%%Qq%%%%%%%%%%%%%%%%%%%%%%%%%%%%%%%
1446B20%%%%%%%%%%%%%%%%%%%%%%%%%%%%%%%%%%%%%%%%%%%%%%%%%%%%%qQ%%%%%%%%%%%%%%
1439B20%%%%%%%%%%%%%%%%%%%%%%qQqQ%%%%%%%%%%%%%%%%%%%%q%Q%%%%%%%%%%%%%%%%%%%%
1433B20%%%qQ%%%%%%%qQq%Q%%%%qQq%%%Qq%Qq%%%QqQqQq%Q%q%%%%%QqQqQq%Q%%qQqQqQ%%%
1426B20qQqQqQJ6j6q%%Qq%Qq%%%QqQ%%%qQ%q%Qq%%%%%%%%%%%Qq%%%%Qq%%%%%%%%%%%%%%%%
1420B12%%Qq%%%%%%%%%%%%%%%%%%%%%%%%%%%%%%%%%%%%%%%%%%%%%%%%%%%%%%%%%%%%%%%%%
1413B12%%%%%%%%%%%%%%%%%%%%%%%%%%%%%%%%%%%%%%%%%%%%%%%%%%%%%%%%%%%%%%%q%Q%%%
1407B12%%%%qQ%%%%qQ%%%%%%%%%%%%%%%%%%%%%qQ%%qQ%%qQ%%q%Q%%qQ%%%%q%%Qq%%%%%%%Q
1400B12%q%Q%q%%%QqQ%%q%Qq%Q%qQqQqQq%%%Qq%Q%qQq%%QqQqQqQq%%Qq%%Q%q%%%%%%%%%Qq
1394B04%%%%%%%%%%%%%%%%%%%%%%%%%%%%%%Qq%%%%%%%%%%%%%%%%%%%%%Qq%%%%%%%%%%%%%%
1387B04%%%%%%%%%%%%%%%%%%%%%%%%%%%%%%%%%%%%%%%%%%%%%%%%%%%%%%%%%%%%%%%%%%%%%
1380B04%%%%%%%%%%%%%%%%%%%%%%%%%%qQ%%%%%%q%%%QQj6%Q%%%%%%%q%Q%%%%%%%%qQqQ%%%
1374B04%%%qQ%%qQ%%%%%%%%%%%%%%%%%qQ%qQqQ%%%%q%%Q%%qQqQ%q%%Q%qQqQ%%%q%Qq%%Qq%
1367A96Qq%Qq%%%%%%Qq%%Qq%%%Q%q%Q%%q%QqQq%%%%%%%%%%%%%%%%%%%%%%%%%Qq%%%%%%%%%
1361A96%%%%%%%%%%%%%%%%%%%%%%%%Q%q%%%%%%%%%%%%%%%%%%%%%%%%%%%%%%%%%%%%%%%%%%
1354A96%%%%%%%%%%%%qQ%Qq%%%%%%%%%%%%%%%%%%%%%%%%%%%%%%%%%%%%%%qQ%%%%%%%%%%%%
1348A96%%%%%%%%%%qQ%%%%%%%%%%%%%%%%%%%%%%%%%%%%%%%%qQ%%%%%%%%%%%qQ%q%Q%qQq%%
1341A88%Q%q%%%QqQ%qQqQ%%qQqQqQ%%%%%%%%%%qQ%%%q%Qq%Q%qQ%q%Q%q%Qq%%%%%%%%%Qq%Q
1334A96qQ%qQqQ%qQ%q%QqQqQ%q%%%%%%%QqQqQqQ%%q%%Q%%qQ%q%%%%%%%QqQq%%Q%j6J6%qJ6
1328B04k4%K4qq%j6K4q%%qJ6q%%%%%%Qq%Qq%%%%%%%%%%%%%%%%%%%%%%%%%%%%%%%%%%%%%%%
1322A88%%%%%%%%%%%%%%%%%%%%%%%%%%%%%%%%%%%%%%%%%%%%%%%%%%%%%%%%%%%%%%%%%%%qQ
1315A88%qQ%%%%%%%%%%%%%%%%%%%%%%%%%%%%%%%%%%%%%%%%%%%%%%%%%%%%%%%%qQ%%%%%qQ%
1309A88%%%qQq%Q%q%%%Q%%%qQ%%%qQqQqQ%qQ%%qQ%qQ%%%q%%%QqQq%Qq%Q%%%%%q%%Q%%%q%%
1302A80%%%QqQq%Q%q%Qq%%%%Qq%%%Qq%%%%%%%%%Qq%%%Q%q%%%%%%Qq%%%%%%%%%%%%Q%qQ%q%
1296A80%%%%%%%%Qq%%%%%%%%%%%%%%%%%%%%%%%%%%%%%%%%%%%%%%%%%%Qq%%%%%%%%%%%%%%%
1289A80%%%%%%%%%%%%%%%%%%%%%%%%%%%%%%%%%%%%%%%%%%%%%%%%%%%%%%%%%%%%%%%%%%%%%
1283A80%%%%%%%%%%%%%%%%%%%%%%%%%%Qq%%%%qQqQ%q%Q%%%qQ%%%%%%%%%%%%%%%%%%%%%%%%
1276A80qQ%%%%%%%%%%%%%%%%%%%%%%%%%%%%%%%%%%%%%%%%%%%%%%qQ%%qQ%%%%%qQ%%%q%Q%%
1269A80%%%%%%%%%%%%%%%%qQ%%%q%Q%%q%%%%QqQ%qQ%%%%%%q%Q%%%%%%q%%Q%%%qQ%%%%qQqQ
1263A80%%qQq%Q%qQq%Qq%Qq%%%Qq%%%%%%Qq%%%%%%%Qq%Qq%%%%%%%%%%%%%%%%%%%%%%%%%%Q
1256A80q%%%%QqQ%q%%Qq%Q%q%QqQq%Q%q%%%%Qq%Qq%%%%%%%%%%%%%%%%%%%%%%%%%%%%%%%%%
1250A72%%%%%%%%%%Qq%%%%%%%%%%%%%%%%%%%%%%%%%%%%%%%%%%%%%%%%%%%%%%%%%%%%%%%%%
1243A72%%%Qj6Q%%%%%%%%%%%%%%%%%%%%%%%%%%%%%%%%%%%%%%%%%%%%%%%%%%%%%%%%%%%%%%
1237A72%%%%%%%%%%%%%%%%%%%%qQ%%%%%%%%%%%%%%%%%%%%%%%%%qQqQ%qQq%Q%%%q%Qq%J6j6
1230A64%J6j6J6qqQ%%q%%%%%%%%%%Q%%%%%%q%QqQqQ%q%Q%%%%qQ%%qQ%%q%Q%qQ%q%Q%q%Q%%
1224A72%%%qQ%%q%%%%Q%q%QqQ%%%q%%%%%%Q%%%%%%%qQ%q%QqQ%%%qQ%q%%%%%QqQj6J6qQq%%
1217A64%Qq%Qq%%%QqQ%%q%Qq%%%%Qq%%%Qq%%%%%%%%%%%%%%%%%%%%%%%%%%%%%%%%%%%%%%%%
1211A64%%Qq%%%%%%%%%%%%%%%%%%%%%%%%%%%%%%%%%%%%%%%%%%%%%%%%%%%%%%%%%%%%%%%%%
1204A64%%%%%%%%%%%%%%%%%%%%%%%%%%%%%%%%%%%%%%%%%%%%%%%%%%%%%%%%%%%%%%%%%%%%%
1198A64%%%%%%%%%%%%%%%%%%%%%%%%%%%%%%%%%%%%%%%%%qQ%%%qQ%qQ%%%%%%%%%%%%%%%%%%
1191A64%%%q%Q%%%%%%%%%%%%%%%%%%%%%%%qQ%%%%%%qQ%%qQ%%%%%qQ%%%%%%%%%%%%%%%%%%%
1185A64%%%%%%qQq%Q%%%%%%%%%qQ%%qQ%%%q%%%QQqqQ%q%Q%%qQ%%qQ%qQ%%%%%%%q%Q%%%%q%
1178A56%%%%%%%%%Q%q%QqQqQ%q%QqQ%%%q%%%%Qq%%%%Qq%%%%%%%%%Qq%%%Qq%%QqQq%%%%%%%
1171A56%%%%Qq%%Qq%%%%Qq%%Qq%%Qq%Qq%%Qq%%%Qq%%%%%%%%%%%%%%%%%%%%%%%%%%%%%%%%%
1165A56%%Qq%%%%%%Qq%%%%%%%%%%%%Qq%%%%%%%Q%q%%%%%%%%%%%%%%%%%%%%%%%%%%%%%%%%%
1158A56%%%Qq%%%%qQ%%%%%%Qq%%%%%%%%%%%%%%%%%%%%%%%%%%%%%%%%%%%%%%%%%%%%%%%%%%
1152A56%%%%%%%%%%%%%%%%%%%%%%%%%%%%%%%%%%%%%%%%%%%%%%%%%%%%%%%%%%%%%%%%%%%%%
1145A56%%%qQ%%%%%%%%qQqQ%qQ%qQ%qQ%%%%%%%%%%%%qQ%%%%%%qQ%%%%%qQ%%%%%%%%%qQ%%%
1138A56%%%%%%%%%%%%%%%%%qQ%%%qQqQ%%%q%Q%%%Qj6QqQqQ%qJ6j6QqQqJ6j6%Ql2L2Qj6%qQ
1133A48%k4K4k4%J6QJ6k4K4j6Ql2L2QqqJ6qqQq%%%Q%q%Q%qQqQq%QqQ%q%QqQqQ%q%Qq%%%Q%
1127A56qQ%%qQqQ%%%%qQq%%Qq%%%QqQq%Q%%q%%%%%%%Q%%qQ%q%Q%qQqQq%Qq%Qq%%Q%%qQ%qQ
1121A56q%%%Qq%%%QqQq%Q%q%%%%Q%%%q%%%%%%%Qq%%%Qq%%Qq%%%%%%%%%%%%%%QqQq%%%%%Qq
1114A48%%%%%%%%%%%%%%%%%%%%%%%%%%%%%%%%%%%%%%%%%%%%%%%%%%%%%%%%%%qQ%Qj6QqQ%Q
1108A56q%%%%%%%%%%%%%%%%%%%%%%%%%%%%%%%%%%%%%%%%%%%%%%%%%%%%%%%%%%%%%%%%%%%%
1101A48%%%%%%%%%%%%%%%%%%%%%%%%%%%%%%%%%%%%%%%%%%%%%%%%%%%%%%%qQ%%%%%%%%%%%%
1094A48%%%%%%%%%%%%%%%%%%%%%%%%%%%%%%%%%%%%%%%%%%qQqQ%%%%%%%%%%%%%%%%%%qQ%%%
1088A48%%%%%qQ%%%%%%%%%%%%%%%%%%%%%qQ%%%%QqqQ%q%Q%%qQ%%%%qQ%%%q%Qq%%%Q%qQ%%%
1081A48qQ%%qQ%qQ%q%%Q%%%%q%Q%%qQq%Q%q%QqQqQqQqQ%qQ%%%%%q%Q%%%%%%%qQq%%%Qq%%Q
1075A48%%%qQq%QqQ%%%qQ%%%%%%%%%%%%qQ%%%%%qQ%q%%%%%%QqQ%%qQqQ%q%%Qq%QqQ%qQqQq
1068A40%%Qq%%Qq%%%%%%%Qq%%%%%%%%%Q%qQqQ%%q%%QqQqQ%%q%%%%%%%%Qq%%%%%%%%%%%Qq%
1061A40%%%%%Qq%%%%%Qq%%%%%%%Q%%qQq%%%%%%%%%%%%%%%%%%%%%%%%%%%%Qq%%%%%%%%%%%%
1055A40%%%Qq%%%%%%%%%%%Qq%%%%%%%%%%%%%%%%%%%%%%%%%%%%%%%%%%%%%%%%%%%%%%%%%%%
1048A40%%%%%%%%%%qQ%%%%%%%%%%%%%%%%%%%%%%%%%%%%%%%%%%%%%%%%%%%%%%%%%%%%%%%%%
1042A40%%Qq%%%%%%%%%%%%%%%%%%%%%%%%%%%%%%%%%%%%%%%%%%%%%%%%%%%%%%%%%%Qq%QqQj6
1035A32%%J6%q%qJ6qq%Q%%%%%%%%%%%%%%%%%%%%%%%%%%%%%%%%%%%%%%%%%%%%%%%%%%%%%%%
1029A40%%%%%%%%%%%%%%%%%%%%%%%%%%%%%%%%%%%%%%%%%%%%%%%%%%%%%%%%%%%%%%%qQ%%%%
1022A40%%%%qQ%%%%%qQ%qQ%qQ%qQqQq%%%Q%%%%%%%%%%%%%qQ%%%%%%%%%%%%%%%%%%qQ%%%%%
1016A40%%qQ%%%qQ%%%%%%qQ%%%%%q%Q%%%qQq%Q%%%%%%%%%q%%Q%qQ%%%%qQ%q%%%Q%%qQq%%%
1009A32%%%%%%%%%%%%%%%%Qq%%%%%%Q%q%QqQq%%%%%Qq%%%%%%Q%%qQqQq%Q%%%%q%%%%%%%%%
1002A32Qq%%%QqQ%%%q%%%%%%%%%%%%%%%%%QqQq%%%Qq%%%qQ%Qq%%%%%%%%%%%%%%%%%%%%%%%
996A32%%%%%%%%%%%%%%%%%%%%%%%%%%%%%%%%%%%%%Qq%%%%%%%%%%%%%%%%%%%%%%%%%%%%%%%
989A32%%%%%%%%%%%%%%%%%%%%%%%%%%%%Qq%%%%QqQq%%%%%%%%Qq%%%%%%%%%%%%%%%%%%%%%%
982A32%%%%%%%%%%%%%%%%%%%%%%%%%%%%%%%%%%%%%%%%%%%%%%%%%%%%%%%%%%%%%%%%%%%%%%
976A32%%%Qq%%%%%%%%%%%%%%%%%%%%%%%%%%%%%%%%%%%%%%%%%%%%%%%%%%%%%%%%%%%%%%%%%
969A32%%%%%%%%%%%%qQ%%%%%%%%%%%%%%%%%%%%%%%%%%%%%%%%%%%%%%%%%%%%%%%%%%%%%%%%
962A32%%%qQ%qQqQ%qQ%%%qQ%%%%%qQ%%%%%%%%%%%%%%%%%%%%%%%%%%%%%%%%%%%%%%%%%%%%%
956A32%%%%%%%%%%%%%%%%%%%%%%qQ%%%qQ%%%%%%%%%qQ%qQ%%%%%%%%%%%%%%%%%qQ%q%Q%%%%
949A32%qQqQ%%%%qQqQ%%%%%%qQ%%%%%%%%qQ%%%%qQ%%%%%qQ%%%%q%Q%qQqQqQqQ%%%qQ%%%%%
942A32%%%%%%%%%%qQqQ%%%%%%%%%%%%%qQqQ%%%%%qQq%%Qq%%%Q%%%%q%J6QqqqqQQqQq%%%%Q
936A32%q%%Q%%%%%q%Q%q%Q%qQq%%%%%Q%q%%Qq%%Qq%Q%q%%%%%%%%%Qq%Qq%%%Q%%q%%%%Qq%%
929A24%%%%Q%q%%%Qq%%%%%%%Qq%Qq%%%Qq%Qq%%%%%%%%%%%%Qq%%%%%%%%%%%%%Q%q%Qq%%%%%
922A24%%%%%%%%%%%%%%%%%%%%%%%%%%%%%%%%%Qq%Qq%%%%%Qq%%%%%%%%%%%%%%%%%%%%%%%%%
916A24%%%%%%%%%%%%%%%%%%%%%%%%%%%%%%%Qq%%%%%qQ%%%%%%%%%%%%%Qq%%%%%%%%%%%%%%%
909A24%%%%%%%%%%%%%%%%%%%%%%%%%%%%%%%%%%%%%%%%%%%%%%%%%%%%%%%%%%%%%%%%%%%%%%
902A24%%%%%%%%%%%%%%%%%%%%%%%%%%%%%%%%%%%%%%%%%%%%%%%%%%%%%%%%%%%%%%%%%%%%%%
896A24%%%%%%%%%%%%%%qQ%%%%%%%%%%%%%%%%%%%%%%%%%%%%%%%%%%%%%%%%%%%%%%%%%%%%Qq
889A24%%%Qqq%%QqQ%%%%%%%%%%%%%%%%%%%%%%%%%%%%%%%%%%%%%%%%%%%%%%%%%%%%%%%%%%%
882A24%%%%%%%%%%%%qQ%%%%%%%%%%%%%%%%%%%%%%%qQ%%%%qQqQ%%%%%%%%%%qQ%%%%%%%%%%%
876A24%%%%%%%%%%%%%%%%%%%%%%%%%%qQ%%%%%%%%%%%%%%%%%%%%%qQ%%%%%%%qQ%%%%qQqQ%%
869A24%%%%q%%%Q%%%%%%qQqQq%QqQq%%%Q%%%qQ%%qQ%%%%%%q%Q%%%q%Q%%%qQ%%q%QqQ%qQ%%
862A24%%q%Q%qQ%%%q%Q%%%qQ%q%Q%%%%%%%%%q%Q%%%%%%%%qQqQ%qQ%%%%%%%%qQ%qQ%%q%Q%q
856A16QqQ%%%%q%Q%%q%%%Q%q%Q%%q%%Q%%%q%Q%q%%Q%%%%qQq%Qq%%%%%%%%Qq%QqQq%Qq%%%Q
849A24%qQq%%Q%q%Q%qQ%q%%%%%Q%q%%%%%%%%%%%%QqQq%%%%%%%%%%%%%%%Qq%%Q%q%%%%%Q%q
842A16%%%Qq%%%%%%%%%%%%%Q%%q%%Qj6%K4j6%Q%%q%qQ%%%%%%Q%qQq%%%%%%%%Qq%%%%%%%%%
836A16%%%%%%%%%%%%Qq%%%%%Qq%%%%%%%%%Qq%%Qq%%%%%%%%%%%%Qq%%%%%%%%%%%%%%%%%%%%
829A16%%%%%%%%%%%%%%%%%Qj6Q%%%%%%%%%%%%%%%%%%%%%%%%%%%%%%%%%%%%%%%%%%%%%%%%%
823A16%%%%%%%%%%%%%%%%%%%%%%%%%%%%%%%%%%%%%%%%%%%%%%%%%%%%%%%%%%%%%%%%%%%%%%
816A16%%%Qq%QqQq%%Qq%%%%%%%%%%%%%%%%%%%%%%%%%%%%%%%%%%%%%%%%%%%%%%%%%%%%%%%%
809A16%%%%%%%%%%%%%%%%%%%%%%%%%%%%%%%%%%%%%qQ%%%%%%%%%%%%%%%%%%%%%%%%%%%%%%%
803A16qQ%%%%%%%%%%%%%%%%%%%%%%%%%%%%%%%%%%%%%%%%%%%%%%%%%%%%%%%%%%%%%%%%%%%%
796A16%%%%%%%%%%%%%%%qQ%%%%%%%%%%%%%%%%%%%%%%%%qQ%%qJ6q%%%q%%Q%qQ%%%%qQ%%%%%
789A16%%%%%%%%%%%%%%%%%%%%%%%%%%qQ%%%%%%%%%%%%%%%%%%%%qQ%%%%%%%%%%%%%%%%%%q%
783A08Q%%%%%%%%%%%%%q%%QqQ%%%%%%qQ%%%%%%qQq%Q%%qQ%q%Q%%%qQ%%%%%%%qQ%%%%%%%%%
776A16%qQ%%%%%%%%%%%%%%%%%%%%q%Qq%Q%%qQq%QqQ%q%Q%qQ%qQ%%%%%qQ%%%%%%q%Q%%%%qQ
769A16%%%%%%%%%%%%%%%%%%%%%%%q%%QqQqQqQq%Q%q%QqQq%Q%%%qQqQqQ%%q%%Q%%%qQq%Q%q
763A08%Q%qQ%%qQq%Qq%QqQ%q%%QqQqQq%Qq%%%Qq%Qq%%%%%%Q%%%q%%%%%Q%%qQqQ%%qQqQq%%
756A08%%%Q%%qQqQ%%q%Q%q%QqQqQ%%%%q%%%%%%Qq%%%Qq%Qq%Qq%%%%QqQq%%%%Qq%%Qq%%%%Q
749A16q%%%%Qq%%QqQqQqQ%q%%Q%q%%%Qq%%Qq%%Q%qQqQ%qQ%q%Qq%%%%%%%%%%%%%Qq%%%Qj6J6
743A16%%q%q%L2j6%%%qJ6k4K4j6Q%q%%qJ6j6J6q%%%%Q%qQq%%%%%%%%%%Qq%%%%%%%%%%%%%%
737A08%%%%%QqQq%%%%%%%%%%%%%%%%%%%%%%%%%%%%%%%%%%%%%%%%%%%%%%%%%%%%%%%%%%%%%
730A08%%%%%%%%%%%%%%%%%%%%%%%%%%%%%%%%%%%%%%Qq%%%%%%%%%%%%%%%%%%%%%%%%%%%Qq%
724A08%%%%%%%%%%%%%%%%%%Qq%%%%%%%%%%%%%%%%%%%%%%%%%%%%%%%%Qq%%%%%%Qq%%Qj6Q%%
717A08%%%%%%%%%%%%%%%%%%%%%%%%%%%%%%%%%%%%%%%%%%%%%%%%%%%%%%%%%%%%%%%%%%%%%%
710A08%%%%%%%%%%%%%%%%%%%%%%%%%%%%%%%%%%%%%%%%%%%%%%%%%%%%qQ%%%%%%%%%%%%%%%%
704A08%%%%%%%%%%%%%%%%%%%%%%%%%%%%%%%%%%%%%%%%%%%%%%%%%%%%%%%%%%%%%%%%%%%%%%
697A08%%%%%%%%%%%%%%%%%%%%%%%%%%%%%%%%%%qQ%q%Qq%%Q%qQ%qQ%%%%%%%%%%%%%%%%%%%%
690A08%%%%%%%%%%%%%%%%%%%%%%%%%%%%%%%%%%%%qQ%%%%%%qQ%%%%%%%%%%%%%%%%%%%%%%%%
684A08%%%%%%%%%%%%%%%%%%%%%%%qQ%qQ%%qQqQ%%%%qQ%%%%%%%%%%%qQ%%%%%%%qQ%qQ%%%%%
677A08%%%%%q%%%Q%%%%%%%%%qQ%%%qQ%qQ%%%%%%%%%%%%%%%%%%%%%%%%%%%%%%%%qQ%%%%%%%
670A08%%%%%qQqQ%%qQq%Q%QqqQ%%qQqQ%%%%%%%qQ%qQ%%%%%%%%%%%%%%%%%%%%%%%%%%%q%Q%
664A08%%q%Q%%%%%%%%%qQ%%%%%%%%%%%%%%qQ%qQ%%%%%%%q%QqQqQqQq%%%Q%%qQ%%%%%q%Q%%
657A08%%%%%%%%%%qQ%%%%%%%%%qQ%qQ%%%%%%%%q%%Q%qQ%%%qQ%qQ%%%%%%%%qQq%%%QqQq%%Q
650A08%q%QqQ%%%%%%qQqQq%%QqQqQqQ%%%%qQ%q%Qq%Qq%%%%%Qq%%%%Qq%Q%q%%QqJ6k4%Q%%Q
644A08%%%q%QqQ%%%q%%Q%%%q%%%%Qq%%%QqQq%%%%%Qq%Qq%%Qq%%Q%q%QqQ%qQq%%%%%%%%%Qq
637A00Qq%%Q%%q%Qq%%Qq%Q%%q%Q%q%Qq%%%%%%%%Qq%%%Qq%%%%%%%Qq%Qq%%%%%%Qq%%%%%%%%
630A00%%%%%%%QqQqQqQq%%%Qq%%%%%Qq%%Q%%qQq%%%%%%%Qq%%Qq%%%%Qq%%%%%%%%%%%%%%%%
624A00%%Qq%%%%%Qq%Q%q%%%%%%%%%%%%%%%%%%%%%%%%%Qq%%%%%%%%%%%%%Qq%%%%%%%%%%%%%
617A00%Qq%%%%Qq%%%%%%%%%%%%%%%%%%%%%%%%%%%%%%%%%%%Qq%%%%%%%%%%%%%%%%%%%Qq%%%
610A00%%%%%%%%%%%%%%%%%%%%%Qq%Qq%qJ6qQq%%%%%%%%%%%%%%%%%%%%%%%Qq%%%%%%%%%%%%
604A00%%%%%%%%%%%%%%%%%%%%%%%%%%%%%%%%%%%%%%%%%%%%%%%%%%%%%%%%%%%%%%%%%%%%%%
597A00%Qq%%%%%%Qq%%Q%qQ%%q%%Qq%%%%%%%%%%%%Qq%%%%%%%%%%%%%%%%%%%%%%%%%%%%%%%%
591A00%%%%%%%%%%%%%%%%%%%%%%%%%%%%%%%%%%%%%%%%%%%%%%%%%%%%%%%%%%%%%%%%%%%%%%
584A00%%%%%%%%%%%%%%%%%%%%%%%%%%%%%%%%%%%%%%%%%%%%%%%%%%%%%%%%%%%%%%%%%%qQ%%
577A00%%%%%%%%%%%%%%%%%%%%%%%%%%%%%%%%%%%%%%%%%%%%%%%%%%%%%%%%%%%%Q%q%Qq%%%%
570A00%%%%%%%%%%%%%%%%%%%%%%%%%%%%%%%%%%%%%%%%%%%%%%%%%%%%%%%%%%%%%%%%%%%%%%
564A00%%%%%%%%%%%%%%%%%%%%%%%%%%%%%%%%%%%%%%%%%%%%%%%%%%%%%%%%%%%%%%%%%%%%%%
557A00%%%%%%%%%%%%%%%%%%%%%%%%%%%%%%%%%%%%%%%%%q%Q%%%%%%%%%%%%%%%%%%%%%%%%%%
550A00%%%%%%%%%qQ%%%%%%%%%%q%Q%%qQ%%%qQqJ6qQj6QqJ6qj6J6%Qj6Q%qQ%qQ%qQ%qQqQ%%
544A00%%q%Q%%%%%%%%%qQ%%%%%%%%%%%%%%%%%%%%%%%%%%%%%%%%%%%%%%%%%%%%%%%%%%%%%%
538A00%%%%%%%%%%%%%%%qQ%%%%%%%%%%%%%%%%qQq%%Q%%%%%%%%%%qQ%%%%%%%%%%%%%%%%%%%
531A00qQ%%%%%%%%%%%%%%%%%%%q%Q%%%%%%qQ%%qQ%%%%%qQ%%qQ%%%%%%%%%%%%%%%%%%%qQ%%
524A00%%%%%%qQ%%%%qQ%%q%Q%%%%%qQ%%%%%%%qQ%%%%%%%%%%%%qQqQ%%%%%%qQ%%%%qQ%%%%%
518A00qQ%%%%%%%%%%q%Q%qQ%qQ%%%%%qQ%%qQ%qQ%qQqQ%%%%%%%%q%Qq%Q%%qQ%%%%%%%%%%%%
511A00%%q%%QqQ%q%Q%%%%%q%QqQ%%%%%%%%%%%%%%%%qQ%%%qQ%%%%%%%%%%%%%%%%%%%%qQqQq
504I2Q%qQq%%Qq%%%%%%%%Qq%%%Q%%%%%%%%%%%%%qQq%Q%%q%Q%%%q%QqQq%%%Qq%Q%%%qQqqJ6
498A00qQqQ%%%q%Q%qQq%%QqQ%qQq%QqQ%qQ%qQ%%%%%q%%%%%Qq%Qq%%Qq%%%%Q%%%%q%%%Q%qQ
491A00q%%%Qq%%%%%%QqQqQ%q%%%Qq%%%%%%Qq%%Q%%qQ%%%q%Q%qQqQ%qQqQq%QqQ%%q%%%%%%%
484I2%%QqQq%%%%Qq%%Q%q%Qq%%%%%%%%%%%%Q%q%%%%%Q%%q%%%%%%%%Qq%%%QqQq%%%%%%%%%%
478I2%%%%%Qq%%%%%Q%q%%%Qq%%%Q%qQq%Q%qQq%QqQqQ%%q%Qq%%%%%%%%%%%%%%%%%%%%%Q%q%
471I2%%%%%%%%%%%%%%%%%%%%%%%%%Qq%%%Qq%%%%%%%%%%%%%%%%%%%Qq%%%%%Qq%%%%%%%%%%%
464I2%%%%%%%%%%%%%%%%%%%%%Qq%%%QqQ%q%Qq%%%%%%%%%%%%%%%%%%%Qq%%%%%%%%%%%Qq%Qq
457I2%%%%%%%%%%%%%%%%Qq%%%%%%%%%%%%%%%%%%%%%%%%%%%%%%%%%%%%%%%%%%%%%%QqQq%%%
450I2%%Qq%%Qq%%Q%%qJ6j6%QqQj6Q%%%%Qq%%%%%%%%%%%%%%%%%%%%%%%%%%%%%%%%%%%%%%%%
444I2%%%%%%%%%%%%%%%%%%%%%%%%%%%%%%%%%%%%%%%%%%%%%%%%%%%%%%%%%%%%%%%%%%%%%%%
437I2%%QqQq%%%%%%%%%%%%%%%%%%%%%%%%%%%%%%%%%%%%%%%%%%%%%%%%%%%%%%%%%%%%%Qq%%
430I2%%%%%%%%%%%%%%%%%%%%%%%%%%%%%%%%%%%%%%%%%%%%%%%%%%%%%%%Qq%%%%%%Qq%%%%%%
424I2%%%%%%%%%%%%%%%%%%%%%%%%%%%%%%%%%%%%%%%%%%%%%%%%%%%%%%%%%%%%%%%%%%%%%%%
417I2%%%%%%%%%%%%%%%%%%%%%%%%%%%%%%%%%%%%%%%%%%%%%%%%qQ%%%%%%%%%%%%%%%%%%%%%
410I2%%%%%%%%%%%%%%%%%%%%%%%%%%%%%%%%%%%%%%%%%%%%%%%%%%%%%%%%%%%%%%%%%%%%%%%
403I2%%%%%%%%%%%%%%%%%%%%%%%%%%%%qQ%qQ%qJ6j6Q%%%%%%%%%%%%%%%%%%%%%%%%%%%%%%%
397I2%%%%%%%%%%%%%%%%%%%%%%%%%%%%%%%%%%%%%%%%%%%%%%%%%%%%%%%%%%%%%%%%%%%%%%%
390I2%%%%%%%%%%%%%%%%%%%%%%%%%%%%%%%%%%%%%%%%%%%%%%%%%%%%%%%%%%%%%%%%%%%%%%%
383I2%%%%%%%qQ%%%q%%%Q%%%%%%%%%%%%%%%%%%%%%%%%%%%%%%%%%%%%%%%%%%%%%%%%%%%%%%
376I2%%%%qJ6j6J6j6Q%%%%%%%%%%%%%%%%%%%%%%%%%%%%%%%%%%%%%qQ%%qQ%%qQ%%%%%%%%%%
370I2%%%%%%%%%%%%%%%%%%%%%%%%%%%%%%%%%%%%%%%qQ%%%%%%%%%%%%%%%%%%%%%%qQ%%q%Qq
363H4QqQ%qQ%%%qQ%qQ%%%q%Q%%%%%%%%%%%qQ%%%%%%qQ%%%%%%%%%%%%%%qQ%%qQ%qQqQ%%%%%
356I2%%qQ%%%%%qQ%%%qQ%%%%qQqQ%%%%%q%%Q%q%Q%%qQqQ%q%qJ6qK4Qo4qM8m0M0K4%%k4%qJ6
350A00qqQ%%qQj6Q%Q%%%%qQq%QQq%qQ%%qQ%%%%%qQ%%qQq%Q%%%%%%qQ%%%%%%%%%%qQ%q%Q%%
344I2%%%qQ%qQ%%qQ%%qQ%%%qQ%%%%%%qQ%%%%%%%%qQ%%%%%%%%%%%%%%%%%%%%%%%%%%%%%%qQ
337I2qQ%%%%%qQ%%%%%%%%qQ%%%%%%qQqQ%%q%Q%%%%%%%%qQ%qQ%qQ%%%%%%%%%q%Q%%%%%%%%%
330I2%%%%%%%%q%Q%%%%%%%%%%qQ%%%%%%q%Qq%Qq%QqQ%%%%%%%qQ%qQ%q%%%Q%%qQq%%%%%%Q%
324I2%qQ%%%%%%%%%%%qQ%%%%%qQ%%qQ%%qQq%%%%%Qq%Q%%%%%%%%%%%qQqQ%%%qQ%qQq%%Qq%%
317H4%%%%%Qq%Q%q%Q%qQqQq%Q%%%%qQqQ%%qQqQ%%qQ%%%qQ%qQ%%q%Qq%%%Q%%%q%Q%qQ%%qQq
310H4%%%%%QqQ%q%%Q%q%%Qq%%%%Qq%Qq%%%Q%%%%q%Q%%%%%q%%Q%qQqQ%q%%%%Q%%qQqQ%%qQ%
303I2q%%%Qj6Q%QqqJ6q%Qq%%Qq%Qq%%Q%%%%q%Q%%%%qQqQq%Q%qQq%QqQ%%%q%Qq%QqQ%q%Q%%
297I2qQqQ%q%Qq%%%%Qq%%%%Qq%%%%QqQ%%q%%%Q%q%%%Q%qQq%%%Q%q%%%%%%Qq%%%%%%Qq%%%Q
290I2q%%Qq%Qq%%%%%%Qq%%%%%%%%%%%%%%%QqQq%Qq%QqQq%%%%%%%Qq%%Qq%%%%%Qq%%%%%%%%
283H4%%%%%%Qq%%%QqQqQ%%q%QqQ%%q%%%%%%Qq%%%%%%%%%%%Qq%Qq%%qQ%%%%%%%%%%%%%%%%%
276H4%Q%%q%Q%qQq%%%%%%%%%%%%QqQq%Qq%%%%%%%%%%%QqQq%%%%%%%%%%%%%%%%%Qq%%%%%%%
270H4%%%%%%Qq%%Qq%%%%%%%%%%%Qq%%Q%qQq%%Q%q%%QqQq%%%%%%%Qq%%%%%%%%%%Qq%Qq%%%Q
263I2qQ%q%%Qq%Qq%%%%%%%Qq%Qq%Qq%%%%%%%%%%%Qq%Q%q%%%%%%%%%%%%%%%%%%Qq%QqQq%Qq
256H4%%QqQ%q%%QqQq%%%%Qq%%%%%QqqQ%%%%%%Qq%%Qq%%%%%%%%%%%%Qq%%%%%%%%%%%%%%%%%
249H4%%%QqQq%%%%%%%%%Qq%%%%%%%%%%%%%%%%%%%%%%%%%%%%%%%%%%%%%%%%%%%%%%%%%%%%%
243H4%%%%%%%%%%%%%%%%%%%%%%%%%%%%%%%%%%%%%%%%%%%%%%%%Qq%%%%%%%%%%%%%%%%%%Qq%
236H4%%%%%%%%%Qq%%%%%%%%%%%%%Qq%%%%%%%%Qq%%%%%%%%%%%%%%%%%%%%%%%%%%%%%%%%%%%
229H4%%Qq%%%%%%%%%%%%%%%%%%%%%%Qq%%%%%%%%%%%%%%%%%%%%%%%%%%Qq%Qq%%%%%%%%%%%%
222H4%%%%%%%%%%%%%%%%%%%%%%%%%%%%%%%%%%%%%%%%%%%%%%%%%%%%%%%Qq%%%%%%%%%%%%%%
215H4%%%%%%%%%%%%%%%%%%%%%%%%%%%%%%%%%%%%%%%%%%%%%%%%%%%%%%%%%%%%%%%%%%%%%%%
209H4%%%%%%%%%%%%%%%%Qq%%%%%%%Qq%%%%%%%%q%QQq%%%%%%%%%%%%%%%%%Qq%%%%%%%%%%%%
202H4%%%%%%%%%%%%%%%%%%%%%%%%%%%%%%%%%%%%%%%%%%%%%%%%%%%%%%%%%%%%%%%%%%%%%%%
195H4%%%%%%%%%%%%%%%%%%%%%%%%qQ%%%%%%%%%%%%%%%%%%%%%%%%%%%%%%%%%%%%%%%%%%%%%
188H4%%%%%%%%%%%%%%%%%%%%%%%%%%%%%%%%%%%%%%%%%%%%%%%%%%%%%%%%%%%%%%%%%%%%%%%
182H4Qq%%%%%%%%%%%%%%%%%%%%%%%%%%%%%%%%%%%%%%%%%%%%%%%%%%%%%%%%%%%%%%%%%%%%%
175H4%%%%%%%%%%%%%%%%%%%%%%%%%%%%%%%%%%%%%%%%%%%%%%%%%%%%%%%%%%%%%%%%%%%%%%%
168H4%%%%%%%%%%%%%%%%%%%%%%%%%%%%%%%%%%%%%%%%%%%%%%%%%%%%%%%%%%%%%%%%%%%%%%%
161H4%%%%%%%%%%%%%%%%%%%%%%%%%%%%%%%%%%%%%%%%%%%%qQ%%%%%qQ%j6K4j6%QQk4J6QqqJ6
155I2q%%%%%%%%Qq%%%%%%%%%%%%%%%%%%%%%%%%%%%%%%%%%%%%%%%%%%%%%%%%%%%%%%%%%%%%
148H4%%%%%%%%%%%%%%%%%%%%%%%%%%%%%%%%%%%%%%%%%%%%%%qQ%%%%%%%%%%%%%%%%%%%%%%%
141H4%%%%%%%%%%%%%%%%%%%%%%%%%%%%%%%%%%%%Qq%%%%%%%%%%%%%%%%%%%%%%%%%%%%%%%%%
135H4%%%%%%%%%%%%%%%%%%%%%%%%%%%%qQ%%%%qQqQ%%%%%%%%%%%%%%%%%%%%%%%%%%%%%%%%%
128H4%%%%%%%%%%%%%%%%%%%%%%%%%%%%%%%%%%%%%%%qQ%%%%%%%%%%%%%%%%%%%%%%%%%%%%%%
121H4%%%%%%%%%%%qQ%%%%%%%%%%%%%%%%%%%%%%%%%%%%%%%%%%%%%%%%%%%%%%%%%%%%%%%%%%
114H4%%%%%%%%%%%%%%%%%%%%%%%%%qQ%%%%%%%%%%%%%%%qQ%%%%%%%%%%%%qQ%%%%%qQ%%%%%q
108G6Q%%qQ%qQ%QqqQ%%%%%%%%%%%%%%%%%%%%%%%%%%%%%%qQ%%qQ%%%qQ%%%%%%qQqQqQ%%%%%
101H4%%%%%%%%%%qQ%%%%%%%%%%%%%%%qQ%%%%%%%%%%%%%%%%%qQ%%%%%%qQ%%%qQqQqQqQ%qQ%
94H4qQ%%%%%%%%%%%%%%%%%%%%%%%%%%%%%%%%%%%%%%%%%%%%%%%%%qQ%%%%%%%%%%%%%%%%%%%
87H4%%%%%%%%%%%%%%%%%%%%%%%%%%%%%%%%%%%%%%%%%qQ%%%%q%%%Q%%%qQ%%%%%%%%%%%%%%%
80H4%%%%%%%%%%%%qQ%%%%%%qQ%%%%%%%%qQ%%%%%q%%Q%%%%%%qQ%%qQ%%%%%%qQ%%%qQ%%%qQ%
73H4%qQ%%%%%%qQ%%%%%%%%qQ%%%%%%%%%q%%%Qq%%%Q%%%%%qQ%%%%%%%%qQ%%%%qQ%%%%%%%%q
67G6Q%%%%%q%Q%%%%%%%%%%%%%%%%%%%%%%%qQ%%%%qQ%%%%%q%QqQ%%%%%%%%qQ%%%%%%%%q%Q%
60H4qQ%%%q%Q%%qQQj6Qj6K4q%%qQqQ%%%qQ%qQqQ%%%%%%%%%%%%%%%q%Q%%%%%%%qQ%%%qQ%%q
53G6Q%qQ%%%%%%%qQ%%%%qQ%%%%%%q%Q%q%Q%%qQ%%%%%%q%Q%%%%%qQq%Q%%%%%%qQ%%%%q%%Q%
46H4%qQqQ%%%%%%%%%%%%%qQ%%%%%%%%%%%qQ%%%%qQ%qQ%%%%%%%qQ%q%Q%q%Q%qQ%%%%%%%%%%
39H4qQ%%%%%qQ%%%qQ%%%%qQ%%%qQ%%%%%%%%%%%%%%%%%%%%%%%%%%%q%QqQ%q%%Qq%Q%%%%q%Q
33H4%%%%%%%%%qQqQq%Qq%Q%%%qQ%%%%%%qQ%%%%%%%%%%%%%%%q%Q%q%Q%qQ%%%%qQ%%%%%%%%%
26H4%%%%%%qQ%%%q%%%Q%%%qQqQ%qQ%%%%q%Qq%QqQqQqQq%%Q%%%%%%%%qQ%%q%Qq%Q%%q%%%%Q
19H4qQqQq%QqQqQ%qQ%%qQ%%%%%%qQqQ%%%%%%qQqQ%%qQ%qQ%qQq%%%%QqQqQqQqQ%%%%%%qQ%q
12G6Q%%%qQq%Q%%%%%q%%%%%Q%j6J6%qQ%%%q%Q%%q%%%QqQ%%%%%%%qQq%%%%%%%%QqQq%%%%Qq
5G6Qq%%Q%%%%q%Qq%QqQqQ%qQqQ%%q%Qq%%Qq%%%Q%%%qQ%%%%qQq%Q%q
0G6
##$OBSERVED MULTIPLETS=	(I, X, Y, Hs, Vs, An, H, C, N, (J))
$$ I: Multiplet Index
$$ X: Strt Coordinate
$$ Y: End Coordinate
$$ Hs: Horizontal Chemical Shift
$$ An: Normalised Integral Area
$$ H: Hydrogens
$$ C: Category
$$ N: Name
$$ (J): Coupling Constants
(1, 5.3845098895149341445, 5.3958919606528787938, 5.3902009250839064691, 4, 4, s, 1&comma;2)
##$OBSERVED MULTIPLETS AREAS=	
(1, 2.003575520027213841)
##$OBSERVED MULTIPLETS PEAKS=	(I, X, Y)
$$ I: Multiplet Peak Index
$$ X: Peak x Position
$$ Y: Peak Intensity
(1, 5.3902009250839064691, 0.16190078854560852051)
##$PREDICTED PEAKS=	(X Y T A)
(5.3902075621840692676,  , 0.10000000000000000555, <1-a>)
(5.3902075621840692676,  , 0.10000000000000000555, <1-b>)
(5.3902075621840692676,  , 0.10000000000000000555, <2-a>)
(5.3902075621840692676,  , 0.10000000000000000555, <2-b>)
##$PREDICTEDCOUPLINGCONSTANTS=	J(A,B)	$$ (Hz)
1.53(1-a, 1-b)
1.53(1-b, 1-a)
1.53(2-a, 2-b)
1.53(2-b, 2-a)
##END=		$$ NMR SPECTRUM
##TITLE=	Predicted 1H NMR Spectrum
##JCAMP-DX=	6.0	$$ MestReNova 17.0.0-41178
##DATA TYPE=	NMR PEAK TABLE
##DATA CLASS=	PEAK TABLE
##BLOCK_ID=	4
##ORIGIN=	Mestrelab Research S.L.
##OWNER=	ctheodore
##CROSS REFERENCE=	NMR SPECTRUM: BLOCK_ID=3                                     
##.OBSERVE FREQUENCY=	500
##.OBSERVE NUCLEUS=	^1H
##NPOINTS=	1
##FIRSTX=	5.3902009250839064691
##LASTX=	5.3902009250839064691
##XFACTOR=	1
##YFACTOR=	1
##FIRSTY=	0.16190078854560852051
##XUNITS=	PPM
##YUNITS=	ARBITRARY UNITS
##PEAK TABLE=	(XYW..XYW)
5.3902009250839064691,0.16190078854560852051,0.0015026909555507306573
##$MNOVA/PEAK_DATA_TABLE=	(T,F,A,ST,SP,APT,APC)
$$ Complementary to PEAK TABLE
$$ T: Type
$$ F: Flags
$$ A: Annotation
$$ ST: Shape Type
$$ SP: Shape Parameter
$$ APT: Attached Peaks Type
$$ APC: Attached Peaks Count
Compound,None,,0,0,0,0
##END=		$$ NMR PEAK TABLE
##END=		$$ LINK
