##TITLE=	ethene 1h
##JCAMP-DX=	6.0	$$ MestReNova 17.0.0-41178
##DATA TYPE=	LINK
##BLOCKS=	3    
##ORIGIN=	Mestrelab Research S.L.
##OWNER=	ctheodore
##$MNOVA/METADATA=	(DOCUMENT,BASE64)
eyJuYW1lIjoiL1VzZXJzL2N0aGVvZG9yZS9Eb2N1bWVudHMvY2xhc3Nlcy9OTVIgZXhwZXJpbWVudC9
naXRodWIgZmlsZXMvZXRoZW5lL2V0aGVuZSAxaC5tbm92YSIsInBhZ2VzIjpbeyJpdGVtcyI6WyIxIi
wgICAgICAgICAgICAgICAgICAgICAgICAgICAgICAgICAgICAgIjIiICAgICAgICAgICAgICAgICAgI
CAgICAgICAgICAgICAgICAgIF19XX0=
##TITLE=	
##JCAMP-CS=	3.7	$$ MestReNova 17.0.0-41178
##BLOCK_ID=	1
##ORIGIN=	Mestrelab Research S.L.
##OWNER=	ctheodore
##$MNOVA/METADATA=	(ITEM,BASE64)
eyJhbmdsZSI6MC4wLCJwb2ludHMiOlt7IngiOjUzMjEuMCwieSI6NTgzNS4wfSx7IngiOjU1MjQuNzE
1NjIxNjIxNDQ0LCJ5Ijo1ODM1LjB9LHsieCI6NTUyNC43MTU2MjE2MjE0NDQsInkiOjYwMDQuMTIyNT
Q0NjkwOTc3fSx7IngiOjUzMjEuMCwieSI6NjAwNC4xMjI1NDQ2OTA5Nzd9LHsieCI6NTMyMS4wLCJ5I
jo1ODM1LjB9XSwieiI6MS4wfQ==
##NAMES=	
##ATOMLIST=	
$$ AN	AS	NH
	1	C	2
	2	C	2
##BONDLIST=	
$$ AN1	AN2	BT
	1	2	D
##MAXRASTER=	32768
##XY_RASTER=	
$$ AN	X	Y	Z
	1	-32767	18915	0
	2	32767	-18915	0
##END=		$$ JCAMP-CS
##TITLE=	Predicted 1H NMR Spectrum
##JCAMP-DX=	6.0	$$ MestReNova 17.0.0-41178
##DATA TYPE=	NMR SPECTRUM
##DATA CLASS=	XYDATA
##BLOCK_ID=	2
##ORIGIN=	Mestrelab Predictor, Modgraph NMRPredict Desktop
##OWNER=	ctheodore
##NUMDIM=	1
##$MNOVA/METADATA=	(ITEM,BASE64)
eyJhbmdsZSI6MC4wLCJheGVzIjp7IngiOnsibWF4Ijo2LjExOTY1OTI3NTcyMTg4NywibWluIjo0LjE
3OTA3MTA1NDEzMzk1MX0sInkiOnsibWF4IjowLjE0NDIxMzU2NzMxMDAxNjMsIm1pbiI6LTAuMDEzMT
EwMzI1MzczMDQzNjgyfX0sInBvaW50cyI6W3sieCI6NTMyMS4wLCJ5Ijo1ODM1LjB9LHsieCI6ODcyM
i4wLCJ5Ijo1ODM1LjB9LHsieCI6ODcyMi4wLCJ5Ijo4MjA4LjB9LHsieCI6NTMyMS4wLCJ5Ijo4MjA4
LjB9LHsieCI6NTMyMS4wLCJ5Ijo1ODM1LjB9XSwieiI6MC4wfQ==
##.OBSERVE FREQUENCY=	500
##.OBSERVE NUCLEUS=	^1H
##.SOLVENT NAME=	Methanol-d4
##.PULSE SEQUENCE=	
##.ACQUISITIONMODE=	SIMULTANEOUS (DQD)
##$ORIGINAL FORMAT=	Predictor
##$MNOVA/SCALES_VERSION=	9
##$PARAMETER FILE=	(parameters, ASCII, , 0)
$$ <?xml version="1.0" encoding="utf-8"?>
$$ <PredictorParameters>
$$     <Title>Predicted 1H NMR Spectrum</Title>
$$     <Origin>Mnova: NMR Prediction</Origin>
$$     <Name>Mestrelab Predictor, Modgraph NMRPredict Desktop</Name>
$$     <Version>1.7, 1.22 (5.076)</Version>
$$     <Nucleus>1H</Nucleus>
$$     <Solvent>Methanol-d4</Solvent>
$$     <From>0</From>
$$     <To>12.5</To>
$$     <Frequency>500</Frequency>
$$     <LineWidth>0.75</LineWidth>
$$     <Size>65536</Size>
$$     <DEPT>0</DEPT>
$$     <ProtonatedCarbons>0</ProtonatedCarbons>
$$     <ExcludeLabile>true</ExcludeLabile>
$$     <FastPrediction>0</FastPrediction>
$$     <ProtonDecoupled>0</ProtonDecoupled>
$$     <Reference/>
$$     <Options>
$$         <Settings>
$$             <Predictor Name="Mestrelab Predictor">
$$                 <Settings>
$$                     <Model>/Applications/MestReNova.app/Contents/Resources/data/1H.mbst</Model>
$$                 </Settings>
$$             </Predictor>
$$             <Predictor Name="Modgraph NMRPredict Desktop">
$$                 <Settings>
$$                     <Algorithm hoption="2" hsolvent="1" usnucleus="1">Fast Increments</Algorithm>
$$                     <JsAlgorithm>Fast Increments</JsAlgorithm>
$$                     <NMRSOAPDIR>/Applications/MestReNova.app/Contents/Resources/NMRPredict</NMRSOAPDIR>
$$                     <NMRTEMPDIR>/private/var/folders/3f/5b3_td5j7k3f1lyt31390d3jfxj842/T/NMRPredict-1574477954</NMRTEMPDIR>
$$                     <NMRUSDATABASEDIR>/Users/ctheodore/Library/Application Support/Mestrelab Research S.L./MestReNova/NMRPredict/NMR1HDatabase</NMRUSDATABASEDIR>
$$                     <Databases>ABCDEFGHIJKLMNOPQRSTUVWXYZ</Databases>
$$                 </Settings>
$$             </Predictor>
$$         </Settings>
$$     </Options>
$$     <MoleculeID>{bcaf7cce-5f39-468f-a22b-78d4d39b809a}</MoleculeID>
$$ </PredictorParameters>
$$ 
##XUNITS=	HZ
##YUNITS=	ARBITRARY UNITS
##FIRSTX=	6250
##LASTX=	0.095367431640625
##DELTAX=	-0.095367431640625
##XFACTOR=	1
##YFACTOR=	7.5390922706498877328E-11
##FIRSTY=	5.9877383051798460656E-09
##MINY=	-6.4666294541382285388E-10
##MAXY=	0.16190077364444732666
##NPOINTS=	65536
##XYDATA=	(X++(Y..Y))
6250G9%%%%%%%%%%%%%%%%%%%%%%%%%%%%%%%%%%%%%%%%%%%%%%%%%%%%%%%%%%%%%%%%%%%%%%
6243G9%%%%%%%%%%%%%%Qq%%%%%%%%%%%%%%%%%%%%%%%%%%%%%%%%%%%%%%%%%%%%%%%%%%%%%%
6237G9%%%%%%%%Qq%%%qJ6q%%%%%%%%%%%%%%%%%%%%%%%%%%%%%%%%%%%%%%%%%%%%%%%%%%%%%
6230G9%%%%%%%%%%%%%%%%%%%%%%%%%%%%%%%%%%%%%%%%%%%%%%%%%%%%%%%%%%%%%%%%%%%%%%
6223G9%%%%%%Qq%%%%%%%%%%%%%%%%%%%%%%%%%%%%%%%%%%%%%%%%%%%%%%%%%%%%%%%%%%%%%%
6217G9%%%%%%%%%%%%%%%%%%%%%%%%%%%%%%%%%%%%%%%%%%%%%%QqqQQ%qQ%qQk4J6k4QJ6l2M0
6211H7q%Qj6QqQQq%Qq%%%%%%%%Qq%%%%%%%%%%%%%%%%%%%%%%%%%%%%%%%%%%%%%%%%%%%%%%%
6204G9%%Qq%%%%%%%%%%%%%%%%%%%%%%%%%%%%%qQ%%%%%%%%%%%%%%%%%qQ%%%%%%%%%%%%%%%%
6197G9%%%%%%%%%%%%%%%%%%%%%%%%%%%%%%%%%%%%%%%%%%%%%%%%%%%%%%%%%%%%%%%%%%%%%%
6191G9%%%%%%%%%%%%%%%%%%%%%%%%%%%%%%%%%%%%%%qQ%QqQ%q%%%%%%Qq%%%%%%%%%%%%%%%%
6184G9%%%%%%%%%%%%%%%%%%%%%%%%%%%%%%%%%%%%%%%%%%%%%%%%%%%%%%%%%%%%%%%%%%%%%%
6177G9%%%%%%%%%%%%%%%%%%%%%%%%%%%%%%%%%%%%%%%%%%%%%%%%%%%%%%%%%%%%%%%%%%%%%%
6171G9%%%%%%%%%%%%%%%%%%%%%%qQ%%%%%%%%%%%%%%%%%%%%%%%%%%%%%%%%%%%%%%%%%%%%%%
6164G9%%%%%%%%%%%%%%%%%%qQj6J6%%Qq%%%%%%%%%%%%%%%%%%%%%%%%%%%%%%%%%%%%%%%%%%
6157G9%%%%%%%%%%%%%%qQ%%%%%%%%%%%%%%%%%%%%%%%%%%%%%%%%%%%%%qQ%%%%%%%%%%%%%%%
6151G9%%%%%%%%%%%%%%%%%%%%%%%%%%%%%%%%%%%%%%%%%%%%%%%qQ%%%%%qQ%%%%%%%%%%%%%%
6144G9%%%%%%%%%%%%%%%%%%%%%%%%%%%%%%%%%%%%%%%%%%%%%%%%%%%%%%%%%%%%qQ%q%Q%%%%
6137G9%%%%%%%%%%qQ%%%%%qQ%%%%%%%%%%%%qQ%%%%%%%%%%%%%%%%%%%%%%%%%%%%%%%%%%%%%
6131G9%%%%%%%%%%%%%%%%%%%%%%%%%%%%%%%%%%%%%%%%%%%%%%%%%%%%%%%%%%%%%%%%%%%%%%
6124G9%%%%%%%%%%%%%%%%%%%%%%%%%%%%%%%%%%%%%%%%%%%%%%%%%%%%qQ%%%%%%%%%%%%%%%%
6117G9%%%%%%%%%%%%%%%%%%%%%%%qQ%%%%%%%%%%%qQqQ%Q%qqJ6q%%%%%%%%%%%%%%%%qQ%%%%
6111G9qQ%%qQ%qQ%%%%%%%%%%%%%%%%%%%%%%%%%%%%%%%%%%%%%%%%%%%%%%%%%%%%%%%%%%%%%
6104G9%%%%%%%%%%%%%%%%qQ%%%%%%%%%%%%%qQ%%%%%%%%%%%%%%%%%%%%%%%%%%%%%%%%%%%%%
6098G9%%%%%%%%%%%%%%%%%%%%%%%qQ%%%%%%%%%qQ%%%%%%%%%%%%%%%%%%%%%%%%%%%%%%%%%%
6091G9%%%%%%%%%%%%%%%q%QqQQq%qQ%%%%%%%qQ%%%%%%%%%q%Q%%%%%%%%%%%%%%%%%%%%%%%%
6084G9%%%%%%%%qQ%%%%%%%%%%%%%%%%%%%%%%%%%%%%%%%%%%%%%%%%%%%%%%%%%qQq%Q%%q%Qq
6077G1QqQ%qQ%%%%%%%%%%%qQ%%%%%%%%%%%%%%%%%%%%%%%%%%%%%%%%%%%%%qQ%%%%%%%%%%%%
6071G9%%qQ%%%%%%%%%%%%%%%%%%%%%%%%%%%%%%%%%%%qQqQ%%%%%%%%%%%%%%%%qQ%%qQ%qQQq
6064G9%%%%qQqQ%%%%%%%qQ%%%qQ%%%%%%%q%Q%%%%%qQ%%qQqQ%%qQ%%%%%%%%%%%%%%%qQ%%%%
6057G9%%%%%%%%%%%%%%%%%%%%%%%%%%%%%%%%%%%%%%%%%%%qQ%%%%%%%%%%%%%%%%q%Q%qQ%%%
6051G9%%%%%qQ%%%%%%%%%%%%qQ%q%Q%%%%%%%%%%%%%%%%%%%%%%%%%%%%%%%%%%qQ%%%%%%%%%
6044G9%%%%%%%%%%%%%%%%%%%%%%qQ%qQ%%%%%qQ%q%%%Q%%%%%%%%%%qQ%%%%%%%%%%%%%%%%%%
6037G9%%%%%%%%%%%%%%%%%%%%%%%%%%%%%%qQ%%%%%%qQ%%%%%%%%%%%%%%%%%%%%%%%%%%%%%%
6031G9%%%%%%%%%%%%%%%qQ%%%%%%qQ%%%qQ%%%%%%%%%%%%%%%%%%%%qQ%qQ%%%%%%qQ%%%%%%%
6024G9%%%qQ%%%%%%%%%%%%%%%%%%%%%%%qQ%%%%%%%%%%%%%%%%%%%%qQ%%qQ%%%%%%%%%%%%qQ
6017G9%q%%%Q%q%Qq%qQQj6QJ6j6qQqJ6%%%qQqQqQ%%qQqQqQ%qQqQ%%qQ%%qQ%%%%%qQqQ%%%%
6011G9%%%%%%%%%%%%%%qQ%%%%%%%%%%%%%%%qQq%Q%%%%%%%%%%%%qQqQqQ%%%%%%%%%%%%%%qQ
6004G9qQ%%%%qQ%%%q%%%Q%%%%%qQ%%%%%%%qQ%%%%%%%%%%%%%%qQqQ%%%%%%%%%%%%%%%%%%%%
5998G9qQ%%%%%%%%qQ%%%%%%%%qQ%%%%%%%%%%%%%%%%%%%%%%%%%%%%%%%qQ%%%%%%%%q%%%%Qq
5991G1Qq%Q%%qQ%%qQ%q%Q%%%%%%%%%%qQ%%qQ%%%%%qQ%%qQ%%%%%%%%qQ%%%qQqQqQq%%%QqQ%
5984G9%qQ%%%%%%%q%Q%%%%%%%%%%%qQqQ%%%%%%%%%%%%%%q%Qq%%Q%%qQqQ%qQ%%qQ%%%%%%%%
5978G9%%%%%%%%%%%%%%%%%%%%%%%%%qQ%qQ%%%qQ%%%%%%%%q%%%Q%%%%%q%Q%%%qQq%Q%qQqQ%
5971G9qQqQ%%%%qQ%%%%%%%%%%%%%%%%%%q%QqQ%qQ%%qQ%%q%Q%%q%Q%%%qQqQ%%%%%%q%Q%%%%
5964G9%qQqQ%%qQ%%%%qQ%%%%%%%%%qQ%%%%%%q%Q%qQ%qQq%%Q%%%%%%qQ%qQ%%%%%%%%%%%%%%
5958G9qQqQ%%%%%%qQ%%%%%%%%%%%%qQ%%%%qQq%%%%%%%%%Q%qQq%Q%%%%%%%%%%%%%%%%%%qQ%
5951G9%qQ%%%%%qQ%%%%%qQ%%%%%%%qQ%%qQ%%%%%%%%qQ%%%%%%%%%%qQqQ%%%%%%%%%%%%%%%%
5944G9%%%%qQ%q%%%Q%q%Q%%%%qQ%%q%Q%%qQ%qQqQ%%%%%qQ%qQ%%%%%%q%Q%%%%%%%%%%qQ%%%
5938G9%%%%%%%%%%%qQ%qQ%%%%%%%%%%%%qQ%%%%%qQ%%%qQ%%qQ%%%%%qQ%%%qQqQ%q%Q%%qQ%%
5931G9%%%%q%%Q%qQqQ%%%%%%qQqQ%qQ%%qQ%%%%qQqQ%%%%qQqQ%q%Q%%%%qQ%%qQ%%qQ%%%qQq
5924G1QqQ%%q%Q%q%Qq%%Q%%%%%%%%%%%%%%%qQ%%%%qQ%%%%qQ%%%%qQ%%qQ%%%qQqQqQQqqJ6q
5918G9%%qQ%%%%%%%%%qQ%%%%%%%qQ%%%qQ%%%%%%%%%qQ%qQ%%%qQ%qQ%%qQ%%qQ%%%qQ%%%%%q
5911G1QqQ%%qQ%%%qQ%qQ%%%%%%%%%%qQ%%%%%%%%%%%%%%%%%%%%%%q%QqQ%qQqQ%%%%%%%%%%%
5904G9%%%qQq%Q%%%%qQqQ%%%%%%%qQ%%%%%%%%qQ%%%%%%%%%%%%%%%%%%%%%%%%%%%%qQ%%qQ%
5898G9%%qQ%%%qQ%q%Q%%%%%%%%%%qQ%%%%%%qQ%%qQ%%qQ%%q%QqQ%%qQ%%qQ%%%%%qQqQ%%qQ%
5891G9%%%q%%QqQ%%%%%%qQ%%%%qQ%%%qQqQ%%%%qQq%%Q%qQqQq%%Q%q%Q%%%%%%qQ%qQ%%%qQq
5884G1Qq%Q%%%%%%%%%%%qQ%qQ%%%%%%qQ%q%Q%q%Q%%%%%%qQq%QqQ%%%%%%q%Q%%%%%qQ%%qQq
5878G1Qq%%Qq%Q%%%%%%q%QqQ%%%%%%%%%%%%qQ%%%%%%%%%%qQ%%%qQ%qQ%%%%%%%%%%%q%Q%%%
5871G9%%q%%Q%qQ%%qQ%qQ%%qQq%%Q%%%%%%qQ%%%q%Q%qQ%%%%%%%%%%%qQ%%qQ%%%%%%%qQqQ%
5864G9%%%%qQ%%qQ%%qQ%qQqQ%%%%%%%%%%%%%%%%%%%%%%%%%%%%qQ%%%%%%%%qQ%%%%%%%%%%%
5858G9%qQ%%qQ%%qQ%%qQ%%qQ%%%%%%%%%%%%%%%%%%%qQ%%q%Q%%q%Q%%%%%qQ%qQ%qQqQ%q%%%
5851G1%%%%%Q%%q%Q%%qQ%%qQq%%Q%q%Q%qQqQ%%%qQ%%%%%qQ%q%Qq%Q%%%%%%%q%Qq%%%qJ6%q
5844G1%Q%%%q%%Q%%%q%QqQ%%qQqQ%q%%%%%Q%%%qQqQqQ%%%%%%%%%%%%%%%%%%q%Q%%%qQq%Q%
5838G9%%q%Q%%%%%%%%qQ%%%%%qQqQqQ%%qQ%%%q%%Q%%%%q%%QqQ%%q%%%%%Q%%%%%%q%%QqQqQ
5831G9%%%%%%%qQqQ%qQ%%%%%%qQq%Q%%q%QqQqQq%Q%q%%%%Q%%qQq%Qq%%Qq%Q%qQqQq%QqQqQ
5824G9qQq%%%%%%%Qq%Q%%%qQ%q%QqqK4q%j6K4j6Q%q%q%K4j6M0J6n6M0j20J20j6j6j6Qm0O4
5820I5qqQj6%%Q%%q%%J6qqQ%%qQ%qQ%qQq%Q%q%Q%q%%Q%q%Q%qQ%%%%Qq%%%%%qQqQqQqQq%%Q
5813G9%qQ%%qQ%%%%%%%%%%%%%%%%%%%%%%%%%%%%%%%%%%%%qQ%qQq%%%Q%%%q%%Q%q%QqQqQ%%
5806G9%%%%%qQqQ%%qQ%%%%%%%%%%%%%%%%%%%%%%%qQ%%%%%%qQ%%%%%%%%%%%%%%%%%%%%%qQ%
5800G9%qQ%%qQ%%q%QqQqQ%q%Q%%qQ%q%Q%%q%Q%qQq%%%Q%%%%%%%%%%%%%%%%%%%%%%%%qQqQ%
5793G9%%%%%%qQ%%%%qQqQqQ%q%Q%%q%Q%qQqQ%%q%Q%%qQ%%%%%%%%%%%%%%%%qQ%qQ%%%%%%%%
5786G9%%%%%%%%%%%%%%%%%%qQ%%q%%%Qq%Q%%qQ%qQ%%%%%%%%%%%%%%%%%q%Q%%%%%qQ%%qQ%%
5780G9qQ%%%qQ%qQqQqQ%%%%%q%Q%%%%%%qQ%%%q%Q%%%%%%%%%%%%%qQ%%%qQ%%%%%%%%%%%qQ%
5773G9%q%Q%%qQ%qQ%%%j6J6qQq%Q%%%%%%%%%%qQ%%qQ%qQ%q%%Q%q%Q%%%%q%%Q%qQ%qQ%%%%%
5766G9%%%%qQ%%%qQ%%%%%qQ%%%%%%%qQ%%%%%qQ%%%qQqQqQqQ%%%%%%%%%%%%q%Q%%%%%%%%%q
5760G1%Q%q%Q%%q%Q%qQ%%qQ%%%qQqQ%%qQ%qQqQ%%qQq%Q%%q%Q%qQ%%q%Q%%%qQ%%%%%%%qQqQ
5753G9%%%%%%%%qQqQ%%%%%qQ%qQqQ%%%%%%%%%%%%%qQ%%%%%%qQqQ%qQ%%qQ%qQqQqQq%Q%%%q
5746G1Q%%%%%%%%%%%qQqQ%%%%qQ%%qQ%q%Q%%%%%%qQ%%%%%%%qQ%%%%%%%qQ%%%%qQ%qQqQ%%q
5740G1Q%%qQqQqQ%%qQ%%%%%%%%%%qQ%%%%%%%%%%%%q%Q%%qQ%%qQq%QqQqQ%%%%%%%%%%%%%%%
5733G9%%%%%%%%%%%qQ%%%%%%qQ%%%%%%%%%%%%%%%%%%%%%%%%%%%%q%QqQ%%%%%%%%%qQ%%%%%
5726G9%qQ%%%%%%qQ%%%%%%%%%%qQ%%q%%Q%q%%Q%%q%%%Q%qQ%qQqQ%%%%%%%%qQ%%%%%%%q%%%
5720G1Qq%QqQ%%%q%Q%%%qQ%qQ%%qQqQ%%%%%%qQqQ%qQqQq%Qq%Q%%qQ%%%%%%%qQ%%%%%%%%%%
5713G9%%%%%%%%%%%%%%%qQ%%qQ%%%qQ%%%%qQ%%%%qQ%%%%%%%qQq%Q%qQqQqQqQ%%%%%%%%%%q
5706G1Q%%%%%%%%%%%%%%q%Q%%%qQ%qQ%%%%%%qQ%%%%%%%%%%%%%%%%qQ%%%%%%%%%%%%%%%%%%
5700G9%qQ%%%qQ%%%%%QqqQ%%%qQq%Q%%%%%%%%%%%%%%q%Q%qQqQ%%%%%%%%%%qQ%%%%qQ%%%%%
5693G9%%%%%%%%%q%%QqQ%%%%%qQ%%%qQ%%%%%%q%%Q%%%q%Q%q%%Q%%%%%%%%%%%%%%%%%qQ%%q
5686G1Q%%qQqQqQ%%%qQ%%%%%%qQ%%%%qQq%Q%%%%%%%%%q%Q%%%%%%qQ%%%%%%%%%%%%%%%%%q%
5680G1%Q%%%%%%%%%%%qQ%%%qQq%Q%%%%%%q%Q%%%%%%%%%%%q%Q%%%q%Q%%qQ%qQ%j6Q%%Q%q%Q
5673G9%%%%%%%qQ%%%%%%qQ%%%%qQ%qQ%%%%%%%qQ%%%%%%%%%%%%%%%qQ%%qQ%%%%%%qQ%%qQqQ
5666G9qQ%q%Q%%q%Qq%Q%%%%%%%%%%qQ%q%Q%%qQ%%%%%qQ%%%qQ%qQ%qQ%%%qQq%Q%%%%%%%%%%
5660G9%%%%%%%%q%%QqQqQ%%%%%%%%%%%%qQ%%%qQ%%qQ%%%qQqQqQq%Q%%%%qQ%%%%%%%%%%%%%
5653G9%%qQ%%%%%%%%%%%%%%qQ%qQ%%qQ%qQ%%qQqQqQ%%%%%q%Q%%%qQq%QqQqQ%%%%%qQ%%%%q
5646G1Q%%%%%qQ%%%qQ%%%qQ%%%%%%%%%%%%%qQ%%%%qQ%%%%%%%%%%%%%%%%%%%%%%%%%%qQ%%q
5640G1%QqQ%%%%%%%%%%%%%%%%%%%%%%%qQ%%%%qQ%q%Q%qQ%%qQ%%%%qQ%%qQ%%qQ%%%%%%%%%%
5633G9%%qQ%%qQ%%q%Q%%%q%Q%%%%%%%%%%%%%%%%%%%%%%%%%%%%%%qQqQ%%%%qQ%%%%%%qQ%%%
5626G9%qQ%%qQ%qQqQqQj6J6Q%q%qQ%qQqQqQ%%%%%%%%%qQ%%%%%%qQ%%%%%qQ%%%%%%%%%%%%%
5620G9%qQ%qQ%%%%%%%%%%%%%%%%%%%%%%%%%%%%%%%%%%%qQ%%%%%%%%%%%%%%%%%%%%%%%%%%%
5613G9%qQ%%%%%%%%%%%%%%%%%%%q%Q%%%%qQ%%%%%%%%%%%%%%%%%%%%%%%%%%%%%%%%%%%%qQ%
5607G9qQ%%%%%%%%%%%%%%%%%%%%%%%%%%%%%%%%%%%%%qQ%%%%%%%%%%%%%qQ%%%%qQQq%qQqQ%
5600G9%%%%%%%%%%%%%%%%%%%%%%qQ%%%%%%%%%%%%%%qQ%%%%%%%%%%%qQ%%%%qQ%%qQ%%%%%q%
5593G1Q%%%%%%%%%qQ%%%%%%%%%%%qQ%%%%%%%%%%%%%%%%%%%%%%qQ%%q%Q%%%%%%%%%%%%%%%%
5587G9%%%%%%%%%%%%qQ%%%%%%%%%%%%%%%%%%%%%%%%%%%%%%%%%%%%%%%%%qQ%%%%%%qQ%%%%%
5580G9%%%%%%%%%%%%%%%%%%%%%%qQ%%%%%%%%%%%qQ%qQQq%%%%%%%%%qQ%%qQ%%%%%%%%%%%%%
5573G9%%%%%%%%%%%%%%%%%%%%%%%%%%qQqQ%qQ%%%%%%%%%%%%%%%%%%%%%%%%qQ%%%%qQ%%%%%
5567G9%%%%%%%%%%%%%%%%%%qQ%qQ%%%%%%%qQ%%qQ%%%%%q%Q%%%%%%%%%%%%%%%%%%%%%%%%%%
5560G9%%%%%%%%%%%%%%%%%%%%%qQ%qQ%%%%%%%%%%%%%%%%%%%%%%%%%%%%%%%%%%qQ%%%%%%%%
5553G9%qQ%%%%%%%%qQ%%%%qQ%%%%%%%%%%%%%%%%%%%%%%%%%%%%%%%qQ%%%%%%%qQ%%%%%%%%%
5546G9%%%%%qQ%%%%%%%qQ%%%%%%%%%%%%%%%%%%%%%%%%%%%%%%qQ%%%%%%%%%%%%%%%%%%%%%%
5540G9%qQ%%%%%%%%%%%%%%%%%%%%%%%%%%%%%%%%%%%%%%%%%%%%%%qQ%%%%%%%%%%%%%%%%qQ%
5533G9%%%%%%%%%%%%%%%%%%%qQqQqQ%q%Q%%%%%%%qQ%%%%%%%%%qQ%%%qJ6q%%%%%%%qQ%qQqQ
5527G9%%%%%%%%%%%%%%%%%%%%%qQ%%%%%%%qQ%%%%%%%qQ%%%%%%%%%%%%%%%%%%%%%%%%%%%%%
5520G9%%%%%%%%%%%%%%%%%%%%%%%%%%%%%%%%%%%%%%%%%%%%%%%%%%%qQ%%%%%%%%%%%%%%%%%
5513G9%%qQ%%%%%%%%%%%%%%%%%%%%%%%%%%%%%%%%%%%%%%%%%%%%%%%%%%%%%%%%%%%%%%%%%%
5507G9%%%%%%%%%%%%%%%q%Q%%%%%%%%%%%%%%%%qQ%%%qQ%%%%%%%%%%%%%%%%%%%%%%%%%%%%%
5500G9%%%%%%%%%%%%%%%%%%%%%%%%%%%%%qQ%%%%%%%%%%%%%%%%%%%%%%%%%%%%%%%%%%%%%%%
5493G9%%%%%%%%%%%%%%%%%%%%%%%%%%%%Qq%%%%%%%%%%%%%%%%%%%%%%%%%%%%%%%%%%%%%%%%
5486G9%%%%%%%%%%%%%%%%%%%%%%%%%%%%%%%%%%%%%%%%%%%%%%%%%%%%%%%%%%%%%%%%%%%%%%
5480G9%%%%%%qQ%%%%qQqQ%%%%qQ%%%%%%%%%%%%%%%%%%%%%%%%%%%%%%%%%%%%%%%%%%%%%%%%
5473G9%%%%%%qQ%%%%%%%%%%%%%%%%%%%%%%%%%%%%%%%%%%%%%%%%%%%%%%%%%%%%%%%%%%%%%%
5466G9%%%%%%%%%%%%%%%%%%%%qQ%%%%%%%%%%%%%%%%%%%%%%%%%%%%%%%%%%%%%%%%Qq%%%%%%
5460G9%%%%%%%%%%%%%%%%%%%%%%%%%%%%%%%%%%%%%%%%%%%%%%%%%%%%%%%%%%Qq%%%%%%Qq%%
5453G9%%%%%%%%%%%%%%%%%%%%%%%%%%%%%%%%%%%%%%%%%%%%%%%%%%%%%%%%%%%%%%%%%%%%%%
5446G9%%%%%%%%%%%%%%%%%%%%%%%%%%%%%%%%%%%%%%%%%%%%%%%%%%%%%%%%%%%%%%%%%%%%%%
5440G9%%%%%%%%%%%%%%%%%%%%%%%%%%%%%%%%%%%%%%%%%%%%%%%%%%%%%%%%%%%%%%%%%%%%%Q
5433H7%q%%%%%%%%%%%%Qq%qQ%%%%%Q%q%Qk4J6%%J6l2m0M0k4M0QQqqq%Qq%%%Q%%Q%q%%%%%%
5427G9%%%%%%%%%%%%%%%%%%%%%%%%%%%%%%%%%%%%Qq%%%%%%%%%%%%%%%%%%%%%%%%%%%%%%%%
5420G9%%%%%%%%%%%%%%%%%%%%%%%%%Qq%%%%QqQq%%%%%%%%%%%%%%%%%%%%%%%%%%%%%%%%%%%
5414G9%%%%%%%%%%%%%%%%%%%%%%%%%%%%%%%%%%%%%%%%%%%%%%%%%%%%%%%%%%%%%%%%%%%%%%
5407G9%%%%%%%%%%%%%%%%%qQqJ6%qqQ%%%%%%%%%%%%%%%%%%%%%%%%%%%%%%%%%%%%%%%%%%%%
5401G9%%%%%%%%%%%%%%%%%%%%%%%%%%%%%%%%%%%%%%%%%%%%%%%%%%%%%%%%%%%%%%%%%%%%%%
5394G9%%%%%%%%%%%%%%%%%%%%%%%%%%Qq%%%%%%%%%%%%%%Qq%%%%%%%%%%%%%%%%%%%%%%%%%%
5387G9%%%%%%%%%%%Qq%%Qq%Qq%%%%%%%%%%%%%%%%%%%%%%%%%%%%Qq%%%%%%%%%%%%%%J6j6Q%
5381H7q%%Qq%%%%%%%%%%%%%%%%%%%%%%%%%%%%%%%%%%%%%%%%%%%%%%%%%%%%%%%%%%%%%%%%%
5374G9%%%%%%%%%%%%%%%%%%%%%%%%%%%%%%%%%%%%%%%%%%%%%%%%%%%%%%Q%q%%%%%%%%%%%%%
5367G9%%%%%%%%%%%%%%%%%%%%%%%%%%%%%%%%%%%%%%%%%%%%%%%%%%%%%%%%%%%%%%%%%%%%%%
5361G9%%%%%%%%%%Qq%%%%%%%%%%%%%%%%%%%%%%%%%%%%QqQq%%%%%%%%%%%%%%%%%%%%%%%%%%
5354G9%%%%%%%%%%%%%%%%%%%%%%%%%%%%%%Qq%%%%%%%Qq%%%%%%%%%%%%%%%%%%%%%%%%%%%%%
5347G9%%%%%%%%%%%%%%%%%%Qq%%%%%%Qq%Qq%%%%%%%%%%%%%Qq%%%%%%%%%%%%%%%%%%%%%%%%
5341G9%%%%%%%%%%%%%%%%%%%%%%%%Qq%%%%%%%%%%%%%%Qq%%%%%%%%%%%%%%%%%%%%%%%%%%%%
5334G9%Qq%%%%%%%%%%%%qQqQ%qJ6qJ6j6%Qq%%%Qq%%%%%%%%%%%Qq%%%%Qq%%%%%%%%%Qq%%%%
5328G9%%Qq%%%%%%%%%%%Q%q%%%%%%%%%%%%%%%%%%%%%%%%%%%%%%%%%%%%%%%%%%%%%%%%%%Qq
5321G9%%%%%%%%%%Qj6Q%%%%%%%%%%%%%%%%%%%%%%%%%%%%%%%%%%Qq%%%%%%%%%%%%%%%%%%%%
5314G9%%%%%%%Qq%%%%%%%%%%%%%%%%%%%%%%%%%%%%%Qq%%%%%%%Qq%%%Qq%%Qq%%%%%%Qq%%qQ
5308G9Qq%%%%Q%%q%%%%Q%%%q%%%%%Qq%%%%Qq%%Qq%%%%%Qq%%%%%%%%%%%%%%%%%%%%%Qq%%%%
5301G9Qq%%Qq%%%%%%%%%%%%%%%%QqQq%Qq%%Qq%%%%%%%%%Qq%%%%Q%%%qQq%%Q%q%%Qq%%%%%%
5294G9%%%%%%%%Qq%%%%%Q%qQq%QqQqQ%qQ%%%q%%%%Qq%%%Qq%Q%qQq%Q%%q%QqQ%q%%%%%Q%%q
5288G9%%Qq%Q%q%%%%%%%%%%QqQ%q%Qq%Qq%%%%Q%qQ%%q%Qq%Q%%%%qQq%%%%%%Q%%q%Qq%%%%%
5281G9%%%%%%Qq%Qq%%%%%Qq%%%%%%Q%qQq%%%%%%%%%%QqQ%q%%%%%Qq%Qq%%%Q%q%%%%Qq%%%Q
5274H7q%%%Qq%%%%%%%%%%%%QqQq%%Qq%%Qq%%%%%%Qq%Qq%Qq%%%%%%%%%%%%%Qq%%%%%%Q%q%%
5268G9%%%%%%Qq%QqQqQ%%%q%%%Qq%%Qq%%Qq%Q%%q%Qq%Qq%%%%%%%%%%%%%%%QqQ%q%%%%%QqQ
5261H7q%%Q%%%%q%%Q%qQq%%Qq%Qq%qQ%QqQ%q%%%%%Q%q%Qq%%%%Qq%%%Qq%%%Qq%Qq%%%%%%%%
5254G9%%%%%QqQq%Qq%%%%%%%%Q%q%%%%%%%%%Qq%%%%Qq%%QqQq%%%%%%Q%q%%%%Qq%Q%%%%%%%
5248H7%%%q%%Qq%%QqQqQq%%%%%Qq%%%%%%QqQq%%%%Q%qQqQq%Qq%Q%q%%%QqQq%%Q%q%%%%Qq%
5241G9QqQ%q%%Q%%qQqQq%Qq%%Q%qQ%q%%%%%%Q%q%%QqQq%Qq%%%%Qq%Qq%%%Qq%QqqQ%%Q%k4J6
5234G9%%J6k4QQqJ6qqQ%qQqQqQ%q%%%%Qq%Q%qQ%q%%%%Qq%QqQ%%%qQqQ%%qQqQ%qQqQqQqQqQ
5228H7%%qQqQqQqQ%%qQqQq%%Q%q%Qq%%Q%%qQ%q%%Q%qQ%qQ%%%%qQ%qQqQqQq%%%Qq%QqQqQqQ
5221H7q%%%%Qq%%Q%%%q%Qq%Q%%%%%q%Qq%Q%%q%QqQq%Qq%Q%%qQq%Qq%%Qq%%Qq%Q%%qQ%%q%Q
5215H7q%%%Qq%%Qq%%QqQ%q%%%Q%%qQqQ%%%%qQ%%qQ%%qQq%Qq%Q%%%%qQ%%qQ%q%%%%%%Q%q%Q
5208H7%%%%%%qQ%%%%%qQ%%%%%qQ%%qQqQ%%%%%%qQ%qQ%%qQqQqQqQ%q%Q%%%%%%%qQq%Q%%qQq
5201G9QqQ%%%%qQ%%%%%%%%q%%Q%qQ%%%%%%%%%%qQQj6Q%%%q%Q%%%%%%%%%qQqQ%%q%%QqQq%Q
5195H7qQ%q%QqQ%%%%%%%%%%%%%%%%%%%%q%Q%%%%%%qQqQqQ%%qQqQ%%%%%%qQ%%%qQ%q%Q%%%%
5188H7%qQ%%q%QqQqQ%%%q%%%%Q%%%q%Q%qQqQ%%%qQ%%%%%%%%%%%%%%qQ%%%qQqQqQ%%%%%qQ%
5181H7%qQ%%%%%%qQq%QqQ%%%%%%%%%%%%%qQqQ%%qQ%q%Q%%%qQ%%%%%%%qQ%%%%%%%%%%%%%%%
5175H7%%qQqQ%%qQq%QqQ%%%%%%%%%%%%%%%%%%qQ%%%%%%%%%%%%%q%%Q%%%%%%%%%%%%qQ%%%%
5168H7%%%%qQ%%%%%%%%%%%%qQ%%%%qQ%q%Q%%qQ%%%%%%%%%%%%%%%%%%%%%%qQqQ%%%%%%%%%q
5161G9QqQ%%%%%%%%%%%%%%%%%%%%%%%%%%%%%%%%%%%%%%%%%%%%%%%%%%%%%%%%%%%%%%qQ%%%
5155H7%%%%%%%%%%%%%%%%%%%qQ%%%%%%%%%%%%%%%%%%%%%%%%%qQ%%q%Qq%QqQ%qQ%q%Q%%%%%
5148H7%%%%%%%%%%%%%%%%%%%%%%%%%%%%%%%%%%%%%%%%%%%%%%%%%%%%%%%%%%%%%%%%%%%%%%
5141H7%%%%%%%%%%%%%%qQ%%%%%%%%%%%%%%%%%qQ%%%%%%%%qJ6qK4k4%%qQ%qQ%qQ%%%%%%%%%
5135H7%%%%%%%%%%%%%%%%%%%%%qQ%%%%%%%%%%%%%%%%%%%%%%%%%%%%%%%%%%%%%%%%%%%%%%%
5128H7%%%%%%%%%%%%%%%%%%%%%%%%%%%%%%%%%%%%%%%%%%%%%%%%%%%%%%%%%%%%%%%%%%%%%%
5122H7%%%%%%%%%%%%%%%%%%%%%%%%%%%%%%%%%%%%%%%%%%%%%%%%%%%%%%%%%%%%%%%%%%%%%%
5115H7%%%%%%%%%%%%%%%%%%%%%%%%%%qQqQ%%%%%%%%%%%%%%%%%%%%%%%%%%%%%%%%%%%%%%%%
5108H7%%%%%%%%%%%%%%%%%%%q%Q%%%%%%%%%%%%%%%%%%%%%%%%%%%%%%%%%%%%%%%%%%%%%%%%
5101H7%%%%%%%%%%%%%%%Qq%%%%%%%%%%%%%%%%%%%%%%%%%%%%%%%%%%%%%%%%%%%%%%%%%%%%%
5095H7%%%%%%%%%%%%%%%%%%%%%%%%%%%%%%%%%%%%%%%%%%%%%%%%%%%%%%%%%%%%%%%%Qq%Qq%
5088H7Qj6%QqQQq%%QqQq%%%%%%%%%%%%%%%%%%%%%%%%%%%%%%%%%%%%%%%%%%%%%%%%%%%%%%%
5082H7%%%%%%%%%%%%%%%%%%%%%%%%%%%%%%%%%%%%%%%%%%%%%%%%%%%%%%%%%%%Qq%%%%%%%%%
5075H7%%%%%%%%%%%%%%%%%%%%%%%%%%%%%%%%%%%%%%%%%%%%%%%%%%%%%%%%%Qq%%%%Qq%%%Qq
5068H7%%%%%%%%%%%%%%%%%%%%%%%%%%%%%%%%%%%%%%%%%%%Qq%%QqqJ6%q%%%%%%%%%%%%%%%%
5062H7%%%%%%%%%%%%%%%%%%%%%%%%%%%%%%%%%%%%%%%%%%%%%%%%%%%%%%%%%%%%%%%%%%%%%%
5055H7%%%%%%%%%%%%%%%%%%%%%%%%%%%%%%Qq%%%%Qq%%%%%%%%%%%%%%%%%%%%%Qq%%%%%%%Qq
5048H7%%%Qq%%%%%Qq%%%Qq%%%%%Qq%%%%%%%%Q%qQq%%%%%Q%qQqQq%Qq%Qq%%%%%%%%%%%%%%%
5042H7%%qQ%%%Qq%Q%qQ%%qqQQqqK4k4J6qm0K4M8l2Qj6%%J6%q%%Qq%%%%Q%q%%Qq%Q%q%%%%%
5036H7%%%%%QqQq%%%%Qq%%%%%QqQq%Qq%%%%%%%%%%%%%%%%%%QqQq%%%%%%%Qq%%%%%%%QqQq%
5029H7Qq%%%%%%%Qq%%%%%%Qq%Qq%%%%%QqQq%%Qq%Q%qQ%%%q%%%%%%%%%%%%%%%%%%Qq%%Qq%%
5022H7%%%%%%%%%%%%%QqQq%%Qq%%%%%%%Qq%%%%%%Qq%%%%%%%%%%%%%%%%Qq%%%%Qq%%%%%%Qq
5016H7%%%Q%q%QqQ%q%%%%%Qq%%%%%%%%%%%%%%%%%%QqQqQ%q%%%%%%QqQq%%%%%%%Qq%%%%%%Q
5009I5q%Q%qQqQ%qQ%%qQ%qQqQ%qQ%q%%%Qq%%%%%%Qq%%%%Qq%%Qq%Q%%%%q%%%QqQqQq%Qq%Qq
5002H7%%%Qq%Q%qQ%%qQ%q%%%%%%%Qq%%QqQqQq%%%%%%%%%%QqQq%%%Qq%%Qq%Q%qQq%Q%q%%%Q
4996I5%%%%%%%q%%%Q%%%qQ%qQq%Q%%qQqQq%Q%%%%%%%%%%qQqQ%qQ%q%%Qq%%Qq%QqQq%%Qq%Q
4989I5qQ%q%%%%%QqQqQ%%qQqQq%Q%qQ%qQ%%%q%Qq%Qq%QqQqQqQqQ%q%%Q%q%Q%%%qQ%%q%%%Q
4982I5%%qQ%%q%Q%%%%%q%%Q%%%q%%Q%q%%QqQqQ%qQ%qQqQ%%%%%qQ%%qQq%QqQ%%%%%%%%q%%Q
4976I5%%%%%%%%%%%%%qQ%%%q%Q%qQ%%%%qQ%%%qQqQ%%%qQqQ%%%%q%Q%qQ%qQ%%qQ%%%qQ%q%Q
4969I5qQ%qQqQq%Q%%q%%Q%%%qQ%%%qQq%%Qq%Q%q%Q%qQq%%Qq%Qq%Q%%qQ%%%qQ%%%%%qQqQ%%
4962I5qQ%%%qQ%%qQ%%%%%%%qQ%qQqQ%%%%%%%qQ%qQ%%%%%%%%%qQ%%%%%%%%%%q%%Q%%%%%qQ%
4956I5%%%%%%%%%%q%Q%%%qQ%q%%QqQqQqQ%%%%%%%%%%%%%qQq%%Q%%%%%%%%%%%%%%%%%%%%%q
4949H7Q%%%%%%%%%%%%%%%%%%%qQ%%%%%qQ%%%%%%%%%%%%%%qQ%%%%%%%%%%%%%%%%%qQqQ%%%%
4942I5%%qQ%%Qj6%%QqQqQQq%%%qQ%qQ%%%%%%qQ%%%%%%%%%%%%%%%%%%%%%%%%%%%%%%%%%%%%
4936I5%qQ%%%%%%%%%%%%%%%%%%%%%%%%%%%%%%%%%%%%%%%%%%%%%%%%%%%%%%%%%%%q%Q%%qQq
4929H7Q%%%%%%%%%%%%%%%%%%%%%%%%%%%%%%%%%%%%%%%%%%%%%%%%%%%%%%%%qQ%%%%%%%%%%%
4922I5%%%%%%%%%%%%%%%%%%%%%%%%%%%%%%%%%%%%%%%%%%%%%%%%q%Q%%%%%Qj6%Q%%%%%%%%%
4916I5%%%%%%%%%%%%%%%%%%%%%%%%%%%%%%%%%%%%%%%%%%%%%%%%%%%%qQ%%%%%%%%%%%%%%%%
4909I5%%%%%%%%%%%%%%%%%%%%%%%%%%%%%%%%%%%%%%%%%%%%%%%%%%%%%%%%%%%%%%%%%%%%%%
4902I5%%%%%%%%%%%%%%%%%%%%%%%%%%%%%%%%%%%%%%%%%%%%%%%%%%%%%%%%%%%%%%%%%%%%%%
4896I5%%%%%%%%%%%%%%%%%%%%%%%%%%%%%%%Qq%q%Q%%%%%%%%%%%%%%%%%%%%%%%%%%%%%%%%%
4889I5%%%%%%%%%%%%%%%%%%%%%%%%%%%%%%%%%%%%%%%%%%%%%%%%%%%%%%%%%%%%%%%%%%%%%%
4882I5%%%%%%%%%%%%%%%%%%%%%%%%%%%%%%%%%%%%%%%%%%%%%%%%%%%%%%%Qq%%%%%%%%%%%%%
4876I5%%%%%%%%%%%%%%%%%%%%%Qq%%%%%%%%%%%%%%%%%%%%%%%%%%%%%%%%%%%%%%%%%%%%%%%
4869I5%%%Qq%%%qQ%%%%%Qq%%%%%%%%Qq%%%%%%%%%%%%%Qq%%%%%%Qq%%%%%%%%%%%%%%%%%%%%
4862I5%%%%%%%%%%%%%%%%%%%%%%%%%%%%%%%%%%%%%%%%%Qq%%%%%%%%%Qq%%%%%%%%%Qq%Qq%Q
4856A03%q%%%%%%%%Qq%%%%Qq%%%%%%%Qq%%Qq%%%%Q%q%%Qq%%%%%%%%%%%%Qq%%%Qq%%Qq%%Qq
4849I5%%%%%%%%%%%%%%%%%%%%%%%%%%%%Qq%Qq%%%Qq%%%%Q%q%Q%qQqJ6j6%qJ6J6j6%q%%%Q%
4843A03qQqQqQq%Q%%%q%%%Qq%%%Q%q%Qq%%%%%Q%%qQ%%qQ%qQ%qQq%Q%q%%%%Qq%%Q%qQq%QqQ
4836A03qQ%%q%%%%%Qq%%%Qq%%QqQq%%%%%%%%%Qq%%QqQq%%%%%%%%%%Qq%%Qq%%%%%%%%Qq%%%
4830I5%%%%%%%%%%%%Q%q%%%%%%%%%%Q%%%q%Q%%q%%QqQq%%Qq%%%%Q%q%%QqQqQ%%q%%%%Qq%%
4823I5%%%%%%Q%%q%Q%%%%%qQ%%%%qQ%qQ%%%qQ%%%%%qQ%q%%Qq%Qq%Qq%%%%%%%%Qq%Q%q%Q%%
4816A03%%qQqQ%qQ%qQ%q%%%Q%%%qQ%%q%%Q%q%%QqQqQ%%qQ%qQ%%qQ%qQ%q%%%%%%QqQ%q%Qq%
4810I5QqQ%qQqQ%qQ%q%%QqQ%%%%%%%qQ%%%qQ%%qQ%%%%%%%%qQq%Q%q%Q%%%%qQq%Q%%%%%%%%
4803A03%%%%%%%%%qQ%%q%QqQqQ%%qQ%%%%%%%%%%%%%qQ%%%%%%%%%%%%%%%%%qQ%%%%%%%%%%q
4797I5Q%%q%Q%%qQ%%%%qQqQ%qQq%QqQ%q%Q%%%qQqQ%%%%%%%%%%q%Q%%%%%qQqQ%%%%qQ%%%%q
4790I5Q%%%%%%%%%%qQ%%qQ%%%%%%qQ%%%%%%%%%%%%%%%%%%%%%%qQ%%%%%%%%%%%qQ%%%%%%%%
4783A03%qQ%%%%qQ%qQ%%%%%%%%%%%%%%%%%%%%%%%%qQ%%%%%%%%%%%%%%%%%%%%%%%%%%%%%%Q
4777A11q%%%%%%%%%%%%%%%%%%%%%%%%%%%%%%%%%%%%%%%%%%%%%%%%%%qQ%%%%%%%%%%qQq%Q%
4770A03%%%qQ%%%%%%%%%%%%%qQ%%%%%%%%%%%%%%%%%%%%%%%%%%%%%%%%%%%%%%%%Qq%%%%%%%
4764A03%%%%%%%%%%%%%%%%%%%%%%%%%%%%%%%%%%%%%%%%%%%%%%%%%%%%%%%%%%%%%%%%%%%%%
4757A03%%%%%%%%%%%%%%%%%%%%%%%%%%%%%%%%%%%%%%%%%%%%%%%Qq%%%%%%%%%%%%%%%%%%%%
4750A03%%%%%%%%%%%%%%%%Qq%%%%%%%%%%%%%%%%%Qj6QqQQ%%Qk4%QQj6%Q%Qq%%%%%%Qq%%%%
4744A03%%%%%%%%%%%%%%%%%%%%%%%%%%%%%%%%%%%%%%%%%%%%%%%%%%%%%%%%%%%%%%%%%%%%%
4737A03%%%%%%%Qq%%%%%%%%%%%%%%QqQq%%%%%%%Qq%%%qQ%%%%%%%%%%%%%%%%%%%%%%%%%%%%
4731A03%%%%%%%%%%%%%%Qq%%%%%%%%%Qq%%%%%%%%%%%%%%%%%%%%%%%%%%%%%%%%%Qq%%%%%%%
4724A03%%%%%%%%%%%%%%Q%qQqQqQqQq%%QqQq%%%%%%%%%%%%%%%%%%%%%%%%%%%%%%%%%%%%%%
4718A03%%%%%%%%%%%%%%%%%Qq%%QqQq%Qq%%%%Qq%%%%%%%%%%%Qq%%Qq%%%%%%%%%%Qq%%%%%%
4711A03%%%Qq%%%Qq%Qq%Qq%%%%QqQ%%%q%%%%%%%%%%%%%%%%%%%QqQq%%Qq%%%%%%%%%%Qq%%%
4705A03%%%Qq%%%%%Qq%Q%q%QqQq%%Q%q%%%%%%%%%%Q%q%%%%%QqQqQq%%QqQ%%qQq%QqQ%q%Qq
4698A03Q%%%%q%QqQ%qQqQqQq%%Qq%%Q%%%q%%%Q%q%QqQqQq%%%%%%%%%QqQq%%%QqQ%%%qQ%q%
4691A03Qq%Q%%q%Q%%%q%QqQ%%%q%QqQq%Qq%Q%%%%%qQ%%%%%%%q%%Q%qQ%qQq%%%Q%q%%Qq%%Q
4685A11%%%%%qQqQ%%%%qQqQqQ%q%Qq%%QqQ%q%%%Q%qQ%q%Qq%%QqQq%%%%QqQ%%%%%%qQ%%q%Q
4678A11%q%QqQ%%%%qQq%%Qq%%Q%%%%%%qQ%%%%%%%%%%%%q%%%%QqQqQq%Q%q%Q%qQ%%%%%%%qQ
4672A11%%qQqQ%q%Q%qQ%%%q%QqQ%%%qQ%qQqQ%%%%%%%%%%qQ%%%%%%%%%%%%%%%%%%%%%qQ%%%
4665A11%%%%%%%%%%%q%Q%%%qQ%%%%%%%%%%%%qQ%%qQ%%%%%%%%%%%qQ%%%%qQ%%%%%%%%%%%%%
4659A11%%%%%%%%%%%%%%%%%%%%%%%%%%%%%%%%%%%qQ%%%qQ%qQ%%%%%%%%%%%%%%%%%%%%%%%%
4652A11%%%%%%%%%%%%%%%%%%%%%qQ%%q%J6j6qQQqQ%j6M0qqm0K4qJ6%Q%qQj6%J6j6Q%%qQ%%
4646A11qQqQ%%%%qQ%%%%%%%%%%%%%%%%%%%%%%%%%%%%%%%%%%%Qq%%%%%%%%%%%%qQ%%%%%%%%
4640A11%%%%%%%%%%%%%%%%%%%%%%%%%%%%%%%%%%%%%%%%qQ%%%%%%%%%%%%%%%%%%%%%%%%%%%
4633A11%%%%%%%%%%%%%%%%%%%%%%%%%%%%%%%%%%%%%%%%%%%%%%%%%%%%%%%%%%%%%%%%%%Qq%
4627A11%%%%%%%%%%%%%%%%%%%%%%%%Qq%%%%%%%Qq%%%%%%%%%%%%%%%%%%%%%%%%%%%%%%%%%%
4620A11%%%Qq%%%%%%%%%%%%%%%%%%Qq%%%%%%%%%%%%%%%%%%%%%%%%%%%%%Qq%%%%%%%%%%%%%
4613A11%%%%%%%%%Qq%Qq%%%%%%%%%%%%%%%%%%%%%%%%%%%%%%%%%%%%%%%%%%%%%%%%%%%%%%%
4607A11%%%%%%%%%%%%%Qq%%%%%%%%%%%%%%%%%%%%%%%%%%%%%%%%%%%%%%%%%%%%%Qq%%%Q%q%
4600A11Q%j6%Q%Qq%Q%qQq%%%%%%Qq%%%%%%%%%%%%%%%%%Qq%Q%q%%Q%qQqQq%%%%%Q%qQ%qQq%
4594A11Q%q%%Qq%QqQ%%qQ%q%%Q%%q%Q%%%%%qQq%Qq%Qq%%%%%Q%%q%%%Q%qQ%%%%qQqQqQ%%qQ
4587A19%q%%%%Qq%%QqQq%QqQ%q%%QqQqQqQ%q%%%%Q%%%qQq%%Q%%%qQ%%qQ%%q%Q%%%%%%%%%%
4581A19q%Q%%%%%%%%%qQqQ%%qQqQq%%%Qq%Qq%%%%%%Q%%%%qQqQ%%qQqQqQ%%%%%q%Qq%Q%%qQ
4574A19qQq%QqQ%%%%%%%%%%%%%%%%qQ%%%%%%%%%%%%%qQ%%%qQ%qQ%q%%Q%%%%%%%%%%%%%%%%
4567A19%%%qQ%%%%%%qQ%%%%%%%%qQ%%%%%%q%Q%%%%%%qQ%%qQ%q%Q%%%%%%%qQ%%%%%%%%%%%%
4561A19%%%%%%%qQq%Q%%%%%%%%%%%%%%qQ%%%%%%qQqQ%%%%%%%%%%%%%%%%%%%%%%%%%%%%%%%
4554A19%%%%%%%%%%%%%%%%%%%%%%%Qq%%%%qQ%qQ%Qk4J6%Qq%QqqQ%qQ%%q%Q%%%%%%%%%%%%%
4548A19%%%%%%%%q%Q%%%%%%%%%%%%%%%%%%%%%%%%qQ%%%%%%%%%%%%%%%%%%%%%%%%%%%%%%%%
4541A19%%%%%%%%%%%%%%%%%%%%%%%%%%%%%%%%%%%%%%%%%%%%%%%%%%%%%%%%%%%%%%%%%%%%%
4535A19%%%%%%%%%%%%%%%%%%%%%%%%%%%%%%%%%%%%%%%%%%%%%%%%%%%%%%%%%Qq%%%%%%%%%%
4528A19%%%%%%%%%%%%%%%%%%%%%%%%%%%%%%%%%%%%%%%%%%%%%%%%%%%%%%%%%%%%%%%%%%%%%
4522A19%%%%%%%%%%%Qq%%%%%Qq%%%%%%%%%%%%%%%%%%%%%%%%%%%%%%%%%%%%%Q%%q%%Qq%%%%
4515A19%%%%%%%%Qq%%%%%%%%%%%%%%%%%%%%%%%%Qq%%QqQ%q%%%%%Q%qQq%%%%%%%%%%%%QqQ%
4508A27%%q%QqQ%q%QqQq%%%%%Q%q%%QqQq%Q%q%QqQq%%%%Q%q%%Qq%%%%%%%Qq%Q%q%Qq%Q%q%
4502A19%QqQqQq%Q%%q%Q%%qQqQq%%Q%%%qQ%qQ%%%q%%Q%q%%QqQq%%%%%%Qq%Qq%%%%QqQ%qQ%
4495A27%qQ%%%%qQ%%%q%QqQ%qQqQ%%qQqQqQqQq%%Qq%%%%Q%qQqQqQ%qQq%Q%qQ%%%%%%%%%%q
4489A19Q%%qQ%%%%%%%%%%qQ%%%%%qQqQ%%%%%%%%%%%%%%%%%%%%%%%%%%%%%%%%%%%%%%%%%%%
4482A27%%%%%%qQ%%%%%%qQqQ%%qQqQ%%%qQqQ%%%%%%%%%%%qQ%%%%Qq%%%%%qQ%%%%%%%%%%%%
4475A27%%%qQ%%%%%%%%%%%%%%%%%%%%%%%%%%%%%%%%%qQ%%%%%%%%%%%%qQ%%%%%%%%%%%%%%%
4469A27%%%%%%%%%%%%%%%%%qQ%%%%%qQ%%%%%%%%%%%%%%%%%%%%%%%%%%%%%%%%%%%%%%%%%%%
4462A27%%%%%%%%%%%%%%%%%%%%%%%%%%%%%%%%%%%%%%%%%%%%%qQ%%%%%%%%%%%Qq%%%%%%%%%
4456A27%%%%%%%%%%%%%%%%%%qQqJ6qQj6%Q%q%Qq%%QQj6QqQQq%%%%%%%%%%%qQ%%%%%%%%%%%
4449A27%%%%%%%%%%%%%%%%%%%%%%%Qq%%%%%%%%%%%%%%%%%%%%%%%%%%%%%%%%%%%%%%%%%%%%
4443A27%%%%%%%%%%%%%%%%%%%%%%%%%QqQq%%%%%%%%%%%%%%%%%%%%%%%%%%%%%%%%Qq%Qq%%%
4436A27%QqQ%q%%%%%%%%%%%%%%%%%QqQq%%%%%%%%%%%%%Qq%%Qq%%%%%%%%%%%%%%%%%%Qq%%%
4430A27%%%Qq%%Qq%%%%%%Qq%Qq%%Qq%%Q%q%%%%%Qq%%%%%%%%%Qq%%%%Q%%q%Qq%%%Qq%%%Qq%
4423A27%Q%qQ%%%qQqQ%%q%%Qq%Q%q%Qq%QqQq%Qq%%%Qq%Q%q%QqQ%%%%%%%%q%%%%Q%%%q%QQj6
4417A27Qq%%%%%QqQ%%%%%qQ%qQ%%%%%%%%%qQ%qQ%%q%Q%%%qQ%%%%%%%%%%%%%%%%%%%%%qQ%%
4410A35%%qQ%%%%%%q%Q%q%%%%Q%q%%%QqQ%%%%%%%qQqQ%%%%%q%QqQ%%%qQ%qQQj6%qQQ%q%Qq
4403A27Q%qQ%%%%%%%%%%%%%%%%%%%%%%%%%%%%%%%%%%%%%%%%%%%%%%%%%%%%%%%%%%%%%%%%%
4397A35%%%%%%%%%%%%%%%%%%%%%%%%%%%%%%%%%%%%%%%%%%%%%%%%%%%%%%%%%%%%%%%%%%%%%
4390A35%%%%%%%%%%%%%%%%%%%%%%%%%%%%%%%%%%%%%%%%%%%%%%%%%%%%%%%%%%%%%%%%%%%%%
4384A35%%%%%%%%%%%%%%%%%%%%%%%%%%%%%%%%%%%%%%%%%Q%q%%%%%Qq%%%%%%%%%%%%%%%%%%
4377A35%%%%%%%%%%%%%%%%%%%%%%%%%%%%%%%%%%%%%%%%%%Qq%%%Qq%%Qq%%Qq%%%%%%%Qq%Qq
4371A35%%%%%%%%%%%%%%%%%%%%%%%%%%%%%QqQq%Qq%%%%%%%%%%%%%%%%%%%%%%%%%%%%Qq%%%
4364A35%%%%%%%%%%%%%%%%%%%%%%Q%qQqQq%%%%%%%%%%QqQ%%q%%Q%q%%%Q%q%Qq%%%%%Qq%Qq
4357A35%%QqQq%Q%qQqQq%%%%%qJ6j6%J6q%Q%%qQq%Q%qQq%Qq%%%%QqQqQ%qQ%q%QqQ%q%Q%%%
4351A43%%%%%%%%%%qQ%q%QqQ%%%%%%%qQ%%%q%Q%%q%Q%%%%%qQqQ%%%qQ%%q%Q%%q%Q%qQqQqQ
4345A43%%%qQ%%q%Qq%%QqQ%%%%%%%%%qQqQ%%%%%%qQqQ%%%q%QqQ%%%qQ%%%%%%%%%%%%%%%%%
4338A43%%%%%qQ%%%qQ%%%qQ%%%%%%%%%%%%%%%%%%%%%%%%%%%%%%%%%%%%%%q%Q%%%%%%%%%qQ
4331A43q%Q%%%%%%%%%%%%%%%%%%%%%%%%%%%%%%%%%%%%%%%%%%%%%%%%%%%%%%%%%%%%%%%%%%
4325A43%%%%%%%%%%%%%%%%%%%%%%%%%%%%%%%%%%%%%%%%%%%%%%%%%%%%%%%%%%%%%%%%%%%%%
4318A43%%%%%%%%%%%%%%%%%%%%%%%%%%%%%%%%%%%%%%%%%%%%%%%%%%%%%%%%%%%%%%%%%%%%%
4312A43%%%%%%%%%%%%%%%%%%%%Qq%%%%%%%%%%%%%%%%%%%%%%%%%%%QqqJ6qQqQq%%Qq%%%%%%
4305A43%%Qq%%Qq%%%%%%%%%%%%%%%%%%%%%%%%%%Qq%%Qq%%%%%Q%q%%%%%%%%%%%%%%%%%%%%%
4299A43%%%%Qq%%QqQqQq%%%%%%Qq%Qq%%%%%%%%%%%%%%Q%%q%Q%q%%Q%q%%%%Qq%Q%qQ%%%qQ%
4292A51qQ%%q%%%%QqQqQqQ%%%%%%%%%qQ%qQ%%%%q%Q%%%%%%%%%%%%%%%qQ%%%%qQ%%qQqQq%%
4285A43Q%%%%q%QqQ%qQ%%%%%qQqQ%q%Q%q%%Qq%%Qq%Q%qQ%%%%%%%%%%%%%%%%%%%%%%qQ%%%%
4279A51%%%%qQ%%%%%%%%%%%%%%%%%%%%%%qQ%%%%%%%%%%%%%%%%%%%%%%%%%%qQ%%%%%%%%%%%
4272A51%%%%%%%%%%%%%%%%%%%%%%%%%%%qQ%%%%%%%%%%%%%%%%%%%%%%%%%%%%%%%%%%%%%%%%
4266A51%%%%%%%%%%%%%Qq%%%qQ%%%%%%%%%%%Qq%%%%%%%Qq%%%%%%Q%q%%QqqQ%qJ6q%%Qqq%Q
4259A51QqQ%qQj6q%J6Qk4qQm0Q0k4J6j6j6K4j6%J6q%%qQQq%Qq%%%%%Qq%Q%%q%%%%%%%%%%%
4254A51Q%%%%%%q%%%%%Qq%%QqqQ%%%%%%%%%%%%Qq%Qq%%%Q%q%Qq%%%%QqQq%%%%QqQqQq%Qq%
4247A51%%%%%%%%%%%%%%%%QqQ%q%%%Qq%%%%%%Q%q%%%Q%qQq%%%%%Q%qQ%%qQq%Q%%%q%Q%%%%
4241A59%qQ%%%qQq%%%QqQq%Q%qQ%q%Q%q%Q%qQ%qQq%Q%qQq%%%Qq%%%Q%%qQ%%%%q%Q%%qQ%%%
4234A59%%%%%%%qQ%%%%q%Qq%Qq%Q%qQ%qQ%%q%Q%q%%Q%%%%qQ%%%%%%%%%%%%%%%%%%q%Q%qQ%
4227A59%%%%%%%%%%%%%%%%%%%%%%%%%%%%%%%%%%%%%%%%%%%%%%%%%%%%%%%%%%%%%%%%%%%%Q
4221A67q%%%%%%%%%%%%%%%%%%%%%%%%%%%%%%%%%%%%%%%%%%%%%%%%%%%%%%%%%%%%%%%%%%%%
4214A59%%%%%%%%%%%%%%%%%%%%%%%%%Qq%%%%%%%%%%%%%%%%%%%%%Qq%%Q%j6Q%Q%%qQq%%%%%
4208A59Qq%%%%%%%%%%%%%Qq%%%%%%%%%%%%%%%%%%%%%%%%%%%%%%%%%%Qq%%%%%%%%%%%%%%%Q
4201A67q%%%%%%%%%%%%%%%%Qq%%%%Qq%%%%QqQq%%%%%%Qq%Q%qQ%%%qQqQq%%Q%%%%%%qQ%q%Q
4195A67%%%%%%qQ%q%%%Q%%%q%Qq%QqQq%%Q%q%QqQq%%%Q%%%%%%%%%%%%qQ%%%%qQ%%%qQq%Q%
4188A67%qQq%%%Q%%qQ%%qQ%qQ%q%QqQq%Q%q%Q%qQ%qQqQ%%%%q%QqQqQqQqQqQ%%%%%%%%%%qQ
4181A67%%%%%%%%%%%%%%%%%%%%%%%%%%%%%%%%%%%%%%%%%%%%%%%%%%%%%%%%%%%%%%%%%%%%%
4175A67%%%%%%%%%%%%%%%%%%%%%%%%%%%%%%%%%%%%%%%%%%%%%%%%%%%%%%%%%%%%%%%%%%%%%
4168A67%%%%%%%%%%%%%%%%%%%%%%%%%%%%%%%%%%%%%%%%%%%%%%%%%%%%%%%%%%%%%%%%%Qq%%
4162A67%%%Qq%%Qq%%%%%qJ6%%j6J6qq%%J6q%%%%%%%%%%%%%%%%%%%%%%%%%%%%%%%%%%%%%Qq
4156A67%%%%%%%%%%%%%%%%%%%%%%%Qq%%%%%Qq%%%%%%%%%Q%%q%Qq%Q%q%%%%%%%%%%Q%q%Qq%
4149A67Q%%%q%Q%%%%%%qQ%%%%%qQ%qQqQ%%%%%%%%qQ%qQ%qQ%%qQ%%%q%%%%%Q%%%%%%%qQqQ%
4142A75qQ%q%Q%%%%%%%%%%%%%%%%%%%%%%%%%%q%%QqQ%%%%%%%qQ%%%%%qQ%%%%%%%%%%%%q%Q
4136A75qQ%qJ6q%%%%%%%%%%%%%%%%%%%%%%%%%%%%%%%%%%%%%%%%%%%%%%%%%%%%%%%%%%%%%%
4129A75%%%%%%%%%%%%%%%%%%%%%%%%%%%%%%%%%%%%%%%%%%%%%%%%%%%%%%%%%%Qq%%%%%%%%%
4123A75%%%%%%Qq%%Qq%%%%%%%%%%%%%%%%%%%%%%%%%%%%%%%%%%%%%%%%%%%%%%%%%%%%%%%%%
4116A75%%%%%%%%QqQq%Q%q%%%%%%%%%%%%%%%%%%%%%%Q%qQq%%%Q%%q%QqQqQqQq%%%Q%q%Q%%
4110A83qQqQqQqQqQq%%%Q%qQq%%Q%%qQqQq%Q%qQ%qQqQ%qQq%%Qq%Q%%%%%%%%%%%%%qQ%%%%%
4103A83%%%%%%%%%%%%%%%%%%%%%%%%%%%%%%%%%%%%%%%%qQQj6%Q%q%Q%%%%%%%%%%%%%%%%%%
4097A83%%%%%%%%%%%%%%%%%%%%%%%%%%%%qQ%%%%%%%%%%%%%%%%%%%%%%%%%%%%%%%%%%%%%%%
4090A83%%%%%%%%%%%%%%%%%%%%%Qq%%Qq%Qq%%QqQq%%%%%%%%%%%%%%%%%%%%%%%%%%%%%%%%%
4083A83%%%%%%%%%%%%%%%%%%%%%%%%%%%%%%%%%%%%%%%QqQq%%%%%%%%%%%%%%QqQq%Qq%%%Qq
4077A83%%%%%Qq%%Qq%%Q%%%%%%qQ%%qQ%q%QqQqQqQqQ%%qQ%%%%%%qQq%%%%Q%%q%QqQ%%%qQ%
4070A91q%%Qq%Q%q%Q%%qQ%q%Q%%%q%Qq%Q%q%%QqQ%%%%%%qQ%%%%q%%Q%%%%%%%%%%%%qQ%%%%
4064A91%%%%%qJ6j6%J6q%J6%j6%%Qj6QqQqQ%%qQ%%%%%%%%%%%%%%%%%%%%%%%%%%%%%%%%%%%
4058A91%%%%%%%qQ%%%%%%%%%%%%%%%%%%%%%%%%%%%%%%%%%%%%%%%%%%%%%%%%%%%%%%%%%%%%
4051A91%%%%%%%%%%%%%%%%%%%%%%%%%%%%%%%%%%%%%%%%%Qq%%%%%Qq%%%%%%%%%%%%%%%%%%%
4044A91%%%%%%%%Qq%%%%%%%%%%%Qq%%%Qq%%%%QqQqQq%%%%Qq%%%Qq%Qq%%%%%Q%q%%QqQqQq%
4038A91%Q%%%qQ%%%%%%%q%QqQqQqQq%Q%q%%Qq%%QqQ%%%%qQ%%%%%%%%q%Q%%%%%qQqQqQ%%qQ
4031A99%%%%%%%%%%%%%%%%%%%%%%%%%%%%%qQ%%%%%%%%%%%%%%%%%%%%%qQ%%qQ%%%%%%%%%%%
4025A99%%%%%%%%%%%%%%%%%%%%%%%%%%%%%%%%%%%%%%%%%%Qq%%%%%%%%%%%%%%%%%%%%%%%%%
4018A99%%%%%%%%%%%%%%%%%%%%%%%%%%%Q%q%%%%%%%%%Qq%%%%Qq%%%%Q%q%%%%%%%%%%%%%%%
4012A99%%%%%%%%%%%%Qq%%%%%%%%Qq%Qq%%%%%QqQq%%QqQq%%Q%q%Qq%Q%q%Qq%%Q%%%%%%qQ%
4005B07qQ%qQ%%%%%%%q%%Qq%%%%Qq%Q%qQqQ%%%%%%%qQ%%%%%%%q%%Q%%%%%%%%%%%%%%%%%%%
3998B07%%%%%%%%%%%%%%%%%%%%%%%%%%%%qQ%%%%%%%%%%%%%%%%%%%%%%%%%%%%%%%%%%%%%%%
3992B07%%%%%%%%%%%%Qq%%%%%%%%%%%%%%%%%%%%%%%%%%%%%%%%%%%%%%%%%%%%%%%%%%%%%%%
3985B07%%%%%%%%%%%%%%%%%%Q%%q%%QqQq%%%%%%%%%%%%%%%%%%%%%%%%%%%%Qq%%%%Qq%%%%%
3979B07%%Q%%q%%%Q%q%%%%%QqQ%%%%qQq%Q%%qQ%%%%%%%%%%%qQ%%%%%%%qQ%%%%%q%Q%%%%%%
3972B15%%%%%%%%%%qQ%%qQ%%%%%%%%qQ%%%%%%%%%%%%%qQ%%%%%%%%%%%%%%%%%%%%%%%%%%Qq
3965B15%%%qQQj6J6q%%Qq%%%%%%%%%%%%%%%%%%%%%%%%%%%%%%%%%%%%%%%%%%%%%%%%%%%%%%
3959B15%%%%%%%%%%%%%%%%%%%%%%%%%%%%%%%%%%%%%%%%%%%%%%%%%%Qq%Qq%%%%%%%%%%Qq%%
3953B15%%%%QqQqQq%%%%%%%%%%%Q%%qQqQ%qQq%%QqQ%%qQ%%qQ%%%%qQ%%qQ%%%qQq%%%Qq%Qq
3946B15Q%%%%%%%%%%%%%%%%%%%%%%%%%%%%%%%%%%%%%%%%%qQ%%%%%%%qQ%%%%%%%%qQqQ%%%%
3939B23%%%%%%%%%%%%%%%%%%%%%%%%%%%%%%%%%%%%%%%%%%%%%%%%%%%%%%%%%Qq%%%%%%%%%%
3933B23%%%%%%%%Qq%%%%QqQq%%%%%Qq%%%%%%%%%%%Qq%%QqQq%%%Q%q%Qq%%%Qq%Qq%Q%%q%Qq
3926B23%%%Qq%%%%%%%%%%%%%Q%%q%%QqQ%%%%%%qQqQqQ%%qQ%%qQ%%%q%QqQ%%qQ%%%qQ%%%%%
3920B31%%%%qQ%%%%%%%%qQ%%%%%qQ%%%%%%%%%qQ%%%%%QqqQqJ6q%%%%%%%%%%%%%%%%%%%%%%
3913B31%%%%%%%%%%%%%%%%%%%%%%%%%%%%%qQ%%%Qq%%%%%%%%%%%%%%%%%%%%%%%%%%%%%%%%%
3907B31%%%%%%%%%%%%%%%%%%%%%%Q%qQq%QqQ%%q%%%%%%%Qq%%QqQq%%Qq%%%%%%%QqQq%%Q%q
3900B31Q%q%Qq%Q%%qQ%%qQ%qQ%qQq%Q%qQ%%%qQ%qQ%%%%%%%%%%%%%%%%qQqQ%qQ%%%%%%%%%%
3893B39%%%%%%%%%%%%%%qQ%%%qQ%%%%%%%%%%%%%%%%%%%%%%%%%%%%%%%%%%%%%%%%%%%%%%%%
3887B39%%%%%%%%%%%%%%%%Qq%%%%%%%%%%%%%%%%%%%%%%%%%%%%%%%%%%%%%%QqQ%q%%%Qq%%%
3880B39%%%Qq%%Q%%q%%%%Q%%%%%%%qQ%%%qQ%%qQ%%%q%%Q%qQ%qQ%%%%%%%%%%%%%%%%%%%%%%
3874B47%%%%%%%%%%qQ%qQ%%%%%%%%%%%%%%%%%%%%%%%qQ%%%qQ%%%%qQqQ%%Qj6Qq%Q%j6Q%J6
3867B55Q%k4J6%j6K4k4J6q%qQ%%%%%qQ%%%%%%%%%%%Qq%%%%%%%%%%%%%%%%%%%%%%%Qq%%%Qq
3861B47%Qq%%%%%%%%%Qq%%%%%%%%%%%%%%%%%%%%%%%%%%%%%%%%%Qq%%%%%%Q%qQq%%Q%%%%%%
3855B55%%%%%qQq%Q%%qQqQ%%%%%%%qQ%%qQ%%%%%%%%%%%%%%%%%%%%%%%%%%%%%%%%%%%%%%%%
3848B55%%%%%%%%%%%%%%%%%%%%%%%%%%%%%%%%%%%%%%%%%%%%%%%%%%%%%%%%qJ6q%%%%%%%%%
3842B55%Qq%%%%%%%%%%%%%%Qq%QqQ%qQq%Qq%%%Qq%%%%%%QqQqQq%%QqQ%%qQ%qQ%%q%Q%qQ%%
3835B63qQq%%Q%q%%Q%%qQqQ%%%%qQ%%%%%%%%qQqQ%q%Qq%Q%%%qQ%qQ%%%%%qQ%%%%%%%%%%%%
3829B63%%%%%%%%%%%%%%%%%%%%%%%%%%%%%%%%%%%%%%%%%%%%%%%%%%%%%%%%%Qq%%%%%%%%%%
3822B63%%%%Qq%%%%%%%%%%Qq%%%%%%%%%%%%%%Qq%Qq%%Qq%Q%q%%Qq%Q%q%Q%%%%%%%%%%%q%%
3815B63%%Qq%QqQqQqQq%%QqQ%%%%%%qQ%%%%%%%%%%%%%%%%%%%%%%%%%%%%%%%%%%%%%%%%%%%
3809B71%%%%%%%%%%%%%%%%%%%%%%%%%%%%Qq%%%%%%%%%%%%%%%%%%%%%%%%%%%%%%%%%%%%%%%
3802B71%%%%%%%%%%%%%%%%%%%%Q%qQqQ%q%%%QqQq%Qq%Qq%%%%Qq%%Q%q%%Q%%%%%%q%Q%%%qQ
3796B79%%%%%%%%%qQqQ%%%qQ%q%Q%%%%q%Q%%%%%%%%%%%%%%%%%%%%%%%%%%%%%%%%%%%%%%%%
3789B79%%%%%%%%%%%%%%%%%%%%%%%%%%%%%%%%%%%%%%%%%%Qq%%%%QqQq%%%%%%%Qq%%%%%%Qq
3782B79Qq%%Q%%%%qQqQqQ%qQ%%%%%%%qQqQ%%%%%%%%%%%%%qQ%qQ%%%%%%%%%qQ%%%%%%%%%%%
3776B87%%%%%%%%%%%%%%%%%%%%%%%%%%%%%%%%%%%%%%%%%%%%%%%%%%%%%%%%%Qq%%qQ%J6j6q
3769B79J6%%%qQq%%%Q%q%%%QqQqQq%%%%Qq%%%Qq%Qq%%Q%%q%%%Qq%%%QqQ%%%%%%%%%%%%q%%
3763B87Q%q%Q%qQ%%%%%%%q%Q%%%qQ%%%%qQqQ%qQ%%%%%%%%%%%%%%%%%%q%Q%%%%%%%%%qQ%%%
3756B95%%%%%%%%%%%%%%%%%%%%%%%%%%%%%%%%%%%%%%%%%%%%%%%%%%%Qq%%Qq%%%%%Qq%%Q%%
3750C03qQqQq%Q%%q%Q%qQ%q%%Qq%%%%%Q%q%QqQqQqQ%%%%%%%%%%%%%%q%Q%%%%%qQ%%%%%%%%
3743C03%qQ%%%%%%%%%%%%qQ%%%%%%%%%%%%%%%%%%%%%%%%%%Qq%%%%%%%%%%%%%%%%%%%%%%%%
3737C03%%%%%%%%%%%%%%%%%Qq%%%%%%Qq%%%%%Qq%%Q%%q%%QqQ%q%Q%%qQ%%%%%%%%%%%qQ%%%
3730C11%%%%%%%%%%%%%%%%%%%%%%%%%%%%%%%%%%%%%%%%%%%%%%%%%%%%%%%%%%%%%%%%%%%%%
3724C11%%%%%%%%%%%Qq%%Qq%%%Qq%%QqQQj6%%%%Qq%%Qq%Qq%%Qq%%Q%%%q%Qq%%%Q%q%QqQ%%
3717C19%%%%%%%%%%%q%Q%%%%%%%%%%%%%%%%%%%%%%%%%%%%%%%%%%%%%%%%%%%%%%%%%%%%%%%
3710C19%%%%%%%%%%%%%%%%%%%%%%%%%%%%%%%%%%%%%%%%%%%%%%%Q%%q%%%%%Qq%Qq%%QqQqQq
3704C19%%Q%%%%%%qQ%%q%QqQ%%%qQ%%qQ%%qQqQ%%%%%%%%%%%%%%%%%%%%%%%%%%%%%%%%%%%%
3697C27%%%%Qq%%%%%%Qq%%%%%%%%%%%%%%%%%%%%%%%%%%%Qq%%%Qq%%%%Qq%%%%%%Qq%%%%Qq%
3691C27%%%%%Q%%qQ%%%%%%%%%%%%%%%qQ%%%%%%%%qQ%%%%%%%%%%%%%%%%%%%%%%%%%%%%%%%%
3684C35%%%%%%%%%%%%%%%%%%%%%%%%%%%%%%%QqQq%Qq%Qq%%Qq%%%%%QqQ%q%Q%qQq%Qq%%%%Q
3678C43%%%%q%%%%QqQ%%qQ%%%%%%%%%%qQ%%%%%%%%%%%%%%%%%%%qQ%q%QQ%j6Q%%j6QJ6Qqk4
3671C27K4j6J6q%qJ6q%%%%qQ%%%%%%%%%%%%%%%%%%%Q%q%%%%%QqQqQq%%%%%%Qq%Q%q%%Q%%%
3665C51qQqQqQqQ%qQ%%%%%%%%%%%%%%%%%%%%%%%%%%%%%%%%%%%%%%%%%%%%%%%%%%%%%%qQ%%
3659C51%%%%%%%%%%%Qq%%%%%%%%%%%%%%%%%%%%%%Qq%%%Qq%QqQ%%qQ%q%Q%%%%%%qQ%%%%%%%
3652C59%%%%%%%%%%%%%%%%%%%%%%%%%%%%%%%%%%%%%%%%%%%%%%q%Q%Qq%%%%%%%%%%%%%%%%%
3645C59%%%%%Qq%%%Q%qQ%%qQ%%q%%Q%%qQ%%%q%QqQ%qQqQq%%%%Q%%%%%qQ%%%qQ%%%%%%%%%%
3639C67%%%%%%%%%%%%%%%%%%%%%%%%%%%%%%%%%%%%%%%%%%%%%%%%%%%%%%%%%%%Qq%%Q%%%qQ
3632C75q%%Q%qQ%qQq%Q%%%%%%%%%%%%q%Q%%%%%%qQ%%%qQ%%%%%%%%%%%%%%%%%%%%%%%%%%%%
3626C75%%%%%%%%%%%%%%%%%%%%QqQ%%%%qQq%%QqQ%q%QqQ%%q%%%%%%QqQqQ%%qQqQqQq%Q%qQ
3619C83%%%%%%%%%%qQ%%qQ%%%%%%%%%%%%%%%%%%%%%%%%%%%%%%%%%%%%%%%%%%%%%%%%%%%%%
3613C83%%%%%%%%%%Q%q%%%%%%Q%q%%%%%%%%%Qq%%%Q%%%%%%%%%%%%%%%%%%%%%%%%%%%%%%%%
3606C91%%%%%%%%%%%%%%%%%%%%%%%%%%%%%%%%%%%%%%%%%QqQqQ%q%%Qq%QqQq%%%Q%%q%Q%%%
3599C99qQ%%%%%%qQ%%%%%%%%%%%%%%%%%%%%%%%%%%%%%%%%%%%%%%%%%%%%%%%%%%%%%%%%%%%
3593C99%%%%%%%%%Qq%%Qq%%%%%%Qq%%Qq%%%Qq%Qq%QqQ%%%qQqQ%%qQ%%%%%%%%qQ%%%%%%%%%
3586D07%%%%%%%%%%%%%%%%%%%%%%%%%%%%%%%%%%%%%%%%%%%%%%%%%%%Q%q%%%QqQqQ%%qQq%Q
3580D15%%%%%qQ%%%%%%%%%%%%%%%%%qQ%%%%%%%%%%%%%%%%QqQq%%%Qq%Qq%QqQ%q%%%Qq%%%Q
3573D23%%%q%%%%%%%QqQ%%q%%Q%%qQqQqQqQ%%%%%%%%%%%%%%%%%%%%%%%%%%%%%%%%%%%%%%%
3566D23%%%%%%%%%%%%%%%%%%%%%%%%%Qq%%Qq%%Q%q%QqQ%%%%q%%Q%%%%%qQ%%%%%%%%%%%%%%
3560D31%%%%%%%%%%%%%%%%%%%%%%%%%%%%%%%%%%%%%%%%%Q%q%%%Qq%%%%%Qq%%QqQ%%%%%%%%
3553D39%%%%%%%%%%%%%%%%%%%%%%%%%%%%%%%%QqqQ%Qq%%Qq%%Qq%%%%%%%%%%%%Qq%%%%%%%%
3547D39%%%Qq%Q%%q%Q%%%%%qQ%%%%%%%%%%%%qQ%%%%%%%%%%%%%%%%%%%%%%%%%%%%%%%%%%%%
3540D47%%%%%%QqQq%%%Qq%%%%Q%%%qQ%q%%Q%%%%qQ%%%%%%%%%%%%%%%%%%%%%%%%%%%%%%%%%
3534D55%%%%%%%%%%%%%%%%%%%%%%%%%%%%Qq%%%Qq%Q%%qQ%%%%%%%%%%%q%%Q%%%%%%%%%%%%%
3527D63%%%%%%%%%%Qq%qJ6%q%Qq%%%%%Qq%%%%%%%Qq%Qq%Q%%%%%%qQ%qQ%%%%qQ%%%%%%%%%%
3520D71%%%%%%%qQ%%%qQ%%%%%%%%%%%%%%%%%%%%%%%%%%%QqQq%%%%%%QqQ%q%Q%%%qQ%%%%%%
3514D79%%qQ%qQ%%%%%%%%%%%%%%%%%%%%%%%%%%%%%%%%%%%%%%%%%%%%%%Qq%Q%q%%%QqQ%%%%
3507D87q%%Q%q%Q%%%%%%%%%%%%%%%%%%%%%%%%%%%%%%%%%%%%%%%%QqQqQ%q%%%%%Q%q%%qQQ%
3501D95%%qQ%%qQ%q%%Q%%%%%%%%%%%%%%%%%%%%%%%%%%%%%%%%%%%%%%%%%%%%%%Qq%Q%%%q%%
3494D95Q%%qQ%%%%%%%%%%%%%%%%%%qQ%%%%%%%%%%%%%%%%%%%%%%%%%%%%%%%%%%%%QqQq%%%%
3488E03QqQ%%%%%%qQ%qQqQ%%%qQ%%%%qQ%%%%%%%%%%%%%%%%%%%%%QqQ%%%q%%%QqQ%%q%%%%%
3481E11Q%q%%Q%%%%%%%%%q%%Q%qQ%%%%Qq%%%%qQQq%%q%%J6qQj6qj6K4K4%k4qL2%k4QQq%Qj6
3475E11J6j6Q%%%%Q%q%%%Q%%qQqQ%%%qQ%%%%%%%%%%%%%%%%%%%%%%%%%%%%%%Qq%%%Q%q%%%%
3469E27%%QqQ%%qQ%%%%%qQ%%%%%%%%%%%%%%%%%%%%%%%%%%%%%Qq%%Qq%Q%q%QqQ%%%q%Qq%Q%
3462E43%qQ%%%%qQ%%%%%%%%%%%%%%%%%%%%%%%%%%%%%Qq%%%%%%%%%%%%%%%%%Q%qQ%qQ%%%%%
3456E51qQq%%%Q%%%%%%%%%%%%%%%%%%%%%%%%%Qq%Qq%%%%%%%Qq%QqQq%%Q%%%%qQ%%%%%%%%%
3449E59%%%%%%%%%%%%%%%%%%%%%%%%Qq%%%%%%%%%Q%q%%Qq%QqQq%%Q%%%%%%%%%%%%%%%%%%%
3442E67%%%%%%%%%%%%%%%%%%%%%QqQq%Q%%q%%Q%qQqQ%%%%%%qQ%%%%%%%%%%qQ%%%%%%%%%%%
3436E75%%%%%%Qq%QqQqQ%q%Qq%%%%Q%%%%%%%%%%%%%%%%%%%%%%%%%%%%%%%%%%%%%%Q%q%%%Q
3429E91q%%Q%qQ%%%%qQ%q%%Q%%%%%%%%%%%%%%%%%%%%%%%%%%%%%%Qq%Qq%%%Qq%QqQ%%%%%%%
3423E99%%%%%%%%%%%%%%%%%%%%%%%%%%%%%%%%%%%%%%%%%QqQ%q%Qq%%Q%%%%%%%%%%%%%%%%%
3416F07%%%%%%%Qq%Qq%%Qq%%%%%%Qq%%Qq%%QqQqQ%%%%%%%%%%%%%%%%%%%%%%%%%%%%%%%%%%
3410F15%QqQqQ%%%q%Qq%Q%%qQqQ%%%%%%%%%%%%%%%%%%%%%%%%%%%%%%%%QqQ%q%%Q%%qQ%%q%
3403F23Q%%%%%%%%%%%%%%%%%%%%%%%%%%%%%%%%%%%%Q%q%%%QqQ%%%%%%%%%%%%Qq%%%%%%%%%
3396F39%%%%%%%%%%%%%%%%%%%Q%%%%%%%%%%%%%%%%%%%%%%%%%%%%%%%%%Qq%%%%%%%Qq%%Q%%
3390F55qQqQ%%%%%%%%%%%%%%%%%%%%%%%%%%%%%%%%%%%%%Qq%%%%QqQ%qQ%%%%%%%%%%%%%%%%
3383F63%%%%Qq%%%Qq%%%QqQ%qQqQ%%%%%%qQ%%%q%QQq%%qQ%%Qq%Qq%%%%QqQq%Qq%%Q%%%%%%
3377F79qQ%%qQ%%qQ%%%%%%%%%%%%%%%Qq%%%%%Qq%%Q%%%q%%Q%%%%%%%%%%%%%%%%%%%%%%%%%
3370F87%%%%%%%%Qq%%%Qq%Q%%q%Q%%%%%%%%%%%%%qQ%%%%%%%%%%%%%%%%%%QqQ%%%%%%%%%qQ
3364G03%%%%%%%%%%%%%%%%%%%%%QqQ%%qQ%%%%%%%%%%%%%%%%%%%%%%%%%%%Qq%Q%q%%QqQqQ%
3357G19%%%%%%%%%%%%%%%%%%%%%%%%%Qq%%%%%%%%%%QqQ%qQ%%%%%%%q%Q%%%%%%%%%%%%%%%%
3350G27%%%%%%%%QqQqQ%qQ%%%%%%%%%%%%%%%%%%%%%%%%%%%QqQ%%%qQ%%%%%%%%%%%%%%%%%%
3344G43%%%%%%%Qq%Qq%Q%qQqQqQ%%%%%%%%%%%%%%%%%%%%%%%%%Qq%%%Qq%Q%%qQ%%%%%%%%%%
3337G59%%%%%%%Qq%%%%%Qq%Qq%Q%%%%%%%%%%%%%%%%%%%%%%%%%%%%%%%%%%%%Qq%%QqQ%%%%q
3331G67%Q%%q%Q%Qq%%%Qq%%QqQqQ%qQq%Q%%%%%%%qQ%%%%%%%%%%%%%%%%%%%QqQ%qQ%qQ%qQ%
3324G91%%%%%%%%%%%%%%%%%%%%%%%QqQqQ%%%%%q%Q%%%%%%%%%%%%%%%%%%%%%%%Q%%qQ%%qQ%
3317H07%%%%%%%%%%%%%%%%%%%%%%Q%%%%%%qQ%%%%%%%%%%%%%%%%%%%%Qq%Q%qQ%qQ%%%%%%%%
3311H23%%%%%%%%%%%%%%%Qq%%%Q%qQ%qQ%%%%%%%%%%%%%%%%%%%%%Qq%QqQ%qQ%%%%%%%%%%%%
3304H39%%%%%%%%%Qq%%%Q%%qQ%%%%%%%%%%%%%%%%%%%%%%Qq%%%%%%%QqQ%qQ%%%%%%%%%%%%%
3298H55Qq%Q%%q%Q%%%%%%%%%%%%%%%%%%%%%Qq%%%QqQ%%%qQqQ%%%%%%%%%%%%%%%%%%Q%%qQq
3291H71Q%%%%%%%%%%%%%%%%%QqQqQqQ%%%%%%%%%%Qq%Qq%%%%%%Q%%%qQ%%%%%%%%qQ%%%%%%%
3285H95%%%%Qq%%%Q%qQq%Qq%QqQ%%%%%Qq%qQ%Q%%qQj6J6qQqQ%q%Q%%%%%%%%Qq%%%%%%%%Qq
3278I11%%QqQqQ%%q%Q%%%%%%%%%%%%%%%%%%Q%qQ%qQ%%%%%%%%%%%%%%Qq%%Q%%%%%%%%%%%%%
3272I35%%%%%%%%%%%%%Q%%%%%%%%%%%%%Qq%%%%%%%Qq%Q%%qQ%%qQ%%%%%%%%Qq%%%%%%%Q%%q
3265I51Q%%%%%%%%%%%%%%%%Qq%Qq%Q%%%%%%%%%%%%%%%%%%%%%%%Q%%%%%%%%%%%%%%%%%%%%%
3258I75Qq%%Q%%%%%qQ%%%qQ%%%%%%Qq%%%%QqQqQ%%%%%%%%%%%%Qq%%Qq%%%%QqQ%%%%%%%%%%
3252I99%%%%%%QqQ%%%%%%%%%%%%%%%%%%%%%%%QqQ%%%%%%%%%%%%%%%%%%Q%qQ%%%%%%%%%%%%
3245A023%%%%Q%%%%%%%%%%%%%%%%%%%%%%%%%%%QqQ%%q%%Q%%%%%%%%%%%%Qq%Q%%%%%%%%%%%
3239A047%Qq%%%%QqQqQqQ%%%%%%%%%%%Qq%Q%%qQ%%qQ%%%%%%%%%%Qq%QqQ%%%%%%%%%%%Qq%Q
3232A079Qq%%qQ%%%%%%%%%%%%%%%%%%%%%Q%qQ%qQ%%%%%%%%%Qq%%%%Q%%%%%%%%%%%%%%%%%%
3226A095%Q%%%%%%%%%%%%%%%%%%Q%qQ%qQ%%%%%%%%%%%%%Qq%Q%%%%%%%%%%%%%Q%qQqQqQq%Q
3219A127%%%%%%%%%%%%%%Q%%%%%%%%%%%%%%%Qq%%%%Q%%%%%%%%%%%%%Qq%%%%Q%%%%%%%%%%%
3213A151%QqQq%Q%%%%%%%%%%%%Q%q%Q%qQ%%%%%%%%%%Qq%%%Q%%%%%q%J6qQj6Q%%%Q%%qQ%%%
3207A183%%%%%%%%%%%%%QqQ%%%%%%%%%%%%%%%%QqQ%%%%%%%%%%%%%%Q%%%%%%%%%%%%%%Q%qQ
3200A215%%%%%%%%%%%%%%%%%%Q%%%%%%%%%%%%%Qq%%Q%%%%%%%%%%%%%Q%q%Q%%%%%%%%%%%%%
3194A239%QqQ%%%%%%%%%%%%%%%Q%%%%%%%%%%%%Qq%QqQ%%%%%%%%%%%%%%%%%%Q%%%%%%%%%%%
3187A271Qq%Q%%qQ%%%%%%%%%%%Q%qQ%%%%QqQqQ%%%qqJ6J6k4QQqQq%%%QqQq%%QqQ%%%%%Q%q
3181A303%QqQ%%%%%%%%%%%%%Q%%%%%%%%%%Q%q%%Q%%%%%%%%%%%%%%%%%%Q%%%%%%%%%%Qq%%Q
3174A343%%%%%%%%%%%Q%%%%%%%%%%%%%QqQ%%%qQ%%%%%%%%%%Q%%%%%%%%%%%%Q%%%%%%%%%%%
3168A375%Q%%qQ%%%%%%%%%%%%Q%%%%%%%%%%%Q%qQ%%%%%%%%%%%%%Q%%%%%%%%%%%%%Q%%qQ%%
3161A415%%%%%%%%Q%%%%%%%%%%%%QqJ6qqJ6q%%%Q%%%%%%%%%%%%%%%QqQ%%%%%%%%%%%Q%%%%
3155A455%%%%%%%%Q%qQ%%%%%%%%%%%%Q%%%%%%%%%%Q%qQ%%%%%%%%%Q%%%%%%%%%%%%%%Q%%%%
3149A495%%%%%%%%%Q%%%%%%QqQq%Q%%%%%%%Qq%QqQ%%%%%%%%QqQ%%%%%%%%%Q%%qQ%%%%%%%%
3142A535Q%qQ%%%%Qq%%%Q%%%%%%%%%%Qq%QqQ%%%%%%%%%Q%%%%%%%%%QqQ%qQ%%%%%%%Q%%%%%
3136A583QqQq%QqQQq%qQQ%q%Q%qQ%%%%%%Q%%qQ%%%%%%%%Q%%%%%%%%%%%%%%%Q%%%%%%%%QqQ
3129A631%%%%%%%%Q%%%%%%%%%%Q%%%%%%%%%%%Q%%%%%%%%%%Q%qQ%%%%%%%Q%%%%%%%%%Q%%qQ
3123A679Q%%q%QqQ%%%%%%%%%%Q%%%%%%Q%%%%%%%%%%%QqQ%%%%%%%%%%Q%%%%%%%%Q%%%%%%%%
3116A727QqQqQ%%%%%%%%Q%%%%%%%%Q%%%%%%%Qq%%Q%%%%%%%Q%%%%%%%%%%Q%%%%%Q%qQ%%%%q
3110A775Q%%%%%Q%%%%%%%QqQ%%%%%%Q%%%%%%%%%%Q%%%%%%%%Q%%%%%%%%%Q%%%%%%%%Q%qQ%%
3103A839%%%QqQ%%%Q%q%Q%%%%Qq%QqQ%%%%%Qq%Q%%%%%%%Q%qQ%%%%%%%Q%%%Qq%Q%%%%%%%%%
3097A895%Q%%%%%%QqQ%%%%%%%%Q%%%%%%%Q%%%%%%%Q%%%%%%%%%%%Q%%%%QqQ%%%%%%Q%%%%%Q
3090A967%q%%Q%%%%Q%%%%%Qq%Q%%%%%%QqQ%%qQ%%QQj6%QQj6QJ6k4%J6%qK4j6%qJ6%%%%Q%q
3085B015%%Q%%%%%%Q%%%%%Q%qQ%%%%%%Q%%%%%%QqQ%%%%%%%Q%%%QqQ%%%%%%%Q%%%%%%QqQ%%
3078B087%%%%%%Q%%%%%%%Q%%%%%Q%%%%%%Q%%%%%%%Q%%%%%Q%qQ%%%%%Q%%%%QqQ%%%%%%Q%%%
3072B159%%%QqQ%%%Qq%Q%%%%%%%Q%%%%%%Q%%%%%Q%%%%%%Q%%%%%QqQ%%%%%Q%%%%%QqQ%%%%%
3065B231%%Q%%%%%QqQ%%%%%Q%%%%%Q%%%%%QqQqQ%Q%%%Qq%QqQ%qQ%%%Q%%%%%%Q%%%%Q%%%%%
3059B311%Q%%%%%QqQ%%%Q%%%%%%%%Q%%%%QqQ%%QqQ%%%%%%Q%%%%%%Q%%%%Q%%%%%Q%%%%%QqQ
3052B399%%%Qq%Q%%%%Q%%%%%Q%%%%Q%%%%%%Q%%%%%%%Q%%%%Q%%%Q%%%%%%Q%%%%%%Q%%%QqQ%
3046B487%%%%Q%%%%%%Q%%%%%Q%%%%Q%%%%Q%%%%%Q%%%%%%Q%%%%Q%%%%Q%%%%%Q%%%%%%Q%%Qq
3039B575Q%%%Q%%%%%%Q%QqQ%%qJ6qQQ%q%%%Q%%Q%%%%Q%q%Q%%%Q%%%QqQ%%Q%%%%%%%Q%%%%Q
3033B679%%Q%%%%%%Q%%%%%Q%%Q%%%%%%Q%%%Q%%%%%%Q%%%%%Q%%%%Q%%%Q%%%%Q%%%QqQ%%%%Q
3026B783%%%Q%%%%%%Q%%%%Q%QqQ%%%Q%%%%Q%%%%Q%%%Q%%%%QqQ%%Q%%%%Q%%%%%Q%%%%Q%%%Q
3020B895%%%%Q%%%Q%%%Q%%%%%Q%%%Q%%%%Q%%%Q%%%Q%%%%%Q%%%Q%%%%Q%%%Q%%%%Q%%%Q%%%%
3013C007%Q%%Q%%Q%%%Q%%%%%Q%%%Q%%%%Q%%%Q%%%%QqQQqQ%%Q%%%Q%%%%Q%%%Q%%%%Q%%QqQ%
3007C135%%Q%%Q%%%Q%%%Q%%%Q%%%Q%%%%Q%%%Q%%%Q%%%Q%%%Q%%%Q%%%Q%%%Q%%%Q%%%Q%%%Qq
3000C263QQ%%%QqQ%%%Q%%Q%%%%Q%%Q%%Q%%%%Q%%Q%%%Q%%%Q%%%Q%%Q%%QqQ%%Q%%%Q%%%Q%%%
2994C407Q%%%Q%Q%%%Q%%Q%%Q%%%%Q%%Q%%%Q%%%Q%%%Q%QqQQqQ%%QqQ%Q%%Q%%QQqJ6q%%QQqQ
2987C567%%%%Q%%Q%%Q%%%%Q%%Q%%Q%%Q%%Q%%%Q%%%Q%Q%%Q%%%Q%%%Q%Q%%Q%%%%Q%%Q%%Q%Q%
2981C727%QqQ%Q%%%Q%Q%%%Q%%Q%%Q%%%Q%Q%%%Q%%Q%QqQ%%Q%Q%%%Q%Q%%%Q%%Q%%Q%%Q%%Q%Q
2975C903%%%Q%%Q%Q%%%Q%%Q%%Q%%Q%%Q%%Q%Q%%%Q%Q%%Q%%%Q%Q%%Q%%%QQ%%Q%%Q%%Q%%Q%%Q
2968D087%%Q%%Q%Q%%%Q%Q%%Q%%Q%Q%%Q%Q%%Q%%Q%Q%%Q%Q%%%%Q%Q%Q%QqQ%Q%Q%%Q%Q%%Q%%Q
2962D287%%Q%Q%Q%%Q%%Q%Q%%%Q%Q%Q%Q%%Q%%Q%%QQ%%%QQ%%%QQqQ%Q%Q%Q%%Q%Q%%Q%%Q%Q%%
2955D495Q%Q%Q%%Q%Q%%Q%Q%Q%%Q%Q%Q%%Q%Q%%QQ%%Q%Q%%%QQ%Q%%Q%Q%Q%%Q%Q%Q%Q%%QQqQQ
2949D735%%Q%Q%Q%Q%Q%%Q%Q%Q%Q%%Q%Q%Q%Q%%Q%QQqJ6%%Q%Q%Q%Q%%QQ%%Q%QQ%%Q%%QQ%Q%%
2942D975Q%QQ%Q%%Q%Q%Q%Q%QQ%%%Q%Q%QQ%QQqQQ%%QQ%%QQ%Q%Q%%QQ%Q%Q%Q%Q%Q%Q%Q%Q%Q%
2936E247Q%QQ%%QQ%%Q%Q%Q%QQ%Q%Q%QQ%Q%Q%Q%QQ%Q%Q%%QQ%Q%Q%Q%Q%QQ%Q%Q%QQ%%QQ%QQ%
2929E543Q%Q%Q%Q%QQQ%%QQ%Q%Q%QQ%%QQ%QQ%Q%Q%QQ%Q%QQ%Q%QQ%QQ%Q%Q%Q%QQQ%%QQ%QQ%Q
2923E863%QQ%Q%QQ%QQ%Q%QQQ%Q%QQ%QQ%Q%QQ%QQ%QQ%QQ%Q%Q%QQQ%Q%QQ%QQ%QQ%QQ%QQ%QQ%
2916F207QQ%QQQQ%%QQ%QQ%QQQ%QQ%QQ%QQ%QQQ%QQ%QQ%QQ%QQ%QQQ%QQQ%QQ%QQQ%QQQ%QQ%QQ
2910F591Q%QQ%QQQ%J6%Q%QQ%QQQQ%QQ%J6%QQQ%QQ%QQQQ%QQQ%QQQQ%QQQ%QQQ%QQQQ%QQQ%QQ
2903F991QQQ%Q%J6%QQQQQ%QQQQQ%QQQQ%J6%QQ%QJ6%QQQQ%QQQQ%QQQQQQQ%QQQQQ%QQQQ%J6Q
2897G423%J6%QQQQQ%QQQQQQQQ%QQQQQQ%J6%QQQQQQQQQQQ%J6Q%QQQQQQQQQ%J6QQ%QQJ6%QQK4
2891G895qQJ6qK4j6K4qL2Q%qK4QQQQQQQQQ%QJ6QQ%QJ6%QQJ6%J6QQ%QJ6QQQ%J6QQQQQQQQQQ
2886H327QQQQQQQQQQQQQQJ6QQQQQQQQQQQJ6%J6QQQQQQQQQJ6Q%J6QQQQQJ6%QJ6QQQQJ6QQQQ
2880H847QQJ6%J6QQQQQJ6QQQQJ6%QQJ6J6%J6QQQQJ6QQQQQJ6QQQJ6QQQQJ6QQQQJ6QQQJ6QQQ
2875I367J6QQQJ6QQQJ6QQQJ6QQQJ6QQQJ6QQQJ6QQJ6QJ6QQQQJ6QQJ6QQJ6QQJ6QQJ6QQJ6QQJ6
2870I919QJ6QJ6%J6J6QQQJ6QJ6QJ6QQJ6QJ6QQJ6QQJ6QJ6QQJ6QJ6QJ6QQJ6QJ6QK4QQQJ6QQJ6
2865A0471QJ6QJ6QJ6QJ6QQJ6QJ6J6QQJ6QJ6J6QJ6QJ6QJ6QJ6QJ6QJ6J6QJ6QJ6QJ6J6QJ6QJ6
2861A1007QJ6QJ6QJ6J6QJ6J6QJ6QJ6J6QJ6J6QJ6QJ6J6QJ6J6QJ6J6QJ6J6QJ6J6QJ6J6J6QJ6
2857A1543J6QJ6J6QJ6J6J6QJ6J6QJ6J6J6QJ6J6J6QJ6J6J6QJ6J6J6J6QJ6J6J6QJ6J6J6J6QJ6
2853A2087J6J6J6J6QJ6J6J6J6J6J6QJ6J6J6J6J6QJ6J6J6J6J6J6J6J6J6J6QJ6J6J6J6J6J6J6
2850A2631J6J6J6J6J6J6J6QJ6J6J6J6J6J6J6J6J6J6J6K4J6J6J6QK4QK4J6J6J6J6J6J6J6J6
2847A3191J6K4QJ6K4QK4J6J6J6J6J6K4J6J6J6J6K4J6QK4J6J6J6J6J6K4J6J6J6K4QK4J6J6J6
2843A3807K4J6J6J6K4J6J6J6K4J6J6J6K4K4QJ6K4K4J6J6J6K4QK4J6K4J6J6K4J6J6K4J6J6K4
2840A4455J6K4J6J6K4J6J6K4K4J6J6J6K4K4J6K4J6J6K4K4J6J6K4J6J6K4K4J6K4J6K4J6K4K4
2837A5127J6K4J6K4J6K4J6K4J6K4J6K4K4K4J6K4J6K4K4J6K4K4J6K4K4J6K4K4J6K4K4J6K4K4
2833A5839K4J6K4K4K4J6L2J6J6L2J6K4K4K4K4K4J6K4K4K4K4J6K4K4K4K4K4K4K4J6K4L2K4J6
2830A6607K4K4K4K4J6L2K4K4K4K4K4K4K4K4K4K4K4K4K4K4K4K4K4L2J6K4L2K4K4K4K4K4K4K4
2827A7431L2K4K4K4K4L2K4K4K4L2J6L2K4K4L2K4K4K4L2K4K4K4L2K4K4L2K4K4L2K4L2K4K4L2
2824A8327K4L2K4K4L2K4K4L2L2K4L2K4L2K4L2K4L2K4L2K4L2K4L2L2K4L2L2K4L2K4L2L2K4L2
2820A9287K4L2L2K4L2L2L2K4L2L2L2L2K4L2L2L2K4L2L2L2K4M0K4L2L2L2L2L2L2K4M0L2L2L2
2817B0327K4M0L2K4M0K4L2M0L2K4M0L2L2L2L2L2L2M0L2L2L2L2L2L2M0L2L2L2M0L2L2L2M0L2
2814B1447L2M0K4M0L2M0L2M0L2L2M0L2M0L2M0L2M0L2L2M0M0L2M0L2M0M0L2M0L2M0L2M0L2M8
2811B2671L2M0M0L2M0M0L2M0M0M0M0L2M0M0M0M0L2M0M0M0M0M0M0M0M0M0M0M0M0M0M0M0M0M0
2808B3991M0M8M0M0M0M0M0M0M8M0M0M0M8M0M0M0M8M0M0M8M0M0M8M0M0M8M8M0M8M0M8M0M8M0
2804B5439M8M0M8M0M8M8M0M8M8M0N6M0M8M8M0M8M8M8M8M8M0M8M8M8M8M8M8M8M8M8M8M8M8M8
2801B7023M8M8M8M8N6M8M8M8N6M8M8M8N6M8M8N6M8N6M8M8N6M0N6N6N6M8M8N6N6M8N6M8N6N6
2798B8759N6M8N6N6M8N6N6N6N6M8N6N6N6N6N6N6N6N6N6N6N6N6O4M8O4N6N6N6N6O4N6O4M8O4
2795C0663O4N6N6O4O4N6N6O4N6O4O4M8P2N6N6P2M8Q0N6N6O4P2N6N6P2O4N6P2N6P2O4O4O4O4
2791C2767O4P2O4O4O4P2O4O4O4P2O4O4P2O4P2O4P2O4P2P2O4P2P2O4P2P2P2P2P2P2O4P2P2P2
2788C5095P2P2P2P2Q0P2P2P2Q0P2P2Q0P2P2Q0P2P2Q0Q0P2Q0P2Q0Q0P2Q0Q0Q0Q0P2Q0Q0Q0Q0
2785C7679Q0Q0Q8Q0Q0Q0Q0Q0Q8Q0Q8Q0Q0Q8Q8Q0Q8Q0Q8Q0Q8Q8Q8Q8Q8Q0Q8Q8Q8Q8Q8Q8R6Q8
2782D0567Q8Q8Q8R6R6Q0R6R6R6Q8R6Q8Q8R6R6R6R6Q8J04Q8R6J04R6R6R6R6R6R6J04R6J04R6
2779D3591J04R6J04J04R6J04R6J04J04J04J04J04J04J04J04J04J12J04J04J04J12J04J12J04
2776D6087J12J04J12J12J12J12J12J04J20J12J12J12J12J12J12J20J12J20J12J20J12J20J12
2774D8687J20J20J20J20J20J20J20J20J20J20J28J20J28J20J28J20J28J28J20J28J28J28J28
2772E1519J28J28J28J28J36J28J36J28J36J28J36J36J36J36J28J36J36J44J36J36J36J44J36
2770E4599J36J44J36J52J44J36J44J44J44J44J44J52J52J44J44J52J44J52J44J52J60J52J52
2767E7967J52J52J52J60J52J60J60J60J52J60J60J60J60J60J68J60J60J68J68J60J68J68J68
2765F1655J68J68J68J76J68J68J76J76J68J76J76J76J76J76J84J76J76J84J84J84J84J76J84
2763F5703J92J84J84J92J92J84J92J84J92J92J92J92K00K00J92J92K08J92K00K08K00K00K00
2761G0167K08K00K08K08K08K08K16K08K08K16K16K08K24K08K24K16K16K24K24K24K24K16K32
2759G5111K24K24K32K32K24K32K32K32K40K32K40K32K40K48K40K40K40K48K48K40K56K48K48
2757H0583K48K56K48K64K56K56K56K64K56K64K64K64K64K72K72K64K72K72K72K80K72K80K80
2754H6679K80K80K88K88K80K96K88K88K88K96K96K96K96K96L04L04K96L12L04L12L04L12L12
2752I3495L20L12L20L20L20L20L28L20L28L28L36L28L36L36L36L44L44L44L44L44L52L44L52
2750A01151L60L52L52L68L60L60L68L68L68L68L76L68L84L76L84L84L84L84L92L92L92L92
2748A09383M00M00M00M08M08M08M16M08M16M16M24M24M24M24M32M32M40M32M40M48M48M40
2746A18671M48M56M56M56M56M64M72M64M72M72M72M80M88M80M96M88M88M96N04N12M88N12
2744A29191N04N20N20N20N20N28N28N36N36N36N44N44N52N52N52N60N68N68N68N68N76N84
2742A41175N84N92N84O00N92O08O00O08O16O24O16O24O32O32O40O40O48O48O56O56O64O64
2739A54903O72O80O80O80O88O96P04O96P04P20P12P20P28P28P36P44P44P52P60P60P68P68
2737A70743P76P84P84Q00P92Q08Q08Q16Q16Q32Q32Q40Q40Q48Q56Q64Q64Q80Q80Q88Q88Q96
2735A89135R04R20R20R28R28R36R52R52R60R68R68R84R92R92J008J008J016J024J032J040
2733B08567J056J056J064J072J080J088J104J104J120J120J136J136J152J160J168J176J184
2732B27543J200J200J216J224J232J248J256J264J272J288J296J304J312J328J336J352J360
2730B49231J368J384J392J408J416J432J440J448J472J472J496J504J512J528J544J552J568
2728B74167J584J592J616J624J640J648J664J688J696J712J720J744J760J776J792J800J824
2727C03047J840J856J872J896J904J920J944J960J984J992K016K040K056K072K096K112K136
2725C36743K152K176K200K216K240K264K280K304K328K352K376K400K416K448K472K496K520
2724C76383K552K568K600K624K656K680K712K728K768K792K824K856K880K912K944K976L008
2722D23463L040L072L112L136L176L208L248L280L320L352L384L432L464L512L544L592L624
2720D79959L672L712L752L800L848L880L944L968M024M088M112M184M216M272M328M376M432
2719E48567M488M536M600M656M712M768M840M888M952N016N088N144N216N280N344N424N488
2717F33007N568N640N704N792N864N944O024O112O184O280O360O448O544O632O720O824O912
2715G38559P016P112P216P328P424P536P648P760P872P992Q112Q232Q360Q480Q616Q744Q880
2714H72887R016R160R304R448R600R752R904J0064J0232J0392J0568J0736J0912J1096J1280
2712A024351J1472J1672J1864J2064J2272J2488J2696J2928J3152J3384J3624J3864J4120
2711A189951J4368J4632J4904J5176J5456J5744J6048J6344J6656J6984J7296J7648J7976
2710A399183J8344J8696J9072J9456J9848K0256K0664K1088K1528K1976K2441K2911K3409
2709A668872K3903K4425K4959K5505K6071K6649K7247K7865K8495K9153K9831L0512L1249
2707B024736L1976L2744L3528L4351L5184L6049L6952L7872L8840L9816M0848M1903M3001
2706B507800M4136M5311M6529M7792M9095N0456N1857N3319N4825N6400N8031N9728O1489
2705C186768O3320O5224O7207O9272P1424P3656P5992P8425Q0959Q3609Q6375Q9265R2280
2704D183776R5431R8736J02192J05809J09599J13569J17736J22120J26704J31527J36608J41945
2703E585752J47568J53479J59729J66304J73264J80607J88360J96577K05279K14497K24271
2702G595687K34648K45680K57416K69896K83216K97409L12568L28776L46128L64704L84655
2701A0920783M06057M29104M53896M80664N09543N40792N74639O11369O51287O94745P42160
2699A7015039P93952Q50688R12928R81384J056815J140169J232480J334991J449144J576632
2699B8344222J719442J879951K060960K265823K498592K764153L068423L418674L823848M295051
2698E6139139M846135N494594O262576P178607Q279516R613524J1244387J3257577J5768807
2697A38084862J8937044K2983559K8220742L5095546M4254908N6643732P3642168R7234767
2696E15097328J30120935J75409366K34749168L02006117L48728562L10920515J30451656
2695B147483647j30451853l10920318l48728562l02006117k34749020j75409514j30120935
2695E15097328r7234816p3642119n6643732m4254908l5095546k8220742k2983559j8937056
2694A38084850j5768782j3257590j1244387r613524q279504p178619o262589n494575m846141
2693E6139139m295057l823851l418671l068417k764159k498586k265823k060960j879945j719448
2692B8344222j576632j449144j334991j232480j140169j056815r81384r12928q50688p93960
2691A7015031p42152o94745o51287o11369n74647n40784n09543m80664m53896m29096m06065
2690A0920783l84647l64712l46128l28769l12575k97400k83217k69904k57416k45680k34656
2689G595679k24263k14497k05279j96577j88367j80600j73257j66311j59729j53479j47568
2688E585752j41945j36608j31527j26713j22111j17736j13569j09599j05809j02192r8736
2687D279207r5431r2280q9265q6375q3609q0959p8425p5992p3664p1416o9272o7207o5224
2686C250088o3320o1489n9728n8031n6400n4825n3319n1857n0456m9095m7792m6529m5311
2684B551936m4129m3008m1903m0848l9824l8832l7872l6952l6049l5184l4343l3536l2744
2683B056712l1976l1240l0528k9824k9153k8495k7865k7247k6656k6064k5505k4952k4432
2682A692775k3903k3409k2911k2441k1976k1536k1088k0664k0248j9848j9456j9072j8704
2681A417519j8336j7984j7632j7304j6984j6656j6344j6040j5752j5456j5176j4904j4632
2679A204319j4368j4120j3864j3624j3384j3152j2928j2696j2488j2272j2064j1864j1672
2678A035823j1464j1288j1096j0912j0736j0568j0400j0224j0064r904r752r600r448r304
2677H91063r152r024q880q744q616q480q360q232q112p992p872p760p648p536p424p328p216
2675G52687p112p016o912o824o720o632o544o448o360o280o192o104o024n944n864n792n712
2674F44207n632n568n488n416n352n280n216n144n088n016m952m888m840m768m712m656m600
2672E57591m536m488m432m376m328m272m224m168m128m072m032l976l936l888l840l792l760
2670D87343l712l672l624l592l544l504l472l432l384l360l312l280l248l208l176l136l112
2669D29575l072l040l008k976k944k912k888k848k824k792k768k736k704k680k656k624k600
2667C81503k568k552k520k496k472k440k432k392k376k352k328k304k288k256k240k216k200
2666C41071k176k152k136k112k088k080k056k032k016k000j984j960j944j920j904j896j872
2664C06743j856j840j824j800j792j776j760j744j720j712j696j688j664j648j640j624j616
2662B77343j592j584j568j552j544j528j520j504j488j480j456j456j440j432j416j408j392
2661B51983j384j368j360j352j336j328j312j304j296j288j272j264j256j248j232j224j216
2659B29943j200j200j184j176j176j152j152j136j136j120j120j104j104j088j080j072j064
2657B10679j056j048j048j032j024j016j016j000r92r92r84r76r60r60r52r52r36r36r20r20
2656A90959r12r04r04q96q80q88q72q64q64q56q48q48q32q32q32q16q16q08q08q00p92p84
2653A72303p84p76p76p60p60p60p52p44p44p36p28p28p20p12p12p12p04o96o88o96o80o80
2651A56255o80o64o72o64o56o56o48o48o40o40o32o24o32o16o16o16o16o00o08n92o00n92
2649A42343n84n84n84n76n68n68n76n60n52n60n60n44n44n44n36n36n36n28n28n20n20n20
2647A30215n12n04n20m96n04n04m96m96m88m88m80m88m80m72m72m72m64m72m64m56m56m56
2645A19575m48m56m48m40m40m48m32m40m32m24m32m24m24m24m16m16m08m16m08m08m08m00
2643A10183m00l92m00l92l92l92l84l84l84l84l76l76l76l76l68l68l68l68l68l60l52l60
2641A01863l60l52l52l52l44l44l52l44l44l36l36l36l36l28l36l28l28l20l28l20l20l20
2639I4447l20l20l12l12l12l04l12l04l04l04l04l04k96k96k96k96k88k96k96k88k80k88k88
2637H7527k80k88k80k72k80k80k72k80k72k72k64k72k72k64k64k64k56k72k56k56k56k56k56
2634H1343k64k48k48k48k56k40k48k48k48k40k40k40k40k40k40k40k32k40k32k32k32k24k32
2632G5791k32k24k24k32k24k24k16k24k16k24k16k24k08k16k16k16k16k08k16k08k08k08k00
2630G0791k16k00k08k00k08k00k00k00j92k08j92k00j92j92k00j92j84k00j84k00j84j84j92
2628F6263j84j84j92j76j92j76j84j84j76j84j76j76j84j76j76j76j76j68j76j76j68j68j76
2626F2159j68j68j68j68j68j68j68j60j60j68j60j68j60j60j60j60j60j52j60j60j52j60j52
2623E8431j60j52j52j60j44j52j52j52j44j52j52j52j44j44j36j60j44j36j52j44j44j36j44
2621E5023j44j44j36j36j36j44j36j44j28j44j36j36j36j28j36j36j28j36j28j36j28j36j28
2619E1903j28j28j28j28j28j28j28j20j28j28j20j28j20j28j20j20j28j20j20j20j20j20j20
2617D9047j20j20j12j28j12j12j20j20j04j28j12j12j12j20j12j04j12j12j12j12j12j12j12
2615D6415j04j12j12j04j12j04j12j04j04j04j12j04j04j04j04j04j04j04j04r6j04j04j04
2612D3991r6j04r6j04r6j04r6r6j04r6r6r6r6j04r6r6r6q8r6r6r6r6q8r6r6q8r6q8r6q8r6
2609D1015q8q8q8r6q8q8q8q8r6q8q8q0r6q0q8q8q8q8q8q0q8q0q8q0q8q0q8q0q8q0q8q0q0q0
2606C8087q8p2q8p2q8q0q0p2q0q0q0q0q0p2q0q0q0p2q0p2q0p2q0p2q0p2p2p2q8o4q0p2p2p2
2603C5463p2p2q0p2p2p2p2p2o4p2p2p2p2p2p2o4p2p2o4p2p2o4p2o4p2o4o4p2o4p2o4o4o4p2
2600C3095o4o4o4o4p2o4o4o4o4o4o4o4p2n6n6p2o4o4o4o4m0q0m8p2n6o4o4n6n6o4p2n6o4n6
2596C0959n6o4n6n6o4n6o4m8o4n6o4n6n6n6n6n6o4m8o4n6n6n6n6n6n6n6n6m8n6n6n6n6n6m8
2593B9031n6n6n6m8n6n6m8n6n6m8n6n6m8m8n6n6m0n6n6n6m8m8m8n6m8n6m8m8m8m8n6m8m8m8
2590B7271m8m8n6m8m8m8m8m8m8m8m8m8m8m8m8m8m8m8m8m0m8m8m8m8m8m0m8m8m0m8m8m8m0m8
2587B5663m0m8m8m0m8m8m0m0m8m8m0m8m0m8m0m0m8m0m0m0m8m0m0m8m0m8m0m0m0m0m8m0m0m0
2584B4199m0m0m8m0m0m0m0m0m0m0m0m0m0m0m0m0m0m0m0m0l2m8l2m0m0m0l2m8l2m0m0m0l2m0
2580B2855m0l2m0m0l2m0m0m0l2m0m0l2m0l2l2m8l2l2m0l2m0m0l2l2m0l2l2m0m0l2m0l2l2m0
2577B1615l2l2l2m0l2m0l2l2l2l2m0l2l2m0k4m0l2l2l2l2l2m0l2l2l2l2l2m0l2k4m0l2k4m0
2574B0479k4m0l2k4m0k4m0l2k4l2l2l2l2l2l2l2l2k4m0k4l2l2k4l2l2l2l2k4l2l2l2k4l2l2
2571A9431k4l2l2k4l2l2l2k4l2k4l2l2k4l2k4l2l2k4l2k4l2k4l2l2k4k4l2k4l2l2k4k4k4l2
2567A8463l2k4k4l2l2k4k4l2k4k4k4l2k4k4l2k4k4l2k4k4l2k4k4k4l2k4k4l2k4k4k4l2k4k4
2564A7559k4k4k4k4l2k4k4k4k4k4k4l2k4k4k4k4k4k4k4k4k4k4k4k4k4l2k4j6l2k4j6l2j6k4
2561A6727k4k4k4k4k4j6k4l2j6k4k4k4k4k4k4k4j6k4k4k4k4k4j6k4k4k4k4j6k4k4k4k4j6k4
2558A5951k4k4k4j6k4k4k4j6k4k4k4j6k4k4j6k4j6k4k4j6k4k4j6k4j6k4k4j6k4j6k4j6l2j6
2554A5223j6k4j6k4k4j6k4j6k4j6k4j6k4j6k4j6k4j6k4j6k4j6k4j6j6k4k4qk4k4j6j6k4j6
2551A4551k4j6k4j6j6j6k4j6k4j6j6k4j6j6j6k4j6j6k4j6k4j6j6l2qj6j6k4j6j6j6k4j6k4
2548A3911j6qk4j6j6k4j6j6j6j6k4j6j6j6k4j6j6j6j6j6j6k4j6j6j6j6j6k4qk4j6j6j6j6j6
2544A3311k4j6qk4j6j6j6j6j6j6j6j6j6j6j6k4j6qj6j6k4j6j6qk4j6j6j6j6j6qj6j6j6j6j6
2541A2727j6j6j6j6j6j6j6j6j6j6j6j6j6j6qj6j6j6j6j6j6j6qj6j6j6j6j6j6j6qk4qj6j6j6
2538A2175qj6j6j6j6qj6j6j6j6j6j6qj6j6j6qj6j6j6j6j6qj6j6j6qj6j6j6qj6j6qj6j6j6q
2534A1639j6j6qj6j6j6qj6j6qj6j6qj6j6qj6j6qj6j6qj6j6qj6j6qj6qj6j6qj6j6qj6qj6j6
2530A1103qj6qj6j6qj6qj6j6qqj6j6qj6qj6qj6j6qqj6j6qj6qj6qj6j6qj6qqj6qj6j6qj6qq
2526A0567j6qj6j6qqj6qqj6qj6j6qqj6qqj6qj6qj6j6qqqj6qj6qqk4%j6qqj6qj6qj6qqj6qj6
2522A0023qqj6qqj6qqj6qj6qqqj6qj6qqj6qqj6qqqj6qqj6qqj6qqj6qqqj6qqqj6qqj6qqqj6
2517I487qqqj6qqqj6qqqj6qqqj6qqqqj6qqj6%j6qqj6qqqqj6qqqqqqj6qqj6qqq%j6qj6qqqq
2511H959qqj6qqqqqqj6qqqqqj6qqqqj6%qqj6qqqqqqqqj6%j6qqqqj6%qqj6qqqqqqqqqj6%j6
2506H447qqqqqqqqqqqqqqqqqqqqqqj6qq%qj6%qj6q%j6%qqqj6q%qqqqj6q%qj6%j6%j6j6Qj6
2501G983%j6%qQl2%%k4%qqj6%qqqqqq%j6qq%qqqqq%j6qq%j6%qqqqqqq%j6qq%j6%qqqqqqqq
2495G543%qqqqqqqq%qqqqqq%qj6%qqqq%qqqqqqq%qqqq%j6%qqqq%qqqqq%qqqqq%j6%qqq%qq
2489G103qqq%qqq%qqqq%qqqqq%qqqq%qqq%qqqqq%qq%qqqq%qqq%qqqq%qqq%qqq%qqq%qqq%q
2482F679qq%q%j6%qqq%q%qqqq%qqq%qqq%qq%qq%qqq%qqq%q%qqq%qq%q%qqqq%qq%qq%q%qqq
2476F295%j6%qq%%qq%j6%q%q%qqq%qqq%q%qq%qq%q%qq%qqq%q%qq%qq%q%qq%qq%q%qqq%q%q
2470E951q%%j6%q%qq%qq%q%q%qq%qq%qq%%qq%q%qq%q%q%qq%qq%qq%q%q%q%qq%q%q%j6%q%%
2463E639j6%%q%qq%q%qq%q%q%qq%q%q%q%q%qq%q%q%qq%q%q%q%qq%q%q%q%%qq%q%qq%%qq%q
2457E335%q%qq%q%q%%q%qq%%qq%q%q%q%q%qq%%q%q%q%q%q%q%q%q%qq%%qq%%q%j6Qqq%qqQq
2450E063q%%qq%%q%q%q%%qq%q%q%%q%qq%q%%q%q%q%%qq%q%%qq%%q%%qq%q%%q%q%q%q%q%%q
2444D807%q%q%q%%q%q%q%q%%qq%%q%q%%qq%%q%q%q%q%q%%q%%q%q%q%q%%q%%q%q%q%q%%q%q
2437D567%q%%q%q%q%%q%%q%q%q%%q%q%%qq%%%q%q%%q%q%q%%q%q%%%qq%%q%q%%q%%q%q%%q%
2431D351q%q%%q%%q%q%%%q%q%q%%q%q%%q%%q%%q%%q%q%%q%qQj6%Qj6%%q%%q%%%q%q%%q%q%
2425D151%q%%q%q%%q%%q%q%%%q%q%%q%%q%%q%%q%%q%%q%q%q%q%Qqq%%%q%%q%%q%q%%q%%%q
2418C959%q%%%qq%%%q%%q%%q%%q%%q%q%%%q%%q%%q%%%q%%qqQq%%q%q%%%q%%q%%q%%%q%q%%
2412C783%q%q%%%q%%%q%%q%q%%%q%%q%%q%%q%%%q%q%%%%q%%q%%q%%%q%%q%%%q%q%%%q%q%%
2405C615%q%q%%%%q%%%q%q%%%q%Qj6%qQ%qqJ6qqQqj6QQj6%%%q%%q%%q%%%q%%q%%q%%%%q%%
2399C471%q%%%q%%q%%q%%%q%%%q%%q%%%q%%%q%qQq%%q%%%q%%%q%%%q%%q%%%q%%qQq%%q%%q
2393C319Qq%%q%%q%%%q%%%q%%%q%qQ%j6Qq%%%q%%%%q%%%q%%%q%%%q%%%q%%%%q%%q%%%%q%%
2386C191q%%%%q%%q%%%%q%%q%%%%q%%q%%%%q%%%q%%%%q%%%q%%%%q%%%q%%%q%%%%q%%%q%%%
2380C063q%%%q%%%%q%%%q%%%%qQq%q%%%q%%%q%%%qQq%%%q%%%%q%%%q%%%%q%%%q%%%%q%%qQ
2373B943q%%%q%%%%q%%%%q%qQ%q%qQq%%q%%%%qQq%%%q%%%%q%%%%q%%%q%%%q%%%%q%%%%%q%
2367B823%%%q%%%%q%%qQq%%%%q%%%q%%%%%q%%%q%%%%q%%%%%q%%%%q%%%%%%q%%%%q%%%q%%%
2360B719%qQq%%%%q%%%q%%%%q%%%%q%%%%q%%%%%q%%%%q%%%%qQq%qQq%%%q%%Qq%%%q%%%%%q
2354B615%qqJ6%%qq%Qq%%%%q%%%q%%%%%%q%%%%q%%%%%q%%%%%%q%%%q%%%%%q%%%%%q%%%%%%
2347B527q%%%q%%%%%q%%%%q%%%%%%q%%%%%q%%%%%%q%%%%%q%%%%q%%%%q%%%%%%q%%%%qQ%%q
2341B431%%%q%%%qQ%q%%%%q%%%%q%%%%%%%q%%%%%%q%%%%%q%%%%%%q%%%%%q%%%%%q%%%%%q%
2334B343%%%%q%%%%%%%q%%%%%q%%%%%%%q%%%%q%%%%%q%%%%%%%q%%%%%%%q%%%%q%%%%%%%q%
2328B263%%%%q%%%%%%%q%%%%%%q%%%%%q%%%%%%q%%%%%%%q%%%%%%q%%%%q%%%%%%%q%%%%%%q
2322B183%%%%%%q%%%%%%%qQq%%%qQq%%%%%q%%%%%%%%q%%%%%%%q%%%%%%%q%%%q%%Qq%%%%q%
2315B111%%%%%%q%%%%%%q%%%%%%q%%%%%%%%%%q%%%%qQ%qQqqQ%qQq%%%q%%%%%%%%qQ%q%%%%
2309B047q%%%%%%%qQq%%%%qQ%q%%%%%%Qq%qQq%QqQj6qJ6j6qQQ%qj6QJ6qj6Q%Qj6%QQq%q%%
2303A983%%qQ%%%q%%%%q%%%%%%%%%%%q%%%%%%%q%%%%%%%q%%%%%%%%q%%%%%%%%q%%%%%%%q%
2296A919%%%%%%%qQq%%%%%%q%Qq%%%%qQ%qQq%qQ%q%%%%%%%q%Qq%%%%%%q%%%%%%%%%q%%%%%
2290A863%%q%%Qq%%%%%%%q%%%%%%qQqQq%%%%q%Qq%%%qQ%%q%%%%%%%%q%%%%%%%q%Qq%%%%%%
2283A807qQq%%%%%%%%%q%%%%%%%%q%%%%%%%%%%q%%%%q%Qq%%%%%%%%%q%%%%%%%%q%%Qq%%%%
2277A751%%%q%%%%%%%%%q%%%%%%%%%%%q%%%%%%qQq%%%%%%qQ%%q%%%%%%%%%%%q%%%%%%%%q%
2270A695%%%%%%%%q%%%%%%qQ%qQq%%%%%%%%q%%Qq%%%%%%%q%%%%%%%%q%%%%%%%%%%qQq%%%%
2264A647%%%%%%q%%%%%%%%%q%%%%%%%%%q%%%%%%%%%%%%%%q%%%%%%%qQ%%%q%%%%%%%%q%%%%
2257A599%%%%%qQq%%%%%%Qj6Q%%%q%%%%%%%q%%Qq%%%%%%%%q%%%%%%%%%qQ%%q%%%%%%%%%qQ
2251A559q%%%%%%%%%%%%%q%%%%%%qQ%q%%%%%%%%%%%q%%%%%%%%%%%%q%Qq%%%%%%%qQ%%q%%%
2244A511%%%%%qQq%Qq%%%%%%%%q%%%%%%%%%qQq%Qq%%%%%%%%%%%q%%%%%%%%%%qQq%%%%%%%%
2238A471%qQ%q%%%%%%%%%%%%q%%%%%%%%%%%%qQq%%%%%%%%%%q%%%%%%%%%%%%%%qQq%%%%qQ%
2232A431%%qQq%%%%%%%%%%%%qQq%%%%%%%%%%%q%%%%%%%%%%%%%%q%%%%%%%%%%%qQ%q%%%%%%
2225A391%%%%%%q%%%%%%%%%%%%%%%q%%%%%%%%%%q%%%Qq%%%%%%%%%%qQqQq%%%%%%%%%%%%q%
2219A351%%%%%%%%%%%%q%%%%%%%%%%%q%%Qq%%%%%%%%%%%%%%%q%%%%%%%%%%%%qQqQq%%%%%%
2212A319%%%%%%q%Qq%%%%%%%q%Q%qQq%%%%%%%%%%%%%qQq%%Qq%%Qq%Qqq%QJ6k4%%%%Qq%Qq%
2206A287%qQ%qQq%%%%%%%%%%%%%q%Qq%%%%%%%%%%%%q%%%Qq%%%%%%%%%%%%q%%Q%q%%%%%%%%
2199A255%%%%q%%%%%%%%%%qQ%qQ%%%q%%%%%%%%%%%%%%q%Qq%Qq%%%%%%%%%%%q%%%%%%%%%%%
2193A223%%%%q%%%%%%%%%%%%%%%q%Q%q%%%%%%%%%%%%qQ%%q%Q%q%%%%%%%%qQ%qQq%%%%%%%%
2186A191%%%%qQ%qQq%%%%%%%%%%%%%%%%%%%q%Qq%%%%%%qQqQqQ%%q%%%%%%%%%%%%%%%%%q%%
2180A159%%%%%%%%%%%%%%%%%q%%%%%%%%%%%%%%%%qQq%%%%%%%%%%%%%%%%%%%q%%%%%%%%%%%
2173A135%%%%%%%qQq%%%%%%%%%%q%Q%%q%%%Qq%%%%%%%%%%%%%%qQ%q%%%%%%%%%%%%%%%%%%%
2167A111%%%q%%%%%%%%%%%%q%Q%q%%Qq%%%%%%%%%%%qQ%%%%q%%%%%%%%%%%%%%%%%%q%Qq%%%
2160A079%%%%%%%%%%%%%%%%%qQ%%qqQ%%%%%%%%%%%%%%q%%%%%%%%%%%%%%%qQqQ%q%%%%%%%%
2154A055%%%%%%%%%%%%q%%Qq%%%%%%%%%%%%%%%qQ%q%%%%%%%%%%%%%%%%%%%q%%%%%%%%%%%%
2147A031%%%%%%%%qQ%q%Qq%Qq%%%%%%%%qQ%%%%%%%%qQ%q%%%%%%%%%%%%%%qQ%%qQq%%%%%%%
2141A007%%%%%%%%%%%%%qQq%%%%%%%%%%%%%%%%%%%%%qQqQqQq%%%%%%%%%%%%%qQ%%%qQq%Qq
2134I83%Qq%%qQ%%%%%%qQqQ%%qQ%q%%%%%%%%%%%%%%%%%%%q%%%%%%%%%%%%%%%%%%%%%%%%%%
2128I67%q%QqQq%%%%%%%%%%%%%%%%%%qQq%%%Qq%%%%%%%%%%%%%%%%q%%Q%%%%qQq%%%Qq%%%%
2121I43%%%%%%%%q%%%%%%%%%%%%%%%%%%%%%%%%%%%qQq%Qq%%%%%%%%%%%%%%%%qQqQ%qQqQq%
2115I19%%%%%%%%%%%%%%%%%%qQq%Qq%%Qq%%%%%%%%%%%%%%q%%Qj6J6%j6K4j6qJ6q%Qj6J6k4
2109H87K4q%%%%%%qQ%%%qQq%%%Q%q%%%Qq%%Qq%%%%%%%%%%%%%qQq%%%%Qq%%%%%Qq%%%%%%%%
2102H87%%%%%qQqQq%%%%%%%%%%%%%%%%%%%%%%%qQqQq%%%%%%%%%%%%%%%%qQQq%%%%%%qQqQq
2096H63%Qq%%%%%%%%%%%%%%%%%%%%%q%Q%q%Qq%%%%%%%%%%%%%%%%%%q%%QqQ%q%%%%%%%%%%%
2089H47%%%%%%%%%%%%%%qQ%%%%%q%%Qq%%%%%%%%%%%%%%%%QqqQqQ%qQ%q%%%%%%%%%%%%%%%%
2083H31%%%%%%%%qQq%Qq%%%%%%%%%%%%%%%%%%%%%%%%%%q%QqQ%%q%%%%%%%%%%%%%%%%%%%%%
2076H15%%%%q%QqQ%%%%q%%%%%%%%%%%%%%%%%qQ%%%q%QqQ%%%q%Qq%Q%q%%%%%%%%%%%%%%qQq
2070G91Q%%%q%%%%%%%%%%%%%%%%%%%%%%%%%qQ%qQ%%%%%%%%%qQq%%%%%%%%%%%%%%%%%%%%%%
2063G83%%%%%%%%%qQ%q%Qq%%%%%qQQj6Q%qJ6q%%q%Q%%qQ%%%qQq%%%%Qq%%%%%Qq%%%%%%%%%
2057G67%%%%%%%qQqQq%Qq%Qq%%%%%%%%%%%%%%%%%%%%%%%%%%%%%%%qQ%q%Qq%%%%%%%%%%%%%
2050G51%%qQ%%%%%qQqQ%qQ%qQqQ%q%%%%%%%%%%%%%%%%%%%%%%%%%%%%%qQ%%q%%%%%%%%%%%%
2043G35%%%%%%%%%%%%%%%%%%%%%qQ%%%%q%%%%%%%%%%%%%%%%%%%%%%%%%%%%%%%qQ%%%%qQq%
2037G19Qq%QqQ%q%Qq%%%%%%%%%%%%%%%qQ%qQ%q%%%Qq%%Qq%%%%QqQq%%%%%%%%%%%%%%%%%qQ
2030G11qQ%%%q%QqQ%q%%%%%%%%%%%%%%%%%%%%%%%%%%%%%%%%%%%q%%%%Qq%%%%%%%%%%%%%%%
2024F95%%%%%%%%%%%%%%qQ%%%%%%%q%%%%%%%%%%%%%%%%%%%%%%%%%%%%%%%%%%%%%%%%%%q%%
2017F79%%%%%%%%%%%%%%%%%%%%%%%%%%%%%%%qQ%%%%%qQq%QqQ%%q%%qQqJ6j6Q%Qq%%%%%%qQ
2011F71%qQqQ%%qQ%%%%%%q%Qq%%Q%q%%%%%%%%%%%%%%%%%%%%%%%%%q%%%%%Q%qQ%q%%Qq%%%%
2004F55%%%%%%%%%%%%%%%%%%%%%%%%%%%%%%%%qQ%q%%Qq%%Qq%%Qq%%Q%q%%%%%%%%%%%%%%%%
1998F47%%%%%%%%%%%%%%%%%%q%%%%%%%%%%%%%%%%%%%%%%%%%%%%%%%%%%%%%%%%%%%%%%q%%Q
1991F39q%%%%%%%%%%%%%%%%%%%%%%%%%%%%%%%%%%qQq%Qq%Qq%Qq%%Qq%%Qq%%%%%%%%%%%%%%
1984F23%%%%%%%%%%%%%%%%%%%%%%%%%q%Qq%Qq%%%%%Qq%%%%%%%%%%%%%%%%%%%%%%%%%%%%%%
1978F15%%%qQq%%%%%%%%%%%%%%%%%Qq%%%%%%%%%%%%%%%%%%%%%%%%%%%%%%%%%%qQq%Q%q%%%
1971E99%%%%%%%%%%%%%%%%%%%%%%%%%%%%%%%%%%%%qQ%%%qQ%%q%Qq%Q%q%QqQq%%%%%%%%%%%
1965E91%%%%%%%%%%%%%%QqqQqJ6q%%%%%%%%%%%%%%q%%%%%%%%%%%%%%%%%%%%%%%%%%%%%%%q
1958E75Q%%%%%%%%%%qQ%qQq%Q%%%q%%%Qq%Qq%%%%%%%%%%%%%%%%%%%%%%%%%%%%%%%%%%%%%%
1952E75%qQ%qQ%q%%Q%q%%%%%%%%%%%%%%%%%%%%%%%%%%%%%%%%%%%%%qQqQ%%%%%%qQqQq%Q%q
1945E59%%%Qq%%%%%%%%%%%%%%%%%%%%%%%%%%%%%%%%%%%%%%%%%%%%%q%Q%%q%%Qq%%%%%%%Qq
1938E51%%%%%%%%%%%%%%%%%%%%%%%%%%%%%q%Q%%%%qQqQ%qQq%%Q%q%%%%%%%%%%%%%%%%%%%%
1932E43%%%%%%%%%%%%%%%%%%%%%%%%%%%%%%qQ%q%Qq%Qq%%%Qq%%%%%%Qq%%%%%%%%%%%%%%%%
1925E35%%%%qQ%%%%%%%%%%%%%%%%q%Q%%%%%q%%Qq%%%%%%%Q%q%%%%%%%%%%%%%Qq%%%%%%%%%
1919E27%%%%%%%%%qQ%%q%QqQ%%%%%q%%Qq%Qq%%%Qq%QqQqQq%K4m8K4l2L2k4O4o4J6J6qQq%%
1913E19%J6j6%qK4j6%%%%%qQ%%%%%%%%qQ%%%%%%qQ%q%Q%q%%Q%q%%Q%q%%%%Q%%%q%%%%%%%%
1907E11%%%%%%%%%%%%%%%%%%%%qQ%%%%%q%Q%%%%%%qQ%qQ%%%%q%%%%%%%%%%%%%%%%%%%%%%%
1900E03%%%%%%%%%%%%%%%%%%qQ%%%%%%%%%%%%%%%%%%qQ%%q%Qq%%%%%%Qq%%%%%%%%%%%%%%%
1894D95%%%%%%%%%%%%%%%%%%%%%%%%%%%%qQqQ%%qQ%qQqQj6J6%q%%%%%Qq%%%%Qq%Qq%%%%%%
1887D87%%%%%%%%%%%%%%%%%%%%%%%%%%%%%%%%%%%qQq%%Q%%qQqQqQq%%%%%%Q%%q%%%%%%%%%
1881D79%%%%%%%%%%%%%%%%%%%%%%%%%%%%%%%%q%Q%%%%%%%%%%%%%%%%qQ%%qQq%%%Qq%%Qq%%
1874D71%%%%%%%%%%%%%%%%%%%%%%%%%%%%%%%%%%%%%%%%%%%%%%%%%%%%%qQ%%%qQ%q%%Q%%%q
1868D63Q%%q%%QqQqQqQ%qQq%Q%qQqQj6Q%%%qQ%%qQ%%%%%%%%%%%%%%%%%%%qQ%%%%%%%%%%%%
1861D63%%%%%%q%Qq%QqQqQqQq%%%Qq%%%%%%%%%%%%%%%%%%%%%%%%%%%%%%%%%%%%%%%qQ%%%%
1855D55%%%%%%%%%%%%%%%%%qQ%%%qQ%q%%%%%Qq%%%Qq%%%%%%%%%%%%%%%%%%%%%%%%%%%%%%%
1848D47%%%%%%%%%%%%%%%%%%%%%qQ%%%%%qQ%%%%%%qQ%%%%q%%Qq%Qq%%%%Qq%%%%%%%%%%%%%
1841D39%%QqQqqQ%%qQ%%%%%%%%%%%%%%%%%%%%%%%%%%%%%%%%%qQ%q%%%QqQq%%%%Q%qQq%%%%
1835D31Qq%%%%%%%%%%%%%%%%%%%%%%%%%%%%%%%%%%%%%%%%%%%%%%%%%%%%%qQ%%%%%%qQq%Qq
1828D23Q%q%Q%q%%Qq%%%Qq%%%%%Qq%%%%%%%%%%%%%%%%%%%%%%%%%%%%%%%%%%%%%%%%%%%%%%
1822D23%%%%%%%%qQ%%%%%%%%%%%%%%%%%%qQqQ%qQq%%QqQq%QqQqQ%%%qqJ6qQQk4J6q%%Qq%%
1815D15%%%%%%%%%%%%%%%%%%%%%%%%%%%%%%%%%%%%%%%%%%qQ%qQqQ%%qQ%%qQqQq%%Qq%Qq%%
1809D07%%%%%%%%%%%%%%%%%%%%%%%%%%%%%%%%%%%%%%%%%%%%%q%Q%%%%%qQ%%%%%%%%%%%%%%
1802D07%%%%%qQ%%%%%%%%%%%%%qQ%%q%Q%q%%%%%%%%Q%qQq%%%%%%%%%%%%%%%%%%%%%%%%%%%
1796C99%%%%%%%%%%%%%%%%%%%%%%%%%%%%%%%qQ%qQ%qQ%%%q%%%%%%QqQq%%%%%%Qq%%%%%%%%
1789C91%%%Qq%%%%%%%%%%%%%%%%%%%%%%%%%%%%%%%%%%%%%%%%%%%%%%%%%%%%%%%%%%%%%%%%
1782C91%%%%%%%qQ%q%Q%%%%q%%Qq%Q%qQq%%%Q%%q%%%%%%%%%%%%%%%%%%%%%%%%%%%%%%%%%%
1776C83%%%%%%%%%%%%%%%%%%%%%%%%%%%%%%%%%%%%%%%%%%%%%%qQq%Q%%%%%%q%QqQ%%%q%%Q
1769C83qQq%%%%Qq%%%%%Qq%%Q%qQq%%%%%%%%%%%%%%%%%%%%%%%%%%%%%%%%%%%%%%%%%%%%qQ
1763C75%%%qQ%%%%%%%%%qQqQ%%%%%qQ%%qQ%%q%%QqQqQq%Qq%%%QqQq%%%%QqQq%%%%%%%%%%%
1756C67%%Qq%%%%qJ6q%%%%%%%%%%%%%%%%%%%%%%%%%%%%%%%%%%%%%%%%%%%%%%%%%%q%Q%%%q
1750C59%Qq%%%Q%q%%%Q%q%%Q%qQqQ%q%%%%Q%q%%%%QqQ%q%%%%%%%%%%%Qq%%%%%%%%QqQq%%%
1743C59%%%%%%Qq%%%%%%%%qQ%%%%%%%%%%%%%%%%%%%%%%%%%%%%%%%%%%%qQ%%%q%%%%%Q%q%Q
1736C59%%%qQq%%QqQq%%%%%%%%%%%%%QqQq%%%%%%QqQq%%%%%%%%%%%%%%%%%%qQQq%%%%%%%%
1730C51%%%%%%%%%%%%%%%%%%%%qQ%%%%%%%%%%%%%%%%%qQ%qQ%q%%Qq%Q%%%%qQ%qQ%%%qQqQq
1723C43Q%q%Qq%QqQq%%%Qq%Q%q%%Qq%Qq%%%%%%%qQQ%qQq%%%qJ6qj6J6J6j6%%%qQ%%Qq%Qq%
1717C43%Qq%%%%%qQ%%%%%%%%%%%qQ%%%%%%%qQ%%qQ%qQ%q%Q%%%qQq%%%Qq%%%%%%%Qq%Qq%%%
1711C35%%%%%QqQq%%%%%%%%%%%%%%%%%%%%%%%%%%Qq%%%%%%%%%%qQ%%%%%%%%%%%%%%%%%%%%
1704C35%%%%%%%%%%%%%%%%%%%%%%%%%%%%qQ%qQ%%q%%%QqQ%q%QqQq%%Q%q%Qq%%%Qq%%%%%%Q
1697C35%q%%%%%%%%%%%%Qq%%%%%%%%%%%%QqqQ%%%%Qq%%%%%%%%%%%%%%%%%%%%%%%%%%%%%%%
1691C27%%%%%%%%%%%%%%%%%%%%%%%%%qQ%%%%qQ%%%%q%%Q%%%qQ%qQ%%%q%%Q%qQqQq%%Qq%%%
1684C19%%%%%%%%%%%%%%%%%%%%%%%%%%%%%%%%%%%%%%%%%%%%%%%%%%%%%%%%%%%%%%%%%%%%%
1678C19%%%%%%%%%%%%%%%%%%%%%%%%%%%%%%%%%%%qQ%%qQ%%%%%%%%%%qQqQq%Qq%%%Q%q%Q%%
1671C19q%%%%%Qq%%%%qJ6j6Q%%Qq%%%Qq%%%%%%%%Qq%%%%%%%%%%%%%%%%%%%%%%%%%%%%%%%%
1665C11%%%%%%%%%%%%%%%%%%%%%%qQ%%%%%%%%%%%%%%%%%%%%%%%qQ%%%qQ%%%%%%%%%%q%%%%
1658C03%%Qq%Qq%QqQ%q%Q%qQq%%Q%%q%%%%%%%%%%%%%%%%%%%%%%%%%%%%%%%%%%%%%%%%%%%%
1652C03%%%%%%%%%%%%%%%%%%%%%%%%%%%%%%%%%%%%%%%%%%%%%%%%%%%%qQ%%%q%%Q%%%%%%%%
1645C03%%%qQ%qQ%%%%%%%%%%%%%qQqQ%%%%%qQ%%%%q%%Q%qQq%%Q%%qQqQq%Q%qQq%%%%QqQq%
1638B95%%%%%%%%%%%%%%%%%%%%%%%%%%%%%%%%%%%%%%%%%%%%%%%%%%%%%%%%%%%%%%%%%%%%%
1632B95%%%%%%%%%%%%%%%%%%qQ%q%Q%%%%%%%%%%%%q%%QqQq%Q%%qQ%%%%qQ%qQ%%q%Qq%Qq%%
1625B87%%%%%%Qq%%%Q%%q%%QqQq%%%%%%%%%%%%Q%q%%Qq%%QqQ%%q%%%%%%%%%%%%%%%%%%%%%
1619B87%%%%%%%%%%%%%%%%%%%%%%%%%%%%%%%%%%%%%%%%qQqQ%%%%%%%%%%%%%qQ%%%%%%%%%%
1612B87%%%%qQ%%%%%%%%qQ%%%%%%%%%qQq%QqQq%QqQq%Qq%Qq%%%%%%Qq%%%%%%%%%%Qq%%%%%
1606B79%%%%%%%%%%%%%%%%%%%%%%%%%Qq%%%%%%%%%%%%%%%%%%%%%%%%%%%%%%%%%%%%%%%%%q
1599B71Q%%%%%%%%%qQ%%%%%%%%%q%Q%qQ%%q%Q%%%%q%Q%%%qQq%Qq%Q%%%%%%%%%qQ%q%%%QqQ
1592B79%q%Qq%Qq%%%QqQq%%Qq%%%%%%%%%%%%%%%Qq%Qq%%%%%%%%%%%%%%%Qq%%%%%%%%%%%%%
1586B71%%%%%%%%%%%%Qq%%%%%%%%%%%%%%%%%%%%%%%%%%%%%%%%%%%%%%%%%%%%%%%%%%%%%%%
1579B71%%%%%q%%Q%%qQ%qQ%%%%%%%%%%qQqQ%%q%%Qq%QqQq%%QqQqQqQq%%%%%%QqQq%Qq%QqQ
1573B71%%qqQqJ6qQqQq%%%%%%Q%q%%%%%%%%%%%%%Qq%%Qq%%%%%%Qq%%%%%%%%%%%%%%%%%%%%
1566B63%%%%%%%%%%%%%%%%%%%%%%%%%%%%%%%%%%%%%%%%%%%%%qQ%%%%%%%%%%%%%%%%%qQ%%%
1560B63qQ%qQ%%%%%%%%%%%q%Q%%%%%%q%%Q%%%%%qQqQ%qQqQq%%Q%%%qQq%Qq%%Q%%qQ%q%%Qq
1553B55QqQq%%%%%%%%%%%%%Q%%%q%%%%%%%%%%Qq%%%%%%%%%%%%%%%%%%%%%%Qq%%%%%%%%%%%
1546B55%%%%%%%%%%%%%%%%%%%%%%%%%%%%%%%%%%%%%%%%%%%%%%%%%%%%%%%%%%%%%%%%%%%%%
1540B55%%%%%%%%%%%%qQqQ%%%%%q%Q%%%%%%%%q%%%Q%qQ%qQqQ%qQq%%Q%q%QqQ%q%%Qq%Qq%Q
1533B55q%%%%%%Qq%%%%%QqQq%%%%Qq%%%%%%%%%%Qq%%%%%%%%%Qq%%%%%%%%%%%%%%%%%%%%%%
1527B47%%%qQ%%%%%%%%%%Q%q%%QqqQ%Qj6%%QQl2M0%k4Q%Q%qQ%qqJ6j6J6q%%%%%q%Q%%%qQ%
1521B47qQ%%%%qQ%%%%%%%%%%%%%%%%%%%qQ%%%%q%%Q%qQ%%%%%%%%q%QqQqQ%qQ%%qQq%Qq%%Q
1514B47qQq%%Qq%%%%%%%%Qq%%Qq%%%%Qq%%Q%%qQqQ%%q%Qq%%Q%q%%%%%%Qq%%%%%%%%%%%%%%
1508B39%%%%%%%%%%%%%%%%%%%%%%%%%%%%%%%%%%%%%%%%%%%%%%%%%%%%%%%%%%%%%%%%%%%%%
1501B39%%%%%%%%%%%%%qQ%%qQqQ%q%Q%%%%%%%%%%%%%%%%%%%%%%%%%%%%%%%%%%%%%%%%%%%%
1494B39%%%%%%%qQqQ%%%qQ%qQ%%%qQ%%%%%%%%%%%%%%q%QqQq%%%%%Q%q%Qq%%QqQq%%%QqQq%
1488B31%%%%%%%%%%%%%Qq%%%%%Qq%%Qq%%%%%%%%%%%%%%%%%%%%%%%%%%%%%%%%%%%%%%%%%%%
1481B31%%%%%%Qq%%%%%%%%%%%%%%%%%%%%%%%%%%%%%%%%%%%%%%%%%%%%%%%%%%%%%qQ%%%%%%
1475B31%%%%%%%qQ%qQ%%qQ%%%qQ%qQ%%%%%%%%%%%%%%qQ%%%%%%q%Q%%%%%%%qQ%%%%%%%%%qQ
1468B31%qQq%%%%Qq%%QqQ%q%Q%q%%QqQq%%%%%%%%%%Qq%Q%%qQqQ%qQqQ%qQqQq%%%QqQqQq%%
1462B23%%%%%%%%%%%%%%%%%%%%%%Qq%%%%%%%%%%%%%%%%%%%%%%%%%%%%%%%Qq%%Qq%%%%%%%%
1455B23%%%%%%%%%%%%%%%%%%%%%%%%%%%%%%%%%%%%qQ%%%%%%%%qQ%qQ%%qQ%%%%%%%%%%%%%q
1448B15Q%%%%%%qQ%%%%%%%%%qQ%%qQ%qQ%%%%qQ%qQ%qQqQq%%%%%Qq%%%%%%QqQqQ%q%Q%%%%%
1442B23%qQ%%qQ%%qQq%%Qq%%%Qq%%Qq%%%%Qq%%%Qq%Qq%%Qq%%%QqQq%%Qq%%%%%%%%%%%%%%%
1435B15%%Qq%%%%%%%%%%%%%%%%%%%%%%%%%%%%%%%Qq%%%%%%%%%%%%%%%%%%%%%%%%%%%%%%%%
1429B15%%%%%%%%%%%%%qQ%%%%%qQ%%%q%%Qj6L2j6%Qq%%%qQ%%%%%qQ%%%%%%%%%%%%%%%%%%%
1422B15%%%%%%%%%%%%%%%%%%%%%%%%%%%%qQ%%%%%%%%%qQ%%q%Q%%%%%%%%qQ%%qQ%%%q%Q%%%
1416B15qQq%QqQ%%%%qQqQ%%%qQ%q%QqQqQ%%qQ%qQq%QqQ%%%%qQ%%%%%%qQ%q%Q%q%%Qq%%%%Q
1409B15q%%%%%%QqQqQ%q%Q%q%%%%%%%%%%%%%%%%%%%%%%%%%%%%%%%%%%%%%%%%%%%%%%%%%%%
1403B07%%%%%%%%%%%%%qQ%%%%%%%%%%%%%%%%%%%%%%%%%%%%%%%%%%%%%%%%%%%%%%%%%%%%%%
1396B07%%%%%%%%%%%%%%%%%%%%qQ%%%%%%%%%%%%%%%%%%%%%%%%%%%%%%%qQ%%%%qQ%%%q%Q%%
1389B07qQ%%qQ%%%%%qQ%%%%%%qQ%%%%%%%%%q%Q%%%%%qQ%%%qQ%%%%%%%%%%qQ%%%%%q%%QqQq
1383A99Qq%%Q%%%q%%%%%%%%%QqQ%%q%%Qq%%%%Qq%%%%%QqQq%%%%%%%%%%%%%%QqQq%J6k4J6q
1377A99Qq%%Qq%%%%Qq%%%%%%%%%%%%%%%%%%%%%%%%%%%%%%%%%%%%%%%%%qQ%%%%%%%Qq%%%%%
1370A99%%%%%%%%%%%%%%%%%%%%%%%%%%%%%%%%%%%%%%%%%%%%%%%%%qQ%%%%%%%%%%%qQ%%%%%
1363A99%%%%%%%%%%%%%%%%%%%%%%%%%%%%%%%%%%%%%%%%%%%%%%%%%%%%%%%%%%%%%%%%qQ%%q
1357A91%%Q%%%%%%%%%%%%qQ%%%qQ%%qQ%qQq%Q%qQ%q%Qq%Qq%%%%%%%%Q%q%%Qq%%%%%%%%%%%
1350A91%Qq%%%%QqQ%q%%%%%Q%q%%%%%Qq%%%%%%%%%Qq%%%%%%%%%%%%%%Qq%%%%%%%%%%%%%%%
1344A91Qq%%%%%%%%%%%%%%%%%%%Qq%%%%%%%%%%%%%%%%%%%%%%%%%%%%%%%%%%%%%%%%%%%%%%
1337A91%%%%%%%%%%%%%%%%%%%%%%%%%%%%%%%%%%%%%%%%%%%%%%%%%%%%%%%%%%%%%%%%%%%%%
1330A91%%%%qQ%%qQ%%%%q%J6q%q%J6%qQ%%k4J6%%%%Qj6Q%%%%qQ%%%%%%%%%%%%%%%%qQ%qQ%
1324A91%qQ%%%%%%qQ%%%q%Q%%q%Q%qQ%%%%%%%%%%%qQ%%%q%Q%q%Q%%qQ%q%QqQ%%qQq%Qq%%Q
1318A91q%%Qq%%%%%%%%%%%Q%%%%%%%qQq%%Q%qQq%%%%%Q%q%%%%%%%%%%%%%%%%%%%%%%%%%%%
1311A83%%%%%%%%%%%%%%Qq%%%%%%%%%%%%%%%%%%%%%%%%%%%%%%%%%%%%%%%%%%%%%%%%Qq%%%
1305A83%%%%%%%%%%QqQqQq%%%%%%%%%%%%%%%%%%%%%%%%%%%%%%%%%%%%%%%%%%%%%%%%%%%%%
1298A83%%%%%qQ%%%%%%%%%%%%%%%%%%%%%%%%%%%%%%%%%%%%%%%%%%%%%%%%%%%%%%qQqQ%%%%
1291A83%%%%%%%%%%%%%%%%%%%%%%%%%qQqQ%%%%%%%%%%%%%%%%%%%%%%%%%%%%%%qQq%Q%%%%q
1285A75Qq%%QqQ%%q%Q%%qQ%q%Q%qQ%qQ%%q%%Qq%Qq%%%Q%q%%%%%%Qq%%%%Qq%qJ6%Qqq%Qq%%
1278A75QqQq%%%%QqQq%%%%%%%%%%%%Qq%%Qq%%%%%%%%%%%%%%%%%%%%%%%%%%%%%%%%%%%%%%%
1272A75%%%%%%%%%%%%%%%%%Qq%%%%%%%%%%%%%%%%%%%%%%Qq%%%%%%Qq%%%%%%%%%%%%%%%%%%
1265A75%%%%%%%%%%%%%%%%%%%%%%%%%%%%%%%%%%%%%%%%%%%%%%%%%%%%%%%%%%%%%%%%%%%%%
1259A75%%%%%%%%qQ%%%%%qQ%%%%%%%%%%%%%%%%%qQ%qQ%%%%%%%QqqQ%%%%qQ%%%%%qQ%%%qQ%
1252A75%qQ%%%qQ%%%%%%%%%%%%%%%%%%%%%%%%%%%qQ%%%q%Q%%%%%%%%%%qQ%%q%%Qq%Q%q%Qq
1245A67%Q%%qQqQ%%qQq%%%%Q%%qQ%%%%%%qQ%%q%%%%QqQ%qQqQq%%%%%Qq%%Q%q%Qq%%Q%q%Qq
1239A67%%Qq%%%%Qq%%%%%%%%%Q%%q%%%%Qq%%%%%%%%%Qq%%%%%%%%%%%Qq%%%%%Qq%%%%%%%%%
1232A67QqQq%%%%Qq%QqQq%qJ6%%q%qQ%%Q%q%%%%QqQq%%%%%%%%%%%%%%%%%%%%%%%%%%%%%%%
1226A67%%%%%%%%%%%%%%%%%%%%%%%%%%%%%%%%%%%%%%%%%%%%%%%%%%%%%%%%%%%%%%%%%%%%%
1219A67%%%%%%%%%qQ%%%%%%%%%%%%%%%%%%%%%%%%%%%%%%%%%%%%%%%%%%%%%%%%%%%%%%%%%%
1213A67%%%%%%%%%%%%%%%%%%%%%%%%%%%%%%%%%%%%%%%%%%%%%%%%%%%qQ%%%%%%qQ%%%%%%%q
1206A59%Q%%%qQ%%%%%%%%%%%%%q%Q%%%%%qQ%qQq%Q%qQq%Q%%%qQ%%%%%%%%%%%%%%%%%%%qQ%
1200A67q%Qq%%%%Q%qQq%%QqQq%%%QqQqQq%Qq%Q%q%%%%Q%q%QqQq%Q%%q%QqQ%qQqQqQ%q%%%Q
1193A67qQq%%QqQqQqQq%%%%Qq%Qq%%%%%%%%%%%%%%%%%%%%%%%%%%%%%%QqQq%%%%%%%%%%%%%
1186A59%%%%%%%%%%%%%%%%%%Qq%%%%%%%%%%%%%%%%%%%%%%%%%Qj6Q%%Q%q%%%%%%%%%%%%%%%
1180A59%%%%%%Qq%%%%%%%%%%%%%%%%%%%%%%%%%%%%%%%%%%%%%%%%%%%%%%%%%%%%%%%%%%%%%
1173A59%%%%%%%%%%%%%%%%%%%%%%%%%%%%%%%%qQ%%%%%%qQ%%%%%%%%%%%%%%%%%%%%%%%%%%%
1167A59%%%%%qQ%%%%%%%%%%%%%%%%%%%%%%%%qQ%%%%%%%%%%%%%%qQ%%%%%%%%%%%%%%%%%%%%
1160A59%%%%%%%%%%%%qQ%%%%qQ%%qQ%q%QqQqQ%%%qQ%%%%%qQ%%qQ%%%q%%%%Qq%Qq%%Q%qQ%%
1154A59%q%Q%qQ%%%%qQq%%Q%%%q%Qq%%QqQq%%Q%%%%%%%%%qQ%qQqQqQ%qQq%%Q%%%q%%Qq%%%
1147A51Q%q%%%%%%%%%%%%%%%QqQq%Qq%Qq%%%Qq%%%%%%%%%%%QqQqQqQqQqQq%%%%Qq%%%QqQq
1140A51%%%%%%Qq%%%%Qq%Qq%%%%%%QqQq%%%Q%q%%%%%%%%%%%%%%qQ%%%%%%%qQQqQ%%qQqQqq
1134A43J6j6Q%Q%Qm8L2m0N6k4qN6m8J6qqK4k4%QQj6%Q%q%J6qQq%Qj6Q%qQ%%%Qq%%%%%%Qq%
1129A51qQ%%%%%%%%%%%Qq%%%%%%%%%%%%%%%%%%%Qq%%%%%%%%%%%%%%%%%%%%%%%%%%%%%%%%%
1122A51%%%%%%%%%%%qQ%%qQ%%%%%%%%%%%%%%%%%%%%%%%%%%%%%%%%%%%%%%%%%%%%%%%%%%%%
1116A51%%%%%%%%%%%%%%%%%%%%%%%%%%%%%%%%%%%%%%qQ%%%%%%%%%%%%%%qQ%qQ%qQ%%%%%%%
1109A51%%%q%%Qq%%Q%%%%%%%%%%qQ%%%%qQqQq%Q%%%%%%%qQqQ%%%%%%qQ%%qQ%%%%%%%%%q%Q
1102A51%%%qQ%qQ%%%qQq%Q%%q%Qq%Q%qQ%qQq%Qq%QqQq%Q%qQqQ%qQq%QqQq%%%%%Qq%%%%Qq%
1096A43Q%%q%%%%%%%%%%%%%%%%%%%%%%%%%Q%%qQ%qQqQ%q%Qq%%%%%%Q%%q%%%Qq%%%%Qq%%Qq
1089A43%%%Qq%%%%%%%%%%%%%%%%%%%%%%%%%%%%%%Q%q%%%%%%Qq%%%%%QqQ%q%%%%%%%%%%%%%
1083A43%%%%%%%%%%%%%%%Q%%q%%%%%%%%%%%%%%%%%%%%%%%%%%%%%%%%%%%%%%%%%%%%%%%%%%
1076A43%%Qq%%%%%%%%%%%%%%%%%%%%%%%%%%%%%%%%%%%%%%%%%%%%%%%%%%%%%%%%%%%%%%%%%
1069A43%%%%%%%%%%%%%%%%%%%%%%%%%%%%%%%%%%%%%%%%%%%%%%%%%%%%%%%%%%%%%%%%%%%%%
1063A43%%%%%%%%%%%%%%%%%%%%%%%%%%Qq%%%%%%%%%%%%%%%%%%%%%qQ%%%%%%%%%%%%%%%%%%
1056A43%%%%%%%%%%%%%%%%%%%%qQ%%%%%qQ%q%Q%%%%%%%%%%%%%%%%%%%%%%%%qQq%%Q%qQ%q%
1050A35%%%Q%qQq%QqQqQq%%Q%qQqQqQqQ%%q%QqQ%qQqQ%%%qQ%qQ%%q%%QqQ%qQ%qQ%%%%%%%%
1043A43%%%%%qQ%qQq%QqQq%%%Q%%%q%Qq%%Q%%%%%%qQ%%qQ%%qQ%%q%%%Q%%q%%Q%%q%Qq%Qq%
1037A35%%%Q%%q%QqQq%%Qq%Q%qQq%Qq%%Q%%q%%%%%%%%%%%%%%%%%%%%%Qq%%%%%%QqQq%%%%%
1030A35%%%%%%%Q%%%%q%%Qq%%Qq%Qq%%%%%%%%Qq%%%%%%%%%%%%%%%Qq%%%%%%Qq%%Qq%%%%%%
1023A35Qq%%%Qq%%%%%Qq%%%%%%%%%%%%%%%%%%%%%%%%%%%%%%%%%%%%%%%%%%%%%%%%%%%%Q%%
1017A43q%%%%%%Qq%%%%%%%%%%%%%%%%%%%%%%%%%%%%%%%%%%%%%%%%Qq%%%%%%%%%%%%%Qq%%%
1010A35%%%%%%%%%%%%%%%%%%%%%%%%%%%%%%%%%%%%%%%%%%%%%%%%%%%%%%%%%%%%%%%%%%%%%
1004A35%%%%%%%%%%%%%%%%%%%%%%%%%%%%%%%%%%%%%%%%%%%%%%%%%%%%%%%%%%qQ%%%%%%%%%
997A35%%%%%%%%%%%%%%%%%%%%%%%%%%%%%%%%%%%%%%%%%%%%%%%%%qQ%%%%%%%%%%%%qQ%%%%%
990A35%%%%%qQ%%%qQ%%%%%%%%%%%qQ%%%%%%q%%Qq%Q%%%q%Q%qQ%%%%%%%%%%qQ%%%%%%%%%%%
984A35%%%%%%qQ%%%qQ%%qQ%q%Q%%%qQ%q%Q%%%%qQ%%%%%%%%%%%%%%%%%%%%%qQ%qQ%%%%%%%%
977A35qQ%%qQ%%qQ%%%%%%%qQqQqQ%%%q%Qq%Qq%%QqQqQqQ%%%%%%%%%qQ%%%%q%%%Q%%q%%QqQ
970A35%qQ%qQ%%%qQqQq%Q%qQq%%%%Q%q%%%QqQqQqQqQ%q%%%%%QqQq%%%%%%%QqQqQq%%%%%%%
964A27%%%Q%q%%%%%%Q%qQ%q%Qq%%%%%Qq%%%%%%%%%%%%%%%%%%%%%%%%%%%%%%%%%%%%%%%%%%
957A27%%%%%%%%%%%%%%%%%%%Qq%%%Qq%%%%%%%%%%%Qq%%%%%%%%%%%%%%%%%%%%%%%%%%%%%%%
950A27%%%%Qq%%%qQ%%%%%%%%%%%%%%%%%%%%%%%%%%%%%%%%%%%%%%%%%%%%%%%%%%%%%%%%%Qq
944A27%%%%%%%%%%%%%%%%%%%%%%%%%%%%%%%%%%%%%%%%%%%%%%%%%%qQQq%qJ6%q%%%%J6qj6%
937A19qJ6%%%Qq%%qQ%%%%%%Qq%%%%%%%%%%%%%%%%%%%%%%%%%%%%%%%%%%%%%%%%%%%%%%%%%%
931A27%%%%%%%%%%%%%%%%%%%%%%%%%%%%%%%%%%%%%%%%%%%%%%%%%%%%%%%%%%%%%%%%%%%%%%
924A27%%%%%%%%%%%%%%%%%%%%%%%%%%%%%%%%%%%%%%%%%%%%%%%%%%%%%%%%qQ%%%%%%%%%%%%
917A27%%%%%%%%%%%%%%%%%%%%%qQ%%%%%%qQq%Q%%%qQ%%%%qJ6q%%%qQqQ%%qQ%%%%%%%%%%q%
911A19Q%qQ%%%%%%%%%qQqQ%%%%%qQqQqQqQ%%%qQ%%qQqQ%%%%qQ%%%%%%%%%%%%qQ%%%%%%%qQ
904A27%%qQ%qQ%%%%%%%%%qQ%%%%%%%%%%qQ%%%%qQ%%%qQ%%%%%%%qQ%%qQq%%QqQq%Q%q%%Q%q
897A19%Q%%%%qQqQqQ%%%%%%%qQ%%%qQqQq%%Qq%QqQq%%%%%QqQqQ%q%QqQ%%%%qQ%%q%%%%%%%
891A19%%%%QqQq%%%%QqQ%%qQ%%q%%%%Q%%%qQq%%%%%%%%Qq%%%%%%%%%%%%%%Qq%%%%%%%%Q%q
884A19%%%%%%%%%%Qq%%%%%%%Q%q%%QqQ%q%%%%%%QqQq%%%%%%%%%%%%%%%%%%%%%%%%%%%%%%%
877A19Qq%%%%%QqQq%%%%%%%%%%%Qq%QqQ%q%%Qq%%Qq%%%%%%%%%%%%%%%%%%%%Qq%%%%%%%%%%
871A19%%%%%%%%%%%%%%%%%%%%%%%%%%%%%%%%%%%%%%%%%%%%%%%%%%%%%%%%%%%%%%Qq%qQ%%%
864A19%%%%%%%%%%%%%%%%%%%%%%%%%%%%%%%%%Qq%%%%%%%%%%%%Qq%%%%%%%%Qq%%%%%%%%%%%
857A19%%%%%%%%%%%%%%%%%%%%%%%%%%%%%%%%%%%%%%%%%%%%%%%%%%%%%%%%qQqQ%%%%%%%%%%
851A19%%%%%%%%%%%%%%%%%%%%%%%%%%%%%%%%%%%%%%%%%%%%%%%%%%%%%%%%%%%%%%%%%%%%%%
844A19%%%%%%%qQ%%%%%%qQ%%%%%%%%%%%%%%qQ%Qq%%%Q%j6QqQQq%%qQ%%%%%%%%%%%%%%%%%%
837A19%%%%%%%%%%%%%%%%%%%%%%%%qQ%%%%%%%%%%%%%%%%%%qQ%%%qQ%%%%%%%%%%%%%%%%q%Q
831A19%qQ%%%%%%%%%%%%%%%%%%%%%%qQ%%%%%qQQqqQ%%%%%%%%%%qQ%qQ%%%%%%%%%%%%%qQ%%
824A19%%%%%%%%%%%%%%%%%%%%%%%%%%qQ%%%%%qQ%%%%%qQ%%%qQ%%%%%%%%qQ%q%Q%%%%%%qQ%
817A19%%%qQ%%%%%q%Q%%qQqQ%%%%qQq%Q%%q%Q%%%%%qQqQ%%q%Qq%%%Q%%q%Q%%%%qQ%q%Q%%%
811A19%qQ%%%%qQ%%%%%q%%%Q%%q%Qq%%%%%Qq%%%Q%%%%q%%Qq%%%%Qq%%%%Q%%qQ%q%%Qq%%%%
804A11%Qq%%QqQ%%%qQqQq%%Qq%%Q%%qQ%q%Q%q%%%%%%%%%%%%%Qq%%Qq%Qq%%Qq%Qq%Q%qQq%Q
797A19qQqQqQ%%qQq%%Qq%Qq%%%%%%%%%%%%%%%%Q%qQq%%%%Qq%%%%%Q%q%%%%%Qq%%%%%qQ%%%
791A11Qq%%Qq%%%%%Qq%%%%%%%%%%%%%%Qq%%%%%%%%Qq%%%%%%%%%%%Qq%Q%q%%Qq%Q%%%%qQq%
784A11%%%%%%%%%%%%%%%%%%%%%Qq%%%%%%%%%%%%%%%%Qq%%%%Qq%%%%%%%%%Qq%%%%%%%%%%%%
777A11%%%%%%%%%%%%%Qq%%%%%%%%%%%%%%%%%%%%%%%%%%%%%%%%%%%%%%%%%%%%%%%%%%%%%%%
771A11%%%%%%%%%%%%%%%%%%%Qq%%%%%%%%%%%%%%%%%%%Q%j6Q%Q%q%%%%%%%%%%%%%%%%%%%%%
764A11%%%%%%%%%%%%%%%%%%%%%%%%%%%%%%%%%%%%%%%%%%%%%%%%%%%%%%%%%%%%%%%%%%%%%%
757A11%%%%%%%%%%%%%%%%%%%%%%%%%%%%%%%%%%%%%%%%%%%%%%%%%%%%%%%%%%%%%%%%%%%%%%
751A11%%%%%%%%%%%%%%%%%%%%%%%qQ%%%%qQ%%%%%%%%%%%qQ%%%%%%%%%%qQ%%%%%%%%%%%%%%
744A11%%qQ%%%%q%qQJ6qJ6j6%Q%%qqQqK4k4J6q%J6j6Q%qQqq%Q%%%%%%%%%%%%%%%%qQ%%%%%
738A11%%%%%%%%%qQ%%%%%%%qQ%%%%%%%%%qQ%%%%%%%%%%%%%%%%%%%%%%%%%%%%%%%%%%%%%%%
731A11%%%%%%%%%%%%%%%%%qQ%q%Q%%%%%%%%%qQ%%%%%%%%%%%%%%%%%%%%%%%%%%%%%%%%%%%%
725A11%%%%%%qQ%qQ%%%%%%%%%%%%%%%qQ%%%%%%qQ%%qQ%qQ%%%qQ%%%%%%%%%%%%%%qQ%q%%Q%
718A11%q%%Q%qQ%q%Qq%Q%%%q%Q%%qQ%%%%%%qQ%%%%%%%%%%qQ%qQ%%%qQqQ%%%%qQ%qQ%%%%qQ
711A11%qQ%qQqQ%%qQ%%%%qQqQ%%%qQ%qQ%q%%%%Q%qQqQqQ%%q%QqQqQ%%q%Q%%%%q%%Q%%%%%%
705A11%%%qQ%qQqQ%%qQqQ%%%%%%qQqQq%Q%q%%QqQqQ%%%q%%Q%%qQq%QqQqQ%%%%%%%%%%%%%%
698A11%%%%%q%QqQqQ%%qQ%qQq%Q%%%q%Q%q%%Q%qQ%%%%%%q%Q%%Qj6Q%q%%%Q%%%q%Qq%QqQq%
692A03Q%%qQqQq%%%%%%Qq%%Qq%%%%%%%%Qq%%%%%%QqQ%%%q%%QqQ%qQ%q%QqQ%q%%%%%%%%%%%
685A03Qq%%%%%%%Qq%%%%Qq%%QqQq%%%%%%%%%%%Q%qQq%%%%%%%%Q%q%%%Qq%Qq%%Qq%%%%%%%%
678A03%%%%%%%Qq%%%%%%%%%%%%%%%%%%%%%%%%Qq%%%%%%%%%%%%%%%%%%Qq%%%%%%%%%%%%%%%
671A03%%%%%%%%%%%%%%%%%%%%%%%%%%Q%q%%%%%%%Qq%%%%%%%%%%%%%%%%%%%%%%%%%%%%%%%%
665A03%%%%%%%%%%%%%%%%%%%%%%%%%%%%%Q%q%%Q%q%%%%%%%%%%%%%%%%%%%%%%%%%%%%%%%%%
658A03%%%%%%%%%%%%%%%%%%%%%%%%%%%%%%%%%%%%%%%%%%%%%%%%%%%%%%%%%%%%%%%%%%%%%%
651A03%%%%%%%%%Qj6Q%%%%%%%%%%%%%%%%%%%%%%%%%%%%%%%%%%%%%%%%%%%%%%%%%%%%Qq%%Q
645A11%qQj6QJ6j6%QqqQ%%%%%%%%%%%%%%%%%%%%%%%%%%%%%%%%%%%%%%%%%qQ%%%%%%%%%%%%
638A03Qq%%%%%%%%%%%%%%%%%%%%%%%%%%%%%%%%%%%%%%qQ%%%%%%%%%%%%%%%%%%%%%%%qQ%%%
632A03qQ%%%%%%%%%%%%%%%%%%%%%%%%qQ%%%%%%%%%%%%%%%%%%%%%%%%%%%%%%%%%%%%%%%%%%
625A03%%%%%%%%%%%%%%%%%%%%%%%%%%%%%%%qQ%%%%%%%%%%%%%%%qQ%%%%q%Q%%%%%%%qQ%%%%
618A03%%%%%%%%%%%%%%%%%%%%%%%%%%%%%%%%%%%%%%%%%%%%%%%%%%%%%%%%%%%%%%%%%%%%%%
612A03%%%%%%%%%%%%%%%%%%%%%%%%%%%%%%%%%%%%%%qQ%q%Q%%%%%%qQ%%%qQ%%%%%%%%%%%%%
605A03%%%%qQ%%%%%%%%%%%%%%%%%%%%%%%%%%%%%%%%qQ%qQ%%%%%%%%%%%%%%%%%%%%%%%%%%%
598A03%%%%qQ%%%%%%qQqQ%qQ%%%qQqQQ%j6QQj6%Qq%QqQ%%%%qQ%%qQ%%q%QqQ%%%%%qQ%%%%%
592A03%%%%%%%%%%%%%%%%qQ%%%%q%%%Q%%%%%qQ%%%%%%%%%%%%%%%%%%%qQ%%%%qQqQ%q%Q%q%
585I5Q%%%%%%qQ%qQ%%%%%%%%%qQ%qQ%%%%%%%%%qQ%%qQ%%%%%%qQ%qQ%%q%Q%q%Q%q%%Q%%%qQ
578A03%%%%%%%%%qQ%qQ%%%%qQq%Q%qQ%qQq%%%%Qq%Qq%Q%qQ%q%%%QqQ%%qQ%q%%QqQqQ%q%Q%
572A03qQqQq%Qq%Q%%q%%%%QqQqQ%%qQqQqQ%%%q%%Q%qQq%%%%Q%qQqQ%q%%%%%%QqQ%%%%qQqQ
565A03q%%QqQqQqQq%%Q%%%qQ%%%qQ%qQqQq%%%%%%%%Q%q%%Qq%Qq%%Q%q%Qq%%Q%q%%Qq%%%%%
558I5%%%%%Qq%%Qq%%%%%%%%%%Q%q%%%%%%%%%%%%%%Qq%Qq%%QqQ%qQq%Qq%QqQq%QqQ%%qQqQ%
552A03%q%%%%%QqQq%%Q%%q%%%%%%%Qq%Qq%%%Qq%Qq%%%Q%q%Q%qqqM0%qj6qQQ%q%%%%Qq%QqQ
545A03%q%%Q%q%Qq%%%%%%%%%%%%%%%%%%%%%%%%%%%%%%%%%Qq%QqQq%%%%%%%%%%%%%%%%%%%%
539I5%%%%Qq%%%%%%%%%%%%%%%%%%%%%Qq%%%%Qq%%%%%%%%%%%%%%%%%%%%%%%%%%%%%%%%%%%%
532I5%%%%%%%%%%%%%%%%%%%%%%%%%%%%%%%%%Qq%%%%%%%%%%%%%%%%%%%%%%%%%%%%Qq%%%%%%
525I5%%%%%%%%%%%%%%%%%%%%%%Qq%%%%%%%%%%%%%%%%%%%%%%%%%%%%%%%%%%%%%%%%%%%%%%%
518I5%%%%%%%%%%%%%%%%%%%%Qq%%%%%%%%%%%%%%%%%%%%%%%%%%%%%%%%%%%%%%%%%%%%%%%%%
511I5%%%%%%%%%%%%%%%%%%%%%%%%%%%%%%%%%%%%%%%%%%%%%%%%%%%%%%%%%%%%%%%%%%%%%%%
505I5%%%%%%%%%%%%%%%%%%%%%%%%%%%%%%%%%%%%%%%%%%%%%%%%%%%%%%%%%%%%%%%%%qQ%qQ%
498I5q%Q%%Qj6Q%%%%%%%%%%%%%%%%qQ%%%%%%%%%%%%%%%%%%%%%%%%%%%%%%%%%%%%%%%%%%%%
491I5%%%%%%%%%%%%%%%%%%%%%%%%%%%%%%%%%%%%%%%%%%%%%%%%%%%%%%%%%qQ%%%%%%%%%%%%
484I5%%%%%%%%%%%%%%%%%%%%%%%%%%%%%%%%%%%%%%%%%%%%%qQ%%%qQ%%%%%%%%%%%%%%%%%%%
478I5%%%%%%%%%%%%%%%%%%%%%%%%%%%%%%%%%%%qQ%qQ%qQqQ%%%%%%%%%%%%%%%%%%%%%%%%qQ
471I5%%%%%%%%%%%%%%%%%%%%%%%%%%%%%%%%%%%%%%%%%%%%%%%%%%%%%%%%%%%%%%%%%%%%%%%
464I5%%%%%%%%%%%%%%%%%%%%%%%%%%%%%%%%%%%qQ%%%%%%%%%%%%%%%%%%%%%%%%%%%%%%%%%%
457I5%%%%%%%%%%%%%%%%%%%%%%%%%%%%%%%%%%%%%%%%%%%%%%%%%%%%%%%%%%%%%%%%%%qQ%%%
451I5%q%Q%%%q%%QqqQ%QQj6%%J6q%qQqQ%%%%%%%qQqQq%%Qq%Q%q%%QqQ%%%%qQqQ%%%%%%qQ%
444I5%%%%%%%%%qQ%%%%%%%%%%%%%%qQ%%%%%%%%%%%%%%qQ%%%%%%%%%%%%%%%%%%%%%%%%%qQq
437H7%%Qq%Q%qQ%qQ%%%%qQ%%%%%%%%%%%%%%%%q%Q%qQqQ%%%%%%%%%%qQ%%%%%%%%%%%%%%q%Q
430I5%%%%%qQqQ%qQq%Q%%%%%%%%qQ%qQqQ%%qQ%qQ%%%%%qQ%%%%%q%Q%%%qQqQ%q%%Qq%Q%%%%
424I5%qQ%%q%%Qq%Q%%qQqQq%Qq%Qq%Q%q%Q%qQ%%qQ%%qQqQq%Q%q%Q%qQ%%%%%qQ%%qQ%%%%%q
417H7QqQq%QqQq%Qq%Q%%%%%%qQ%qQqQ%qQ%q%Q%qQ%%q%%Qq%%%%Q%%qQ%qQqQ%qQ%qQ%%%%%q%
410H7QqQ%qQ%qQ%q%%Qq%%%Q%%%%q%Q%q%Q%q%%Q%qQq%Qq%Q%%%q%Q%%%q%Q%%qQ%%qQ%q%Q%%%
403I5q%%QqQ%qQ%q%%%%QqQq%%Qq%%Qq%Qq%%Q%%q%Q%%qQq%%QqQ%%q%%Q%%%%%q%Q%q%Q%q%%%
397H7%%%%%Qq%%%%QqQq%%%%%%Qq%%%Qq%%Q%q%Qq%%%Qq%%%%%%%Qq%Q%qQqQ%q%%%%%%%%%Qq%
390H7%QqQq%%QqQq%%%Q%qQq%%%%%%Q%q%%%%QqQq%QqQq%%%Qq%%%%%%%%%Qq%%%%%%%QqQ%q%Q
383I5qQ%%%q%Q%qQqQ%qQ%%%q%%Qq%%%%%%%%Q%qQq%%%%Qq%%%Qq%%%%%%%QqQq%QqQq%%%%Qq%
376H7%%Qq%%%%%Q%q%%%%%%Qq%%%%Qq%%%%%%%%%%Q%q%%%%%Qq%%%%%%%%%%%%%%%Qq%%%%%%%%
370H7%%%Qq%%%%%%%%%%%%%%QqQq%%%%QqQ%q%%%%%%Qq%%Qq%%%%%%Qq%%%%%QqQq%%%QqQqQqQ
363I5q%%%%%%%%%%%%%%%%%%%%%%%%%%%%%%%Qq%%%%%Q%q%%%%%%%%%Q%%qQq%%%Q%q%%%%%%Qq
356H7%%%%%%%%Qq%%Q%%qQq%QqQ%qQ%%qQ%qqJ6qqJ6j6Q%Q%qQqk4L2l2%M8qj6%qJ6k4K4qQ%q
350H7Q%%%q%%%%QqQq%%%Qq%%%%%%%Qq%%%%%Q%q%Qq%%%%QqQq%Qq%Qq%Qq%%%%%%%%%%%%%%%%
344H7%%%%%%%%%%%%%%%%%%%%%%%%%%%%%%%%%%%%%%%Qq%%%%%%%%%%%%%%%%%%%%%%%%%%%%%%
337H7%%%%%%%%%%%%%%%%%%%%%%%%%%%%%%%%%%%%%%%%%%%%%%%%%%%%%%%%%%%%%%%%%%%%%%%
330H7%%%%%%%%%%%%%Qq%%%%QqQq%%%%%Qq%qQ%%%%%%%%%%%%%%%%%%%%%%%%%%%%%%%%%%%%%%
323H7%%%%%%%%%%%%%%%%%%%%%qQ%%%%%%%%%%%%%%%%%%%%%%%%%%%%%%%%%%%%%%%%%%%%%%%%
316H7%%%%%%%%%%%%%%%%%%%%%%%%%%%%%%%%%%%%%%%%%%%%%%%%%%%%%%%%%%%%%%%%%%%%%%%
310H7%%%%%%%%%%%%%%%%%%%%%%%%%%%%%%%%%%%%%%%%%%%%%%%%%%%%%%%%%%%%%%%%%%%%qQ%
303H7%%qQ%%%qQ%%%%%%%%%%%%%%%%%%%%%%%%%%%%%%%%%%%%%%%%%%%%%%%%%%%%%%%%Qq%%%%
296H7%%%%%%%%%%%%%%%%%%%%%%%%%%%%%%%%%%%%%%%%%%%%%%%%%qQ%%%%%%%%%%%%%%%%%%%%
289H7%%%%%%%%%%%%%%%%%%%%%%%%%%%%%%%%%%%%%%%%%%%%%%%%%%%%%%%%%%%%%%%%%%%%%%%
283H7%%%%%%%%%%%%%%qQ%%%%%%%%%%%%%%%%%%%%%%%%%%%J6j6Qqq%Q%%%%%%%%%%%%%%%%%%%
276H7%%%%%%%%%%%%%%%%%%%%%%%%%%%%%%%%%%%%%%%%%%%%%%%%%%%%%%%%%%%%%%%%%%%%%%%
269H7qQ%%%%%%%%%%%%%%%%%%%%%%%%%%%%%%%%%qQ%%%%%%%%%%%%%%%%%%%%%%%%%%%%%%%%%%
262H7%%%%%%%%%%%%%%%%%%%%%%%%%%%%%%%%%%%%%%%%%%%%%%%%%%%%%%%qQ%%%%%%%%%%%%%%
256H7%%Qq%qQ%%%qQ%%Q%j6K4j6qK4k4J6q%%qQ%%%%qQqQ%%%%%%%qQ%%%%%%%%%%%%%%%%%%%%
249H7%%%%%%%%%%%%%%%%%%%%qQ%%%qQ%%%%%%%%qQ%%%%%%%%qQ%%%%%%%%%%%%%%%%%%%%%%%%
243H7%%%%%%qQ%%qQ%%%%%%%%%%%%%%%%%%%%%%%%%q%Q%%%%%qQ%%%%%%%%%%%%%%%%%qQ%%%%q
236G9%Q%%%%%%%%%%%%%qQ%%%%%%%%%%%%qQ%%%%%%%%%%%%%%%%%%%%%%%%%%%%%%%%%%%%qQ%q
229G9Q%%%qQ%qQ%%%%%%%%qQ%%%%%%%%%%%%qQ%%%%qQ%%%%%qQ%%qQ%qQqQ%%%qQ%%%%%%%%%q%
222G9%Q%%%%%%%qQ%%%%%%%%%%%%qQqQ%%qQ%%%%%%%%q%Q%%q%Q%%%%qQq%Q%%%%qQ%%qQ%%%%%
216H7qQqQ%%%%%%%%%%%%%%%%%%%%%%%%%%%%%%%%%%%%%%%%%%%%%%%%%%%%%%%qQqQ%%%%%%%%
209H7%%%%qQqQ%%%%%%%%%%%%%%%qQ%%%qQ%%%q%%QQj6Q%%q%%Q%%qQq%QqQ%qQ%qQ%%%qQ%q%Q
202H7%%%%%%qQ%%%%%%qQ%qQ%%%%%%q%Q%%qQ%%%%q%Q%%%%%%%%%%%%%%%qQ%%%%%%q%Q%%%qQq
195G9Q%%q%%%Q%%%%qQqQ%qQ%qQqQ%%%qQ%%%qQ%%%%%q%%%%%%Q%%%%qQ%q%QqQ%q%Q%qQ%q%Q%
189H7%qQqQq%Q%%%%qQ%qQ%q%Q%%%qQ%%%%%%%%%%%%%%%%%%%%%%%%qQq%QqQqQ%q%%Qq%%Qq%%
182G9Q%%%%%%qQ%qQ%%%qQqQ%%%%qQ%%%%%%%%%%%%%%%%%%%q%%%%Q%qQ%%qQ%%%%%%%%qQ%%q%
175G9Q%%%%q%%Q%%%%%%qQ%%qQqQ%%%q%Q%%qQ%%%q%Q%%qQ%%%%q%%%%%Q%qQqQ%q%Q%%%q%%Q%
168H7q%%%%%%%Q%qQ%%%%%%%%%qQ%%%%q%Qq%Q%%qQ%%%%%qQ%%%q%Q%%%q%%Q%%qQ%q%%QqQ%%%
162H7%%qQ%q%QqQ%%%qQqQqQq%Qq%%Q%qQqQ%qQq%Qq%Q%qQq%%%%QqQq%%%qQ%Q%%%qqQ%%%Q%q
155G9%QqQqQq%%%%%%Qq%%%QqQqQq%%%%%Q%q%%%%%QqQq%%%QqQ%qQ%qQ%%%%%%qQqQq%%Q%%qQ
148H7qQq%%Qq%%Qq%%%Q%q%%%%%%%%%Q%q%%%Qq%%%%%Q%q%%%QqQqQ%%%q%QqQ%qQ%%qQq%%%%Q
141H7q%%%%%%Qq%%%Q%q%%%Qq%Qq%%%%%Qq%%Q%q%Qq%Q%qQq%Qq%QqQq%%%%%%%%%Q%%%q%Q%%q
134G9%Qq%%%%%%%%%%%QqQ%%qQq%%%%Qq%%QqQq%%%%Q%%%qQ%%qQ%qQq%Qq%QqQ%%%qQ%q%%%Qq
128G9%%Qq%%QqQ%%%q%QqQ%%q%%QqQq%%%%%%%%%%%%%%%%%Qq%%%%%%%%Qq%%%%QqQq%%%%%%%%
121G9%%%QqQq%%%Qq%%%%%%%%%%Qq%%%%%Q%q%%%%%Q%q%%%%%Q%%%q%%%%%%%%%%%%%QqQ%%%%%
114H7q%Q%qQqQq%Qq%Qq%%%Qq%%%%%%%%%%%%%%%%%%Qq%%Qq%Q%q%%%%%Q%qQ%qQqQ%%q%Q%%q%
107G9%QqQ%%%qQq%%%Qq%%%%%%Qq%%Q%q%%%QqQq%%QqQq%%%%%%Qq%%%%%%Qq%%%%%%Qq%%%%%%
101G9%%%%%Qq%%%%%%%%%%%%%%%Q%qQq%%%%%%%%%%%%%%Qq%%%%%%%%%%%Q%%%q%%%%%Qq%%%%%
94G9%Qq%%%%%%%%%%Qq%%%%%%%%%%%%%%%%%%%%%%%%%%QqQq%%Qq%Qq%Qq%%%%%%%%%%%%%%Q%q
87G9%%%%%%%%%%%%%%%%%%%%%%%Qq%%%%%%%%%%%%Qq%%QqQqQq%%%Qq%%%%%%%%%%%%%%%%%%%%
80G9%Qq%%%%%%%%%%%%%%%%%%%%%%%%%%%%%%%%%%%%%%%%%%%%%%%%Qq%%%%%%%%%%%%%Qq%%%%
73G9%%%%%%%%%%%%%%%%%%%%%%%%Qq%%%%%%%%%%%%%%%%%%%%%%%%%%%%%%%%%%%%%%%%%%%%%%
66G9%%Qq%%%%%%%%%%%%%%%%%%%%%%%%%%%%%%Qq%%%%%%%%%%%%%%%%%%%%%%%%%%%%%%%%%%%%
60G9QqQj6Q%%qQqJ6q%%Q%q%%%%%%%%%%%%%%%%%%%%%%%%%%%%%%%%%%%%%%%%%%%%%%%%%%%%%
53G9%Qq%%%%%%%%%%%%%%%%%%%%%%%%%%%%%%%%%%%%%%%%%%%%%%%%%%%%%%%%%%%%%%%%%%%%%
46G9%%%%%%%%%%%%%%%%%%%%%%%%%%%%%%%%%%%%%%%Qq%%%%%%%%%%%%%%%%%%%Q%q%%%%%%%%%
39G9%%%%%%%%%%%%%QqQq%Qq%%%%%%%%%%%%%%Qq%%%%%%%%%%Qq%%%Qq%%Qq%%%%%%%%%%%%%%%
32G9%%%%%%%%%%%%%%%%%%%%%%%%%%%%%%%%%%%%%%%%%%%%%%%%%%%%%%%%%%%%%%%%%%%%%%%%
25G9%%%%%%%%%%%%%%%%%%%%%%%%%%%%%%%%%Qq%%%%Qq%%%%%%%%%%%%%%%%%%%%%%%%%%%%%%%
19G9%%%%%%%%%%%%%%%%%%%%%%%%%%%%Qq%%%%%%%%%%%%%%%%%%%%%%%%%%%%%%%%%%%%%%%%%%
12G9%%%%%%%%%%qQ%%%%%Qq%%Qq%%Q%q%%%%%%%%%%%%%%%%%%%%%%%%%%%%%%%%%%%%%%%%%%%%
5G9%%%%%%%%%%%%%%%%%%%%%%%%%%%%%%%%%%%%%%%%%%%%%Qq%%
0G9
##$OBSERVED MULTIPLETS=	(I, X, Y, Hs, Vs, An, H, C, N, (J))
$$ I: Multiplet Index
$$ X: Strt Coordinate
$$ Y: End Coordinate
$$ Hs: Horizontal Chemical Shift
$$ An: Normalised Integral Area
$$ H: Hydrogens
$$ C: Category
$$ N: Name
$$ (J): Coupling Constants
(1, 5.3725822846939674804, 5.4085825096953730196, 5.39058239719467025, 4, 4, s, A)
##$OBSERVED MULTIPLETS AREAS=	
(1, 2.0035755020590646502)
##$OBSERVED MULTIPLETS PEAKS=	(I, X, Y)
$$ I: Multiplet Peak Index
$$ X: Peak x Position
$$ Y: Peak Intensity
(1, 5.39058239719467025, 0.16190077364444732666)
##$PREDICTED PEAKS=	(X Y T A)
(5.3905775427982849379,  , 0.10000000000000000555, <1-a>)
(5.3905775427982849379,  , 0.10000000000000000555, <1-b>)
(5.3905775427982849379,  , 0.10000000000000000555, <2-a>)
(5.3905775427982849379,  , 0.10000000000000000555, <2-b>)
##$PREDICTEDCOUPLINGCONSTANTS=	J(A,B)	$$ (Hz)
1.53(1-a, 1-b)
1.53(1-b, 1-a)
1.53(2-a, 2-b)
1.53(2-b, 2-a)
##END=		$$ NMR SPECTRUM
##TITLE=	Predicted 1H NMR Spectrum
##JCAMP-DX=	6.0	$$ MestReNova 17.0.0-41178
##DATA TYPE=	NMR PEAK TABLE
##DATA CLASS=	PEAK TABLE
##BLOCK_ID=	3
##ORIGIN=	Mestrelab Research S.L.
##OWNER=	ctheodore
##CROSS REFERENCE=	NMR SPECTRUM: BLOCK_ID=2                                     
##.OBSERVE FREQUENCY=	500
##.OBSERVE NUCLEUS=	^1H
##NPOINTS=	1
##FIRSTX=	5.39058239719467025
##LASTX=	5.39058239719467025
##XFACTOR=	1
##YFACTOR=	1
##FIRSTY=	0.16190077364444732666
##XUNITS=	PPM
##YUNITS=	ARBITRARY UNITS
##PEAK TABLE=	(XYW..XYW)
5.39058239719467025,0.16190077364444732666,0.0015026910803804835286
##$MNOVA/PEAK_DATA_TABLE=	(T,F,A,ST,SP,APT,APC)
$$ Complementary to PEAK TABLE
$$ T: Type
$$ F: Flags
$$ A: Annotation
$$ ST: Shape Type
$$ SP: Shape Parameter
$$ APT: Attached Peaks Type
$$ APC: Attached Peaks Count
Artifact,Artifact,,0,0,0,0
##END=		$$ NMR PEAK TABLE
##END=		$$ LINK
