##TITLE=	Document 9
##JCAMP-DX=	6.0	$$ MestReNova 17.0.0-41178
##DATA TYPE=	LINK
##BLOCKS=	4    
##ORIGIN=	Mestrelab Research S.L.
##OWNER=	ctheodore
##$MNOVA/METADATA=	(DOCUMENT,BASE64)
eyJuYW1lIjoiRG9jdW1lbnQgOSIsInBhZ2VzIjpbeyJpdGVtcyI6WyIxIiwgICAgICAgICAgICAgICA
gICAgICAgICAgICAgICAgICAgICAgIjMiICAgICAgICAgICAgICAgICAgICAgICAgICAgICAgICAgIC
AgIF19XX0=
##TITLE=	
##JCAMP-CS=	3.7	$$ MestReNova 17.0.0-41178
##BLOCK_ID=	1
##ORIGIN=	Mestrelab Research S.L.
##OWNER=	ctheodore
##$MNOVA/METADATA=	(ITEM,BASE64)
eyJhbmdsZSI6MC4wLCJwb2ludHMiOlt7IngiOjUzMjEuMCwieSI6NTgzNS4wfSx7IngiOjU2MDYuMzU
5Nzc3Nzc3NTAyLCJ5Ijo1ODM1LjB9LHsieCI6NTYwNi4zNTk3Nzc3Nzc1MDIsInkiOjYwNzQuNzM4NT
M1MTYxMTM0fSx7IngiOjUzMjEuMCwieSI6NjA3NC43Mzg1MzUxNjExMzR9LHsieCI6NTMyMS4wLCJ5I
jo1ODM1LjB9XSwieiI6Mi4wfQ==
##ATOMLIST=	
$$ AN	AS	NH
	1	C	3
	2	C	 
	3	C	3
	4	O	 
##BONDLIST=	
$$ AN1	AN2	BT
	1	2	S
	2	3	S
	2	4	D
##MAXRASTER=	32768
##XY_RASTER=	
$$ AN	X	Y	Z
	1	-32768	28379	0
	2	0	9456	0
	3	32768	28379	0
	4	0	-28379	0
##END=		$$ JCAMP-CS
##TITLE=	Predicted 1H NMR Spectrum
##JCAMP-DX=	6.0	$$ MestReNova 17.0.0-41178
##DATA TYPE=	NMR PEAK ASSIGNMENTS
##DATA CLASS=	ASSIGNMENTS
##BLOCK_ID=	2
##ORIGIN=	Mestrelab Research S.L.
##OWNER=	ctheodore
##CROSS REFERENCE=	STRUCTURE: BLOCK_ID=1                                     
NMR SPECTRUM: BLOCK_ID=3                                     
##.OBSERVE FREQUENCY=	500
##.OBSERVE NUCLEUS=	^1H
##NPOINTS=	6
##XUNITS=	PPM
##YUNITS=	ARBITRARY UNITS
##PEAKASSIGNMENTS=	(XYWA)
(2.1410122216584164256, 0.24285116791725158691, 0.00075134551938460525378, <1>)
(2.1410122216584164256, 0.24285116791725158691, 0.00075134551938460525378, <1>)
(2.1410122216584164256, 0.24285116791725158691, 0.00075134551938460525378, <1>)
(2.1410122216584164256, 0.24285116791725158691, 0.00075134551938460525378, <3>)
(2.1410122216584164256, 0.24285116791725158691, 0.00075134551938460525378, <3>)
(2.1410122216584164256, 0.24285116791725158691, 0.00075134551938460525378, <3>)
##END=		$$ NMR PEAK ASSIGNMENTS
##TITLE=	Predicted 1H NMR Spectrum
##JCAMP-DX=	6.0	$$ MestReNova 17.0.0-41178
##DATA TYPE=	NMR SPECTRUM
##DATA CLASS=	XYDATA
##BLOCK_ID=	3
##ORIGIN=	Mestrelab Predictor, Modgraph NMRPredict Desktop
##OWNER=	ctheodore
##NUMDIM=	1
##$MNOVA/METADATA=	(ITEM,BASE64)
eyJhbmdsZSI6MC4wLCJheGVzIjp7IngiOnsibWF4IjoyLjk2Njk5MDE0MjkzMjc3MDUsIm1pbiI6MS4
4ODA5MTc0Mzk5OTc4NzR9LCJ5Ijp7Im1heCI6MC4yNjcxMzYyODUwODE1MDU4LCJtaW4iOi0wLjAyND
I4NTExNDA5Njc0OTkzNH19LCJwb2ludHMiOlt7IngiOjUzMjEuMCwieSI6NTgzNS4wfSx7IngiOjg3M
jIuMCwieSI6NTgzNS4wfSx7IngiOjg3MjIuMCwieSI6ODIwOC4wfSx7IngiOjUzMjEuMCwieSI6ODIw
OC4wfSx7IngiOjUzMjEuMCwieSI6NTgzNS4wfV0sInoiOjAuMH0=
##.OBSERVE FREQUENCY=	500
##.OBSERVE NUCLEUS=	^1H
##.SOLVENT NAME=	DMSO-d6
##.PULSE SEQUENCE=	
##.ACQUISITIONMODE=	SIMULTANEOUS
##$ORIGINAL FORMAT=	Predictor
##$MNOVA/SCALES_VERSION=	9
##$PARAMETER FILE=	(datafile, ASCII, /Users/ctheodore/CHE233L/Part%20B%20-%20Section%20II/acetone/1h.jdx, 0)
$$ 
##$PARAMETER FILE=	(parameters, ASCII, , 0)
$$ <?xml version="1.0" encoding="utf-8"?>
$$ <PredictorParameters>
$$     <Title>Predicted 1H NMR Spectrum</Title>
$$     <Origin>Mnova: NMR Prediction</Origin>
$$     <Name>Mestrelab Predictor, Modgraph NMRPredict Desktop</Name>
$$     <Version>1.7, 1.22 (5.076)</Version>
$$     <Nucleus>1H</Nucleus>
$$     <Solvent>DMSO-d6</Solvent>
$$     <From>0</From>
$$     <To>12.5</To>
$$     <Frequency>500</Frequency>
$$     <LineWidth>0.75</LineWidth>
$$     <Size>65536</Size>
$$     <DEPT>0</DEPT>
$$     <ProtonatedCarbons>0</ProtonatedCarbons>
$$     <ExcludeLabile>true</ExcludeLabile>
$$     <FastPrediction>0</FastPrediction>
$$     <ProtonDecoupled>0</ProtonDecoupled>
$$     <Reference/>
$$     <Options>
$$         <Settings>
$$             <Predictor Name="Mestrelab Predictor">
$$                 <Settings>
$$                     <Model>/Applications/MestReNova.app/Contents/Resources/data/1H.mbst</Model>
$$                 </Settings>
$$             </Predictor>
$$             <Predictor Name="Modgraph NMRPredict Desktop">
$$                 <Settings>
$$                     <Algorithm hoption="2" hsolvent="1" usnucleus="1">Fast Increments</Algorithm>
$$                     <JsAlgorithm>Fast Increments</JsAlgorithm>
$$                     <NMRSOAPDIR>/Applications/MestReNova.app/Contents/Resources/NMRPredict</NMRSOAPDIR>
$$                     <NMRTEMPDIR>/private/var/folders/3f/5b3_td5j7k3f1lyt31390d3jfxj842/T/NMRPredict-1574477954</NMRTEMPDIR>
$$                     <NMRUSDATABASEDIR>/Users/ctheodore/Library/Application Support/Mestrelab Research S.L./MestReNova/NMRPredict/NMR1HDatabase</NMRUSDATABASEDIR>
$$                     <Databases>ABCDEFGHIJKLMNOPQRSTUVWXYZ</Databases>
$$                 </Settings>
$$             </Predictor>
$$         </Settings>
$$     </Options>
$$     <MoleculeID>{97eaec49-3b41-4264-ae21-7e11568cbee2}</MoleculeID>
$$ </PredictorParameters>
##XUNITS=	HZ
##YUNITS=	ARBITRARY UNITS
##FIRSTX=	6250
##LASTX=	0.095367431640625
##DELTAX=	-0.095367431640625
##XFACTOR=	1
##YFACTOR=	1.1308638752919528087E-10
##FIRSTY=	3.2908140212839498417E-08
##MINY=	3.0533324757442414921E-09
##MAXY=	0.24285116791725158691
##NPOINTS=	65536
##XYDATA=	(X++(Y..Y))
6250B91%%%%%%%%%%%%%%%%%%%%%%%%%%%%%%%qQ%q%%%Q%%qQqQqQ%Qq%q%Qq%%Q%%qQq%%%%Q%
6243B91%qQqQ%qQ%q%Qq%Q%%qQqQ%q%Qq%%%QqQq%%%%%%%%%%%%Qq%%%%%%%%%%%%%%%%%%%%%%
6237B83%%%%%%%%%%%%%%%%%%%%%%%%%%%%Qq%%%%%%%%%%%%%%%%%%%%%%%%%%%%%%%%%%%%%%%
6230B83%%%%%%%%qQ%%qQqQ%%%qQqQ%%qQ%%%%%qQq%Qq%%QqQ%qQqQ%qQ%%%q%%%%%%%%%%%%%Q
6224B83q%%%%%%%%%QqQ%q%%%Qq%QqQq%%%%Qq%%%%%%%%%%%%%%%%%%%%%%%%%%%%%%%%%%%%%%
6217B75%%%%%%%%%%%%%%%%%%%%%%%%%%%%%%%%%%%%%%%%%%%%%%%%%%%%%%%%%%%%%%%%%%%%%
6211B75%%%%%%qQ%q%QqQ%%qQqQ%%%%q%%%%Q%%%qQ%%%%qQqQqQ%%q%Qq%%%%%%%%%%%%%%%%Qq
6204B67%QqQq%%%%%%%%%%%%%%%%%%%%%%%%%%%%%%%%%%%%%%%%%%%%%%%%%%%%%%%%%%Qq%qJ6
6197B75qQq%qQ%qQ%%%%%%qQ%%%%%%%%%%%%%%%%%%%%%%%%%%%%qQ%%%%%q%Q%%q%Q%%%%q%Q%q
6191B59%%%Q%%%%qQ%qQ%qQq%Q%%%qQq%Q%%q%%QqQqQ%q%QqQ%qQq%Qq%QqQqQj6Q%%%%%%%%%%
6184B59%%%%%%%%%%%%%%%%%%%%%%%%%%%%%%%%%%%%%%%%%%%%%%%%%%%%%%%%%%%%%%%%%%%%%
6178B59%%%%%%%%%%%%%%%%%qQ%%%%%%%%%%%qQ%%%%%%%%qQ%%%qQqQ%%qQ%%qQ%%qQ%%qQ%%%q
6171B51Q%qQ%qQ%%%qQ%q%QqQ%%q%%%%%Q%qQqQqQ%qQ%q%Qq%Qq%%%%QqQqQqQq%%Qq%%%%%%%%
6165B51%%%%%%%%%%%%%%%%%%%%%%%%%%%%%%%%%%%%%%%%qQ%%%%%%%%%%%%%%%%%%%%%%%%%%%
6158B51qQ%%%%%%%%%%%%%%%%%%%%%%qQ%%%%%%qQqQ%%%qQ%%q%Q%%%%%%qQqQ%%%%%%q%Q%%q%
6151B43Q%qQ%q%Q%q%%%Qq%%%%Qj6K4qj6Q%QQqJ6k4%%QQq%%%qqK4qqQ%q%%Q%%%%%q%%%%%Qq
6145B43Q%q%%%Qq%Qq%%Qq%%%%%Qq%%%%Q%qQq%Qq%%%%%%%%%%%%%%%%%%%%%%%%%%%%%%%%%%%
6139B43%%%%%%%%%%%%%%%%%%%%%%%%%%%%%%%%%%%%%%%%%%%%%%%%%%%%%%%%%%qQ%%%q%Q%%%
6132B43%%%%%%%%%%%%%%%%%%%%%%%%%%qQ%qQ%%%%qQ%%%%%%%%%%%%%q%Q%%%%%qQqQqQqQqQq
6126B35QqQq%Q%%q%%%%Qq%%%%%%%%%%%%%%%%%%%%%%%%%%%%%%%Qq%%%%Qq%Q%q%%%%%%%%%%%
6119B35%%%%%%%%%%%%%%%%%%%%%%%%%%%%%%%%%%%%%%%%%%%%%%%%%%%%%%%qQ%%%%%%%%%%%%
6113B35%%%%%%%%%%%%%%%%%%%%qQ%%%%%qQ%%%%%%%%%%%%%%%%%%%%%%%%%qQ%%qQ%%%%%%%%%
6106B35q%QqQ%%%%qQq%Q%%qQ%%%%%%%%%%q%Q%q%QqQq%Qq%Qq%QqQq%%QqQqQq%%%qQ%Qq%Qq%
6099B27%%%%%Qq%Qq%%%Qq%QqQq%%Q%qQq%%%%%%%%%%%%%%%%%%%%%%%%%%%%%%%%%%Qq%%%Qq%
6093B27%%%%%%%%%%%%%%%%%%%%%%%%%%%%%%%%%%%%%%%%%%%%%%%%%%%%%%%%%%%%%%%%%%%%%
6086B27%%%%%%%%%%%%%%%%qQ%%%%qQ%%%q%Q%%%%qQ%%%%%%q%%%Qq%%Q%%%qQqQqQq%Q%%%q%%
6080B19%%%%Q%%%qQ%%%%%%q%%%QqQ%qQqQ%qQqQq%%%Qq%%Qq%QqQq%%%%%%Q%q%%%%%%%%%%Qq
6073B19%%%%%%%%%Qq%%%%%%%%%%%%%%%%%%Qq%%%%%%Qq%%%%%%%%%%%%%%%%%%%%%%%%%%%%%%
6067B19%%%%%%%%%%%%%%%%%%%%%%%%%%%%%%%%%%%%%%%%%%%%%%%%%%%%%%%%%%%%%%%%%%%%%
6060B19%%%%%qQ%%%%%%%%%%%%%%%%%%%%%%%%qQ%%qQ%%%%%qQ%%qQqQqQqQ%qQ%%%%q%%Q%qQq
6053B11Qq%%QqQqQqQ%qQqQqQq%%QqQj6J6%q%Qq%Q%Qqq%Q%%qQ%qQqQq%Q%%qQ%q%%Qq%Qq%%%
6047B11Q%%%q%%%%Qq%%%%%%%%%%%%Qq%%%%%%%%%%%%%%%%%%%%%%%%%%%%%%%%%%%%%%%%%%%%
6040B11%%%%%%%%%%%Qq%%qQ%%%%%%%%%%%%%%%%%%%%%%%%%%%%%%%%%%%%%%%%%%%%%%%%%%%%
6034B11%%%%%%qQ%%%%%%%%%qQ%%%%%%%%%%%%%qQ%%%%%%%%%%%qQ%qQqQ%q%Q%%%%%%%%%%%%%
6027B11%qQqQqQ%%%%%%%%qQ%q%Q%%%%qQq%Q%%qQ%q%Q%q%Q%%q%%%%%Q%qQqQq%Q%qQ%%%q%Qq
6021B03%%%%%Qq%%%%%%Qq%%%%%%%%%%%%%%%%%%%%%%%%%%%%%%%%%%%%%%%%%%%%%Qq%%%%%%%
6014B03%%%%%%%%%%%%%%%%%%%%%%%%%%%%%%%%%%%%%%%%%%%%%%%%%%%%%%%%%%%%%%%%%%%%%
6007B03%%%%%%%%%%%%%%%%%%%%%%%%%%%%%%%%%%%%%%%%%%%%%%%%%%%%%qQq%%Q%%%%%%%%%%
6001B03%%%%%%%%%%%%%%%q%Q%qQ%%%%qQ%%%%%qQ%qQ%%%%qQ%%q%Qq%QqQq%%QqQq%%%%Q%%%%
5994B03q%%Q%%%%%q%%Q%%%%%%%%%qQ%q%%Q%q%Qq%%%%Q%%q%%%%%%%%Qq%%%%%%%%%%%%%%%%%
5988A95%%%%%%%%%%%%%%%%%%%%%%%%%%%%%%%%%%Qq%%%%Qq%%%%%%%%%%%%%%%%%%%%%%%%%%%
5981A95%%%Qq%%%%%%%%%%%%%%%%%%%%%%%%%%%%Q%q%%%%Qq%%%%%%%%%%%%%%%%%%%%%%%%%%%
5975A95%%%%%%%%%%%%%%%%%%%%%%%%%%%%%%qQ%%%%%%%%%%%%%%%%%%%%%%%%%%%%%%%%qQ%%%
5968A95%%%qQ%%%%qQ%%qQ%%%%%q%%Q%%%q%%Qq%Q%%qQq%%%%Q%q%Qq%Q%%qQ%%%%%%%%%%qQ%%
5961A95%%%%%%%qQ%%qQ%q%%QqQ%q%%%%Q%q%QqQ%q%%%QqQ%%%q%Qq%Qq%Qq%%Qq%Qq%Qq%Q%qq
5955A79QQqQq%%%Q%Qj6Qq%%Q%%qQj6Q%Qq%%%%Qq%%Qq%%%%%%%%%%%%%%%%%%%%%%%%%%%%%%%
5948A87%%%%%%%%%%%%%%%%%%%%%%%%%%%%%%%%%%%%%%%%%%%%%%%%%%%%%%%%%%%%%%%%%%%%%
5942A87%%%%%%%%%%%%%%%%%%%%%%%%%%%%%%%%%%%%%%%%%%%%qQ%%%%%%%%%%%%%%%%%%%%%%%
5935A87%%%%%%%%%%%%%%%%%%%q%Q%%%%%%%%%%%%qQq%QqQq%%%QqQqQ%%%%%%q%%%Q%%%q%Q%q
5929A79Q%%%%%qQ%%%qQq%Qq%%Qq%Qq%Q%%q%QqQq%Qq%%%%%%%Q%%%%qQ%%%q%%%%%%%%%Qq%%%
5922A79%%%%%Q%q%%QqQq%%Q%q%Qq%Q%q%%QqQqQ%%%q%QqQq%%Qq%%Q%qQ%q%%%%Qq%Qq%%%%%%
5916A79%%%%%%%%%%%%%%%%%%%%%%%%%%%%%%%%%%%%%%%%%%%%%%%%%%QqQq%%%%%%%%%%%%%%%
5909A79%%%%%%%%%%%%%%%Qq%%%%%%%%%%%%%%%%%%%Qq%%%%Qq%%qQ%%Qq%%%%%%%Qq%%%%%%%%
5902A79%%%%%%%%%%%%%%%%%%%%%%%%%%%%%%%%%%%%%%%%%%%%%qQ%%%%%%%%%%%%%%%%%%%%%%
5896A79%%%%qQ%%%%%%%%%%%%%qQ%%%%%%%qQ%%%q%QqQqQ%qQqQ%qQ%%%%%%%%qQ%%%%%%%%%qQ
5889A79qQ%%qQ%%%%%%%q%Qq%%%%Q%q%Qq%%%Q%q%%%Q%%%qQq%%%%%%%Qq%Q%%%q%Q%%%%qQq%%
5883A71QqQq%%%%%%%%%%Qq%%%%%%%%%%%Qq%Qq%%%%%%%Qq%%%%%%%%%%%%%%%%Qq%%%%%%%Qq%
5876A71%%%%%%%Q%q%%Qq%%%%Qq%%%%%%%%%%%%%%%%%%%%%%%%%%%%%%%%%%%%%%%%%%%%%%%%%
5869A71%%%%%%%%%%%%%%%%%Qq%%%%%%%%%%%%%%%%%%%%%%%%%%%%%%%%%%%%%%%%%%%%%%%%%%
5863A71%%%%%%%%%%%%%%%qQ%%%%%%%%%%%%%%%%%%%%%%%%%%%%%qQ%%%qQ%%qQ%qQ%%%%%%%%%
5856A71QqqQQq%%q%Q%%%%qQ%qQ%%%%%qQ%%%%%%%%%%%%qQ%%%%%%%%%%%%qQqQqQ%%%qQ%qQqQ
5850A71%%%%%%%%qQqQ%%%%qQ%%%qQ%%%%%%%%%qQqQ%%%q%Qq%%Q%%q%Qq%Qq%Qq%Qq%%%Q%q%Q
5843A71%q%%%%Qq%%%%%Qq%%%%%%%%%%Qq%%%%%%%QqQq%%%%%%%%%QqQq%Qq%Q%q%Qq%%QqQq%Q
5837A71q%%%%%%%Qq%%%%%Qq%%%%%%%%%%%%%%Qq%%%%%%%Qq%%%%%%Q%%qQ%q%%%%Qq%Qq%Qq%%
5830A63%%%%%%%%%%%%%%%%%%%%%%%%%%%%%%%%%%%%%%%%%%%%%%%%%%%%%%%%%%%%%%%%%%%%%
5823A63%%%%%%%%%%%%%%%%%%%%%%%%%%%%%%%%%%%%%%%%%%%qQ%%%%%%%%%%%%%%%%%%%%%%%%
5817A63%%%%%%%%%%%%%%%%%%%%%%%%%%%%%%%%%%qQ%%%%%%%%qQ%%%%%%%%%%qQ%%%%%%%%%%%
5810A63%qQ%%%%%%%%%%%%%%%%%%%q%QqQ%q%%QqQ%qQq%Q%qQ%q%QqQ%qQ%qQ%%q%QqQ%qQ%qQ%
5804A63%%%%%%%qQ%qQq%QqQ%%%qQ%%%q%Qq%QqQq%Qq%Q%qQqQq%%%%%%%Qq%%%%%Qq%%%%%QqQ
5797A63%q%Q%qQ%q%%%%QqQq%Q%q%%%%%%%%%Qq%%%%%%%QqQq%%%%%%Qq%%%%QqQq%%%%Qq%%%%
5791A55%%%%%%%%%%%%%%%%%%%%%%%%%%%%%%Qq%%%%%%%%%%%%%%Qq%%%%%%%%%%%%%%%%Qq%%%
5784A55%Qq%Qq%%%%%Qq%%%%%%Qq%%Qq%%%%%%%%%%%%%%%%%%%%%%%%%%%%%%%%%%%%%%%%%%%%
5777A55%%%%%%%%%%%%%%%%%%%%%%%%%%%%%%%%%%%%%%%%%%%%%%%%%%%%%%%%%%%%%%%%%%%%%
5771A55%%%%%%%%%%%%%%%%%%%%%%%%%%%%%%%%%%%%%%%%%%%%%%%%%%qQ%%%qQ%%%%%%%%%%%%
5764A55%%%%qQ%qQ%%%%%%%%%%qQ%%%%%q%Q%%%%q%%%%QQqqQQ%q%Q%q%QqqQ%J6j6L2k4n6M8Q
5758A63Qk4j6%J6m0QM8qqqj6L2%Qj6Q%%%q%QqQ%qQ%%%%%%%q%Q%%%%q%%%%%Q%q%%Q%%qQ%%%
5752A55qQ%%%%qQq%%Q%qQ%%q%%QqQq%QqQq%Q%qQ%q%Qq%%QqQqQq%%QqQqQq%%Qq%QqQq%Q%%%
5746A55q%%%%%%%Qq%%%%Q%qQ%%qQ%q%%%Q%q%%%%%%%%%%%%Qq%%%%%%%%%%%QqQqQq%%%%Qq%%
5739A47%%Qq%%%%%%QqQq%%%%%%%%Qq%Q%%q%%%%%%%%%%%%%%%%%%%%%%%%%QqQq%%%QqQq%%%%
5733A47%%%%%%%%%%%%%%%%%%%%%%%%%%%%%%%%%%%%%%%%%%%%%%%%%%%%%%%%%%%%%%%%%%%%%
5726A47%%%%%%%%%%%%%%%%%%%%%%%%%%%%%%%%%%%%%%%%%%%%qQ%%%%%%%%%%%%%%%%%%%%%%%
5719A47%%%%%%%%%%%%%%%%%%%%%%%%%%%%%%%%%%%%%%%%%%%%%%%%%%%%%%%%%%%%%%%%%%%%%
5713A47%%%%%%%%%%%%%%%%%%qQqQ%%%%%%%%%%%%qQ%q%J6q%qQ%%%%%%%%%%%%qQq%QqQ%%q%Q
5706A47%%%%%%%%%%%%%%%%%%%%%%%%%%%%%qQ%%%q%%Q%%%%%%%%%%%%%%qQ%%%%%%%%%%%%%q%
5700A39Q%%%%%%%%%%qQqQqQ%%%%q%%Q%%%%%%%%%qQqQ%%q%%QqQ%%qQ%q%%Q%q%Qq%Qq%%Q%q%
5693A39%QqQqQq%%%Qq%%%QqQ%qQq%QqQqQ%qQq%Qq%Qq%%%%QqQq%%%%%%%%%%Q%q%Qq%Qq%Qq%
5687A39%Qq%Q%%q%Qq%%%%%%%Q%q%%%Qq%%%QqQqQq%%%%%%Qq%%%%%%Qq%%%%%%%%%%%%%%%%%%
5680A39%%%%%%%%%%%%%%Qq%%%%%%%%%%%%%%%%Qq%%%%%%%QqQq%%%%%%Qq%%%%%%%%Qq%%%%%%
5674A39%%%%%%%%%%%Qq%%Qq%%%%%%%%%%%%%%%%%%%%%%Qq%%%Qq%%%%%%%%%%%%%%%%%%%%%%%
5667A39%%%%%%%%%%%%%%%%%%%%%%%%%%%%%%%%%%%%%%%%%%%%%%%%%%%%%%qQ%%%%%%%qQ%%Qj6
5660A31Q%qQ%%%qQqQ%%%%%%%%%%%%%%%%%%%%qQ%%%%%%%%%%%%%%%%%%%%%%%%%%%%%%%%%%%%
5654A39%%%%%%%%%%%%%%%%%%%%%%%%%%%%%%%%%%%%%%%%%%%%%%%%%%%%%%%%%%qQ%%%%%%%%%
5647A39%%%%%%%%%%%%%%%%%%%%%%qQ%%%%%%%qQ%%%%%%%%%%%%%qQ%%%%%%%%%%qQ%%%q%Qq%Q
5641A39qQqQ%%%%%%%%%%%%%%%%%%%%%%%%%qQ%%%%%%%qQ%qQqQ%%qQ%%%%%%%%%%%%%qQ%%%%%
5634A39%%%%%%%%%qQ%%%%%%%%q%%Qq%%%QqQ%q%%Q%qQqQqQqQqQ%%%%%q%Q%%%%%q%%Q%qQq%%
5627A31%%%QqQq%Q%%%q%QqQqQqQqQ%%q%Q%q%%Qq%%Q%q%Q%%qQq%Qq%%Qq%%%%%%%%%%%%%%%Q
5621A39q%%Qq%%%%%%%%%%%%%%%%%%%Qq%%%Q%q%%%%%%%%%%%%%%%%%%%%%%%%%%%%%%%%%%%%%
5614A31%%%Qq%%Qq%%%%%%%%qQ%%%Qq%%Qq%Q%qQ%q%%%%%%%%%%%%%%QqQq%%%%%%%%%%%%%%%%
5608A31%%%%%%%%%%%%%%%%%%%%%%%%%%%%%%%%%%%%%Qq%%%%%%%%%%%%%%%%%%%%%%%%%%%%%%
5601A31%%%%%%%%%%%%%%%%%%%%%%%%%%%%%%%%%%%%%%%%%%%%%%%%%%%%%%%%%%%%%%%%%%%%%
5595A31%%%%%%%%%%%%%%%%%%%%%%%%%%%%%%%%%%%%%%%%%%%%%%%%%%%%%%%%%%%%%%%%%%%%%
5588A31%%%%%%QqqQ%%%%%%%%%qQ%%%%%%%%%%%%%%%%%%%%%%%qQ%%%%%%qQ%%%%%%qQ%%%%%%%
5581A31%%%%%%%%%%%%%%%%%%%%%%%%%%%%%%%%%%%%%qQ%%%%%%%%%%%%%%%%%%%%%qQ%%%%%%%
5575A31%%%%q%Q%%%%%%%%%%%%%%qQ%%%%%%%%%%%%%%%%%%%%%%%%%%%%%%%qQ%%%q%Q%%qQ%%q
5568A23Q%%%%%%%%qQqQ%%qQ%%%%%%%%%%qQ%%%%qQ%%%%q%Q%%%qQ%q%%%QQk4K4j6L2k4q%%J6
5562A39%j6J6q%qQqQ%%%%%qQ%q%%Q%q%%QqQ%%%%qQ%qQqQ%%%q%Qq%Qq%%%%%%%%%%%%QqQq%Q
5556A31q%%Q%q%Q%qQ%q%%%%Qq%Q%qQ%%q%%Q%qQ%%qQqQq%%%QqQq%%%%%Q%q%%%QqQ%%q%%%%%
5549A23%%%%Qq%%Qq%%%%%Qq%%%%%%Q%%q%Qq%%%%%%Qq%%%%%%Qq%%%%Qq%%%%%%%%%%%%%%%%%
5543A23%%%%%%%%%%Qq%%Qq%%%Q%q%%%%%%%%%%%%%%%%%%Qq%%Qq%%%%%%Qq%Qq%%%%%%%%%%%%
5536A23%%%%%%%%%%%%%%%%%%%%%Qq%%%%%%%%%%%%%%%%Qq%%%%%%%%%%%%%%%%%%%%%%%%%%%%
5529A23%%%%%%%Qq%%%%%%%%%%%%%%%%%%%%%%%%%%%%%%%%%%%%%%%%%%%%%%%%%%%%%%%%%%%%
5523A23%%%%%%%%%%%%%%%%%%%%%%%%%%%%%%%%Qq%%%%%%%%%%%%%%%%%%%%%%%%%%%%%%%%%%%
5516A23%%%%%%%%%%%%%%qQQq%%%qQQq%Q%q%%qQ%%%%%%%%%%%%%%%%%%%%%%%%%%%%%%%%%%%%
5510A23%%%%%%%%%%%%%qQ%%%%%%%%%%%%%%%%%%%%%%%%%%%%%%%%qQ%%%%%%%%%%%%%%%%%%%%
5503A23%%%%qQ%%%%%%%%%%%%%qQ%qQ%%%%%%%%%%%%%%%q%Q%%%%%%%%%%%%%%%qQ%%%%%%%%%%
5497A23%%%%%%%%%%%%%%%%%%%%%%%%qQ%%%%%%%%%%%%%%%%%%%%qQ%%%%%%%%%%%%%%%%%%%%%
5490A23qQ%%%%qQqQ%%%%%%%qQqQ%%%%%%%qQ%%%%%%%qQ%%%%q%Q%%%%%q%Q%%%%%%qQ%%%%%%q
5483A15%Q%%%%%%%%%%%%%%%%q%Qq%Qq%Qq%%%Qq%%%Q%%%%qQ%%%q%Q%qQ%%%q%%Qq%Q%%q%%Q%
5477A23%%qQqQq%%%Q%%q%%%%%%Qq%%Q%%qQ%q%Q%q%Qq%Qq%%%%Q%q%Qq%%%QqQ%%%%%%q%Q%%q
5470A15%%%%%%Qq%%%%%%%%QqQq%QqQq%%Qq%%Qq%%Q%q%Qq%%Qq%Qq%Q%qQ%%j6Q%%%QqQqQq%Q
5464A23q%%%%%%Qq%QqQq%Q%qQq%QqQ%q%Q%%%%%q%%%%%%Qq%Qq%%%%Qq%%Qq%Qq%%%Qq%%%%%%
5457A15%%%%%%%%%%%%%%%Qq%%%%%%%%%%%%%%%%%%%%%%%%%%%%%%%%%%%%%%%%%%%%%%%%%%%%
5451A15%Qq%%%%%%%%%%%%%%%%%%%%%%%%%QqQq%%Qq%%%%%Qq%%%%%%%%%%%%%%%%%%%%%%%%%%
5444A15%%Qq%Qq%%Qq%%%%%%%%%%%%%%%%%%%%Qq%%qQ%%%%%%%%%Qq%%%%%%%%%%%%%%%%%%%%%
5437A15%%%%%%%%%%%%%%%%%%%%%%%%%%%%%%%%%%%%%%%%%%%%%%%%%%%%%%%%%%%%%%%%%%%%%
5431A15%%%%%%%%%%%%%%%%%%%%%%%%%%%%%%%%%%%%%%%%%%%%%%%%%%%%%%%%%%%%%%%%%%%%%
5424A15%%%%%%%%%%%%%%%%%%%%%%%%%%%%%%%%%qQ%%%%%%%%%%%%%%%%%%%%%%%%%%%%%%%%%%
5418A15%%%%%%%%%%qJ6j6QQq%%qQ%%%%%%%%%%%qQ%qQ%%%%%%%%%%%qQ%%%%%%%%%%%%%%%%%%
5411A15%%%%%%%%%%%%%%%%qQ%%%%%%%%%%%%%%%%%%%%%%%%%%%%%%%%%%%%%%%%%%%%%%%%%%%
5405A15%%%%%%%qQ%%%%%%%qQ%%qQ%%%qQqQ%%%%%%q%Q%%%qQ%%%%%%qQ%%%qQ%qQ%%qQ%%%%%%
5398A15%%%%%%%%%%%%%%%%%%%%%%%%%%%%%%%%%qQ%%%%qQ%%%%%qQqQ%%%%%%%%%%%qQ%%%%q%
5392A07Q%%%%%qQ%%qQ%%qQq%Q%%qQ%q%%%%%%%%QqQ%%%q%%%QqQ%%%qQ%%%%%q%QqQ%%%q%Q%%
5385A15qQqQq%Q%qQ%%qQ%%qQ%%%%%qQ%%%%q%Q%qQ%%%%%%%qQ%%%%%%qQ%qQ%%%%qQqQqQ%q%Q
5378A15%%q%QqQ%q%QqQqQqQqQqQq%%QqQqQ%%qQq%%%Q%%q%%Q%qQqQ%%%%%q%QqQq%%%%%%%%Q
5372A15%q%%Q%%%%qQ%%q%%Q%%%%q%Qq%Q%qQ%q%QqJ6j6Qj6J6%%Qj6qQqJ6Qqj6%J6%%Q%j6qJ6
5366A15q%%%%%%%Q%q%QqQq%QqQqQ%qQq%%%%QqQ%q%%%Q%q%%Qq%Qq%Q%q%%Q%q%%%%%%%%%%%%
5360A07%%%Qq%%%%%%%%%%%%%%Q%q%Qq%%%%%%Qq%%%%QqQq%QqQqQq%%%%%Qq%Qq%%Qq%%%%%%%
5353A07%%%%%%%%%%%Qq%%%%%Q%q%%%%%%%%%%%%%%%%%%%%%%%%%%%%%%%%%%%%%%%%%%%Qq%%%
5346A07%%%Qq%%%%Q%q%%%%%%%%%%%%%%%%Qq%%%%Qq%Qq%Q%q%%%%%%%%%%%Qq%%%%%%%%%%%%%
5340A07%%%%%%%%%%%%%%%%Qq%%%%%%%%Qq%%%%%%%%%%%%%%%%%%%%%%%%%%%%%%%%%%%%%%%%%
5333A07%%%%%%%%%%%%%%%%%%%%%%%%%%%%%%%%%%%%%%%%%%%%%%%%%%%%%%%%%%%%%%%%%%%%%
5327A07%%%%%%%%%%%%%%%%%%%%%%%%%%%%%%%%%%%%%%%%%%%%%%%%%%%%%%%%%%%%%%%%%%%%%
5320A07%%%%%%%%%Qq%%%%Q%q%%%%%%%%%%%%%%%%%%%%%%%%%%%%%%%%%%%%%%%%%%%%%%%%%%%
5313A07%%%%%%%%%%%%%%%%%%%%%%%%%%%%%%%%%%%%%%%%%%%%%%%%%%%%%%%%%%%%%%%%%%%%%
5307A07%%%%%%%%%%%%%%%%%%%%%%%%%%%%%%%%%%%%%%%%%%%%%%%%%%%%%%%%%%%%%%%%%%%%%
5300A07%%%%%%%%qQ%%%%%%%%%%%%%%%%%%%%%%%%%%%%%%%%%%%%%%%%%%%%%%%%%%%%%%%%qJ6
5294A15q%%%%%qQ%%%%qQ%%%%%%%%%%%%%%%%%%%%qQ%%%%%%%%%%%%%%qQ%%qQ%%%%qQ%%qQ%%%
5287A07%%%%%%%qQ%%%qQ%%%%%%%%%%%%%%%%%%%%%%qQqQ%%%%qQ%%%qQ%%%qQ%q%QqQ%%%qQ%%
5281A07%%qQ%%%%%%%%%%%%%%%%%%%%%%%%%%%%%%%%%%%%qQqQ%qQ%qQ%%%%qQqQqQ%qQ%%%%%q
5274I9QqQ%%qQ%%%%%%qQ%%%%%%qQqQ%qQ%%%%qQqQqQq%%J6j6Q%Qj6QqQqQ%q%QqQq%Q%%%%%%
5268A07%%%%%%q%%%%Q%%qQ%%%qQ%%qQ%%q%Qq%Q%%%%%%q%%%Q%qQ%q%Q%q%QqQ%q%%%%%%QqQq
5261I9%Qq%%%%%%%%%%%%%%%%%%%%QqQ%qQqQqQq%%%%QqQ%%qQ%%qQ%q%Q%q%%QqQq%Qq%QqQ%%
5254A07q%Qq%Qq%%%Q%q%%%Q%q%Qq%%%%%%%%%%%%%%Q%q%%%%%%%%Qq%%%%%%%%%%%Qq%Q%qQq%
5248I9%%%Qq%Qq%%Qq%%%%%%%%Q%q%%%%%Qq%%%%Q%qQq%Qq%%%%%%%%%%Q%q%%Qq%Q%qQqQq%%%
5241I9%Qq%%%Qq%Qq%%%%%%%%%%%%%%%QqQq%%%%%%%%%%%%%%%%%%%%%%%%%%%%%%%%%Qq%%%Qq
5235I9%%Qq%Qq%%%%%%%%%%%Qq%%%%QqQq%%Qq%%%%%%%%%%%%%%%%%%%%%%%%%%%%%%%%%%%%%%
5228I9%%%%%%Qq%%%%%%%%%%%%%%%%%%%%%%%Qq%%%%%%%%%%%%%%%%%%%%%%%%%%%%%%%%%%%%%
5221I9%%%%%%%%Qq%%%%%%%%%Qq%%%%%%%%%%%%%%%%Qq%%%%%%%%%%%%%%%%%%%%%%%%%%%%%%%
5215I9%%%%%%%%%%%%%%%%%%%%%%%%%%%%%%%%%%%%%%%%%%%%%%%%%%%%%%%%%%%%%%%%%%%%%%
5208I9%%%%%%%%%%%%%%%%%%%%%%%%%%%%%%%%%%%%%%%%%%%%%%%%%%%%%%%%%%%%%%%%%%%%%%
5201I9%%%%%%%%%%%%%%%%%%%%%%%%%%%%%%%%%%%%%%%%%%%%%%%%%%%%%%%%%%%%%%%%%%%%%%
5194I9%%%%%%%%%%%%%%%%%%%%%%%%%%%%%%%%%%%%%%%%%%%%%%%%%%%%%%%%%%%%%%%%%%%%%%
5188I9%%%%%%%%%%%%%%%%%%%%%%%%%%%%%%%%%%%%%%%qQ%%%%%%%%%%%%%%%%%%%%%%%%%%%%%
5181I9%%%%%%%%%%%%%%%%%%%qQ%%%%%%%%%%%%%%%%%%%%%%%%%%%%%%%%%qQ%%%%%%%qQ%%q%Q
5174I9%%%%%%%%%%%%%%q%Q%%%%qQq%%qQ%Q%%qQqQ%%%%%%%%%%%%%%%%%%%%%%%%%%%%%%%%%%
5168I9%%%%%%%qQ%%%%%%%%%%%%%qQqQ%%%%%%%%%%%%%%%%%%%%%%%%%%%%%%%%%%%%%%%%%%%%
5161I9%%%%%%%%%%%qQ%%%%%%%%%%%%%%%%%%%qQ%%%%%%%%%%%%%%%%%%%%%%%qQ%%%%%%qQ%%%
5154I9%%%%%%qQ%%%%%%%%%%%%%%%%%%%qQ%%%%%%%%%%%%%%%%%%%%qQ%%qQqQ%qQ%%%%qQq%Qq
5148I1Q%%%%%qQ%%%%%%%%%%%%%%%%qQ%%%%%%q%%%%Q%%%%qQq%Q%qQ%%qQ%%qQqQ%%%%%%qQ%%
5141I9%%%%%%%%%%%%%%%q%Q%%qQ%qQ%%%%%%%%%q%Q%qQ%%%%%%%%%%%%qQ%%qQq%%QqQ%%%%%%
5134I9%%%%%%%%%%qQq%Q%%%%%q%%%%QqQq%QqQ%%%%%q%Q%%q%Q%qQ%%%%%qQ%%%%%q%Q%qQ%%q
5128I1QqQ%%%%%%%%%%%q%Qq%%%Q%%q%Q%q%%QqQ%%%%q%%%Q%%%qQ%q%QqQq%%%%%%%%QqQ%qQq
5121I1%%Q%qQq%Qq%%%Qq%Q%%q%%Q%qQ%%qQqQq%Q%qQ%%%%%%qQ%%%qQ%%qQ%%%%%%%%%qQ%qQ%
5114I9%%%%%%%%%qQ%%%%%q%Q%%%%q%%%Q%qQ%q%%Q%q%Qq%%Qq%Q%qQqQq%%%%%%%%%%%%%%%%Q
5108I9q%Qq%%%%%Qq%%%Qq%%Qq%%%%%Q%q%%QqQq%Q%q%%%%Q%%qQ%%qQqQq%QqQqQ%q%Qq%%Qq%
5101I1%%%QqQq%Q%%q%Qq%Q%qQ%qQq%%%Qq%%Qq%%%%%%%%%%%%%%%%%Qq%QqQ%q%%%QqQqQq%%Q
5094I9q%%%%%%%%%%Qq%%%%%%%Qq%%%%%%%%%%%%%%Qq%%%%%%%%%Qq%%%%QqQq%%%%%%%Qq%%%%
5088I1%%%%%%%%%%%Qq%Qq%Qq%%%%%%%%%%%%%%%%%%%%Qq%%%%%%%%%%%%%%%QqQq%%%%%%Qq%%
5081I1%%%%QqQq%Q%qQq%QqQq%Qq%Qq%%%%%%%%%%%%%%%%Qq%%Qq%%%%%%%%%%%%Q%q%Qj6QQqq
5074H3%Q%QqQq%Qq%%%%%%%%%%%QqQ%%%%qQq%Qq%%Qq%%%%%%%%Qq%%%%%%%%%%%%%%%%%%%%%%
5068I1%%%%%%%%%%%%%%%%%%%%%%%%%%%%%Qq%%%%%%%%%%%%%%%%%%%%%%%%%%Qq%%%%%%%%%%%
5061I1%%%%%%%%%%%%%%%%%%%%%%%%%%%%%%%%%%%%%%%%%%%%%%%%%%%%%%%%%%%%%%%%%%%%%%
5054I1%%%%%%%%%%%%%%%%%%%%%%%%%%%%%%%%%%%%%%%%%qQ%%Qq%%%%%%%%%%%%%%%%%%%%%%%
5048I1%%%%%%%%%%%%%%%%%%%%%%%%%%%%%%%%%%%%%%%%%%%%%%%%%%%%%%%%%%%%%%%%%%%%%%
5041I1%%%%%%%%%%%%%%%%%%%%%%%%%%%%%%%%%%%%%%%%%%%%%%%%%%%%%%%%%%%%%%%%%%%%%%
5034I1%%%%%%%%%%%%%%%%%%%%%%Qq%%%%%%%%%%%%%%%%%%%%%%%%%%%%%%%%%%qQ%%%%%%%%%%
5028I1%%%%%%%%%%%%%%%%%Qj6QQqQj6%Q%%%qQ%%%%%%%%%%%%%%%%%%%%%%%%%%%%%%%%%%%%%
5021I1%%%%%%%%%%%%%%%%%%%%%%%%%%%%%%%%%%%%%%%%%%%%%%%%%%%%%%%%%%%%%%%%%%%%%%
5015I1%%%%%%%%%%%Qq%%%%%%%%%%%%%%%%%%%%%%%%%%%%%%%%%%%%%%%%%%%%%%%%%%%%%%%%%
5008I1%%%%%%%%%%%%%%%%%%%%%%%%%%%%%%%%%%%%%%%%%%%%%%%%%%%%%%%%%%%%%%%%%%%%%%
5001I1%%%qQ%%%%%%%%%%%%%%%%%%%%%%%%%%%%%%%%%%%%%%%%%%%%%%%%%%%%%%%%%%%%%%%%%
4994I1%%%%%%%%%%%%%%%%%%%%%%%%%%%%%%%%%%%%%%%%%%%%%%%%%%%%%%%%%%qQ%%%%%%%%%%
4988I1%%%%%%%qQ%%%%%%qQ%%qQ%%%%%%%%%%%%%%%%%%%%%%%%%%%%%%%%%%%%%%%%%%%qQ%%%%
4981I1%%%%%%%%qQ%%%%%q%%%Q%%%%qQ%%qQ%%%qqJ6%Qk4QJ6m0K4M0o4J6K4Q%j6J6qq%j6Q%Q
4976I1j6J6Qj6Q%%%%%%%%%qQ%qQ%%%%%%%%%%%%%%q%Q%%%%%%%%%%qQ%%%%%%%%%%%%%%%%%%%
4969I1%%%%qQ%%%qQ%%%qQ%%%%%%%qQ%%%%%%%%%%%%%%%%%%%%%%%%%%%%%%%%%%%%%%%%%%%%%
4963I1%%%%%%%%%%%%%%%%%%%%%%%%%%%%%%%%%%%%%%%%%%%%%%%%qQ%%%%q%Q%%qQ%%%%%%%%%
4956I1%%%%%%%qQ%%%%%%%qQ%%%qQqQ%%%qQ%%qQqQ%q%Q%%%%%%%%%%%%%%%%%qQ%%%%%qQqQ%%
4949I1%%%%%%%%%%%%%%qQ%q%Q%qQ%%%%%%%%%%%%%%qQ%%%%%%q%Qq%Q%qQqQqQ%%%%qQqQqQqQ
4943I1qQ%qQ%%%%%qQ%%qQ%%%%q%Q%%q%%%Qq%%Q%%q%Q%%%%%%%%%q%Q%%%%%qQqQ%%qQ%%%%%%
4936I1%%%%%%%qQ%%%%qQ%%%%%%q%Qq%Qq%QqQ%%%qQq%Q%%%%%qQ%%%qQq%%Q%%qQ%qQq%%Qq%Q
4929I1%q%%Q%qQqQqQ%qQ%%%qQ%qQ%%%%%%%%q%Q%%qQqQ%%%%%%%q%%%Q%%%%q%Q%%%%%%qQqQ%
4922I1q%%Q%qQ%q%Q%%qQ%q%Q%%q%Q%qQ%q%%QqQqQ%q%%%%%QqQ%qQqQqQq%QqQ%%%%%%%%%qQ%
4916I1%%%q%%Q%%%%%q%Q%qQ%%q%Q%%%qQqQqQ%%q%%Q%%%%qQ%%%%qQ%%%%%%%qQ%%%qQqQ%%qQ
4909I1%q%Q%%qQ%%qQq%QqQ%q%%%Q%%q%%Q%%%%%%%%qQ%%qQ%qQ%%%%q%Qq%%%Qq%%%%%Q%qQqQ
4902I1q%Qq%QqQq%Q%q%%Qq%%%%QqQ%q%%%%%Q%q%QqQ%q%%%QqQ%%%qQ%%qQ%%%q%%QqQ%%q%%%
4896H3%%%Qq%%%Qq%Qq%%Q%q%Qq%Qq%%%Qq%%Qq%%Qq%%%%QqQ%q%Qq%Qq%%Qq%%%%%%Qq%Qq%Qq
4889H3%Q%%q%%%Q%qQq%%%%Qq%%%%%%Q%%qQ%q%%Q%q%%%%Q%q%Qq%%Qq%%%%%%%Qq%QqQq%%%Qq
4882H3%%%Q%qQq%%Qq%%%%%Qq%%%QqQ%q%Qq%QqJ6j6%%%%Q%%qQ%q%%Q%q%%%QqQ%q%Qq%%Qq%Q
4876I1%qQq%Q%qQ%q%%%QqQ%qQq%%%%%%Qq%Qq%%%Qq%%%%%%%%%%%%%%%%%%%%%%%%%%%%%%%%%
4869H3%%%%%%%%%%Qq%%%%Q%q%%Qq%%%%%%%%%%%%%%%%%%%%%%%%%%%%%%%%%%%Qq%%%%%Q%%%q
4863H3%%%%%%%%%%%%%%%%%%%%%%%Qq%%%%%%%%%%%%%%%Qq%%%%%%%%%%%%%%%%%%%%%%%%%%%%
4856H3%%%%%%%%%%%QqqQQq%%Qq%%%%%%%%%%%%%%%%%%%%%%%%%%%%%%%%%%%%%%%%%%%%%%%%%
4849H3%%%%%%%%%%%%%%%%%%%%%%%%%%%%%%%%%%%%Qq%%%%%%%%%%%%%%%%%%%%%%%%%%%%%%%Q
4843I1q%%%%%%%%%%%%%%%%%%%%%%%%%%%%%%%%Qq%%%%Qq%%%%%%%%%%%%%%%%%%Qq%%%%%%%%%
4836H3%%%%%%%%%%%%%%%%%%%%%%%%%%%%%%%%%Qq%%%%%%%%%%%%%%%%Qq%Qq%%%%%%Qq%Q%q%%
4829H3%%%Qq%%%%%%%%%%%%%%%%%%%%%%%%%%%%%%%%%%%%%%%%%%Qq%%%%%%%%%%%%%%%%%%%%%
4823H3%%%%%%%%%%%%%%%%%Qq%%%%%%%%%%%%%%%%%%%%%%%%%%%%%%%%%%%%%%%%%%%%%%%%%%%
4816H3%%%%%%%%%%%%%%%%%%%%%%%%%%%%%%%%%%%%%%%%%%%%%%%%%%%%%%%%%%%%%%%%%%%%%%
4809H3%%%%%%%%%%%%%%%%%%%%%%Qq%%%Qq%%%%%%%%%%%%%%%%%%%%%%%%%%%%%%%%%%%%%%%%%
4803H3%%%%%%%%%%%%%%%%%%%%%%%%%%%%%%%%%%%%%%%%%%%%%%%%%%%%%%%%%%%%%%%%%%%%%%
4796H3%%%%%%%%%%%%%%%%%%%%%%%%%%%%%%%%%%%%%%%%%%%%%%%%%%%%%%%%%%%%%%%%%%%%%%
4789H3%%%%%%%%%%%%%%%%%%%%%%%%%%%%%%%%%%%%%%%%%%%%%%%%%%%%%%%%%%%%%qQ%%%%%%%
4782H3qQ%QqQ%Qj6j6L2k4%Q%%qQqQ%Q%q%%%%%%%%%%%%%%%%%%%%%%%%%%%%%%%%%%%%%%%%%%
4776H3%%%%%%%%%qQ%%%%%%%%%%%%%%%%%%%%%%%%%%%%%%%%%%%%%%%%%%%%%%%%%%%%%%%%%%%
4770H3%%%Qq%%%Qq%%%%%%%%%%%%%%%%%%%%%%%%%%%%%%%%%%%%%%%%%%%%%%%%%%%%%%%%%%%%
4763H3%%%%%%%%%%%%%%%%%%%%%%%%%%%%%%%%%%%%%%%%%%%%%%%%%%%%%%Qq%%%%%%%%%%%%%%
4756H3%%%%%%%%%%%%%%%%%%%%%%%%%%%%%%%%%%%%%%%%%%%%%%%%%%%%%%Qq%%%%%%%%%%%%%%
4749H3%%%%%%%%%%%%%%%%%%%%%%%%%%%%%%%%%%%%%%%%%%%%%%%%%qQ%%%qQ%%%%%%%%%%%%%%
4743H3%%%%%%%%%%%%%%%%%%%%%%%%%%%%%%%%%%%%%%qQ%%%%%%%%%%qQqQ%%%%%%%%%%%%%%%%
4736H3%%%%%%%%%%%%%%%%%%%%%%%%%%%%%%%%qQ%QqqQ%q%Q%%%qQ%%%%%%%%%qQ%%%%%%%%%%%
4729H3%%qQ%%%%%%%qQ%%%%%%%%%%%%%%%%%%%%%%%%%%%%%%%%%%%%%%%%%%%%%%%%%%%%%%%%%
4723H3%%%%%%%%%%%%%%%%%%qQ%%%%%qQ%%%%%%%%%qQ%%%%%%%%%%%%%%%%%%%%%%%%%%%%%%%%
4716H3%%%%%%%%%%%%%%%%%%%qQ%%%%%%%%%%%%%%%%%%%%%%%%%%%qQ%%%%%%%%%%%%%%%%%%%%
4709H3%%%%%%%%%%%Qq%%%%%%%%%%%%%%%%%%%%%%%%%%%%%%%%%%%%%%%%%%%%%%%%%%%%%%%%%
4703H3%%%%%%%%%%%%%%%%%%%%%%%qQ%%%%%%%%%%%%%%%%%%%%%%%%%%%%%%%%%%%%%%%%%%%%%
4696H3%%%qQ%%%%%%%qQ%q%Q%qQ%%%%%%%%%%%%%%%%%%%%%%%%%%%%%%%%%%%%%%%%%%%qQ%%%%
4689H3%%%%%%%%%%%%%%%%%%%%%%%%%%%%%qQ%%%%%%%%%%qQ%%qQqQ%%qQ%q%%Q%%Qj6Q%%%%%q
4683G5Q%%%%%qQ%%%%%%%%%%%%%%qQqQ%q%Q%%%%%%%%%qQ%qQ%%qQ%%%%%%%%%%%%%%%%%%%%%%
4676H3%%%%%%%qQ%%%%%%%%%%%%%%%%%%%%%%%%%%%%%%%%%%%%%%%%q%Q%qQqQ%%%%%qQ%%%%%%
4669H3%%%qQ%%%%%%%%%%qQqQ%%%%%%q%Qq%Q%%%%%qQ%%qQ%%q%Q%qQ%%qQ%%%%%%%%%%%%%qQq
4663G5Q%%qQ%%%%%%qQ%%%%%%%q%Q%%%%qQ%%%%%Qq%qQ%%%%%%%%%%%%%%%%%%%%%%%%%%%%%%%
4656H3qQ%%%%qQ%%%%%%%%%%%%%qQ%%qQ%%%%%%%%%q%Q%%qQ%%%qQ%%qQ%%%%%%%%%qQqQq%Q%q
4649G5Q%%qQ%%%%%%qQ%qQqQqQ%%q%Q%%%qQqQ%%q%%Qq%Q%qQ%qQ%%%%%%%%%%qQ%%%%%%%%%%%
4643H3%%%qQ%%%%%%%qQ%%%q%%Q%%qQ%%q%Q%%%%%qQ%%%%%%%%qQ%%%qQ%q%Q%%%q%Q%%%%%%%q
4636G5Q%q%Q%q%Q%qQ%q%%Q%qQqQ%qQ%%%%%%%%%%%%%%%%qQq%Q%%%%%%%%%%%%%q%Q%%%%%%%q
4629G5Q%%%%%%%%q%%%Q%%%%q%QqQ%%%%%%%%%qQ%%%qQ%%%%%%%%%%%%%%%%qQ%%qQ%%%%qQ%qQ
4623H3%qQqQ%%%%%%%%%qQ%%%qQ%%%%%%%q%%Q%qQ%%%qQ%%qQ%q%%Q%qQqQ%qQ%%%%q%QqQ%qQq
4616G5Q%%qQ%%%%%%%%%%%%%%%%q%QqQ%qQ%%%qQq%Q%%%%%%qQ%%%q%%%QqQ%%%%%%q%Q%qQq%Q
4609H3q%%QqQ%qQqQ%%qQqQ%%%%qQqQ%%%%q%%Q%q%Q%q%%%Qq%%%%Q%%%qQ%%q%%%%%QqQqQqQq
4603G5QqQq%%%Q%qQq%Q%q%Q%q%Q%%qQ%%%%%%q%QqQqQq%Q%qQ%q%%%Q%%%%%qQ%%%%%q%Q%%%q
4596G5%QqQ%%q%QqQ%%%%%%qQqQqQ%q%QqQqQ%qQ%%qQ%%q%QqQ%%%qQqQ%%qQq%Qq%%%%Q%%q%Q
4589H3qQ%%q%Qq%%QqQq%QqqJ6%%%%%%qQ%j6J6%%Q%%%j6Qq%Qq%Q%%%%q%QqQ%%%qQq%QqQ%%q
4583G5%Q%qQ%%qQqQ%%%qQ%%%qQqQ%%%%%qQ%%q%Q%qQqQ%qQq%Qq%%%%%%%%Q%q%%%Q%%%qQq%Q
4576H3%qQ%%q%Q%qQ%%q%QqQ%%q%%Q%%%%q%Qq%Q%%%qQq%%%%%Qq%%QqQ%qQq%Qq%%%%%%%%Qq%
4570G5Q%%%q%%%%Q%q%Qq%Qq%%%%%%%Q%q%%%%%Q%%qQqQ%%q%%Qq%%%Qq%%%QqQ%qQq%%Qq%%Qq
4563G5%%%Qq%%%%QqQ%q%QqQ%q%%%%%%%QqQqQq%%Qq%%Qq%%%%%%%%Qq%%%%Q%q%%%%Q%%%q%%%
4556G5%Q%qQq%%%%%%%%Qq%%Q%%q%%%%%QqQqQq%Q%qQq%Qq%%%Q%q%%%%QqQq%Qq%%Qq%Q%%qQq
4550G5%%%Q%q%%%Qq%Q%%%q%%%%%Qq%%QqQq%Qq%%%%%%%%%%%Qq%%%Q%q%%%%Q%%qQ%%qQ%qQq%
4543G5Qq%Q%qQq%%Q%q%%%%%%%QqQ%qQq%%Qq%%%%%%%%%%%%%%%Q%qQq%QqQqQqQqQqqQQ%%%%q
4536G5Qq%QqQ%q%Qq%%%%%%%%%Q%%q%Q%q%QqQq%%%%%%%Q%q%%%%%Qq%Qq%%%%%%%%%%%QqQq%%
4530G5%Q%q%%%%%%%%%%%%%%%%%%%QqQ%%q%%Q%qQ%q%%Qq%%Q%%q%%%%Qq%%Qq%%%%%%%%%%%%%
4523G5%%%%%%Qq%%Qq%%Qq%%%%%Q%q%%%%%%%%%%%%%%%%%%QqQqQqQq%Qq%%Qq%QqQ%q%%%Qq%%
4516G5%%%Q%%qQqQq%%Qq%%%%%QqQq%QqQqQ%%q%%Qj6QQqQqQq%Qq%%%%%%%%%%%%%%%%%%Q%q%
4510G5%QqQq%%%%Q%%q%%%%%%Qq%%%%Q%%qQq%Q%%qQq%%%%%%%%Qq%%Q%q%%%%%%Qq%%%%%%%%%
4503G5%%Q%q%%%%%%%%%%%Q%q%%Q%q%%Qq%%%Qq%Q%%%q%%Qq%%%%QqQq%%%%%%%QqQ%%qQ%%qQ%
4496H3%qQ%%%qQqQq%%%Qq%Qq%%%Q%qQ%%q%%QqQq%%%%%Q%qQq%%%%Qq%Q%q%%%%Qq%Q%q%%%Q%
4490H3q%%%Q%q%Q%qQq%%J6j6Q%qQq%Q%%%q%%%Qq%%%%%Qq%%%Qq%%Qq%%%%Qq%%%Q%%q%%%%%%
4483G5%%%%QqQ%qQq%%%%Q%q%%%%%Qq%%Qq%%%%%%%%Q%q%%%%%Qq%%%%%%%Qq%%QqQ%%q%%%%Q%
4477H3%qQq%%Q%qQq%%%%%Qq%%%%%%%Qq%Qq%Qq%%%Qq%Qq%%%%%%%%%%%%%%%%%%%%%%%%%%%%%
4470G5QqQqQq%%%%%%%%%%%%%%%%%Qq%Qq%%%%%Qq%%%%%%%%%%%%%%%%Qq%%%%Q%%qQ%qQq%Qq%
4463G5Qq%%%%%%%%Qq%%%%%%%%%Qq%%%%%%%%%%%%%%%%%%%%%%%%%%%%%%%%%%%%%%%%%%%%%%%
4457G5Qq%%%%%%%%%%%%%Qq%%%%%%%%%%%%%%%%%%%%%%%%%Qq%%%%Qq%%Qq%%%%%%%%%%%%Qq%%
4450G5%%%%%%Qq%Qq%%%%%%%%%%%%%%%%%%%%%%%%Qq%%%%Qq%%%%%%%%Qq%%Q%%%%%q%%%%%Q%q
4443G5Qq%Q%qQ%qQ%q%%%Qq%QqQq%Q%%%q%Qq%QqQqQq%%Q%%q%%%%%%Qq%%%%%%%%%%%%%%%%%%
4436G5%%%%%%%%%%%%%%%%%%%%%%%%%%%%%%%%Qq%%%%%%%%%%%%%%%%%%%%%%%%%%%Qq%%%%%%%
4430G5%%%%%%%%%%%%%%%%%%%%%%%%%%%%%%%%%%%%%%%%%%%%%%%%%%%%%Qq%%%%%%%Qq%%%%Q%
4423H3q%Qq%%%%%%%%%%%%%%%%%%%%%%%%%%%%%%%%%%%%%%%%%%%%%Qq%%%%%%Qq%%%%%%Qq%%%
4416G5%%%%%%%%%%%%%%%%Qq%Qq%%%%%%%%%%%%%%Qq%%%%%%%%%%%%%%%%%%%%%%%%%%%%%%%%%
4410G5%%%%%%Qq%Qq%%Q%q%%%%%%%%%%%Qq%%QqQq%%%%%%%%%%%%%Qq%%%%%%%%%%%%%%%%%%%%
4403G5%%%%%%Qq%%%%%%%%%%%%%%%%%%%%%%%%%%Qq%%%%%%%%%%%%%Q%%q%QqQqQq%%Q%q%%%%%
4396G5%%%%%%%%%%%%%%%%%%%%%%%%%%%%%Qq%%%%%%%%%%%%%%%%Qq%%%%%J6%k4%%%J6qQqqQQ
4390H3qQqQqQ%qQ%q%%Q%q%%Qq%%%%%%%%%%Qq%%%%%%%Qq%%%%%%%%Q%q%%%%QqQ%q%%%%%%%%%
4383G5%%%%%%%%%%Qq%Qq%%%%QqQq%%%%%%%Qq%Qq%%Q%q%QqQq%QqQq%Qq%%%%%%%%%%%%%%Qq%
4377G5%%%%%%%%%%%%%%%%%%%%%%%%%%%%%%%%%%%QqQq%%%%%%%%%%%%%%%%%%%%%%%%%%%%%%%
4370G5%%%%%%Qq%%%%%%%%%%%%%%%%Qq%%%%%%%%Q%%%qqJ6%q%Qq%%%%%%%%%%%%%Qq%%%%%%%%
4363G5%%%%%%%%%%%%%%%%%%%%%%%%%%%%%%%%%%%%%%%%%%%%%%%%%%%%%%%%%%%%%%%%%%%%%%
4357G5%%%%%%%%%%%%%%%%%%%%%%%%Qq%%%%%%%%%%%%%%%%%%%%%%%%%%%%%%%%%%%%%%%%%%%%
4350G5%%%%%%%%%%%%%%%%%%%%%%%%%%%%%%%%%%%%%%%%%%%%%%%%%%%%%%%%%%%%%%%%%%%%%%
4343G5%%%%%%%%%%%%qQ%q%Q%%%%%%%%%%%%%%%%%%%%Qq%%%%%%%%%%%%%%%%%%%%%%%%%%%%%%
4337G5%%%%%%%%%%%%%%%%%%%%%%%%%%%%%%%%%%%%%%%%%%%%%%%%%%%%%%QqQq%%%%%%%%%%%%
4330G5%%%%%%%%%%%%%%%%%%%%%%%%%%%%%%%%%%%%%Qq%%%%%%%%%%%%%%%%%%%%%%%%%%%%%%%
4323G5%%%%%%%%%%%%%%%%%%%%%%%%%%%%%%%%%%%%%%%%%%%%%%%%%%%%%%%%%Qq%%Qq%%%Qq%%
4317G5%%%Qq%%%%%%%%%%%%%%%%%%%%%%%%%%%%%%%Qq%%%%%%%%%%%%%%%%%Qq%%%%%%%%%%%%%
4310G5%%%Qq%Q%q%%%%Qq%%%%%%%%%%%%%%%%%%%%%%%%%%%%%%%%%%%%%%%%%%%%%%%%%%%%%%%
4303G5%%%%%%%%%%%%%%%%%%%%%%%%%%%%%%%%%%%%%%%%%%%Qq%%%%%%%%%%%%%%%%%%%%%%%%%
4297G5%Qq%%%%%%%%%%Qq%%Qq%%Qq%%%Qq%QqJ6j6qJ6j6%Qq%Q%%%Qq%%%%%%%Qq%%%%%%%%%%%
4290G5%%%%%%%%%%%%%%%%%%%%%%%%%%%%%%%%%%%%%%Qq%%%%%%%%%%%%%%%%%%%%%%%%%%%%%%
4284G5%%%%%%%%%%%%%%%%%%%%%%%%%%%%%%%%%%%%%%%%%%%%%%%%%%%%%%%%%%%%%%%%%%%%%%
4277G5%%%%%Qq%%%%%%%%%%%%%%%%Qq%%%%%%%%%%%%%%%%%%%%%%%%%%%%%%%%%%%%%%%%%Qq%%
4270G5%%Qq%%%%%%%%%%Q%q%%%%%%%%%%%Qq%%%%%%%%%%%%%%%%%%%%%%%%Qq%%%%%%%%%%%%%%
4264G5%%%%%%%%%%%%%%%%%%%%%%%%%%%%%%%%%%%%%%%%%%%%%%%%%%%%%%%%%%%%%%%%%%%%%%
4257G5Qq%%Qq%%%%%%%%%%%%%%%Qq%%%%%%Qq%%%%%%%%%%%%%%%%%%%%%%%%%%%%%%%%%%%%%%%
4250G5%%Qq%%%%%%%%%%%%%%%%%%%%%%%%%%%%%%%%%%%%%%%%%%%%Qq%%%%%%%%Q%%%q%QqQ%q%
4244G5%%%%%%%%%%%%%%%%%%%%%%%%%%%%%%%%%%%%%%%%%%%%%%%%%%%%%%%%%%%%%%%%%%%%%%
4237G5%%%%%%%%%%%%%%%%%%%%%%%%%%%%%%%%%%%%%%%%%%%%%%Q%q%%%%%%%%%%%%%%%%%%%%%
4230G5%%%%%%%%%%%%%%%%%%%%%%%%%%%%%%%%%%%%%%%%%%%%%%%%%%%%%%%%%%%%%%%%%%%%%%
4224G5%%%%%%%%%%%%%%%%%%%%%%%%%%%%Qq%%%%%%%%%%%%%%%%%%%%%%%%%%%%%%%%%%%%%%%%
4217G5%%%%%%%%%%%%%%%%%%Qq%%%%%%%%%%%%%%%%%%%%%%%%%%%%%%%%%%%%%%%%%Qq%%%%%%%
4210G5%%%%%%%%%%%%%%%%%%%%%%%qQQq%%%%%%%%%%%%%%Qq%%Qq%%%%%%%%%%%%%%%%%%%%%%%
4204G5%%Qq%%%%%%%%%%%%%%%%%%%%Q%qQq%%%%%%%%%%%Qq%%%%%%%%%q%J6q%%Qq%Qq%%qJ6qq
4197F7%J6j6QJ6q%%j6%%%j6M8p2L2M8p2QQ0k4Qm8QJ6k4%J6qJ6q%qQ%q%Q%%%%%%%%%%qQqQ%
4192G5%%%%%%%%%%%%Qq%%%%%%%%%%%%%%%%%%%%%%%%%%%%%%%%Qq%QqQq%%%%%%%%%Qq%%%%%Q
4185H3q%%%%%%%Qq%%%%%%%%%%Qq%%%%%%%%%%%%%%%%%%%%%%%%%%%%%%%%%%%%%%%%%%%%%%%%
4179G5%%%Qq%%%%%%%%%%%Qq%%%%%%%%%%%%%%%%%%%%%%%%%%%%%%%%%%%%%%%%%%%%%%%%Qq%%
4172G5%%%%%QqQq%%qQqQ%%Qq%%%%%%%%%%%%%%%%%%%%%%%%%%%%%%%%%%%%%%%%%%%%%%%%%%%
4165G5%%%%%%%%%%%%%%%%%%%%%%%%%%%%%%%%%%%%%%%%%%%%%%%%%%%Qq%Qq%%%%%%%%%%%%%%
4159G5%%%%%%%%%%%%%%%%%%%%%%%%%%%%%%%%%%Qq%%%%%%%%%%%%%%%%%%%%%%%%%%%%%%%%%%
4152G5%%%%%%%%%%%%%%%%%%%%%%%%%%%%%%%%%%%%%%%%%%%%Qq%%%%%qQ%Q%qQq%%%%%%Qq%%%
4145G5%%%%%%%%%%%%%%%%%%%%%Qq%%%%%%%%%%%%%Qq%%%%%%%Qq%%%%%%%%%%%%%%%%%%%%%%%
4139G5%%%%%%%%%Qq%%%%%%%%%%%%%%%%%Qq%%%%%%%%%%%%%%Qq%%%%%%QqQq%%%%%%%%%%%%%%
4132G5%%%%%%%%%%%%%%%%%%%%%%%%%%%%%%%%%%Qq%Qq%%%%%%Qq%%Q%q%%%%%%%Qq%%%Qq%%%%
4125G5%%%%%%%%%%%%%%%%%%%%%%%%%%%%%%%%Qq%%%%%%%%%%%%%%%%%%%%%%%%%%%%%%%%%%%%
4119G5%%%%%%%%%%Qq%%%%%%%%%%%%%%Qq%%%%%%%%%%%%%%%%%%%%%%%%%%%%%%%%%%%%%%%%%%
4112G5%%%%%%%%%%%%%%%%%%%%%%%%%%%%%%%%%%%%%%%%%%%%%%%%%%%%%%%%%%%%%%%%%%%%%%
4105G5%%%%%%%%%%%%%%%%%%%%%%%%%%%%%%%%%%%%%%%%%%%%%%%%%%%%%%%%%Qq%%%%%Qq%%%%
4099G5Qq%%%Qq%%Qq%%%QqQqQq%Q%qQqQq%%%%Qq%%Qq%%%%%%%%%%%%%%%%%%%%%Qq%%%%%%%%%
4092G5%%%%%%%%%%%%%%%%%%%%%%%%%%%%%%%%%%%%%%%%%%%%%%%%%%%%%%%%%%%%%%%%%%%%%%
4085G5%Qq%%%%%%%%%%%%%%%Qq%%%%%%%%%%%%%%%%%%%%%%%%%%%%%%%%%%%%%%%%Qq%%%%%%%%
4079G5%%%%%%%%%%%%%%%%%%%%%%%%%%%%%%%%%%%%%%%%%%%%%%QqQ%q%Qq%qJ6q%Qq%Qq%%%%Q
4072H3q%%%%%%%%Qq%%%%%%%%%%%%%%Qq%%%%%%%%%%%%%%%%%%%%%%%%%%%%%%%%%%%%%%%%%%%
4065G5%%%%%%%%%%%%%%%%%%%%%%%%%%%%%%%%%%%%%%%%%%%%%%%%%%%%%%%%%%Qq%%%%%%%%%%
4059G5%%%%%%%%%%%%%%%%%%%%%%%%%%%%%%%%%%%%%%%%%%%%%%%%%%%%%%%%%%%%%%%%%%%%%%
4052G5%%%%%%%%%%%%%%%%%%%%%%%%%%%%%%%%Qq%%%%%%Qq%%%%%%%%%%%%%%%%%%%%%%%%%%%%
4045G5%%Qq%%Qq%%Qq%%%%%%%QqQq%Qq%%%%%%%QqQq%%%%%%%%%%%%%%%%%%%%%%%%%%%%%%%%%
4039G5%%%%%%%%%%%%%%%%%%Qq%%%%%%%%%%%%%%%%%%%%%%%%%%%%%%%%%%%%%%%%%%%%%%%%%%
4032G5%%%%%%%%%Qq%%%%%%%%%%%%%%%%%%%%%%%%%%%%%%%%%%%%%%%%%%%%%%%%%%%%%%%%%%Q
4025H3q%%%%Qq%%Qq%Qq%QqQq%%%%%%%%%%%%%%%Qq%%%Qq%%%%%%%%%%%%%%%%%%%%%%Q%q%%%Q
4019H3q%%%%%%%Qq%%%%Qq%%%%%%%%%%%%%%%%%Qq%%%%%%%%%%%%%%%%%%%%%%%%QqQqQ%%q%Qq
4012G5%%Qq%%Qq%Qq%%%%%%%%%%%Qq%%%%%Qq%%%%%%%%%%%%%Qq%%%%%%%%%%%%%%%%%%%%%%%%
4005G5Qq%%%%Qq%%%%%%%%%%%%%%%%%%%Qq%%%%%%QqQq%%qQQqQj6%%Q%%qQQq%%%QqQq%%%%%%
3999G5%%%%%%%%%%%%%%Qq%%%%%%%QqQqQq%Qq%Qq%Qq%%%Qq%%%Qq%Qq%%%%%%%%%%%%%%%%%%%
3992G5%%%%%%%%%%%%%%%%%%%%%%%%%%%%%%%%%%Qq%%%QqQ%q%%%%%%%%%%%%%%%%%%%%%%%%%%
3985G5Qq%%%%%%%%%%%%Qq%%%%%%%%%%%%%%%%%%%%%%%%%%%%%%%%%%%%%%%%%%%%%%%%%%%%%%
3979G5%%%%%%%%%%%%%%%%%%%%%%%%%%%%%%%%%%%%%%Q%q%%%%%%%%%%%%%Qq%%%%%%%%%%%%%%
3972G5%%%%%%%%%%%%%%%Q%q%%Q%q%%%%Q%q%%Qq%%%Qq%%%%%%%%%%%%%%%%%%%%Qq%%%%%%%%%
3965G5%%%%%%%%%Qq%%%%%%%Qq%Qq%%%%%%%%%%%%%%%%%%%%%%%%%%%%%%%%%%%%%%%%Qq%Qq%%
3959G5%%%%%%%%%%%%%%%%%%Qq%%%%%%%%%%%%%%%%%%%%%%%%%%%%%%%%%%%%%%%%Q%q%%%%%%%
3952G5%%%%%%%qJ6qQq%%%%Qq%%%%%%%%%Qq%QqQqQ%q%%%%%%%%%Q%%q%%%%Qq%%%%%%Qq%%%%Q
3945H3q%%%%%%%%%%%%%%%QqQq%%%%%%%%%%%%%%Qq%%%%%%%%%%%%%%%%%%Qq%%%%%%%%%%%Qq%
3939G5%%%%%%%%%%%%%%%%%%%%%%%%%%%%%%%%%%%%%%%%%%%%%%%%%%%%%%%%Qq%%%%%%%%%%%%
3932G5%%%%%%Qq%%%%%%%%%%%%%Qq%%%%%%%%%%%Q%qQq%%%%%%%QqQ%qQqQqQq%%%%%%%Qq%%%%
3925G5%%%%%%%Q%q%%%%%%%%Qq%%Qq%%QqQq%%%%%%Qq%%%%%%Qq%%Qq%Qq%%%%%%%%%%%Qq%%%%
3919G5%%%%%%%%%%Qq%%%Q%%%qQq%%Q%%%%q%%Q%%q%%QqQ%%%q%%%%Q%%q%%%%Qq%%%%%%%%%%%
3912G5%%%%%%Qq%%%%%%%%%Qq%%%%%%%%%%%%%%%%Qq%%%%%Qq%%%%Qq%Qq%Qq%%%%%%%%Q%%%qQ
3905H3%%%qQq%QqQq%%QqQqQ%q%%%Qq%%%%qQ%%%%QqQ%q%%%%%%%%%%Q%q%%QqQqQq%Qq%%Q%q%
3899G5%Qq%%%%%%%%%%Qq%%%%%%%%%%Qq%%%%%%Q%%q%%%%%%%%Qq%%%Q%q%%Q%%q%%%%%%Qq%%%
3892G5%Q%q%%%%%%%%%%%QqQqQ%q%%%%%%Q%q%%%%Q%%qQq%%%Q%qQq%Qq%Qq%%%%%%QqQq%%%Qq
3885G5%Qq%%%%%%%%%Qq%%%Qq%%%Q%q%%Qq%Qq%%%%%%%%%QqQqQq%%Qq%%Q%q%%%%%Qq%%QqQqQ
3879H3%q%%Qq%%%Qq%Qq%%%Qq%%Qq%%Qq%%%QqQq%%Qq%%Qq%Qq%%Qq%Qq%%%%%%%%%%%Q%q%%Qq
3872G5%%%%%%%%%%%%Qq%%%%%%%%%%%%%%%%%Qq%%%%%%%%%%%%%%%%Qq%%%%%%%%%%%%Q%q%%Q%
3865H3q%%Qq%%Qq%%Q%qQ%q%Q%%qQ%q%%%%%Q%q%%QqQq%%%%%%%Qq%Q%qQqQ%q%%%Q%q%%%%%%Q
3859H3%q%%Qq%%%%%%QqQq%QqQ%qQqQq%%%%Q%q%%%%%Q%%%%q%Qq%%%%%%%%Qq%%%%%Qq%Qq%%%
3852G5Qq%%%%%%QqQq%Q%%%q%%Q%q%%%%%%Qq%%Qq%Q%%%q%QqQq%Qq%%%Q%%%q%%Qq%%Q%q%%Qq
3845G5%Q%%q%%%%QqQq%Q%q%Qq%%%%%%%%%Qq%Qq%Q%q%%QqQq%%%%%Q%qQq%%%%%QqQq%%%%%Qq
3839G5%Qq%QqQq%%%%%%%%%%%%Q%%%%%%q%%Qq%%%%Q%q%%Qq%%Qq%%Q%%q%%Qq%%%%%%Qq%%%%%
3832G5%QqQq%%%%%QqQ%%qQqQ%q%Q%%%%q%%%%%%%%%Q%qQq%Qq%Q%%qQ%q%Qq%Qq%%Qq%%QqQ%q
3825G5%%%Q%%%qQqQ%%q%%Q%%q%%%%Qq%Q%%%%qQ%qQqQqQqQ%%%%%qQ%%%q%Q%q%%%Qq%%%QqQq
3819G5%%Q%%q%%%Qq%Q%%qQqQ%%%%%qQqQ%%%qQ%qQ%qQq%%%%Qq%%Q%%q%Q%%q%Q%q%Qq%%%%%%
3812G5Q%q%QqQq%%%QqQ%%qQ%%%%qQ%qQ%%qQqQq%%Q%%%q%%Q%qQ%%q%%%Q%%%q%%Qj6J6q%J6%
3805I1%%Q%j6qq%%J6QqqQQq%q%%Qq%Q%%q%%%Q%%%qQqQ%q%%%%%Qq%%%%%Q%q%Q%qQq%%%%Qq%
3799G5Q%q%%%%%Q%q%%%%%QqQq%%Q%%%%qQqQqQq%QqQ%%%qQ%qQ%qQ%qQqQ%qQqQ%%%%qQQq%qQ
3792H3%%qQ%q%Q%%qQqQ%%%qQ%%qQ%%qQ%%%qQ%%%%qQ%%%qQ%q%%Qq%Q%qQ%%%%%%qQ%%qQ%%qQ
3786H3%qQ%qQ%%qQqQ%%qQqQ%%%%%%qQ%%%%%%%%%qQqQ%%qQqQ%%%%%%%%qQqQqQ%%%q%Q%%%%%
3779H3%%%%%%%%%%%%%%%%%qQ%%%%%%qQqQqQ%%%%%qQ%%qQq%QqQ%q%%Q%%%qQ%%%qQqQqQ%%%%
3772H3qQ%%%%%qQ%%%%qQ%%%%%%%%%%%%qQqQq%Q%qQqQ%qQ%%qQ%%%%%%%%%%%qQ%qQ%%qQ%%%%
3766H3%%q%Q%qQ%q%Q%%%%%q%QqQ%%%q%Q%%%%%qQ%%%%%%%%%%%%%%%q%Q%%%%%%%%%%%%qQ%%%
3759H3%%%q%QqQ%q%%QqQ%%q%Q%%q%%%Q%q%%Q%%qQ%%%%%%%%%%%%%%%%%%%%%%%%%%%qQ%%%%%
3752H3%%%%%%%%%%%%%%qQ%qQ%%%%qQ%%%%%%%%%%%%%%%%qQ%%%%%%q%QqQ%qQ%%%qQ%%%%%%qQ
3746H3qQ%%%%%%qQ%%%%qQqQ%%%%%%qQqQ%qQ%%%%%%%%%%%%%%%%%%qQ%qQqQqQ%%%%%%%qQ%%%
3739H3%%%%q%Q%qQ%q%%Q%q%Q%qQ%%%%qQq%Q%%%%%q%QqQ%%%%%%qQ%%%%%%%%%%%%%%%%%qQ%q
3732G5Q%%%%%qQ%q%%Qq%%Q%%%%%%%%%%%%%%%%qQ%%qQqQqQ%%%%%%%%%%%%%q%QqQ%%%%qQ%%%
3726H3%%%%%%%%%%qQ%%qQ%%qQq%Q%%%q%Q%%%%%%%%%%%%%qQ%%%%%%%%%%%%%%%q%Q%%%qQ%%%
3719H3%%%%%%%%%%%%%%%%%%%%%%qQ%%%%%%qQ%%%%%%%%%%%%%%%%%%%%%%%%%%%%%%%%qQ%%qQ
3712H3%%%%qQqQ%%%%%%%%%%%%%qQ%%%%%%qQ%%%%q%%QqQ%%%%%%%qQQqQq%%%%%%%%q%QqQ%%%
3706H3%%%%%qQ%qQ%%%%%%%%%%%%%%%%%%%%%%%%%%%%%qQ%%%%%%%%%%%%%%%%%%%%%%%%%%%%%
3699H3%%%%%%%%%%%%%%%%%%%%%%%%%%%%%%%%%%%%%%%%%%%%%%%%%%%%%%%%%%%%%%%%%%%%%%
3692H3%%%%%%%%%%%%%%%%%%%%%%%%%%%%%%%qQ%%%%%%%%%%%%%%%%%%%%%%%%%%%%%%%%%%%%%
3685H3%%%%%%%%%%%%%%%%%%%%%qQ%%%%qQ%%%qQ%%%%%%%%%%%%%qQ%%%%%%%%%%%%%%%%%%%%%
3679H3%%%%%%%%%%%qQ%%%%%%%%%qQ%%%%%%%%%%%%%%%%%%qQ%%%%%%%%%%%%%%%%%%%%%%%%%%
3672H3%%%%%%%%%%%%%%%%%qQ%%%%%%%%%%%%%%%%%%%%%%%%%%%%%%%%%%%%%%%%%%%%%%%%%%%
3665H3%%%%%%%%%%%%%%%%%%%%%%%%%%%%%%%%%%%%%%%%%%%%%%%%%%%%%%%%%%%%%%qQ%%%qQQ
3659I1q%%%%%%%q%%Q%%%%%%%%%%%%%%%%%%%%%%%%%%%%%%%%%%%%%%%%%%%%%%%%%%%%%%%%%%
3652H3%%%%%%%%%%%%%%%%%%%%%%%%%%%%%%%%%%%%%%%%%%%%%%%%%%%%%%%%%%%%%%q%Q%qQ%%
3645H3%%%%%%%%%%%%%%%%%%%%%%%%%%%%%%%%%%%%%%%%%%%%%%%%%%%%%%%Qq%%%%%%%%%%%%%
3639H3%%%%%%%%%%%%%%%qQ%%%%%%%%%%%%%qQ%%%%%%%%%%%qQ%Qq%%qQ%qQ%%%%%%%%%%%%%%%
3632H3%%%%%%%%%%%%%%%%%%%%%%%%%%%%%%%%%%%%%%%%%%%%%%%%%%%%%%%%%%%%%%%%%%%%%%
3625H3%%%%%%%%%%%%%%%%%%%%%%%%%%%%%%%%%%%%%%%%%%%%%%%%%%%%%%%%%%%%%%%%%%%%%%
3619H3%%%%%%%%%%%%%%%%%%%%%%%%%%%%%%%%%%%%%%%%%%%%%%%%%%%%%%%%%%%%%%%%%%%%%%
3612H3%%%%%%%%%%%qQ%%%Qq%%%%%Qq%q%Q%Qq%%QqqQQq%%%Qq%%%%%%%%%%%%%%%%%%%%%%%%%
3605H3%%%%%%%%%%%%%%%%%%%%%%%%%%%%%%%%%%%%%%%%%%%%%%%%%%%%%%%%%%%%%%%%%%%%%%
3599H3%%%%%%%%%%%%%%%%%%%%%%%%%%%%%%%%%%%%%%%%%%%%%%%%%%%%%%%%%%%%%%%%%%%%%%
3592H3%%%%%%%%%%%%Qq%%%Q%q%%%%%%%%%%%%%%%%%%%Qq%%%%%%%%%%%%%%%%%%%%%%%%%%qQ%
3585H3%%%Qq%%%%%%%%%%%%%%%%%%%%%%%%%%%%%Qq%%%%%%%%%%%%%%%%%%%%%%%%%%%%%%%%%%
3579H3%%%%%%%%%%%%%%%%%%%%%%%%%%%%%%%%%%%%%%%%%%%%%%%%%%%%%%%%%Qq%%%%%%%%%%%
3572H3Qq%%%%%%%%%%%%%%%%%%%%%%%%%%%%%%%%%%%%%%%%%%%%%%%%%%%%%%%%%%%%%%%%%%%%
3565H3%%%%%%%%%%%%%%%%%%%%%%%%%%%%%%Qq%Qq%%%%%%%%%QqQqQqqQQq%%%%%%%%%%%%%Qq%
3559H3%%%%%%%%%%%%%%%%%%%%%%%%%%%%%%%%Qq%Qq%%%%%%%%%%%%%%%%%%%%%%%%%%%%%%%%%
3552H3%%%%%%%%%%%%%%%%%Qq%%%%%%%%%%%%%%%%%%%%%%%%%%%%%%%%%%%%%%Qq%%%%%%%%%%%
3545H3%%%%%%%%%%%%%%%%%%%Q%q%%Qq%%%%%Qq%%%QqQq%%%%%Q%q%%%Qq%%%%Qq%Qq%%%%%%%%
3539H3%%%%%%%%%%%%%Qq%%%%%%%%%%%%%%Q%q%%%%%%%%%%%%%%%%%Qq%%%%%%Qq%%%%%%%%%%Q
3532I1q%%%%%%%%%%%%%%%%%Q%q%Qq%%%%%%%%%%%%Qq%%%%%%%%%%%%%%%%%%%%%%%%%%%%%%%%
3525H3%%%Qq%%%%%%%%%%%%%%%%%%%%%Qq%%%%%%%%%%%%%%%%%%%Qq%%%%%%%%%%%%%%%%%%%Qq
3519H3Q%q%Qq%%%%%%%Qq%Qq%%%Qq%%QqQq%Q%q%%QqQ%qQ%qQq%Qq%%%%%Q%qQj6Q%Qq%%Qq%Q%
3512I1%q%J6k4Q%%%%QqQ%q%%Q%%%q%%%%%%%%QqQq%Qq%Qq%Qq%%%Qq%%%%%%%%%%%%%%%%%Qq%
3506H3QqQ%qQq%%%%Qq%%Qq%%%%%%%%%%%%QqQq%%%%%%Qq%%%%%%%%%%%Q%%qQqQq%Qq%Q%q%Q%
3499I1q%%%%%%Qq%%Qq%Q%%qQq%%Q%%q%Q%q%%%%%Q%%qQ%%q%%%%Qq%%Q%qQqQq%%Q%qQqQq%%%
3492H3Q%q%%%Qq%Qq%Qq%%%%%%%%%%%%%QqQq%%%Q%%qQq%%Q%qQq%%%Q%q%%%%Q%q%QqQ%q%Q%%
3485I1%%q%Q%qQ%%q%%%%%Q%q%%%%Q%%q%Qq%Q%qQ%qQqQ%qQ%%%%%%qQqQq%%Q%qQqQqQq%Q%qQ
3479I1qQq%%%%%%%%Q%qQ%%%qQ%%%%%%%%%%%%q%Q%q%%%QqQ%%qQ%%%%%q%Qq%Q%%%qQ%%%%q%%
3472H3%%%Q%%%%q%Q%%qQqQq%QqQ%%%qQ%%%qQ%qQqQqQ%q%QqQ%%%%q%%Q%%%%q%%QqQ%%qQqQ%
3465I1qQqQqQ%%%%q%%Q%%qQ%%%qQqQqQqQq%Q%%qQ%qQqQ%%qQ%%%%%%%qQq%%Q%%qQ%q%%QqQ%
3459I1qQq%%Qq%%%%%%%%Q%%%q%Q%qQ%%qQ%%qQ%%qQ%%%qQ%%%%%%%%%%%qQ%%%%%%%%%q%QqQ%
3452I1%q%%QqQ%%%qQq%%Qq%%Q%%%%%%%%qQ%%qQqQ%%%qQq%QqQqQ%%qQqQ%%%%qQqQq%Q%%%qQ
3445I1qQ%qQ%%%qQ%%qQ%%%%%%%%%%qQ%%%%%%qQ%%qQ%%%%%%qQ%%%qQq%%Q%qQ%%%%%q%Qq%%Q
3439I1%q%Q%%%%qQq%%QqQ%qQ%%%%%qQ%%%%%%%%%%qQ%%%%%%%%%%%%%%%qQ%%%%%%%qQ%%%qQ%
3432I1%%%%%%qQ%%%%%%%%qQ%%%%%%%%%%%%%%%%%%%%%%%%%qQ%%%%%%%%%%%%%qQ%qQqQ%%%%%
3425I1qQ%%%%%%%%%%%%%%%%%%%%q%Q%%%%%qQqQ%%%%%%%%%%%%%%%%qQqQ%%%%%%%%%%%%%%%%
3419I1%qQ%%qQ%%%%%%%%%Qj6Q%QqqQQ%qqJ6qqQq%QQq%qJ6j6Qj6QQq%l2O4m8L2Qj6%Qq%QqQ
3413I9qqQ%qQ%%Qq%%%%%%%%%q%Q%%%q%%%%%%Q%%%%%%%%qQ%%%%%%%%%%%%%%%%%%%%%%%%%%%
3406I1%%%%%%q%Q%qQ%%%%%%%%%%%%%%%%%%%%%%%%%%%%%qQ%%%%%%%qQ%%%%%%%%%%%%%%%%%%
3400I1%%%%%%%%%%%%%%%%%%%%%%%%%%%%%%%%%%%%%%%%%%%%%%%%%%%%%%%%%%%%%%%%%%%%%%
3393I1%%%%%%%%%%%%%%%%%%%%%%%%%%%%%%%%%%%%%%%%%%%%%%%%%%%qQ%%%%%%%%%%%%%%%%%
3386I1%%%%%%%%%%%%%%%%%%%%%%%%%%%%%%%%%%%%%%%%%%%%%%%%%%%%%%%%%%%%%%%%%%%%%%
3380I1%%%%%%%%%%%%%%%%%%qQ%q%%Q%%%%%%%%%%%%%%%%%%%%%%%%%%%%%%%%%%%%%%%%%%%%%
3373I1%%%%%%%%%%%%%%%%%Qq%%%%%%%%%%%%%%%%%%%%%%%%%%%%%%%%%%%%%%%%%%%%%%%%%%%
3366I1%%Qq%%qJ6q%%%%%%%%%%%%%%%%Qq%%%%%%%%%%%%%%%%%%%%%%%%%%%%%%%%%%%%%%%%%%
3360I1%%%%%%%%%%%%%%%%%%%%%%%%%%%%%%%%%%%%%%%%%%%%%%%%%%%%%%%%%%%%%%%Qq%%%%%
3353I1%%%%%%%%%%%%%%%%%%%%%%%%%%%%%%%%%%%%%%%%%%%%%%%%%%%%%%%%%%%%%%%%%%%%%%
3346I1%%%%%%%%%%%%%%%%Qq%%%%%%%%%%%%%%%%%%%%%%%%%%%%%%%%%%%%%%%%%%%%%%%%%%%%
3340I1%%%%%%%%%%%%%%%%%%%%%%%%%%%%%%%%%%%%%%%%%%%%%%%%%%%%%%%%%%%%%%%%%%%%%%
3333I1%%%%%%%%%%%%%%%%%%%%%%%%%%%%%%%%%%%%%%%%%%%Qq%%Qq%%%%%%%%%%%%%%%%%%%%%
3326I1%%%%%Qq%%%%Qq%%%%%%%%%%%%%%%%%%%Qq%%%%%%%%%%%%Qq%Qq%Qq%Qq%%%%%%%%%%%%%
3320I1%QqQqQq%%%%%%%%%%%%%Qq%Qq%%%%Qqj6J6%Qq%Q%%q%%%%%Qq%%Qq%%%%%%QqQq%%%%%%
3313I1%%%%%%Qq%%%%%%%%%%%Qq%%%%QqQq%%Qq%%%%%%%Qq%%%%%%%%%Qq%%%%%%%%Qq%%%%%%%
3306I1%%%%%%%%%%%%%%%%%%Q%q%%%%%%%%%%Qq%%%%%%%%%Qq%%Q%q%%Q%q%%Q%%q%%%%%%%Qq%
3300I1%%%%%%%%%%%%%%%%%%%%%%%%Qq%%%%%%%%%%%%%%%%%Qq%%%%Q%q%Qq%%%%%%%%%Qq%%Qq
3293I1%%Qq%Q%qQq%%%%%%%%QqQqQ%q%Q%qQq%Qq%%%%QqQ%q%QqQ%%%%qQq%QqQqQ%%%q%%%QqQ
3286I9%%%%q%%Q%q%%%%%%Q%qQ%%q%Qq%Q%qQqQq%%%%%%Qq%%%%%%QqQqQqQqQ%q%QqQqQ%%qQq
3280I1%Q%q%QqQqQq%%Qq%%Q%%qQ%qQ%%%%%%q%Q%qQqQ%%%%%%%%qQqQ%qQ%q%%Q%%%%%%%qQ%%
3273I9%%q%QqQqQq%Q%%qQqQq%Qq%%Qq%QqQq%QqQ%q%Q%%%qQ%qQqQ%%q%Qq%%qQ%%%%QqQqQq%
3266I1%%Q%%%%q%%%QqQ%%q%Q%qQ%%%%%%qQqQ%%q%%%%Q%qQq%%%QqQq%%Q%qQ%qQqQ%%%%%q%Q
3260I9%%%%%q%Q%%%qQq%%Q%%%%%%%qQ%%%qQq%Q%qQ%%%%q%Q%qQ%%%%%%%%qQ%%%%%%%%%qQ%%
3253I9%%%%%%%%qQq%Q%q%Q%qQ%%%%%%%%%%%%%%qQ%%%%q%%Q%qQqQq%Qq%Q%%%%%%%%%%qQ%%q
3246I1%Q%%%%%%%%%%%%%%%%%%%%%%%q%Q%%%%%%qQ%%q%Q%%qQ%qQqQqQ%%%%%qQ%%%qQ%%%%%%
3240I9%%%%%%%%%%%%%%%%%%%%%qQ%%qQ%%%%%%%qQ%%%qQ%%%%%%qQ%%%%%%%%%%%%%%%%%%%%%
3233I9%%%%%%%%%%%%%%%%%%%%%%%%%%%%%%%%qQ%%%%%%%%%%%%%%%%%%%%%%%%%%%%%%%%%%%%
3226I9%%%%%%%%%qQ%qQ%%%%%%%%%%%%%%%%%%%qQ%%%%%%%%qQ%%%qQ%%%%%%qQqQ%qQ%%%%%Qq
3220I9%%j6K4l2K4%Qk4J6%%qJ6j6Q%%qQq%Q%%%%%qQ%%%%%%%%%%%%%%%%%%%%%%%%%%qQ%%%%
3214I9%%%%%%%%%qQ%%%%%%%%%%%%%%%%%%%%%%%%%%%%%%%%%%%%%%%%%%%%%%%%%%%%%%%%%%%
3207I9%%%%%%%%%%%%%%%%%%%%%%%%%%%%%%%%%%%%%%%%%%%%%%%%%%%%%%%%%%%%%%%%%%%%%%
3200I9%%%%%%%%%%%%%%%%%%%%%%%%%%%%%%%%%%%%%%%%%%%%%%%%%%%%Qq%%Qq%Qq%%qQqQqQ%
3194I9%%%%%%%%%%%%%%%%%%%%%%%%%%%%%%%%%%%%%%%%%%%%%%%%%%%%%%%qQ%%%%Qq%%%%Qq%
3187I9%%%%%%%%%%%Qq%%%Qq%%Qq%%%%%%%%%%%%%%%%%%%%%%%%%%%%%%%%%%%%%%%%%%%%%%%%
3180I9%%%%%%%%%%%%%%%%%%%%%%%%%%%%%%%%%%%%Qq%%%%%%%%%%%%%%%%%%%%%%%%%%%%%%%%
3174I9%%%%%%%%%%%%%%%%%Qq%%%%%%%%%%%%QqQj6QQq%qJ6%%%qQq%%%%%%%%%%%%%%%%QqQq%
3167I9%%%%%%%%%%%Qq%%%%%%%%%%%%%%%%%%%%Q%q%%%%%%%%%%%%%%%%%%%%%%%%%%%%%%%%%%
3161I9%%%%%%%%Q%q%%%%%%QqQq%%%%Qq%%%%%%QqQq%%Qq%%Qq%Qq%%%%%%%%%%%%%%%%%%%%%Q
3154A07qQq%Qq%%%%%%Qq%%%Qq%%%QqQ%q%QqQ%%%q%%Qq%Qq%%Qq%%Qq%%%%%Qq%Qq%Qq%Qq%Q%
3147A07q%%Qq%%%%%%%%%Qq%%%%Qq%%%%%%Qq%%%%Qq%%%Q%qQq%%%%Qq%%%%%%QqQq%%QqQ%q%%
3141I9Q%qQ%qQq%Q%%qQ%q%QqQqQqQq%%Q%qQ%qQqQ%%%%%%qQ%%qQqQ%q%%%%%%Q%q%Qq%Q%%%%
3134A07q%Q%%%qQ%q%%Q%qQ%qQ%%%%%%%q%%%%%%Q%q%%%QqQq%%%%QqQqQq%%QqQ%%%%%%%%qQq
3127I9Q%%%%%%%%%%%%qQqQ%q%QqQ%%%%qQ%qQ%q%Qq%Q%%%%%%%qQ%%qQ%qQ%%qQqQ%%Qq%%Qq%
3121A07%%%q%QqQ%%q%%Q%%%%%qQ%%%qQq%%%%%Q%%%%qQ%qQ%%q%Q%%%%%%qQqQ%%%%%qQ%%%%%
3114A07%%%%%%%%%%%%q%QqQ%%%%%%%%%%%%%%%%%%%%%%qQ%qQ%%%qQ%%%qQ%q%Q%%%%%%%%%%%
3108A07%%%%%%%%%%%%qQ%%%%%%%%%%%%%%%%%%%%%%qQ%%qQq%%Q%%%%%qQ%%%qQ%%%%%%qQ%%q
3101I9Q%%q%Q%%%%%%%%%%%%%%%%%%%%%%%%%%%%%%qQqQ%%qQ%%%%%%%%%%%%%%%qQ%%%%%%%%%
3094A07%%%%%qQ%%%%%%%%%%%%%qQ%%%%%%%%%%%qQ%%%%%%%%%%%%%%%%%%%%%%%%%%%%%%%%%%
3088A07%%%%%%%%%%%%%%%qQ%%%%%%%%%%%%%%%%%%%%%%%%%%%%%%%%%%%%%%%%%%%%%%%%%%%%
3081A07%%%%%%%%%%%%%%%%%%%%%%%%%%%%qQ%%%%%%%%%%%%%%%%%%%%%%%%%%%%%%%%%%%%%%%
3075A07%%%%%%%%%%%%%%%%%%Qj6QqQqQq%Q%%%%%%%%%%%%%%%%%%%%%%%%%%%%%%%%%%%%%%%%
3068A07%%%%%%%%%%%%%%%%%%%%%%%%%%%%%%%%%%%%%%%%%%%%%%%%%%%%%%%%%%%%%%%%%%%%%
3062A07%%%%%%%%%%%%%%%%%%%%%%%%%%%%%%%%%%%%%%%%%%%%%%%%%%%%%%%%%%%%%%%%%%%%%
3055A07%%%%%%%%%%%%%%%%%%%%Qq%%%%%Qq%%%%%%Qq%%%%%%%%%%%%%%%%%%%%%%%%%Qq%%%Qq
3048A07%%Qq%%%%%Qq%%%%%%Qq%%%%%%%%%%%%%Qq%%%%%%%%%%%%%%%%%%%%Q%q%%%%%%%%%%%%
3042A07%%%Qq%%%%%%%%%%%%%%%%%%%%QqQq%%%%%%%%%%%%%%%%%%%%Qq%%%%%%%%%Q%q%Qq%%%
3035A07%%%%%%%%%%QqQq%%%Qq%%%%%%%%%%Qq%%%%%%%%%%%%%%%%%%Qq%%Qq%%Qq%Q%q%%%%%%
3029A07QqQq%%%%%Q%%q%%%%%%%%Q%q%%%Qq%Qq%%Qq%Q%qQ%q%%Qq%%QQj6Qk4%L2j6Q%%q%%%Q
3022A15qQq%%%QqQq%%%%%%QqQqQq%%%%%%Q%q%%Qq%Qq%%%%Qq%Qq%Q%%q%QqQqQ%%%%%qQ%%%q
3016A07Q%%qQ%qQqQ%qQ%%%qQ%qQ%qQqQq%%%%Qq%%%Q%%q%%%%%QQj6Qq%%%Q%qQqQqQ%%%%%%%
3009A15%%%qQ%%qQqQ%%%qQ%q%Q%%%%q%Q%%%q%%%%%Qq%%QqQ%qQq%%QqQ%%q%QqQ%%%q%Q%%%q
3003A07%Q%%qQ%qQqQ%q%%Q%%%%%%%qQ%qQ%%%%%%%%%%qQ%qQ%qQ%%%%%%qQ%%%%%%%%%%%%%%%
2996A15%%%qQqQ%%%%%%%%%%%%%%%%%%%%%%%qQ%%%%%%%%q%%QqQq%Q%qQqQ%qQ%%%%%qQqQ%%%
2990A15%%%%%%%qQ%%%qQ%%%%%%qQ%%qQq%%Q%%qQ%%%%%%%%%%%%%%%%%%%%%%%%%%%%%%%%%%%
2983A15%%%%%%%%%%%%%%%q%%Q%%%%qQ%%%%qQ%%%%%%%%%%%%%%%%%%%%%%%%%%%%%%%%%%%%%%
2977A15%%%%%%%%%%%%Qqq%Q%qJ6q%%%%%%%%%%%%%%%%%%%%%%%%%%%%%%%%%%%%%%%%%%%%%%%
2970A15%%%%%%%%%%%%%%%%%%%%%%%%%%%%%%%%%%%%%%%%%%%%%%%%%%%%%%%%%%%%%%%%%%%%%
2963A15%%%%%%%%%%%%%%%%%%%%%%%%%%%%%%%%%%%%%%%%%%%%%%%%%%%%%%%%%%%%%%%%%%%%%
2957A15%%%%%%%%%%%%%%%%%%%%%%%%%%%%%%%%%%%%%%%%%%%%%%%%%%%%%%%%%%%%%Q%q%%%%%
2950A15%Qq%Qq%%%%%%%%%%%%%%%%%%%%%%%%%%%%%%%%%%%%%%%%%%%%%%%%Q%q%%%%%Q%q%%%%
2944A15%QqQ%q%%Qq%%%%%%%%%%%%%%%%%%%%%%%%%%%%%%%%%%%%%%%%%Qq%%%%%%%%%%%%%Qq%
2937A15%%%%%%%%%%%%%%%%%%%%%%%%%Qq%%%%%%%%%%%%%%%%%%Qq%Qq%QqQq%%%%%%Qq%%%%Qq
2931A15%Qq%QqQ%q%%%%%%%Q%qQ%%qQq%Q%qQ%q%%%%%%%%qJ6%q%QQ%k4Q%Qj6Q%%%%Q%%q%Qq%
2924A15Qq%%%%%%QqQ%q%Qq%%QqQ%q%%Q%qQq%%QqQqQqQq%%QqQqQqQq%%Qq%%%%%%%%%%Qq%%Q
2918A23%%%%%%%q%Q%%qQq%%Q%%%%q%%%%%%%%Q%q%Q%qQ%%qQ%%qQ%%qQ%%qQqQqQqQ%%qQqQq%
2911A15%Q%%q%%QqQqQqQ%qQ%%%%%%%%%%qQ%%%%%qQ%%%qQ%qQ%%%qQ%qQqQ%%%q%%Q%qQqQ%q%
2905A15Q%%%%%%%%%%%%%qQ%qQqQ%qQ%%%%%%%%%%%%q%%Q%%%%%%%%%%%%%%%q%Q%%qQ%%%%%%%
2898A23%%%%qQ%%%%%%%%%%%%%%%%%%%%%%%%qQ%%%%%%%%%%%%%%%%%%%%%%%%%%%%%%%%%%%qQ
2891A23%%%%%%qQ%%%%%qQ%%%%%qQ%%%%%%%%%%%%%%%%%%%%%%%%%%%%%%%%%%%%%%%%%%%%%%%
2885A23%%%%%%%%%%%%%%%%%%%%%%%%%%%%%%%%%%%%%%%%%%%%%%%%%%%%%%%%%%%%%%%%%%%%%
2878A23%%%%%%%Qq%%%%%qQ%%%%%%qQ%%%%%%%%%%%%%%%%%%%%%%%%%%%%%%%%%%%%%%%%%%%%%
2872A23%%%%%%%%%%%%%%%%%%%%%%%%%%%%%%%%qQ%%%%%%%%%%%%%%%%%%%%%%%%%%%%%%%%%%%
2865A23%%%%%%%%%%%%%%%%%%%%%%%%%%%%%%%%%%%%%%%%%%%%%%%%%%%%%%%%%%%%%%%%%%%%%
2858A23%%%%%%%%%%%%%%%%%%%%%%%%%%%%%%%%%%%%%%%%%%%%%%%%%%%%%%%%QqQ%%q%QqQq%%
2852A23%QqQq%%%%%%Q%q%%Qq%Q%qQqQq%%%%%%%%%%%%%%%%%Qq%%%%%%QqQ%q%%%Qq%%%%%%Qq
2845A23%%Qq%%Qq%%%%%%%%%%%%%%%%%%%%%Qq%%%%%%%%%%%%%Q%%%%q%%%%%%%%Qq%%%%QqQq%
2839A23%%Q%%%%qQq%Qq%%%%%%%%%%%%%Q%q%Qq%%%%%%QqQ%%q%%Qq%Qq%%%%%Q%qQq%Qq%QqQ%
2832A31%%%%%q%%Q%q%%%Q%qQq%Qq%%Q%%%%qQqQqJ6j6Q%%%Qq%q%Qq%%%%%Qq%%%%%%Q%q%Q%q
2826A23Q%%qQq%%Q%%qQ%%%%%%%%%qQ%%%%q%Q%%qQq%QqQq%%QqQ%%%%%%%%%%%%%%%%%%%%%%%
2819A31%%%%%qQ%%%%%%%%%%%%%%%%%%%qQ%qQqQqQ%%%%%%%%%%%%qQ%%%%%%%%qQ%%%%%%%%%%
2813A31%%%%%%%%%%%%%%%%%%%%%%%%%%%%%%%%%%%%%%%qQ%%%%%%%%%%%%%%%%%%qQ%%%%%%%%
2806A31%%%%%%%%%%%%%%%%%%%%%qQ%%%%%%%%%%%%%%%%%%%%%%%%%%%%%%%%%%%%%%%%%%%%%%
2799A31%%%%%%%%%%%%%%%%%%%%%%%%%%%%%%%%%%%%%%%%%%%%%%%%%%%%%%%%%%%%%%%%%%%%%
2793A31%%%%%%%%%qQ%%%%%%%%%%%%%%%%%%%%%%%%%%%%%%%%%%%%%%%%%%%%%%%%%%%%%%%%%%
2786A31%%%Qq%%%%%%%%%%%%%%%%%%%%%%%%%%%%%%%%%%%%%%%Qq%%%%%%%%Q%q%Qq%%Qq%QqQq
2780A31%%Q%q%%%%%%%%%%%%%%Q%%%q%%%%%%%%Qq%%%%%%Qq%%%QqQqQ%q%%%%%%%%%%Qq%%%%%
2773A31%%Qq%Qq%%%%%%%%%%%%%%%%%QqQ%q%%%%%Q%q%%%%%%%%Qq%%%%%%Qq%%Q%q%QqQq%%%%
2767A31Q%q%%%%Qq%QqQ%qQq%%Q%q%QqQ%qQq%%%%%QqQq%Q%%%%%q%%Q%%q%%Qq%QqQq%%%%%%%
2760A31%%Q%%%qQq%%%Q%%q%%QqQ%qQ%qQ%%%%%%%%%%%qQ%%%%%%%q%Q%%%qQ%%%%%%%%%qQ%%%
2753A39%%%%%%%%%%%%%%%%%%%%%%%%%%%%%%%%qQ%qQ%%qQ%q%Q%%%%%%%%%%%%%%%%%%%%%%%%
2747A39qQ%%%%%%%qQ%%%%%%%%%%%%%%%%%%%%%%%%%%%%%%qQ%%%%%%%%%%%%%%%%%%qQ%%%%%%
2740A39%%%%%%%%%%%%%%%%%%%%%%%%%%%%%%%%%%%%%%%%%%%%%%%%%%%%%%%%%%%%%%%%%%%qQ
2734A39%%%%%%qQ%%%%%%%%%%%%%%%%qQ%%%%qQqJ6q%%%%%%Qq%%%%%%%%%%%%%%%%%%%%%%%%%
2727A39%%%%%%%%%%%%%%%%%qQ%%%%%%qQ%%%Qq%%%%%%%%%%%%%%%%%%%%%%%Qq%%%%%%%%%%%%
2721A39%%%%%%%%%%%%%%%%%%%%%%%%%%%%%%%%%%%%%%%%%%%%%%%%%Qq%%Qq%%%%%%%%%%%%%%
2714A39%%%%%%%%%%Qq%%%%QqQq%%%%%%%%%%%%%%%%%%%%%%%Qq%%%%%%Q%q%%%%Qq%%Q%%q%%Q
2707A47%q%%%Q%q%Q%qQ%%%qQ%q%%%Q%qQq%%%Qq%Q%%%%%%%q%Qq%Q%q%Q%%qQq%%Q%%q%Q%q%%
2701A39Q%q%Q%qQqQqQqQ%%%%%q%%Q%%%%qQ%qQq%Q%q%%Q%%%q%QqQq%Q%q%Q%q%%Q%qQ%%%%qQ
2694A47q%QqQqQ%%%%qQ%%%%qQ%%%%%%%qQ%%%%%%%q%Q%%%%%%%%%%%%%q%Q%%%%%%qQqQ%%q%%
2688A39%%Q%qQ%qQ%%%%%q%QqQ%%%%%%%%%%%%%qQ%q%Q%%%%%qQqQqQ%%qQ%%%%qQ%qJ6q%Q%q%
2681A47%%%%%%%%%%%%%%%%%%%%%%%%%%%%%%%%%%%%%%%%%%%%%%%%%%%%%%%%%qQ%%qQ%%%%%%
2675A47%%%%%%%%%%%%%%%%%%%%%%%%%%%%%%%%%%%%%%%%%%%%%%%%%%%%%%%%qQ%%%%%%%%%%%
2668A47%%%%%%%%%%%%%%%%%%%%%%%%%%%%%%%%%%%%%%%%%%%%%%%%%%%%%%%%%%%%%%%%%%%%%
2661A47%%%%%%%%%%%%%%%%%%%%%%%%%%%%%%%%Qq%%%%Qq%%%%%%%%%%%%%%%%%%%%%%%Qq%%%%
2655A47%%%%%%%%%%%%%%%%%%%%%%%%%%%%%%%Qq%%Qq%%%Qq%%%%Qq%%%%%%QqQq%%%%Q%qQ%q%
2648A47%%%%%%Qq%%%%%%Q%qQ%q%%Qq%Qq%%Q%%q%%%%Q%%qQq%Qq%%%Qq%QqQq%%Q%qQ%%qQ%q%
2642A47%Q%%%%%%%qQ%%%%q%Q%%qQqQ%qQq%%Q%qQq%%%Q%qQq%Q%%q%%%Q%%%q%Q%qJ6q%%%j6Q
2635A47%%%%Q%j6QQQj6%Q%%qqqJ6j6K4m0O4m8Ql2M0QqQj6QL2qj6j6%QQ%%q%QqQ%%Qj6Q%qQ
2630A55%q%Q%%q%%%Q%%%qQ%%%%%%%%%qQ%%Qq%%qQ%%%%%%%%%%%%%%%%%%%%%%%%%%%%%%%%%%
2624A55%%%%%%%%%%%%%%%%%qQ%%Qq%%%%%qQ%%%%%%%%Qq%%%%%%%%%%%%%%%%%%%%%%%%%%%%%
2617A55%%%%%%%%%%%%%%%%%%%%%%%%%%%%%%%%%%%%%%%%%%%%%%%%%%%%%%%%%%%%%%%%%%%%%
2610A55%%%%%%Qq%qQ%%%%%QqQq%Qq%%%%%Qq%%%%Q%q%%Qq%%%%%%%%%%%%%%%%%%%%%%%%%%%%
2604A55%%%%%%%%%%%%%Qq%%%%%%%%%%%%%%%%%%%%%%Q%%%q%%%Qq%%%%%%%%%%Qq%%%%%%%Qq%
2597A55%Qq%%%Qq%%%%Q%q%Q%qQq%Qq%QqQ%q%%%%%Qq%Qq%%%Qq%QqQq%%Q%q%%%%%%Q%%%%%%%
2591A63%%q%%QqQ%%%%%%%%%%%%%%%qQ%%%%%%%%%%%%%%%%qQqQ%%qQ%qQqQ%%%%%%%qQ%%%q%Q
2584A63%qQ%%q%Q%%qQ%%%%qQ%%%%%%%%%%%%%%%%%%%%%%%%%%%%%%%%%%%%%%%%%qQqQ%%%%%%
2577A63%%%%%%%%%%%%%%%%%%%%%%%%%%%%%%%%%%%%%%%%%%%%%%%%%%%%%%%%%%%%Qq%%%%%%%
2571A63%%%%%%%%%%%%%%%%%%%%%%%%%qQ%%%%%%%%%%%%%%%%%%%%%%%%%%%%%%%%%%%%%%%%%%
2564A63%%%%%%%%%%%%%%%%%%%%%%%%%%%%%%%%%%%%%%%%%%%%Q%q%%%%%Qq%Qq%%%%%%%%%%%%
2558A63Qq%%%%%%%%%%%%%%%%%%%%%%%%%%%%%%%Q%q%%%%%%Qq%Q%q%Q%q%%%Q%q%%%%%%%%%%%
2551A63%%%%%Qq%%%%%Qq%%%%%%QqQqQq%%Qq%Q%qQqQqQqQqQq%Qq%%QqQ%qQq%%Q%%%qQqQq%%
2545A63%%%%%Q%%%qQ%%%%qQ%%%qQq%QqQ%%%%%%%%qQ%qQ%%%%%qQqQ%%%%%%%%%%%%%%%%%%%%
2538A71qQ%%%%%%%%%q%QqQqQ%%qQqQ%qQQ%q%%%%%%qQqQ%%%%%%%%%%%%%%%%%%qQ%%%%%%%%%
2531A71%%%%%%%%%%%%%%%%%%%%%%%%%%%%%%%%%%%%%%%%%%%%%%%%%%%%%%%%%%%%%%%%%%%%%
2525A71%%%%%%%%%%%%%%%%%%%%%%%%%%%%%%%%%%%%%%%%%%%%%%%%%Qq%%%%%%%%%%%%%%%%%%
2518A71%%%%%%%%%%%%%%%%%%%%%%%%%%%%%%%Qq%%%%%%%%%%%%%%%%%Qq%%%%%%%%%Qq%%%%Q%
2512A79%q%%%qQqQ%%%%%%%%%%%%Q%%q%%%%Q%q%Q%%q%Q%qQq%%Q%%q%%Q%q%%%%%%%%QqQq%%%
2505A71%%Q%q%QqQ%qQ%q%%%Q%%%%q%Q%qQ%%%qQqQ%qQ%%%%%%%%q%QqQ%qQ%%%%%%%%%q%Qq%Q
2499A79%qQ%%%%%%%%%%%%%q%Q%%%%%%%%%%%%%%%%%%%%%%%%%%%%%%%%%%%%%%%%%%%%%%%%%%
2492A79%%%%%%%%%%%%%%%%%%%%%%%%%%qQ%%%%%%%%%%%%%%%%%%%%%%%QqqQ%qQ%qQ%Qq%%%%%
2485A79%%%%%%%%%%%%%%%%%%%%%%%%%%%%%%%%%%%%%%%%%%%%%%%%%%%%%%%%%%%%%%%%%%%%%
2479A79%%%%%%%%%%%%%%%%%%%%Qq%%%%%%%%%%%%%%%%%%%%%%%%Qq%%%Qq%%%%%%%%%%%%%%%%
2472A79%%%%%%%%Qq%%%%%%%%%%%%%QqQ%qQq%%%%%%%%%%%%Q%%q%Qq%%%Qq%%Qq%Q%%%q%Qq%%
2466A79%Qq%%QqQq%Q%%q%Q%qQ%%%%%%%%%%%qQq%QqQ%qQ%%%%qQ%%%%%%%%%%qQq%%%Q%qQ%%%
2459A87%%%%%%%%%%%qQ%%%%%%%%%%%%%%%%%%%%%%%%%%%%qQ%%%%%%%%%%%%%%%%%%%qQ%%%%%
2452A87%%%%%%%%%%%%%%%%%%%%%%%%%%%qQ%qQ%%%%%%%%%%%%%%%%%%%%%%%%%%%%%%%%%%%%%
2446A87%%%%%%%%%%%%%%%%%%%%%%%%%%%%%%%%%%%%%%%%%%%Q%q%%%%%%%%%Qq%%Qq%%%%%%%%
2439A87QqqQ%%%%Q%j6Q%Qj6QQ%q%QqQqQq%Qq%QqQqQq%%%%QqQ%%%q%%%%%QqQqQ%%%%%%q%%%
2433A87%%Q%%q%Q%qQq%Qq%%%Qq%%Q%q%Qq%%Q%%qQ%q%Q%%%%%%%%%qQ%%%%%%%%%qQ%qQ%%qQq
2426A87Q%%%%%%%%%%%qQqQ%q%Q%%%%%%%%%%%%%%%%%%%%%%%%%%%%%%%%%%%%%%%%%%%%%%%%%
2420A95%%%%%%%%%%%%%%%%%%%%%%%%%%%%%%%%%%%%%%%%%%%%%%%%%%%%%%%%%%%%%%%%%%%%%
2413A95%%%%%%%%%%%%%%%%%%%%%%%%%%%%%%%%%%%%%%%%%%%%%%%%%%%%%%%%%%%%%%%%%%%%%
2407A95%%%%%%%%%%%%%%%%%%%%%%%%%%%Qq%%%%%%%%%%%%%%%%%%%%%%%QqQqQqQq%%%Q%q%%%
2400A95%%%%Q%%q%%%Qq%Qq%%%%Q%q%QqQq%Qq%%%Qq%Qq%%%%Q%qQq%%Qq%Q%q%Q%qQ%qQ%%qQ%
2393B03%%%%%%%%%%%%%%%%qQ%%%%%%qQ%%%qQ%%%%%qQqQ%qQq%qJ6%%%%qQQq%qQ%%%%%%%%%%
2387B03%%%%%%%%%qQ%%%%%%%%%%%%%%%%%%%%%%%%%%%%%%%%%%%%%%%%%%%%%%%%%%%%%%%%%%
2380B03%%%%%%%%%%%%%%%%%%%%%%%%%%%%%%%%%%%%Qq%%%%%%%%%%%%%%%%%%%%%%%%%%QqQq%
2374B03%Qq%%%%%Qq%%%%%%Qq%%Q%q%%%%%%%%%%%%Q%qQ%%%%%qQ%%%%%%qQ%%%qQqQ%%%%%%%%
2367B11qQqQ%%q%%%Q%%%%%%%%%%qQqJ6q%%%q%Q%%%qQ%%qQ%%%%%%%%qQqQ%q%QqQqQ%%q%%%%
2361B03Q%qQ%%%%%%%%%%%%%%%%%%%%%%%%%%%%%%%%%%%%%%%%%%%%%%%%%%%%%%%%%%%%%%%%%
2354B11%%%%%%%%%%%%%%%%%%%%%%%%%%%%%%%%%%%%%%%%%%%%%%%%%%%%%%%%%%%%%%%%%%%%%
2348B11%%%%%%%Qq%%%%%Qq%%%%%%%%%%%%%%%%%%Qq%Qq%%%%Q%q%%%QqQqQq%Qq%%Q%q%%%%Q%
2341B19%qqQQ%%qQj6Q%%%%%Q%q%Q%%q%Q%q%%Q%%q%%QqQ%q%%QqQ%%%%%q%Q%%%%%qQqQ%%%%%
2334B19%%%%%%%%qQ%qQ%%%%qQ%%%%%%%%%%%%%%%%%%%%%%%%%%%%%%%%%%%%%%%%%%%%%qQ%%%
2328B19%%%%%%%%%%%%%%%%%%%%%%%%%%%%%%%%%%%%%%%%%%%%%%%%Qq%%%%%%%%%%%%%%%%%%%
2321B19QqQq%%Qq%%%%%%%%%%%%%%%%%%%%%Qq%%%%%Qq%%%%Qq%%Qq%%%%%Q%q%Q%q%%%%%%Q%%
2315B27%%qQ%%%q%QqQ%q%QqQqQ%%%%qQ%%%%%%%%qQ%%%q%Qq%Q%%q%Q%%qQ%%%%%%%%%%qQ%%q
2308B19Q%qQ%%qQ%%%%%%%%qQ%%%%%%%%%%%%%%%%%%%%%%%%%%%%%%%%%%%%%%%%%%%%%%%%%%%
2302B27%%%%%%%%%%%%%%%%%%%%%%%%%%%%%%%%%%%%%%%%%%%%%%%%%%%%%%%%%%%%%%%%%%%Qq
2295B27%%%QqQqQ%q%%%%%%%%%%%%%%Qq%Q%q%%%%Qq%%%%%%qQ%%%%QqQq%%%Qq%%%Qq%%%%QqQ
2288B35qQq%QqQqQ%%%%%%%%%q%Qq%Q%%%qQq%Q%qQ%%qQqQ%qQ%%%%%%%qQ%%%%%q%Q%%%%%qQ%
2282B35%%%qQ%%%%%%q%Q%%%%q%Q%%%%%%%%%%%%%%%%%%%%%%%%%%%%%%%%%%%%%%%%%%%%%%%%
2275B35%%%%%%%%%%%%%%%%%%%%%%%Qq%%%%%%%%%%%%%%%%%Qq%Qq%%%%%%%%Qq%Qq%%%%%%%%%
2269B35%%%%%%%%%%Qq%%%%%%%qQQq%Qq%%Qq%%QqQq%%%%Q%%%q%Q%%qQ%%%%qQq%Q%qQqQ%%%%
2262B43%qQ%%%qQqQqQqQqQ%%%%%%%%%%%%%%%%%%%%%%%%qQ%%%%%%%%%%%%%%%%%%%%%%%%%%%
2256B43%%%%%%%%%%%%%%%%%%%%%%%%%%%%%%%%%%%%%%%%%%%%%%%%%%%%%%%%%%%%%%%Qq%%%%
2249B43%Qq%%Qq%%%%%Qq%%Qq%%%%%%%%%%Qq%%%%%%%%Q%qQq%Qq%%Q%qQq%%Qq%%%qJ6%j6J6%
2243B51qj6J6qJ6%j6K4j6QqqJ6%%q%Q%%%%q%QqQ%%%%%%%%%qQ%%%%%%%%%%%qQqQ%qQ%%qQqQ
2237B51%%%%%%qQ%qQ%%%%%%%%%%%%%%%%%%%%%%%%%%%%%%%%%%%%%%%%%%%%%%%%%%%%%%%%%%
2230B51qQ%%%%%%%%%%%%%%%Qq%%%%%%%%%%%%%%%%%%%%%%%%Q%q%%%%%%%%%%Qq%%%%Qq%%%Q%
2224B59q%%QqQq%%%%%%QqQ%qQq%%Q%qQ%q%Qq%%Q%%%q%Q%%%%%%%%%%%qQ%%q%Q%%%%%qQqQ%%
2217B59%%%%%%%%%%%%%%%%%%%%%%%%%%%%%%%%%%%%%%%%%%%%%%%%%%%%%%%%%%%%%%%%%%%%%
2210B59%%%%%%%%%%%%%%%%%%%%%%%%%%%%%%%%%%%%%%%%%%%%%%%%%%Q%qQq%%%%%%%%%Qq%Qq
2204B59%QqQ%qQqQ%qQqQ%%q%%QqQ%%%%q%Qq%Q%%%q%Q%%%qQq%%%Qq%%QqQ%%%qQ%%%%%%%%%%
2197B67%%%%%%%%%%%%%%%%%%%%%%%%%%qQ%%%%%%qQ%%%%%%qQ%%%%Qq%%%%%%%%%%%%%%%%%%%
2191B67%%%%%%%%%%%%%%%%Qq%%%%%%%%%%%%%%%QqQ%q%%%%%%%%%%%%%Qq%%%Qq%%%%Q%qQ%q%
2184B67Q%qQ%%%%%%%%qQ%qQ%qQq%Q%%%%%q%%Q%%%%%%%%%%%%qQ%%%%%%%%%%%%qQqQ%%%%%%%
2178B75%%%%%%%%%%%%%%%%%%%%%%%%%%%%%%%%%%%%%%%%%%%%%%%%%%%%%%%%%%%%%%%%%%%%%
2171B75%%%%%%%%%%%%%%%qQQq%%%Q%q%%%%%%%Qq%%%%Qq%%%%%%%%Qq%%QqQqQqQq%%%Qq%%Qq
2164B75%%Q%%%q%%%Q%%qQ%q%%Q%%%%%qQ%%%%%%%%%%%%%%%%%%%%%%%%%%%%%%%%%%%%%%%%%%
2158B83%%%%%%%%%%%%%%%%%%%%%%%%%%%%%%%%%%%%%%%%%%%%%%%%%%%%%%%%%%%%%Qq%%%Qq%
2151B83%%%%%%Q%q%%%%%%Q%%qQ%%%%qQ%qQq%%%Q%%qQqQ%q%Q%%%qQ%%qQq%%%Qq%QqQ%q%QqQ
2145B91qJ6q%%%%q%Q%%%%%%%%%%%%%%%%%%%%%%%%%%%%%%%%%%%%%%%%%%%%%%%%%%%%%%%%%%
2138B91%%%%%%%%%%Qq%%%%%%%%%Qq%%%%%%%%%%%%%%%Q%qQq%%%%%%Qq%%%Q%%%q%Qq%%Qq%%Q
2132B99%%qQ%%%%%%%%%%%%qQ%%%%%%%%q%%Q%%%%%qQ%%%%%%%%%%%%%%%%%%%%%%%%%%%%%%%%
2125B99%%%%%%%%%%%%%%%%%Qq%%%%%%%%%%%%%%Qq%%%%%%QqQqQq%%%Qq%Qq%%%%%%Qq%%%%%Q
2118C07q%%%Qq%%%%%%%%%%%%Qq%Qq%Q%%qQqQ%%%qQ%q%%%Q%q%Q%%qQ%%%%%%%%%%%%%%%qQ%%
2112C07%%%%%%%%%%%%%%%%%%%%%%%%%%%%%%%%%%%%%%%%%%%%%%%%%%%%%%%%%%%%%%%%%%%%%
2105C07%%%%%%%%%%%%%%%%Qq%Qq%Q%%q%Q%q%Qq%%%%%Q%q%%Q%%%%qQq%%Q%%%q%Q%%%%%%q%Q
2099C15%%%%%%%%%%%%%%q%Q%%%%%%qQQ%q%%%Qq%%%%%%%%%%%%%%%%%%%%%%%%%%%%%%%%%%%%
2092C15%%%%%%%%%%%%Qq%%%%%%Qq%%Qq%%%Q%%qQqQq%%Qq%%Qq%Qq%%Q%qQ%%%%%%qQ%%%%%%%
2085C23%%%%%%%%%qQ%%q%%Q%q%Q%%%%%qQ%%%%%%%%%%%%%%%%%%%%%%%%%%%%%%%%%%%%%%%%%
2079C23%%%%%%%%Qq%%%%%%%%%%%Qq%%%%%%%%%%%%%%Qq%%%%%Qq%%%%%%%%%%%Qq%Qq%QqQ%q%
2072C23Q%qQ%%%%%%%%%%%%%%%%%%%%%%%%%%%%%%%%%%%%%%%%%%%%%%%%%%%%%%%%%%%%%%%%%
2066C31%%%%%%%%%%%%%%%%%%%%%%%%%%%%%Qq%%%%%Q%qQqQqQq%%QqQ%%qQqQ%qQ%qQ%q%%Q%%
2059C39%qQ%%%%%%%%%%%%%%%%%%%%%%%%%%%%%%%%%%%%%%%%%%%%%%%%%%%%%%%%%%%%%%%%%%
2053C39%%%%%%%%%%%%%%%%%%%Qq%%%%%%%%%Qq%%%%Q%q%Q%qQqQqQ%q%Q%%%%q%J6j6QqQq%Qq
2046C39Q%%%%%%%%%%%%%%%%%%%%%%%%%%%%%%%%%%%%%%%%%%%%%%%%%%%%%%%%%%%%%%%%%%%%
2040C47%%%Q%q%%%%%%%Q%%%qQ%q%Qq%%%QqQ%q%%%%%%Q%q%%%Q%qQq%Qq%Q%qQqQ%%%%q%QqQ%
2033C55%%%%%%%%%%%%%%%%%%%%%%%%%%%%%%%%%%%%%%%%%%%%%%%%%%%%%%%%%%%%%%%%%%%%%
2026C55%%%%%Q%q%%Qq%Qq%%Qq%%%%%%%%%%Q%%qQq%QqQ%%%q%%Qq%%Q%%%%%%%%%%%%%%%%%%%
2020C63%%%%%%%%%%%%%%%%%%%%%%%%%%%%%%%%%%%Qq%%%%%%%%%%%%%%%%%%%%%%%%%%Qq%Qq%
2013C63Qq%%%%%%%%Qq%Q%qQqQq%%%%%QqQqQq%%Qq%Q%qQ%%%%%%qQ%%%%%%%%%%%%%%qQ%%%%%
2007C71%%%%%%%%%%%%%%%%%%%%%%%%%%%%%%%%%%%%%%%%Qq%%%%%%%%%%%Q%%q%%%QqQ%%q%Q%
2000C79%%%%qQ%%%%qQ%%qQq%Q%qQqQqQ%%%%%%%%%%%%%%%%%%%%%%%%%%%%%%%%%%%%%%%%%%%
1994C79%%%%%%%%%%%%%%%%%Q%qQq%Q%q%QqQ%%%%%%%qQ%qQ%%qQ%%%%%%%%%%%%%%%%%%%%%%%
1987C87%%%%%%%%%Q%q%%%%%%%%%%%%%%%%%%%%%%%%%%%%%%%%%Qq%%%%%%%%%QqQ%%%q%Q%qQ%
1980C95%%%%%%%%%%%%%%%%%%%%%%%%%%%%%%%%%%%%%%%%%%%%%%%%%%%%%%%%%%%%%%%%%%%%%
1974C95Qq%%%%%%%%%%%Qq%%%%%%%%%%Q%q%QqQ%%%%%%%%%%%%%%%%qQ%%%%%%%%%%%qQ%%%%%%
1967D03%%%%%%%%%%%%%%%%%%%%%%%Qq%%%%%%%%%%%%%%%%%%Q%%q%Qq%%Qq%%Q%%qQ%%qQq%Q%
1961D11%q%Q%%%%%%%%%%%%%%%%%%%qQ%%%%%%%%%%%%%%%%%%%%%%%%%%Qq%%%%%%%%%%%%%%%%
1954D11%%%%%QqQq%Qq%%Qq%Q%%qQ%%%qQq%Q%qQ%%%%%%qQqQ%qQqQq%%J6j6QqQ%qQ%%%%%%%%
1948D19%%%%%%%%%%%%%%%%%%%%%%%%%%%%%%%%%%%%QqQq%QqQ%q%Qq%Q%qQq%%Qq%%%%%%QqQ%
1941D27%qQq%%Q%%%%qQ%%%%%%qQ%%%%%%%%%%%%%%%%%%Qq%%%%%%%%Qq%%%Q%q%QqQq%Qq%QqQ
1935D35q%Qq%Q%q%Q%%%%%%%qQ%%%%%%%%%%%%%%%%%%%%%%%%%%%%%%%%%%%%%%%%%%%%%%%%%%
1928D35%%%%%%Q%%q%Q%qQ%qQqQqQ%%%%%Qq%Qq%qQ%%%%%%qQ%%%%%%%%%%%%%%%%%%%%%%%%%%
1921D43%%%%%%QqQq%%%Qq%%%%%%%%%%%Qq%%%%%%%%%%%Qq%%Q%%%%%qQ%%%%%qQ%%%%%%%%%%%
1915D51%%%%%%%%%%%%%%%%%%%%%%%%%%Qq%%%%%%%%%%%Qq%%%%%%%%Qq%Q%q%Q%%qQqQ%%%%%q
1908D51Q%%%%%%%%%%%%%%%%%%%%%%%%%%%%%%%%%%%%%%%%%%%%%%Qq%%%%%%%Q%q%%%QqQ%%q%
1902D59%%%QqQ%qQq%%Q%%%%%%%%%qQqQ%%%%%%%%%%%%%%%%%%%%%%%%%%%Qq%%%%%%%%%%%%%Q
1895D75%%qQq%%%%Q%qQq%%%Qq%Q%qQqQ%%%%%%%%%%%%%%%%%%%%%%%%%%%%%%%%%%%Q%q%%%%%
1888D75%%%%%%%%QqQqQqQqQ%%%qQ%%%qQ%%%%%%%%%%%%%%%%%%%%%%%%%%%%%%%%%%Qq%%%%%%
1882D83%%%%%%%%%%%Q%%qQqQq%Q%%%%qQ%%%%%%%%%%%%%%%%%%qQ%%%%%%%%%%q%QQq%Qq%%%Q
1875D99%q%Qq%%%%Qq%%QqQq%%Qq%%%%Q%%%%%q%Q%%qQ%%%%qQq%Q%%qQ%%%%%%%%%%%%%%%%%%
1869D99%%%%%%%%%%%%%%%%%%%%%%%Qq%%%Qq%%%Q%%%%%%%%%%q%Qq%Q%%%%%%%%%%%%%%%%%%%
1862E07%%%%%%%%%%%%%%%%%Qq%%Qq%Q%%%qQ%%%%%%%%%%%%%%qQ%%qQ%%%%%%%%%%%%%%Qq%%%
1856E15%%%%%%Qq%%%%Q%q%Q%qQqQqQ%%qQ%qQQj6%%J6J6m0QQj6K4Qqj6K4k4J6j6QqJ6q%qQ%
1850E23%%%%%%%%Qq%%%Qq%Q%q%%Qq%%%%Q%q%Q%%%%%qQqQqQqQqQ%%%%%%%%%%%%%%%%%%%%%%
1844E31%%%%%%%%%%%%%%Qq%%%%Qq%%Qq%Qq%%%Q%%%qQ%%%q%Q%%%%%%%%%%%%%%%%%%%%%%%%%
1837E39%%%%%%%%%%%%%%%%%%%%%%%Q%q%%%%%Q%qQ%%%%%%%%qQ%%%%%%%%%%%%%%%%%%%%%%%Q
1830E55q%%%Q%%q%Qq%%Q%qQ%q%QqQqQ%%%qQ%qQ%%%%%q%Q%%%%%%%%%%%%%%%%%%%%%%%Qq%%%
1824E55%%%%Q%%qQqQ%%%%%%%%%%%%%%%%%%%%%%%%%%%%%%%%%%%%%%%%Qq%Q%%q%%%%%Q%%qQq
1817E63Q%%%%%%%%%%%%qQ%%%Qq%%%%%%%%%%%%%%%%%%%%%%Qq%%%%Q%qQq%%QqQqQ%%%%%%%%%
1811E79%%%%%%%%%%%%%%Qq%Qq%%%%%%%Qq%%%Q%%%%%%qQ%%%q%Q%%%%qQ%%%%%%%%%%%%%%%%%
1804E87%%%%%%%%%%Q%qQqQqQqQqQqQ%q%Q%%%%%%%%%%%%%%%%%%%%%%%%%%%%%%%%%%%%%Qq%%
1797E95%QqQ%qQq%Q%%%%%%qQ%%%%%%%%%%%%%%%%%%%%%%%%%%%%%%%%%%%%%Qq%%%Q%qQqQqQ%
1791F11%%%%%%%%%%%%%%%%%%%%%%%%%%%%%%%%%Qq%%Q%q%%Q%%%%%%%%%%%%%%%%%%%%%%%%%%
1784F19%%%%%%%%%%%%%%%%%%%%%%%%%%%Q%qQqQ%%%%%%%%%%%%%%%%%%%%%%%%%%Qq%%%%%%Q%
1778F35%qQq%%Q%%%%%%%%%%%%%%%%%%%qQ%%%%%%%%%%%%%%%%%%%%Qq%QqQqQq%QqQq%Qq%Q%%
1771F43%%%%%%%%%%%%%%%%%%%%%%%%%%%%%%%%Q%q%%QqQ%qQ%%%%q%Q%%qQ%%%%%%%%%%%%%%%
1765F51%Qq%%Q%q%Qq%Q%%%%%%%%%%%%%%%%%%%%%%%%%%%%%%%%%%%%%%Q%qQ%%%%%%%%%%%%%%
1758F67%qQ%%%%%%%%%%%%%%%%%%%%%Q%%%q%%%%%%Q%q%%%Q%qQqQ%qQ%%%%%%%%%%%%%%%%%%%
1751F75%Q%%q%%%Q%%%%q%Q%%%qQ%%%%%%%%%%%%%%%%%%%%%%%%%%Qq%Q%%%%%%%%%%%%%%%%%%
1745F91%%%%%%%%%%%%%%%%%%%%%%Q%qQqQ%%qQqQ%%%qQ%%%%%%%%%%%%%%%%%Q%%qQqQqQ%%qQ
1738G07%%%%%%%%%%%%%%%%%%%%%%%%%%%%%%Qq%%%Qq%QqQ%%%q%Q%%%%%%%%%%%%%%%%%%%%%%
1732G15%%%%%%%%%%Qq%QqQq%Qq%Q%%%%qQ%%%%%%%%%%%%%%%%Qq%%Q%qQ%%%%%%%%%%%%%%%%%
1725G31%%%%%%%%%%%Qq%QqQ%%q%%QqQ%%%%%%%%%%%%%%%%%%%%%%%%%%%%Q%q%Q%%q%Q%%%%%%
1719G47%%%%%%%%%%%%%%%%%%%%QqQq%QqQ%q%Q%%qQ%%%%%%%%%%%%%%%%%%%%%%%Qq%%%%%QqQ
1712G63%q%Q%qQ%%%%%%%%%%%%%%%%%%%%%%%QqQqQqQ%%%%%%%%%%%%%%%%%%%%%%%Q%qQq%%%Q
1705G79qQq%Q%%qQ%%%%%%%%%%%%%%%%%%%Qq%%%%%Q%%qQ%%%%%%%%%%%%%%%%%%%%%%%%%Qq%Q
1699G95%%%%%%%%%%%%%%%%%%%%%%%%%%%%%%Q%q%%Q%qQqQ%%%%%%%%%%%%%%%%%%%%%%Q%q%%%
1692H03%%Q%qQ%%%%%%%%%%%%%%%%%%%%%%%%Q%%%%%%%%%%%%%%%%%%%%%%%%%Qq%%Q%%%%%qQ%
1686H27%%%%%%%%%%%%%%%%%Qq%QqQ%%%%%%qQ%%%%%%%%%%%%%%%%%Qq%Qq%%%Q%qQ%%%qQ%%%%
1679H43%%%%%%%%%%%%Qq%%%Qq%%%QqQ%%qQ%%%%%%%%%%%%%Qq%%%%%%QqQ%%%%%%%%%%%%%%%%
1672H59%%%%%%%%%%%%%%%Q%%%%%%%%%%%%%%%%%%%%%%%%Q%q%Qq%%Q%%%%%%%%%%%%%%%%%%%%
1666H75Q%%%%%%qQ%%%%%%%%%%Qq%%%%%%Q%%q%%QqQqQ%qQ%%%%%%%%%%%%%%%%%%%%Q%q%QqQ%
1659H99%%%%%%%%%%%%%%%%%Qq%%Qqq%J6%%qQQqq%J6%q%Qq%%%%Qq%%%Q%%%%qQqQqQ%%%%%%%
1653I15%%%%%%%%%Q%%%%%%%%%%%%%%%%%%%%%%%%Q%q%%QqQqQ%%%%%%%%%%%%%%%%%%Q%%%%%%
1646I39%%%%%%%%%%%%%%%%%Qq%Q%%%%%%%%%%%%%%%%%%%%%%%%%QqQ%%%%%%%qQ%%%%%%%%%%%
1640I55%QqQ%%qQqQ%%%%%%%%%%%%%%%%%%QqQ%qQ%qQ%%%%%%%%%%%%%%%Q%q%%%Q%%%%%%%%%%
1633I79%%%%%%%Q%%%%%%%%%%%%qQ%%%%%%%Qq%%%Q%q%Q%%%%%%%%%%%%%%%%%%%%Q%%%%%%qQ%
1627A003%%%%%%%%%%Qq%%%Q%%%%%%%%%%%%%%%%Qq%%Qq%%Q%%%q%Q%%%%%%%%%%%Q%qQqQqQ%%
1620A027qQ%%%%%%%%%%%%%%%%Q%%%%%%%%%%%%%Qq%%Q%%qQ%qQ%%%%%%%%%%%%%%%%%QqQ%%%%
1614A051%%%%%%%%%%%%%Q%%q%%Q%%%%%%%%%%%%%%%%%%QqQ%%%%%%%qQ%%QqQ%qqQQ%qQ%Qj6Q
1607A075%%%%%%%%%%Qq%Q%q%Q%%%%%%%%%%%%%%%%Q%%qQ%%%%%%%%%%%%%%%%Q%%%q%Q%%%%%%
1601A099%%%%%Qq%%Q%%%%%%%%%%%%%%%%%Q%qQ%%%%%%%%%%%%%QqQqQqQ%%%%qQ%%%%%%%%Qq%
1594A123%Qq%%Q%%%%%%%%%%%%%%Q%%%%qQ%%%%%%%%%%%QqQq%Q%%%%%qQ%%QqQq%%QqQ%%%%%%
1588A155%%%%%%%QqQ%qQ%%%%%%%%%%%%%%%QqQqQ%%%%%%%%%%Q%qQq%Qq%Q%%%%%%%%%%%Q%%%
1581A187%%%%%%%%%%%%%%%Q%%%%%%%%%%%%%%%%%Qq%%QqQ%%%%%%%%%%%QqQqQ%%%%%%%%%%%%
1575A211%%%QqQ%%%%%%%%%%%%%%%%%%Q%%%%%%%%%%%%%QqQqQ%%%%%%%%%%Qq%Q%%%%%%%%%%%
1568A243%%%%Q%%%%qQ%%%%%%%%%%QqQ%%%%%%%%%%%%Qq%%QqQqQ%%%%%%%Qq%%Qq%Q%%%%%%%%
1562A275Qq%QqQ%%%%%%%%%%%Q%%q%Q%%%%%%%qQJ6%j6%%QqQqQ%%%%%%%Qq%%%Q%%%%%%%%%%%
1556A307QqQ%%%%%%%%%%%%%%%%Q%qQ%qQ%%%%%%%Q%%q%Q%%%%%%%%%%%%Q%q%Q%%%%%%%%%%Q%
1549A347%%%%%%%%%%%%Q%%%%%%%%QqQq%%Q%qQ%%%%%%%%%Q%%%%%%%%%%%%%%%%QqQ%%%%%%%%
1543A379%Qq%%Q%%%%%%%%%%Qq%%Q%qQ%%%%%Qq%Q%%%%%%%%%%Qq%%Q%%%%%%%%%Qq%%Q%%%%%%
1536A419%%%%%%Q%q%Q%%%%%%QqQ%qQqQ%%%%%%%%%%%Q%%%qQ%%%%%Qq%Q%%%%%%%%%%%%Q%q%Q
1530A459%%%%%%%Q%%%%%%%QqQ%q%Q%%%%%%%%%%%Qq%Q%%%%%%%%%QqQ%%%%%%%%%%Q%%qQ%%%%
1523A499%%%%%%Q%%%%%%%%%Q%%%%%%%%%Qq%Qq%Q%%%%%%QqQ%%%%%%%%%%%Q%%%%%%%%%%%Qq%
1517A539Q%%%%%%%%%%%Q%qQ%%%%%%QqQ%%%%%%%%%%%%Q%%%%%%%QqQq%%Q%%%%%%%%%%Q%%%%%
1510A587%Q%%qQ%%%%%Q%qQ%%%%%%%%%%%QqQ%%%%%%Qq%QqQ%%%%%%%%Qq%Q%%%%%%%%Q%q%Q%%
1504A635%%Qq%Q%%%%%%%%QqQ%%%%%%%%QqQ%%%%%%%%%Q%%%%%%%%%%%%%Q%%%%%%%%Q%%%%%%%
1497A683%%%Q%%%%%%%%%Q%%%%%%%%%%%Q%%%%%%%%Q%%%%%%%%%%%%%Q%%%%%Q%%%%%%%%%%%%Q
1491A739%%%%%%%Q%%%%%%%%%%Q%%%%%%%%%Q%%%%%%%%%%QqQ%%%%%QqQ%%%qJ6qQqQ%%%%%%%%
1484A787QqQ%%%%%%QqQ%%%%%%%%%Q%%%%%%QqQ%%%%%%%%%QqQ%%%%%%%%%%%Q%%%%QqQ%%%%%%
1478A843%%QqQ%%%%%%Q%%%%%%QqQ%%%%%%%Q%%%%%%%Q%%%%%%%%%%Q%%%%%%%Q%%%%%%%%Q%%%
1471A907%%%%QqQ%%%%%%%%Q%%%%%%%Q%%%%%%%%Q%%%%%%%%Q%%%%%%%%%Q%%%%%%%Q%%%%%%%Q
1465A971%%%%QqQ%qQ%%%%Q%%qQ%Qq%%Qq%J6k4K4q%qK4%%l2L2j6QQ%%%QqQq%Q%q%QQ%%qQ%Q
1459B035q%%QqQ%%%%%QqQ%qQ%%Q%%%%%%%Qq%Q%%%%Qq%Q%%QqQ%qQ%%%%Q%%%%%%%Q%%%%%%%%
1453B091Q%%%%%%Q%qQ%%%%Q%%%%%%%Q%%%%%%%Q%%%%Q%%qQ%%%%Q%%%%%%%Q%%%%%%%Q%%%%%%
1446B163Q%%%%%%Q%%%%%%%Q%%%%%%Q%%%%%%Q%%%%%%%Q%%%%Q%%%%%QqQ%%%%QqQ%%%%%QqQ%%
1440B243%%%%Q%%%%%Q%%%%%%%Q%%%%%%Qq%J6qQqQ%%%%%Q%%%%QqQ%%%%%Q%%%%%QqQ%%%%QqQ
1433B323%%%%%%Q%%%%%%Q%%%%%Q%%%QqQ%%%%Q%%%%%%%Q%%%%%Q%%%%Q%%%%Q%%%%%%%Q%%%%Q
1427B411qQ%%%%QqQ%%%%%Q%%%Qq%Q%%%%Q%%%%%Q%%%%Q%%%%%%Q%%%%%Q%%%%%%%Q%%%%Q%%%%
1420B491Q%%%%%Q%%%%Q%%%%Q%%%%%%%Q%%%QqQ%%%%Q%%%%Q%%%%%%Q%%%%%Q%%%%Q%%%%Q%%%%
1414B587%%Q%%%QqQ%%qQQ%%Q%%Qq%Q%%%%%QqQ%%%Q%%Qq%Q%%QqQ%%%%Q%%%%%Q%%%%%Q%%%%Q
1407B691%%QqQ%%QqQ%%%%Q%%%%Q%%%%%Q%%%%Q%%%%%Q%%QqQ%%Q%%%%%Q%%%Q%%%QqQ%%%%%Q%
1401B795%%Q%%Qq%Q%%%Q%%%%%Q%%%Q%%%QqQ%%%Q%%%%Q%%Q%qQ%Q%%%%%Q%%%%Q%%%%Q%%%%Q%
1394B907%%Q%%%%Q%%%%Q%%%%Q%%%%Q%%%Q%%%%Q%%Q%%%%Q%%%%Q%%QqQ%%Q%qQ%Q%%%%%Q%%%Q
1388C027%%%Q%%%Q%%%Q%%%%Q%%%Q%%%%Q%%QqQ%%Q%%%%Q%%%%Q%%%Q%%Q%%%%%Q%%%Q%%Q%%%Q
1381C155%%%Q%%%Q%%%Q%%%%Q%%Q%%%Q%%%Q%%%%Q%%Q%%%%Q%%Q%%%%Q%%%%Q%%Q%%Q%%%%Q%%%
1375C283Q%%%Q%%%Q%%%Q%%%Q%%%Q%%%Q%%Q%%%%Q%%Q%%%Q%%Q%%%Q%%%Q%%Q%%QqQ%Q%%%%Q%%
1368C427Q%%%Q%%Q%%%%Q%%Q%%%Q%Q%qQ%Q%%Q%%%Q%%Q%%%Q%Q%%QQq%%QqJ6qQQ%%%%Q%%%%%Q
1362C579Q%%Q%%%Q%%%Q%%Q%%%QQqQ%%Q%%%Q%%Q%%Q%%%Q%Q%%%QqQQqQ%Q%%Q%%%Q%%QQq%Q%Q
1355C747%%Q%%Q%%%Q%Q%%%Q%%Q%%Q%%%Q%Q%%Q%%%Q%QqQ%Q%%Q%%Q%%Q%%Q%%Q%%Q%%Q%%%Q%%
1349C915Q%Q%%Q%%%Q%Q%%%Q%Q%Q%%%Q%%Q%%Q%%Q%%Q%%QQqQ%Q%%%Q%Q%%%Q%Q%%Q%%Q%%Q%Q%
1342D107Q%%%Q%%Q%Q%%Q%%Q%%Q%%Q%Q%%QQqQQ%Q%%qQQQ%%%Q%%Q%Q%%Q%%Q%Q%Q%Q%%%Q%Q%Q
1336D315%%Q%%Q%%Q%%Q%Q%%Q%Q%%Q%Q%Q%%%QQ%%Q%Q%%Q%Q%%Q%Q%%QQ%%%Q%%QQ%%Q%Q%%Q%Q
1330D531%Q%%Q%Q%%Q%%Q%Q%Q%%Q%%QQ%%Q%Q%%Q%Q%%QQ%%Q%Q%%Q%Q%Q%%Q%Q%Q%Q%%Q%Q%Q%Q
1323D763%%Q%Q%Q%Q%Q%%QQ%%Q%Q%Q%%Q%Q%Q%Q%Q%Q%Q%Q%%Q%Q%Q%Q%Q%Q%%QQ%%Q%QQ%Q%%Q%
1317E011Q%Q%Q%%QQQ%%%J6qJ6%%%Q%J6qQQ%%Q%QQ%Q%Q%Q%%QQ%Q%%QQ%Q%Q%Q%Q%Q%Q%Q%Q%Q
1310E275%Q%QQ%Q%Q%Q%Q%Q%Q%Q%QQ%Q%%QQ%Q%Q%QQ%Q%QQ%Q%Q%Q%QQ%%Q%QQ%Q%QQ%Q%Q%QQ%
1304E571Q%Q%Q%QQ%Q%%QQQ%%QQQ%%QQ%Q%QQ%Q%Q%Q%QQ%QQ%QQ%QQ%Q%QQ%Q%Q%QQQ%%QQ%QQ%
1297E891Q%QQ%Q%QQ%Q%QQQ%Q%QQ%Q%QQ%QQ%QQ%QQ%Q%QQ%QQ%QQ%QQ%Q%QQ%QQQ%Q%J6%Q%Q%J6
1291F243%%J6%%QQ%QJ6%Q%QQ%QQ%QQ%QQQ%QQ%QQ%Q%QQQQ%QQ%Q%QQQQ%Q%QQQQ%Q%QQQ%QQQQ
1285F611%QQQ%QQ%QQQ%QQ%QQQQ%QQQ%QQQ%QQQQ%QQ%QQQQ%QQQQ%QQQ%QQQQ%QQQ%QQQQQQ%QQ
1278G027QQ%QQ%J6Q%QQQ%QQQQ%QQQQQ%QQQQQ%QQQQQQ%QQQQQ%QQQQQQ%QQQQQQ%QQQQQQ%J6%
1272G467QQQQQQQ%QQQQQQQQQ%QQQQQQQQQ%QQQQQQQQQQ%J6%QQJ6%QQQ%J6%J6Q%J6%QJ6qJ6J6
1266G923QQqJ6J6QJ6j6%J6J6Q%J6QQQQ%J6QQQQQQQQQQQQQQQQQQQQQQQQQQQJ6Q%J6QQ%QJ6Q
1261H379QQQQQQQQQQQQQJ6QQQQQQQQQQJ6Q%J6QQQQQQQJ6QQQQQQQQJ6%J6QQQQQQQQJ6QQQJ6
1255H907%J6QQQQQJ6QQQQJ6QQQQQQJ6QQJ6%J6QQQJ6QQQQJ6QQQJ6QQQQQJ6QQJ6QQQQJ6QQQQ
1250I435J6QQQJ6QJ6%J6QJ6%J6QJ6QQQQJ6QJ6QQQJ6QQJ6QJ6QQJ6QQQJ6QQJ6QQJ6QQJ6QJ6Q
1245I963QJ6QQJ6QJ6QQQJ6QJ6QJ6QJ6QQJ6QQJ6QJ6QJ6QQJ6J6QQQQJ6QJ6QJ6J6QJ6QQJ6QJ6
1240A0507QJ6QJ6QJ6QJ6QJ6QJ6QJ6QJ6QJ6QJ6QJ6QJ6QJ6J6QQJ6J6QJ6QJ6QJ6QJ6J6QJ6QJ6
1236A1043J6QJ6QJ6J6QJ6J6QJ6QJ6QJ6J6QJ6J6QJ6J6QJ6J6QJ6J6QJ6QJ6J6J6QJ6J6QJ6J6Q
1232A1579J6J6J6QJ6J6QJ6J6J6QJ6J6J6QJ6J6J6QJ6J6J6J6QJ6J6QK4QJ6J6J6QJ6J6J6QJ6J6
1228A2131J6J6J6QJ6J6J6J6J6J6J6QK4QJ6J6J6J6QJ6J6J6J6J6J6J6J6QK4J6QK4QK4J6QJ6K4
1225A2715QJ6J6J6J6J6J6J6J6J6J6J6J6J6J6J6J6J6J6J6J6J6J6J6J6J6K4J6J6QK4J6J6J6J6
1221A3275J6J6J6J6K4QK4J6J6J6J6K4QK4J6J6J6K4QK4J6J6K4QK4J6J6J6K4J6J6J6J6K4J6J6
1218A3899J6J6K4J6K4J6J6J6K4QK4J6K4J6K4QK4J6K4J6J6J6K4K4QK4J6K4J6K4J6J6J6K4J6
1215A4547K4J6J6K4J6K4J6K4J6K4J6J6K4K4J6J6K4J6K4J6K4J6K4J6J6K4K4J6K4J6K4K4J6K4
1211A5227J6K4J6K4K4J6K4J6K4K4J6K4K4J6K4J6K4K4J6K4K4K4K4J6K4J6K4K4K4J6K4K4K4J6
1208A5947K4K4K4J6K4K4K4K4J6K4K4K4K4J6K4K4K4K4K4K4J6K4K4K4K4K4K4K4K4J6L2K4J6L2
1205A6731J6L2J6L2J6K4K4K4K4K4K4L2J6L2K4K4K4K4K4K4K4K4K4K4K4L2K4K4K4K4K4K4L2K4
1202A7563K4K4K4L2K4K4K4K4L2K4K4L2K4K4L2K4K4K4L2K4K4L2K4K4L2K4L2K4K4L2K4L2K4K4
1198A8459L2K4L2K4K4L2K4L2K4L2L2K4K4L2L2K4L2K4L2L2K4L2K4L2L2K4L2L2K4L2L2K4L2L2
1195A9435K4L2L2L2K4L2L2L2L2K4L2L2L2K4L2L2L2L2L2L2L2K4M0L2K4L2K4M0M0K4M0K4L2L2
1192B0483L2L2L2L2L2L2L2L2L2M0L2L2L2L2L2M0K4M0L2L2M0L2L2L2L2L2M0L2M0L2L2M0L2L2
1189B1619M0L2L2M0L2M0L2L2M0L2M0L2M0L2M0L2M0L2M0L2M0M0L2L2M0M0M0L2M0L2M0M0L2M8
1186B2859L2M0M0L2M0M0M0M0M0M0L2M0M0M0M0M0M0M0M0L2M8L2M0M8L2M0M0M0M8M0M0M0M0M0
1182B4195M8M0M0M0M0M8M0M0M0M8M0M0M8M0M0M8M8M0M0M8L2M8M0M8M0M8M8M0M8M0M8M8M0M8
1179B5667M0M8M8M0M8M8M0M8M8M8M8M0M8M8M8M8M8M8M8M0M8M8M8M8M8M8M8M8M8N6M8M8M8M8
1176B7267M8N6M8M8M8M8N6M8M8N6M8M8N6M8M8N6M8N6M8N6N6M8M8N6N6M8N6N6M8N6N6N6M8N6
1173B9027N6N6M8N6N6N6N6N6N6N6N6N6M8O4N6N6N6N6N6N6N6O4N6N6O4N6N6N6O4O4M8O4O4M8
1169C0955O4O4N6O4N6N6P2O4N6O4N6P2M8O4O4O4O4O4O4O4N6P2N6P2O4N6P2O4O4O4O4O4O4P2
1166C3099O4O4P2O4O4P2O4O4P2P2O4P2O4P2O4P2P2O4P2P2P2P2O4P2P2P2P2P2P2P2P2P2P2P2
1163C5459P2Q0P2P2P2P2Q0P2P2Q0Q0P2Q0P2Q0P2Q0P2Q0Q0Q0Q0Q0P2Q0Q0Q0Q0Q0Q0Q0Q0Q0Q8
1160C8091Q0Q0Q0Q0Q8Q0Q8Q0Q8Q0Q8Q0Q8Q8Q0Q8Q8Q0Q8Q8Q8Q8Q8Q8Q8Q8Q8Q8Q8Q8R6Q8Q8R6
1156D1019Q8R6Q8R6R6Q8R6R6Q0R6R6R6R6R6R6R6R6R6R6J04Q8J04R6J04R6R6R6J04J04R6J04
1153D3995J04R6J04J04J04R6J04J04J04J04J12J04J04J04J12J04J04J12J12J04J04J12J12
1151D6419J04J12J12J12J12J12J12J12J12J12J20J12J12J20J12J12J20J12J20J20J20J12J20
1149D9043J20J20J20J20J28J20J20J20J28J20J20J28J28J20J28J28J28J20J28J36J28J28J28
1147E1907J28J36J20J36J36J28J36J28J36J36J36J36J36J36J36J36J36J44J36J44J36J44J44
1145E5027J36J44J44J44J44J44J44J44J44J52J44J52J52J44J52J52J44J52J52J52J60J52J52
1142E8427J60J52J52J60J60J60J60J60J60J60J60J60J68J60J68J60J68J68J68J68J68J68J68
1140F2163J68J76J68J76J68J76J76J76J76J76J76J76J84J76J84J76J84J84J84J84J84J84J84
1138F6259J92J92J92J84J92J92J92J92K00J92J92K00J92K00K00K00K00K08K00K00K08K00K08
1136G0787K08K08K08K08K16K08K16K08K16K16K16K16K16K24K24K16K24K24K24K24K24K32K24
1134G5787K32K32K24K40K32K32K32K40K40K40K40K40K40K48K40K48K48K48K48K56K48K56K48
1131H1339K56K56K56K64K56K64K64K64K64K64K72K64K72K72K72K72K80K72K80K80K80K80K88
1129H7531K80K88K88K88K88K96K88K96K96K96L04K96L04L04L04L12L04L12L12L12L12L20L12
1127I4443L20L20L28L20L28L28L28L36L28L36L36L36L36L44L36L52L44L52L52L44L60L52L60
1125A02219L60L60L60L68L68L68L76L68L76L76L84L84L76L84L92L84M00L92L92M00M00M00
1123A10587M08M08M08M08M16M16M16M24M16M32M24M32M32M32M40M40M40M48M48M48M56M48
1121A20027M64M56M64M64M64M80M72M72M72M96M72M88M96M96M96M96N12M96N04N12N12N20
1119A30731N20N28N20N36N28N36N44N44N44N44N60N52N60N60N68N68N76N76N76N84N84O00
1116A42939N92O00O00O08O16O08O16O24O24O32O32O40O40O48O48O48O64O56O72O72O72O80
1114A56931O88O88O96O96P04P04P12P12P28P28P28P36P36P52P44P60P60P68P76P76P84P84
1112A73091P92Q00Q00Q16Q08Q24Q24Q32Q40Q48Q48Q56Q64Q64Q72Q80Q88Q96Q96R04R12R20
1110A91875R28R36R36R44R52R60R68R76R84R84J000J000J008J024J024J032J040J048J056
1108B10675J072J072J080J088J096J112J112J128J128J136J152J160J176J168J192J200J200
1107B29947J216J224J232J248J248J264J272J288J296J304J312J328J344J344J360J376J376
1105B51979J392J408J416J432J440J456J464J480J488J504J512J536J536J560J568J576J600
1103B77347J608J624J640J656J664J680J696J712J728J744J760J768J792J808J824J832J864
1102C06747J864J896J904J928J944J960J976K000K016K040K048K080K088K120K128K160K176
1100C41075K192K216K240K264K280K312K320K352K384K392K424K448K472K496K520K544K576
1099C81507K600K624K656K672K712K736K768K792K824K848K880K920K944K976L008L040L072
1097D29579L104L144L176L208L240L280L320L352L392L432L464L512L544L584L632L664L720
1095D87347L752L800L840L888L936L976M032M072M120M176M224M272M320M384M432M488M536
1094E57595M600M656M712M768M832M896M952N016N080N152N208N288N344N424N488N560N640
1092F44211N712N784N872N936O024O112O192O272O360O448O544O632O728O816O920P016P112
1091G52691P216P320P432P528P648P760P880P992Q104Q240Q352Q488Q608Q744Q888R016R160
1089H91067R296R456R592R752R912J0064J0224J0392J0568J0736J0920J1088J1288J1472J1664
1087A047491J1864J2064J2272J2488J2704J2928J3152J3376J3624J3864J4120J4376J4624
1086A218947J4904J5176J5464J5744J6040J6352J6656J6976J7304J7640J7984J8336J8704
1085A436227J9072J9456J9840K0256K0664K1088K1528K1984K2440K2912K3400K3912K4424
1084A717203K4960K5496K6072K6648K7248K7864K8504K9144K9832L0520L1240L1976L2752
1083B089459L3528L4344L5184L6056L6952L7872L8832L9824M0848M1904M3000M4136M5312
1081B597251M6528M7792M9096N0448N1856N3320N4832N6400N8024N9736O1480O3320O5232
1080C315315O7200O9272P1424P3656P6000P8416Q0968Q3608Q6376Q9256R2280R5432R8744
1079D377947J02184J05808J09600J13576J17736J22112J26704J31536J36608J41945J47559
1078E733315J53488J59728J66312J73256J80600J88368J96577K05271K14496K24280K34648
1077G830339K45680K57416K69904K83208K97408L12568L28776L46127L64705L84648M06064
1076A1326843M29096M53903M80657N09544N40792N74640O11376O51280O94751P42144P93960
1075A7808986Q50690R12935R81375J056824J140170J232479J334984J449143J576632J719448
1074C0063666J879944K060960K265826K498592K764146L068422L418674L823848M295055M846137
1073F0985270N494583O262585P178611Q279507R613518J1244401J3257585J5768794J8937047
1072A57021901K2983542K8220757L5095520M4254974N6643648P3642174R7234797J30120848
1071F45218161J75409492K34749145L02006074L48728617L10920309J30451849j30451718
1070B017031929l10920440l48728617l02006140k34749079j75409492j30120848r7234797
1070D17862516p3642174n6643681m4254908l5095536k8220758k2983575j8937030j5768794
1069A22316060j3257602j1244384r613502q279507p178611o262601n494591m846129m295046
1068E1844087l823857l418682l068406k764146k498600k265826k060960j879944j719440j576632
1067B6767594j449151j334984j232488j140161j056816r81383r12935q50682p93960p42152
1066A6272882o94743o51296o11368n74649n40783n09544m80657m53895m29104m06064l84648
1065A0536131l64712l46120l28776l12568k97408k83208k69912k57408k45680k34656k24272
1064G371411k14488k05279j96577j88368j80600j73256j66320j59720j53488j47568j41936
1063E443811j36608j31536j26704j22112j17743j13569j09600j05808j02192r8736r5432r2280
1062D091491q9256q6376q3616q0952p8432p5992p3656p1424o9264o7208o5232o3312o1496
1061C125275n9720n8032n6400n4832n3312n1864n0448m9096m7792m6528m5312m4136m3000
1059B464803m1904m0848l9824l8832l7880l6944l6056l5176l4352l3528l2744l1984l1240
1058A993491l0520k9832k9152k8496k7864k7248k6648k6064k5512k4952k4424k3904k3408
1057A645467k2912k2440k1984k1528k1088k0664k0256j9840j9456j9072j8704j8336j7984
1056A381203j7640j7304j6976j6656j6352j6040j5744j5464j5168j4904j4632j4376j4112
1054A175835j3872j3616j3392j3144j2928j2704j2480j2280j2064j1864j1664j1472j1280
1053A013075j1096j0912j0744j0568j0392j0224j0064r912r752r592r456r296r160r016q888
1052H64003q736q624q480q352q240q104p992p880p752p648p544p424p320p216p120p008o920
1050G31643o816o728o632o536o456o360o272o192o104o032n944n864n792n704n640n560n496
1049F27515n416n344n288n208n152n080n016m960m888m832m768m712m656m600m544m480m432
1047E44139m376m328m272m224m176m120m072m024l984l936l888l840l800l760l704l672l632
1045D76331l584l544l512l464l432l392l352l320l280l240l216l168l144l104l072l040l008
1044D20459k976k944k920k880k848k824k792k768k736k704k688k648k624k600k576k544k520
1042C73867k496k472k448k424k400k376k344k336k304k280k264k240k216k192k176k160k128
1040C34611k120k096k072k048k040k016k000j976j960j944j928j904j896j864j856j840j824
1039C01227j808j792j768j760j744j728j712j696j680j672j648j640j624j608j600j576j568
1037B72603j552j544j528j520j504j488j480j464j456j440j432j416j400j400j376j376j360
1036B47867j344j344j320j320j304j296j288j272j264j248j248j232j224j216j208j192j184
1034B26363j176j176j152j152j144j136j120j112j112j096j088j080j072j072j048j056j040
1032B07531j032j024j016j016j000j000r84r84r76r68r60r52r44r44r28r28r20r12r04q96
1030A88243q96q88q80q72q64q64q56q56q40q40q32q24q24q16q08q00q00p92p92p76p76p76
1028A69971p68p60p60p44p44p44p36p28p28p28p12p12p04p04p04o88o88o88o80o72o72o72
1026A54235o56o64o48o48o48o40o40o32o32o24o24o16o16o08o08o00n92o00n92n92n76n84
1024A40595n76n76n68n68n60n60n52n52n60n36n44n44n36n28n28n28n20n28n20n04n04n20
1022A28683n04n04n04m96m88m88m88m88m80m80m72m72m72m72m64m64m56m56m64m48m48m48
1020A18227m48m40m40m40m32m32m32m24m24m32m16m16m16m16m08m08m08m08m00m00m00l92
1018A08995m00l92l84l92l84l84l84l76l76l76l68l76l68l68l68l60l60l60l60l52l60l52
1016A00795l44l52l44l44l44l44l36l36l36l36l36l28l28l28l28l20l28l20l20l12l20l12
1014I3499l20l04l12l12l04l04l04l04k96l04k96k96k96k88k96k88k96k80k88k88k80k80k88
1011H6675k72k80k80k72k72k72k72k72k72k64k64k64k64k64k64k64k56k56k56k56k48k56k56
1009H0579k48k48k48k48k48k40k48k40k40k40k40k40k32k40k32k32k40k24k32k32k24k32k24
1007G5107k24k24k24k24k24k16k24k16k16k16k16k16k08k16k16k08k08k08k08k08k00k08k08
1005G0171k00k08k00k00k00k00k00j92k00j92k00j92j92j92j92j92j84j92j92j84j92j84j84
1003F5707j84j84j84j76j84j84j76j84j76j76j76j76j76j76j68j76j76j76j68j68j68j68j76
1000F1651j68j60j68j68j68j60j60j68j60j60j60j60j60j60j60j60j52j60j52j60j52j52j60
998E7963j52j52j52j44j60j36j52j52j52j44j52j44j44j44j44j44j44j44j44j44j36j44j36
996E4603j44j44j28j44j36j36j36j36j36j36j36j36j28j36j28j36j28j28j36j28j28j28j36
994E1515j28j20j28j28j28j28j20j28j20j28j20j28j20j20j28j20j20j20j20j20j20j20j12
992D8691j20j20j12j20j12j20j12j20j12j12j12j12j12j12j12j12j12j12j04j12j12j12j04
990D6091j12j04j12j04j04j12j04j04j04j12r6j12j04r6j04j04j04j04r6j04r6j04j04r6j04
987D3491r6j04r6r6j04r6r6q8j04r6r6r6r6r6r6r6r6q8q8r6r6q8r6q8r6r6q8q8q8q8r6q8q8
984D0387q8q8q8q8q8q8q8q8q8q0q8q8q8q0q8q0q8q0q8q0q8q0q0q8q0q0q0q8q0q0q0q0q0q0
981C7523q0q0q0p2q8p2q0q0p2q0q0p2q0p2q0p2q0p2q0p2q0p2p2p2p2q0p2p2p2p2p2p2p2p2
978C4955p2p2p2p2p2o4p2p2p2o4p2p2o4p2o4p2p2o4o4p2o4p2o4o4p2o4o4p2o4o4o4o4o4o4
974C2643o4o4p2n6o4p2o4o4n6p2m8q0m8o4n6q0m8o4o4n6o4o4n6o4n6o4n6o4n6n6o4n6o4n6
971C0547n6o4n6n6n6o4n6n6n6n6n6n6n6o4n6m8n6n6n6n6n6n6n6n6n6n6m8n6m8n6n6n6m8n6
968B8651m8n6n6m8n6n6m8n6m8n6m8n6m8n6m8m8m8n6m8m8m8n6m8m8n6m8m8m8m8m8m8n6m0n6
965B6923m8m8m8m8m8m8m8m8m8m0m8m8m8m8m8m8m0m8m8m0m8m8m8m0m8m0m8m8m0m8m0m8m8m0
961B5355m8m0m8m0m8m0m0n6l2m8m0m0m8m0m8m0m0m8m0m0m0m0m8m0m0m0m0m8m0m0m0m0m0m0
958B3915m0m0m0m0m8m0l2m0m0m0m0m0m0m0m0m0l2m8l2m0m0m0m0l2m0m0l2m0m0m0l2m0m0m0
955B2587m0l2m0l2m0l2m0l2m0l2m0l2m0l2m0l2m0l2m0l2l2m0l2m0l2l2m0l2m0l2l2l2m0l2
952B1379l2m0l2l2l2m0l2l2l2l2m0l2l2l2l2l2l2l2m0l2l2l2l2l2l2l2l2l2l2l2k4m8k4m0
948B0251l2j6m0l2l2k4l2m0k4l2l2k4m0k4l2l2l2k4l2l2l2k4l2l2l2k4l2l2l2k4l2l2k4l2
945A9227l2k4l2l2k4l2k4l2l2k4l2l2k4k4l2k4l2k4l2k4l2k4l2k4l2k4l2k4k4l2k4l2k4k4
942A8275l2k4k4l2k4k4l2k4l2k4k4k4l2k4k4l2k4k4l2k4k4k4k4l2k4k4k4k4l2k4k4k4k4k4
939A7387l2k4k4k4k4k4k4k4k4k4k4l2k4k4k4k4j6k4l2j6l2k4j6l2k4j6l2k4j6l2j6k4k4k4
935A6563k4k4k4k4j6k4k4k4k4k4k4k4j6k4k4k4k4j6k4k4k4k4j6k4k4j6l2j6k4k4k4j6k4k4
932A5795j6k4k4k4j6k4k4j6k4k4j6k4k4j6k4j6k4k4j6k4k4j6k4j6k4k4j6k4j6k4k4j6k4j6
929A5083k4j6k4j6j6k4k4j6k4j6k4j6k4j6j6k4k4j6j6k4j6k4j6j6k4j6k4j6k4j6j6k4j6k4
926A4411j6j6j6k4j6k4qk4k4j6j6j6j6l2qk4j6j6k4qk4j6j6k4j6k4qk4j6j6j6k4j6j6k4j6
922A3755j6j6j6j6k4j6j6j6j6j6k4j6j6j6k4j6j6j6j6j6k4qk4j6j6j6j6j6j6j6j6j6j6j6k4
919A3155j6j6j6j6qk4qk4j6j6j6j6j6j6j6j6j6j6j6j6j6j6j6j6j6j6j6j6j6j6j6j6j6j6j6
916A2595j6qj6j6j6j6j6j6j6j6j6j6qj6j6j6j6j6j6j6qj6j6j6j6j6qj6j6j6j6j6qj6j6j6j6
912A2043qj6j6j6j6qj6j6j6j6qj6j6j6qj6j6qk4qj6qj6j6j6qj6j6j6j6qj6j6qj6j6qj6qj6
908A1491j6j6qj6j6j6qj6j6qj6j6qj6qj6j6qj6qj6j6qj6qj6j6qj6qj6j6qj6j6qj6qj6qj6j6
904A0939qj6qj6j6qj6qj6qj6j6qqj6qj6qj6qj6qj6qj6qj6qj6qj6j6qqj6j6qqj6qj6qj6qqj6
900A0387j6qj6%k4qqqj6j6qqj6qqj6qqj6qj6qj6qqj6qqj6qqj6qj6qqj6qqj6qj6qj6qqqj6q
895I843qj6qqj6qj6qqqj6qqqj6qqqj6qj6qqj6qqqj6qqqj6qqqj6qqqj6qqqj6qqqqqj6qqj6q
890I291qqqj6qqqj6qqqqqj6qqj6%j6qqj6qqqqqqj6qqqqqj6qqqqqj6qqqqqj6qqqqqqqqj6qq
884H747qqqqj6%qj6qqqqqqqj6qqqqqqqqqqqqqj6%qj6qqqqqqqqj6%j6qq%qj6qqqqqqqqqqqq
879H227qqqqqqqqqqqqqqqqqqqqqqj6%qqj6%qj6Qj6qQj6%l2J6k4qqq%qj6%qqqqqqqqqqqqqq
873G755q%j6%qqqqqqqq%j6%qqqqqqq%j6%qqqqqq%qqqqqqqqqq%qqqqqq%j6%qqqq%j6%qqq%j6
867G299%qqq%j6%j6%qqq%qqqqq%qqqqq%qqq%qqqqqq%qqq%qqqqqq%qqq%qqqq%qqq%qqqqq%q
860F867qqq%qq%j6%q%qqqq%qq%qqq%qqqq%qqq%qq%qqqq%%j6q%qq%qqq%qq%qq%qqq%qqq%qq
854F467%qqq%%j6%qqqq%%qqq%qq%qqq%%qqq%qj6%%%j6q%q%qq%qq%qq%qq%qqq%qq%qq%q%q%
848F115j6%q%q%qq%qq%q%qq%qq%qq%q%qqq%%j6%q%q%qqq%q%qq%q%q%qq%qq%qq%q%qq%%qqq
841E771%qq%q%q%qq%q%qq%q%%qq%qq%q%qq%q%qq%q%q%q%q%qq%q%q%q%qq%q%q%q%qq%qq%%q
835E459q%q%q%q%qq%%qq%q%q%qq%%qq%%qq%q%qq%%qq%%qq%%qq%q%q%qq%%q%qq%%q%q%qq%%
828E171q%q%q%q%q%qq%%qqq%%q%%q%q%q%qq%%q%q%q%q%%qq%q%%qq%%q%q%q%q%q%q%q%%qq%
822D899%q%q%q%q%q%q%%q%q%%qq%q%%qq%%q%q%%qq%%q%q%q%%qq%%q%q%%q%q%q%q%%q%q%%q
815D651%q%q%q%%q%q%%q%q%%q%q%q%q%%q%%q%q%q%%q%q%%q%q%q%q%q%%q%q%%q%%q%q%%q%q
808D419%%%q%q%q%q%%%qq%%q%%q%q%%q%q%%q%%q%%q%q%q%q%%%q%q%%qq%%%q%qQqq%%%q%q%
802D211%qqQq%%q%q%q%%q%%q%q%%%q%q%%q%%qq%%%%qq%%q%%%q%q%%q%%q%q%%%q%q%%q%%%q
795D011%q%%q%%q%%q%%q%%q%%q%%q%%%q%q%%q%%q%q%%%q%%%qq%%%q%%q%%q%q%%%q%%q%%q%
789C827%q%%q%%%q%%%q%q%%%q%%q%%q%%q%%q%%q%%q%%%q%%q%%q%%q%%%q%%%q%q%%q%%q%%%
782C659%q%q%%q%%%q%%%q%%q%%%q%q%%%q%%%q%%q%%%q%%q%%%qqQqQj6Q%qq%Qj6QqQqq%%q%
776C499%%%q%%q%q%%%%q%%q%%%%q%q%%%%q%%%q%q%%%q%%%q%%%q%%q%%%q%%%q%%q%%%%q%%q
769C347%%%q%%q%%%%%q%%%q%q%%%q%%%q%%%q%%%%q%q%Qq%q%%%q%%%q%%%q%%%q%%%q%%%q%%
763C211%q%%%q%%qQq%%%q%%q%%%%q%%%q%%%q%%q%%%%q%%%q%%%q%%%q%%%%q%%%q%%%q%%%%q
756C075%%%%q%%%q%%q%%%q%Qq%%q%%%qQq%q%%%q%%%%%q%%%%q%%q%%%q%%%%q%%%%q%%q%%%%
749B955%q%%%%q%%%%q%%%q%%%%%q%%%q%%%q%%%%q%%%%q%%%q%%%%%q%%%qQq%%%q%%%%q%%%q
743B835%%%q%%%%q%%%%%qQq%%q%%q%%%%%q%%%%q%%%%%%q%%%q%%%%q%%%%q%%%q%%%%%q%%%q
736B723%%%%%q%%%%%q%%%%q%%%q%%%%q%%%%%%q%%%%q%%%%q%%%%qQq%%%q%%%q%%%%%%q%%%%
730B627%qq%QqqQ%Qj6%QqqQq%%%%%q%%%%%%q%%%%q%%%%%q%%%%qQq%%%%q%%%%%q%%%%%q%%%
723B531%qQq%%%q%%%%%%q%%%%q%%%%q%%%%%%q%%%%%q%%%%q%%%%%%q%%%%q%%%%%q%%%%q%%%
717B435%%q%%%%%%%q%%%%q%%%%%%q%%%%%%%q%%%%%q%%%%%q%%%%%q%%%%%q%%%%%%%q%%%%%q
710B347%%%%q%%%%%%q%%%%%q%%%%%%q%%%%%%q%%%%%%q%%%%%%q%%%%qQq%%%%%%%%q%%q%%%%
703B267%%q%%%%%%%q%%%%%q%%%%%%qQ%q%%%%q%%%%%%q%%%%%%q%%%%%q%%%%%%q%%%%%%%q%%
697B187%%%%q%%%%%%q%%%%%%q%Qq%%%qQq%%%%%%qQq%%%%%%%q%%qQq%%%%%%q%%%%%%%%q%%%
690B115%q%%%%%%%%qQq%%%%%q%%%%%%%%q%%%%qQq%%%%%%%%q%Qq%qQqQq%%%%qQq%Qq%%q%%%
684B043%%%%qQq%%%%%qQq%%q%Q%%qQqqJ6qq%Q%q%j6J6Qj6J6%l2J6qQ%%q%qQqQ%%%qQq%qQq
678A979%Q%%q%%q%%%%%%%%%%q%%%%%%qQqQq%%qQq%%%%%qQ%q%%%%%%%%%q%%%%%q%Qq%%%%%q
671A915%%%%%%%%q%%%%%%%%qQq%%%%%%%qQq%%%%%q%%%%%%%%%%%%q%%%%q%%%%%%%%qQq%%%%
665A859%%%%q%%%%qQ%qQq%%%%qQq%%%%%%%%%qQq%%%%%%%q%%%%%%%%%q%%%%%%%%q%%%%%%%%
658A803q%%%%%%%%q%%%%%%%%%%q%%%%%qQ%%qQq%%%%%%%q%%%%%%%%%q%Qq%%%%%%%%q%%%%%%
651A747%%%q%%%%%%%%%q%%%%%%%qQ%q%%%%%%%%%q%%%%%%%%q%%%%%%%%%%qQq%%%%%%%%q%%Q
645A699q%%%%q%Qq%%%%%%%qQq%%%%%%%%%%q%Qq%%%%%qQq%%%%%%%%%q%Qq%%%%%%%q%%%%%%%
638A643%%%%q%%%%%%%%%q%%%Qq%%%%%qQ%q%%%%%%%%%q%Qq%%%%%%%%%q%%%%%%%%%%%%%q%%%
632A595q%%Q%qQq%%%Qq%qQq%%%%%%%%%%%q%%%%%%%%%%q%%%%%%%%%%%%%%q%%%%%%%%%q%%%%
625A547%%%qQqQq%%%%%%%%%%%q%%%%%%%qQ%%q%Q%q%%%%%%%%qQq%%%%%%%qQ%%q%%%%%qQ%%%
619A507%q%%%%%%%%%%%qQ%q%%%%%%%%%%q%%%%%%%%%%%%q%%%%%%%%%%%%q%%%%%%%%%%%%%q%
612A459%%%%%%%%qQq%%%%%%%%%%%%%%q%%Qq%%%%%%%%qQq%%%%%%%%%%qQqQq%Qq%%%%%%%q%%
605A419%%%%%%%%%%q%%%%%%%%%qQqQ%q%%%%%%%%%%%%%%%q%%%%%%%%%qQ%q%%%%%%%%%%qQq%
599A379%Qq%%%%%%%%%%q%Qq%%%%%%%%%%%%%q%%%%%%%%%qQ%%q%%%Qq%%%%%%%%qQq%%%%%%%%
592A347%%%%%%q%%%%%%%%%%%%%q%%%%%%%%%%%%qQ%%q%%%%%%%%%q%%Qq%%%%%%%%%%%%%%%q%
586A307%%%%%%%%%%%%qQqQqQ%q%%%%%%%%q%%%Qq%%%%J6j6j6J6%%%%%%qQ%q%%%%%%%%%q%%%
579A275%%%%%%%%%%%%q%QqQq%%%%%%%%%%%%q%%%%%Qq%%%%%%%%%q%%%%%%%%%%%%%%%qQ%qQq
573A243%%%%%%%%%%%%%q%%%%%%%%%%%%%%%qQq%%%%%%%%%%%%%%%q%%Qq%%%%%%%%%%%%qQ%q%
566A211%%%%%%%%%%%%q%QqQq%%%%%%%%%%%qQq%%%%%%%%%%%%%%%%qQ%qQq%%%qQ%qQ%%qQqQq
560A179%%%%%%%%%%%%%%%qQ%q%Q%q%%%%qQ%%%%%%%%%%%q%%%%%%%%%%%qQ%%qQq%%Qq%%%%%%
553A155%%%%%%%%%q%%%%%%%%%%%%qQ%qQ%q%%%%%%%%%%%%%qQ%%qQq%%%%%%%%%%%%%%%%%q%Q
547A131q%%%%%%%%j6J6%%%%%%qQq%%%%%%%%%%%%%%%%q%%Qq%%%%%%%%%%%%%qQ%q%Qq%%%%%%
540A099%%%%%%qQ%%%q%Qq%%%%%%%%%%%%%q%%%%Qq%Qq%%%%%%%%%%%%q%Qq%%%%Qq%%%%%%%%Q
534A083qqQ%qQ%%%q%%%%%%%%%%%%%%%qQ%%%q%%%%%%%%%%%%%%%%qQq%%%%%%%%%%%%%%%%%%%
527A051%%%%q%%%%%%%%%%%%%%%qQ%%q%Qq%%%%%%%%%%%%%%%%%%qQq%%%%%%%%%%Qq%%%qQ%q%
520A019Q%%%q%%%%%%%%%%%%%%%%%q%%Q%q%Qq%%%%%%%%%%%%%%qQ%q%Qq%%%%%%%%%%%%%%%%q
514I95%Qq%%%%%%%%%%%%%%%%%%%%%%%%%qQq%%%%%%%%%%%%%%%%%%%%%%q%%%%%%%%%%%%%%%%
507I79%%%%%%%%q%%%%%%%%%%%%%%%%%%%%%%q%%%%%%%%%%%%%%%%%%%%%q%%%%%Qq%%%%%%%%%
500I55%%%%%%%%%%%q%Qq%%%%%%%%%%%%%%%%%%qQq%Qq%%%%%%%%%%%%%%%%%%%%%%%%%%%%%q%
494I31%%%%%%%%%%%%%%qQ%%%qQ%%%%q%%%%%%%%%%%%%%%%%%%%%%qQ%q%%%Qq%Qq%%%%%%%%%%
487I15%%qQ%q%%%%%Q%%%qQqQqqQQ%qqQj6QJ6qQj6%J6qqQ%%q%Qq%%%qQ%%%%%%%%%%%%q%%%%
481H91%%%%%%%%%%%%%%%%%%%qQ%qQq%%Q%q%QqQq%%%%%%%%%%%%%qQq%Qq%%QqQq%%Qq%%%%%%
474H75%%%%%%%%%q%%Q%q%Qq%%%%%%%%%%%%%%%%%%%%%%qQ%qQq%%%%%%%%%%%%%%%%%%%%%%%%
467H59%%%%%%qQq%%%%%%%%%%%%%%%%%%%%%%%qQq%QqQq%Qq%%%%%%%%%%%%%%%%%%qQq%QqQqQ
461H43q%%%%Q%q%%%%Qq%%%%%%%%%%%%%qQqQq%%%%%%%%%%%%%%%%%%%%%%%%%%%qQq%%%Qq%%%
454H19%%%%%%%%%%%%%%%%%%%%%%qQ%q%%%%%%%%%%%%%%%%%%%%qQ%%%q%%%%Q%qQ%q%%%%%%%%
447H03%%%%%%%%%%%%%%%%%%%%%%q%%%%%%%%%%%%%%%%%%%%%%%%%%%%%q%%%%%%%%%%%%Qq%%%
441G87%%%%%%%%%%%%%%%qQ%%%q%%%%%%%%%%%%%%%%%%%qQ%qQq%Q%%qQqQ%%q%%Qq%%%%%%%%%
434G71%%%%%%%%%%%%%%%qQ%%%q%%%%%%%%%%%%%%%%%%%%%%%%%%qQ%%%%%q%Q%qQ%q%%%%%%%%
427G55%%%%%%%%%%%%%%%%%%%%%%%q%Q%%%q%%%%%%%%%%qQ%%%%%%%%%%%%%%%q%Q%q%Qq%%%%%
421G39%%%%%%%%%%%%%%%%%%%%%%%%%%%%%%%q%QqQq%%%%%%%%%%%%%%%%%%%%%%%qQ%%%%%%qQ
414G31%%qQ%%qQq%%%%%%%%%%%%%%%%%qQqQ%qQq%%%Q%q%%%%%%%%%%%%%%%%%%%%%%%%%%%%%%
407G15%%%%qQ%q%Qq%%%%%%%%%%%%%%%%%%%%%%%%%%%%%%%%qQ%%%%q%Q%%q%%Qq%%%%%%%%%%%
401F99%%%%%%%%qQ%%%%%%q%%QqQq%Qq%%%%%%%%%%%%%%%%%%%%%%%%%%%%%%%%qQ%%qQ%q%Qq%
394F83%%%Qq%%%%%%%%%%qQ%%%%%%%%qQ%%%%%%qQ%q%%Qq%Qq%%%%Qq%%%%%%%%%%%%%%%%%%q%
387F67%Qj6%J6%%%%%%q%%%%Qq%%%%%%%%%%%%%%%%%%%%%%%%%%%%%q%QqQ%%%qQ%%%%qQqQqQ%
381F67q%%%%%%%%%%%%%%%%%%%%%%%%%%%%%%%%%%q%%%%%%%%%%%%%%%%%%%%%%%%%%%%%%qQqQ
374F51qQ%q%%%%%%Qq%%%%%%%%%%%%%%%%%%%%%%%%%%%%%%%%%%%%q%Q%%%qQ%%%q%%Qq%%%%%%
368F35%Qq%%%%%%%%%%%%%%%%%%%%%%%%%%%%%%qQqQqQ%%qQ%%qQqQq%Qj6QQq%%%%%%%%%%%%%
361F27%%%%%%%%%qQ%q%Q%q%Qq%%%%%%%%%%%%%%%%%%%%%%%%%%%%%%%%%%%%%%%%%%%%%%%%q%
354F11Q%qQq%%%%%%%%%%%%%%%%%%%%%%%%%%%%%%%%%%%%%%%%%%qQ%%qQq%%%%Qq%Qq%%%%%%%
348F03%%%%%%%%%%%%%%%%%%%%%%%%%q%QqQ%qQ%%%%q%%%%%%%%%%%%%%%%%%%%%%%%%%%%%%%%
341E95%%qQ%%%%qQ%qQ%%qQq%%QqQ%qQ%q%%%%%%%%%%%Qq%%%%%%%%%%%%%%qQ%%%%%q%QqQqQ%
334E87qQq%%%Qq%QqQq%%%%%%%%%%%%%%%%%%%%%%%%%%%%%%%%%%%%%%%qQq%%%Q%%q%%%%%Qq%
328E71%%%%%%%%%%%%%%%%%%%%%%%%%%%%%%%%%%%%%%%%%%%qQ%%qQq%%%%%%%%%%%%%%%%%%%%
321E63%%%%%%%%%%%%%%%%%%%%%%%%%%qQ%qQqQqQq%%%%%%%%QqQq%%%%%%%%%%%%%%%%%%%%%%
314E55%qQ%%%%%qQ%%%%%%qQq%QqQq%%%%Qq%%%%%%Q%q%%%%%%%%%%%%%%%%%%%%%%%%qQ%%%%%
308E47%%%%q%Q%q%QqQ%%q%%%Qq%%%%%%%%%%%%%%%%%%%%%%%%%%%%%%%%%%%%%%%%%%%%qQ%qQ
301E39qQ%qQ%q%%%%Qq%%Qq%%%%%%Qq%%%%%%%%%%%%%%%%%%%%%%%%%%%%%%%qQ%%qQ%qQ%q%Qq
294E23Q%%q%%%%%Q%q%%%QqQq%%%%%%%Qq%Qq%%%%%Qq%Q%q%qQqK4l2M0qj6qj6L2o4N6k4K4%%
288E23%%Qq%qJ6q%q%Qq%Q%%q%%Qq%%%%%%%%%%%%%%%%%%%%%qQ%%%%%%%%%%%qQ%%qQ%%%qQ%%
282E15%qQ%qQ%%%q%Qq%%%%Q%q%%%%Qq%%%%%%%%%%%%%%%qQ%%qQ%%qQ%%%qQqQqQ%qQ%%%%%qQ
275E07q%Qq%Q%q%%Qq%%%%%%%%%%%%%%%%%%%%%%%%%%%%%%%%%qQ%%%%%%%%%%%%%%q%QqQqQq%
269D91%QqQq%%%%Qq%%%%%Qq%%%%%%%%Q%q%%%%%Qq%qQ%%%%%%%%%%%%%%%%%%%%%%%%%%%%qQ%
262D91%%qQq%QqQq%Qq%%%Qq%%%%%%%%%%%%%%%%%%%%%%%%%%%%%%%%%%%%%%%%qQ%%%%%%%%%%
255D83%%qQ%%%%%qQ%q%%%QqQq%%%%Qq%%Qq%%%%%%%%%%%%%%%%%%%%%%%%%%%%%%%%%%qQ%%%%
249D75%%%%%%%%qQ%qQ%qQq%%%%%%%%%%%%%%Qq%%%%%%%%%%%%%%%%%%%%%%%%%%%%%%%%%%%%%
242D67%%%%qQqQqQ%%%qQ%%qQ%qQ%%qQqQqQq%%%Q%q%%%%%%%%%%%%%%%%%%%%%%%%%%%%%%%%%
235D59%%%%%%%%%%%%%%%%%%%%%%%%qQ%qQ%%%%%%%%%qQ%q%QqQq%Qq%%%Qq%%%Qq%%%%%%%%%%
229D51%%%%%Qj6Q%%%%%%%%%%%%%%%%%%%%%%%%%%%%%%%%%q%Qq%QqQ%qQ%qQq%%Q%q%%%%%%Qq
222D43%%%%Qq%%%%%%%%%%%%%%%%%%%%%%%%%%%%%%%%%%%%%%%%%%%%%%%%%%q%%%Q%%%%%%%qQ
215D43q%%%Qq%%Qq%Qq%%Qq%QqQq%Qq%%%%%%%%%%%%%%%%%%%%%%%%%%%%%%%%%%%%%%%%%%%%%
209D35%%%qQ%%%%%%%%%%%%%%%qQ%%%qQq%%Q%%q%Qq%Qq%QqQqQ%%%q%%%Qq%%%%%%%%%%%%%%%
202D27%%%%%%%%%%%%%%%%%qQ%q%%Qq%%%%%%Qq%%%%Qq%%%%%%%%Qq%%%Q%q%%%%%%%%%%%%Qq%
195D19%%%%%%%%%%%%Qq%%%%%%%%%%%%%%%Qj6%QqQ%qQq%Q%q%%QQj6%Q%%%%%%qQqQqQqQ%q%Q
189D19%qQ%%q%Qq%Qq%QqQq%%%%%%%%%%%%%%%%Qq%%%%%%%%%%%%%%%%%%%%%%%%%%%%%%%%qQ%
182D11%%%%%%%%%%%%%%%%%%%%qQ%qQ%%%%%%%q%%%%%%%%%Qq%%%%%%%%%%Qq%%%%%%%%%%%%%%
175D03%%%%%%%%%%%%%%%%%%%%%%%%%%%%%%%%%%%%%%%%%%%%%%qQ%%qQqQ%%%q%%%%%%%%%%%%
169C95%%%%%%%%%%%%%%%%Qj6Q%%%%%%%%%%%%%%%%%%%%%%%%%%%%%qQ%%%%%%%%%%%%%%%%%qQ
162C95%%qQ%%%%%%%qQ%%%%%qQ%qQ%%%%%%%q%%%%%%%%%%%%%%Qq%%%%%%%%%%%%%%%%%%%%%%%
155C87%%%%%%%%%%%%%%%%%%%%%%%%%%qQ%%%%%qQ%qQ%qQqQ%qQ%qQ%%%%%%q%Qq%QqQqQ%%q%%
149C79%%%%%%%%%%%%%%%%%%%%%%%%%%%%%%%%%%%%%%%%%%%%%%%%%%%%%%%%%%%%%%qQ%%%qQ%
142C79q%Q%%%%%%qQqQ%%%q%QqQ%%%%q%%Q%%qQ%q%%Qq%%%%%%%%%%%%%%%%%%%%%Qq%%%%%%%%
135C71%%%%%%%%%%%%%%%%%%%%%%%%%%%%%%%%%%%%%%%qQ%%%q%%QqQ%%qQqQq%%%QqQ%%qQq%%
129C63%Qq%%%%%%Qq%Qq%Qq%%%%%%%%Qq%%%%%%%%%%%%%%%%%%Qq%%%%%%%%%%%%%%%%%%%%%%%
122C63%%%%%%%%%%%%%%%%%%%%%%%%%%qQqQ%qQ%qQq%%Q%q%%QqQqQq%%Qq%%%%%%%Qq%%%Q%qQ
115C63q%%%%%%%%%%%%%%%%%%%%%%%%%%%%%%%%%%%%%%%%%%%%%%%%%%%%%%%%%%%%%%%%%%%%%
109C55%%%%%qQqQ%q%%Qq%%Q%q%%Q%q%%Qq%Q%q%Qq%%%Qq%%%Qq%%%%%%%%%%%%%Qq%%%%%%%%%
102C47%%%%%%%%%%%%%%%%%%%%%%%%%%%%%%%%%%%%%%%%%%%%%%%%%%%%%%%%%%qQ%%%%%%%q%Q
95C47%%%%q%Qq%Q%%%%qJ6j6QQj6%Q%q%Q%qQ%%q%QqQqQ%q%QqQq%%%%%%%%%%%%%%%%%%%%%%%
89C39%%%%%%%%%%%%%%%%%%%%%%%%%%%%%%%%%%%%%%%%%%%%qQ%%%qQ%%%%%%%%%%%%%%%%%qQ%
82C39%%%q%Q%qQq%QqQ%q%QqQqQq%%%%%%Q%%q%%%Q%q%%%%%%%%%Qq%%%%%%%%%%%%%%%%%%%%%
75C31%%%%%%%%%%%%%%%%%%%%%%%%%%%%%%%%%%%%%%%qQ%%%%%%%%%%%%qQ%%%%%%%%%q%%Qq%%
69C23%Q%q%%%QqQq%QqQq%%%%Qq%%%%Qq%%%%Qq%%%%%QqQqQq%%%%%%%%Qq%%%%%%%%%%%%%%%%
62C23%%%%%%%%%%%%%%%%%%%%%%%%%%%%%%%%%qQ%%%%%%%%qQ%%qQ%%%%%%%%%%%%qQ%%%%q%Q%
55C23%qQqQ%qQ%%%qQqQ%%q%%%%%%QqQ%q%Qq%%%Qq%Qq%%%%%%%%%%%%%%%%%%%%%%%%Qq%%%%%
48C15%%%%%%%%%%%%%%%%%%%%%%%qQ%%Qq%%%q%Q%%%qQ%%qQ%%%%%%%%%%%%%%%%%%%%%%%%%%%
41C15%%%%%%%qQ%%%qQ%%%%%%%%qQq%Q%qQ%%%qQ%%%q%QqQq%%%%Qq%%%%%%%%%%%%%Qq%%%%%%
35C07%%%%%%%%%%%%%%%%%%%%%%%%%%%%%%%%%%%%%%%%%%%%%%%%%%%%%%%%%%%%%%%%%%%%%%%
28C07%%%%%%%%qQ%%%%%%q%Q%%%qQ%%%%%q%Q%q%QqQq%Qq%%%%%Q%qQq%%%%%%%Qq%%%Qq%%%%%
21B99%Q%q%%%%QqQq%%Qq%%%%%Qq%%%%%%%%%%%%%%%%%%%%%%%%%%%%%%%%%%%%%%%%%%%%%%%%
14B99%%%%%%%%%%%%%%%%%%%%qQ%%q%%Q%qQ%%%%%q%Q%qQ%%%qQ%%%%qQ%%q%%%Qq%%Q%%qQ%qQ
8B99qQq%Qq%Qq%Q%q%%%Q%qQq%Q%q%%%%%QqQq%%%%%%Qq%%%%%%%%Qq%%%%%%%%%%%%%%%%%%%%
1B91%%%%%%%
0B91
##$OBSERVED MULTIPLETS=	(I, X, Y, Hs, Vs, An, H, C, N, (J))
$$ I: Multiplet Index
$$ X: Strt Coordinate
$$ Y: End Coordinate
$$ Hs: Horizontal Chemical Shift
$$ An: Normalised Integral Area
$$ H: Hydrogens
$$ C: Category
$$ N: Name
$$ (J): Coupling Constants
(1, 2.1230121091577136561, 2.1590123341591200834, 2.1410122216584168697, 6, 6, s, 1&comma;3)
##$OBSERVED MULTIPLETS AREAS=	
(1, 3.0053632620726982161)
##$OBSERVED MULTIPLETS PEAKS=	(I, X, Y)
$$ I: Multiplet Peak Index
$$ X: Peak x Position
$$ Y: Peak Intensity
(1, 2.1410122216584168697, 0.24285116791725158691)
##$PREDICTED PEAKS=	(X Y T A)
(2.141030454801476246,  , 0.10000000000000000555, <1-a>)
(2.141030454801476246,  , 0.10000000000000000555, <1-b>)
(2.141030454801476246,  , 0.10000000000000000555, <1-c>)
(2.141030454801476246,  , 0.10000000000000000555, <3-a>)
(2.141030454801476246,  , 0.10000000000000000555, <3-b>)
(2.141030454801476246,  , 0.10000000000000000555, <3-c>)
##$PREDICTEDCOUPLINGCONSTANTS=	J(A,B)	$$ (Hz)
7.47(1-a, 1-b)
7.47(1-a, 1-c)
7.47(1-b, 1-a)
7.47(1-b, 1-c)
7.47(1-c, 1-a)
7.47(1-c, 1-b)
7.47(3-a, 3-b)
7.47(3-a, 3-c)
7.47(3-b, 3-a)
7.47(3-b, 3-c)
7.47(3-c, 3-a)
7.47(3-c, 3-b)
##END=		$$ NMR SPECTRUM
##TITLE=	Predicted 1H NMR Spectrum
##JCAMP-DX=	6.0	$$ MestReNova 17.0.0-41178
##DATA TYPE=	NMR PEAK TABLE
##DATA CLASS=	PEAK TABLE
##BLOCK_ID=	4
##ORIGIN=	Mestrelab Research S.L.
##OWNER=	ctheodore
##CROSS REFERENCE=	NMR SPECTRUM: BLOCK_ID=3                                     
##.OBSERVE FREQUENCY=	500
##.OBSERVE NUCLEUS=	^1H
##NPOINTS=	1
##FIRSTX=	2.1410122216584168697
##LASTX=	2.1410122216584168697
##XFACTOR=	1
##YFACTOR=	1
##FIRSTY=	0.24285116791725158691
##XUNITS=	PPM
##YUNITS=	ARBITRARY UNITS
##PEAK TABLE=	(XYW..XYW)
2.1410122216584168697,0.24285116791725158691,0.0015026910387705766023
##$MNOVA/PEAK_DATA_TABLE=	(T,F,A,ST,SP,APT,APC)
$$ Complementary to PEAK TABLE
$$ T: Type
$$ F: Flags
$$ A: Annotation
$$ ST: Shape Type
$$ SP: Shape Parameter
$$ APT: Attached Peaks Type
$$ APC: Attached Peaks Count
Compound,None,,0,0,0,0
##END=		$$ NMR PEAK TABLE
##END=		$$ LINK
