##TITLE=	cyclohexane 13c
##JCAMP-DX=	6.0	$$ MestReNova 17.0.0-41178
##DATA TYPE=	LINK
##BLOCKS=	4    
##ORIGIN=	Mestrelab Research S.L.
##OWNER=	ctheodore
##$MNOVA/METADATA=	(DOCUMENT,BASE64)
eyJuYW1lIjoiL1VzZXJzL2N0aGVvZG9yZS9Eb2N1bWVudHMvY2xhc3Nlcy9OTVIgZXhwZXJpbWVudC9
naXRodWIgZmlsZXMvY3ljbG9oZXhhbmUvY3ljbG9oZXhhbmUgMTNjLm1ub3ZhIiwicGFnZXMiOlt7Im
l0ZW1zIjpbIjEiLCAgICAgICAgICAgICAgICAgICAgICAgICAgICAgICAgICAgICAiMyIgICAgICAgI
CAgICAgICAgICAgICAgICAgICAgICAgICAgICAgXX1dfQ==
##TITLE=	
##JCAMP-CS=	3.7	$$ MestReNova 17.0.0-41178
##BLOCK_ID=	1
##ORIGIN=	Mestrelab Research S.L.
##OWNER=	ctheodore
##$MNOVA/METADATA=	(ITEM,BASE64)
eyJhbmdsZSI6MC4wLCJwb2ludHMiOlt7IngiOjUzMjEuMCwieSI6NTgzNS4wfSx7IngiOjU1MjIuNTE
xMzU1OTgyNzcxLCJ5Ijo1ODM1LjB9LHsieCI6NTUyMi41MTEzNTU5ODI3NzEsInkiOjYwNjEuNjU0Nj
Y0NjA4NDU3fSx7IngiOjUzMjEuMCwieSI6NjA2MS42NTQ2NjQ2MDg0NTd9LHsieCI6NTMyMS4wLCJ5I
jo1ODM1LjB9XSwieiI6MS4wfQ==
##NAMES=	
##ATOMLIST=	
$$ AN	AS	NH
	1	C	2
	2	C	2
	3	C	2
	4	C	2
	5	C	2
	6	C	2
##BONDLIST=	
$$ AN1	AN2	BT
	1	2	S
	2	3	S
	3	4	S
	4	5	S
	5	6	S
	6	1	S
##MAXRASTER=	32768
##XY_RASTER=	
$$ AN	X	Y	Z
	1	-28379	-16384	0
	2	-28379	16384	0
	3	0	32768	0
	4	28379	16384	0
	5	28379	-16384	0
	6	0	-32768	0
##END=		$$ JCAMP-CS
##TITLE=	Predicted 13C NMR Spectrum
##JCAMP-DX=	6.0	$$ MestReNova 17.0.0-41178
##DATA TYPE=	NMR PEAK ASSIGNMENTS
##DATA CLASS=	ASSIGNMENTS
##BLOCK_ID=	2
##ORIGIN=	Mestrelab Research S.L.
##OWNER=	ctheodore
##CROSS REFERENCE=	STRUCTURE: BLOCK_ID=1                                     
NMR SPECTRUM: BLOCK_ID=3                                     
##.OBSERVE FREQUENCY=	125
##.OBSERVE NUCLEUS=	^13C
##NPOINTS=	6
##XUNITS=	PPM
##YUNITS=	ARBITRARY UNITS
##PEAKASSIGNMENTS=	(XYWA)
(27.072680143253265328, 0.6994113922119140625, 0.0060596754743400538246, <1>)
(27.072680143253265328, 0.6994113922119140625, 0.0060596754743400538246, <2>)
(27.072680143253265328, 0.6994113922119140625, 0.0060596754743400538246, <3>)
(27.072680143253265328, 0.6994113922119140625, 0.0060596754743400538246, <4>)
(27.072680143253265328, 0.6994113922119140625, 0.0060596754743400538246, <5>)
(27.072680143253265328, 0.6994113922119140625, 0.0060596754743400538246, <6>)
##END=		$$ NMR PEAK ASSIGNMENTS
##TITLE=	Predicted 13C NMR Spectrum
##JCAMP-DX=	6.0	$$ MestReNova 17.0.0-41178
##DATA TYPE=	NMR SPECTRUM
##DATA CLASS=	XYDATA
##BLOCK_ID=	3
##ORIGIN=	Mestrelab Predictor
##OWNER=	ctheodore
##NUMDIM=	1
##$MNOVA/METADATA=	(ITEM,BASE64)
eyJhbmdsZSI6MC4wLCJheGVzIjp7IngiOnsibWF4IjoyMzAuMDI1MzAyNzgzMzA2MTYsIm1pbiI6LTk
uOTk5MjY4ODY0ODg3NjM4fSwieSI6eyJtYXgiOjAuNzY5MzUyNTMyOTIzMjIxNiwibWluIjotMC4wNj
k5NDExNDg1MzIyODUxN319LCJwb2ludHMiOlt7IngiOjUzMjEuMCwieSI6NTgzNS4wfSx7IngiOjg3M
jIuMCwieSI6NTgzNS4wfSx7IngiOjg3MjIuMCwieSI6ODIwOC4wfSx7IngiOjUzMjEuMCwieSI6ODIw
OC4wfSx7IngiOjUzMjEuMCwieSI6NTgzNS4wfV0sInoiOjAuMH0=
##.OBSERVE FREQUENCY=	125
##.OBSERVE NUCLEUS=	^13C
##.SOLVENT NAME=	DMSO-d6
##.PULSE SEQUENCE=	
##.ACQUISITIONMODE=	SIMULTANEOUS (DQD)
##$ORIGINAL FORMAT=	Predictor
##$MNOVA/SCALES_VERSION=	9
##$PARAMETER FILE=	(parameters, ASCII, , 0)
$$ <?xml version="1.0" encoding="utf-8"?>
$$ <PredictorParameters>
$$     <Title>Predicted 13C NMR Spectrum</Title>
$$     <Origin>Mnova: NMR Prediction</Origin>
$$     <Name>Mestrelab Predictor</Name>
$$     <Version>1.7</Version>
$$     <Nucleus>13C</Nucleus>
$$     <Solvent>DMSO-d6</Solvent>
$$     <From>-10</From>
$$     <To>230</To>
$$     <Frequency>125</Frequency>
$$     <LineWidth>1.5</LineWidth>
$$     <Size>131072</Size>
$$     <DEPT>0</DEPT>
$$     <ProtonatedCarbons>0</ProtonatedCarbons>
$$     <ExcludeLabile>false</ExcludeLabile>
$$     <FastPrediction>0</FastPrediction>
$$     <ProtonDecoupled>1</ProtonDecoupled>
$$     <Reference/>
$$     <Options>
$$         <Settings>
$$             <Predictor Name="Mestrelab Predictor">
$$                 <Settings>
$$                     <Model>/Applications/MestReNova.app/Contents/Resources/data/13C.mbst</Model>
$$                 </Settings>
$$             </Predictor>
$$         </Settings>
$$     </Options>
$$     <MoleculeID>{584a5cb2-a767-4309-83a2-a0035eba7d06}</MoleculeID>
$$ </PredictorParameters>
$$ 
##XUNITS=	HZ
##YUNITS=	ARBITRARY UNITS
##FIRSTX=	28750
##LASTX=	-1249.7711181640625
##DELTAX=	-0.2288818359375
##XFACTOR=	1
##YFACTOR=	3.25688809406758692E-10
##FIRSTY=	1.8234127097116470395E-08
##MINY=	-7.8209776432913713506E-09
##MAXY=	0.6994113922119140625
##NPOINTS=	131072
##XYDATA=	(X++(Y..Y))
28750E6%%Q%%%%%qQ%%%%qQqQqQ%%%%%%q%Q%qQ%%%%%%%%%%%%%%%%qQ%qQ%%%%%%%%%%%q%Q%%
28734F4%%%%%%%%qQ%qQ%%q%%QqQ%%%q%QqQq%%Q%%q%%%%QqQ%%%%%qQ%%%%%qQ%qQ%%%%%%qQq
28718E6Q%%%q%%Q%qQq%%Qq%Q%%%%%%%%%%q%QqQ%q%%%Qq%Qq%%%Q%qQ%%q%%%%%%%%%%Q%q%%%
28703E6Q%q%Q%%qQq%%%Q%qQqQ%%q%Qj6J6j6J6k4J6J6j6Q%qQq%%%Q%%%%%qQ%q%QqQq%%%%%Q
28689F4%%q%QqQ%%%%qQ%q%%%%%%%%Qq%%Qq%%%%%%%QqQ%q%%%%%%Qq%%%%Q%q%%%%Q%q%Qq%%%
28673E6Qq%%%%%%%%%Qq%%%Qq%Qq%%QqQq%%%%%%%%%%%%%%%%%%%%%%%%%%%%%%%%%%Qq%%%%%%
28657E6%%%%%%%%%%%%%%%%%%%Qq%%%%%%%%%%%%Qq%%Qq%%%%%%Qq%%%%%%%%%%%%%%%%%%Qq%%
28641E6%%%%%%%%Qq%%%Q%qQq%%%%%%%%%%%%%%%%%%%%%%%%%%%%%%%%%%%%%%%%%%%%%%%%%%%
28625E6%%%%%%%%%%%%%%%%%%%%%%%%%%%%%%%%%%%%%%%%%%%%%%%%%%%%%%%%%%%%%%%%%%%%%
28610E6Qq%%%%%%%%%%%%%%%%%%%%%%%%%%%%%%%%%%%%%%%%%%%%%%%%%%%%%%%%%%%%%%%%%%%
28594E6%%%%%%%%%%%%%%%%%%%%%%%%%%%%%%%%%%%%%%%%%%%%%%%%%%%%%%%%%Qq%%Q%%q%%%%
28578E6%%Qq%%%%%%%%%%%%%%%%%%%%%%%%%%%%%%%%%%%%%%%%%%%%%%%%%%%%%%%%%%%%%%%%%
28562E6%%%%%%%%%%%%%%%%%%%%%%%%%%%%%%%%%%%%%%%%%%%%%%%%%%%%%%%Qq%%%%%%%%%%%%
28547E6%%%%%%%%%%%%%%%%%%%%%%%%%%%%%%%%%%%%%%%%%%%%%%%%%%%%%%%%%%%%%%%%%%%%%
28531E6%%%%%%%%%%%%%%%%%%%%%%%%%%%%%%%%%%%%%%%%%%%%%%%%%%%%%%%%%%%%%%%%%%%%%
28515E6%%%%%%%%%%%%%%%%%%%%%%%%%%%%%%%%%%%%%%%%%%%%%%%%%%%%%%%%%%%%%%%%%%%%%
28499E6%%%%%%%%%%%%%%%%%%%%%%%%%%%%%%%%%%%%%%%%%%%%%%%%%%%%%%%%%%%%%%%%%%%%%
28483E6%%%%%%%%%%%%%%%%%%%%%%%%%%%%%%%%%%%%%%%%%%%%%%%%%%%%%%%%%%%%%%%%%%%%%
28468E6%%%%%%%%%%%%%%q%%Q%%%Q%qqQ%%%qQ%%%%%%%%%%%%%%%%%%%%%%%%%%%%%%%%%%%%%%
28452E6%%%%%%%%%%%%%%%%%%%%%%%%%%%%%%%%%%%%%%%%%%%%%%%%%%%%%%%%%%%%%%%%%%%%%
28436E6%%%%%%%%%%%qQ%%%%%%%%%%%%%%%%%%%%%%%%%%%%%%%%%%%%%%%%%%%%%%%%%%%%%%%%
28420E6%%%%%%%%%%%%%%%%%%%%%%%%%%%%%%%%%%%%%%%%%%%%%%%%%%%%%%qQ%%%%%%%%%%qQ%
28404E6%%%%q%Q%%%%%%%%%%%%%%%%%%%%%%%%%qQ%%%%%%%%%%%%%%%%%%%%%%%%%%%%%%%q%Qq
28389D8%%Q%%qQ%%%%%%qQ%%%%%%%%%%%%%qQ%qQ%%%q%Q%%%%%%%%%%%qQq%%%Q%qQ%%%%%%q%%
28373D8Q%q%Q%%%%%qQ%%%%%%%%%%%%%%%%%%%%%%%%%%%%%%%qQ%%q%Q%%%%%qQ%q%QqQq%Q%%%
28357E6%%%%%%%%qQ%%qQq%%Q%q%%QqQ%%%%%%%%%%%%%%%q%Q%%qQqQ%%q%Q%qQ%qQ%q%%%%%Q%
28341E6qQq%%Qq%%%%%QqQqQqQq%%%%QqQq%%Q%%%%%%%%qQ%%%%q%Q%q%%%%%Q%%%q%%%Qq%%%%
28325D8%%%%%%%%%Qq%Qq%%%%%%%%%%QqQ%qQ%q%%%%%%%Qq%%%%QqQqQq%%%%Q%%q%%Q%%qQqQq
28310D8%%%Q%q%%%%%%%%%Qq%Q%q%%%%%%%%%%%%%Q%%%%q%Qq%%%%%%%%%%%%%%%%%QqQq%%%%%
28294D8%Qq%Qq%%%%%%%%%%%%%QqQ%q%%%%QqQ%qQ%qQ%%q%%%%%%%%%%%%%%%%%%%%%%%%%%%%%
28278D8%%%%%Qq%%QqQq%%%%%%%%%%%%%%%%%%%%%%%%%%%%%%%%%%%%%%%%%%%%%%%%%%%%%%%%
28262D8%%%%%%%%%%%%%%%%%%%%%%%Qq%%Qq%%%%%%%Qq%Qq%%%%%%%%%%%QqQq%Qq%%%%%%%%%%
28246D8%%%%%%%%%%%%%%%%%%%%%%%%Qq%%%%%%%%%%%%%%%%%%%%%%%%%%%%%%%%%%%%%%%%%%%
28231D8Qq%%%Q%%qqJ6%j6K4j6J6j6qQQq%%%%%%%%%%%%%%%%%%%%%%%%%%%%%%%%%%%%%%%%%%
28216D8%%%%%%%%%%%%%%%Qq%%%%%%%%%%%%%%%%%%%%%%%%%%%%%%%%%%%%%%%%%%%%%%%%%%%%
28200D8%%%%%%%%%%%%%%%%%%%%%%%%%%%%%%%%%%%%%%%%%%%%%%%%%%%%%%%%%%%%%%%%%%%%%
28185D8%%%%%%%%%%%%%%%%%%%%%%%%%%%%%%%%%%%%%%%%%%%%%%%%%%%%%%%%%%%%%%%%%%%Qq
28169D8%%%%%%%%%%%%%%%%%%%%%%%%%%%%%%%%%%%%%%%%%%%%%%%%%%%%%%%%%%%%%%%%%%%%%
28153D8%%%%%%%%%%%%%%%%%%%%%%%%%%%%%%%%%%%%%%%%%%%%%%%%%%%%%%%%%%%%%%%%%%%%%
28137D8%%%%%%%%%%%%%%%%%%%%%%%%%%%%%%%%%%%%%%%%%%%%%%%%%%%%%%%%%%%%%%%%%%%%%
28121D8%%%%%%%%%%%%%%%%%%%%%%%%%%%%%%%%%%%%%%%%%%%%%%qQqQ%%%%%%%%%%%%%%%%%%%
28106D8%%%%%%%%%%%%%%%%%%%%%%%%%%%%%%%%%%%%%%%%%%%%%%%%%%%%%%%%%%%%%%%%%%%%%
28090D8%%%%%%%%%%%%%%%%%%%%%%%%%%%%%%%%%%%%%Qq%%%%%%%%%%%%%%%%%%%%%%%%%%%%%%
28074D8%%%%%%%%%%%%%%%%%%%%%%%%%%%%%%%%%qQ%%%%%%%%%%%%%%%%%%%%%%%%%%%%%%%%%%
28058D8%%%%%%%%%%%%%%%%%%%%%%%%%%%%%%%%%%%%%%%%%%%%%%%%%%%%%%%%%%%%%%%%%%%%%
28043D8%%%%%%%%%%%%%%%%%%%%%%%%%%%%%%%%%%%%%%%%%%%%%%%%%%%%%%%%%%%%%%%%%%%%%
28027D8%%%%%%%%%%%%%%%%%%%%%%%%%%%%%%%%%%%%%%%%%%%%%%%%%%%%%%%%%%%%%%%%%%%%%
28011D8%%%%%%%%%%%%%%%%%%%%%%%%%%%%%%%%%%%%%%%%%%%%%%%%%%%%%%%%%%%%%%%%%%%%%
27995D8%%%Qq%%Qq%qQq%Q%%%%%%%%%%%%%%%%%%%%%%%%%%%%%%%%%%%%%%qQ%%%%%%qQ%%%%%%
27979D8%%q%Q%%%%%%%%%%%%%%%%%%%%%%%%%%%%%%%%%%%%%%%%%%%%%%qQ%%%%%%%%%%%%%%%%
27964D8%%%%%%%%%%%%%%%%%%%%%qQ%%%qQ%%%%%%%%%%%%%%%%%%%%%%%%%%%%%%%%%%%%qQ%%%
27948D8%%%%%%%%%%%%%%%%%%%%%%qQ%%%%%%%%%%%%%%%%%%%%%%%%%%%%%%%qQ%%%%%qQ%%%%%
27932D8%%%%%%%%%%%%%%%%%%%%%%%%%%%%%%%%%%%%%%%%%%%%%%%%%q%QqQ%%%%%%%%%%q%Q%q
27916D0Q%%%qQ%%%%qQ%%%qQ%%%%%%%%%%%%%%%%%%%%%%qQqQ%%%%%%qQqQ%%%%%%%%%%%%qQqQ
27900D8qQ%q%%Q%qQqQqQqQ%%%%%%%%qQ%%qQ%%%%%qQ%%%%%%%%%%%qQ%%%%%%%%%%qQ%%%%q%%
27885D0%%%Qq%%QqQ%qQ%%%%%%%%qQ%q%Qq%%Q%q%%%Q%%qQ%%q%%%QqQq%Q%%%%qQ%qQq%Q%q%Q
27869D8%%%%%%%%%%%%%qQ%%qQ%qQ%%qQqQ%%%%qQ%qQ%%%%%%%%%%%%qQ%qQ%qQ%q%%%%%%%%%%
27853D0%Qq%%Q%qQ%%%%qQq%Q%q%%QqQ%qQq%QqQ%qQqQqQ%q%%%Qq%%%Qq%Q%q%%%%Q%q%%Q%qQ
27837D8%q%QqQqQq%Q%qQ%q%QqQqQq%QqQ%%%qQq%%Q%%%qQq%QqQ%%%%q%%Q%qQ%qQ%%%%%q%Qq
27821D0%%Q%%%%q%%%QqQ%%q%%QqQ%%q%QqQ%%qQ%qQ%%%%%qQ%%%q%%%%%%%%%Q%q%%QqQ%%%%%
27806D8q%Q%qQ%%qQq%%%QqQqQq%%%Qq%%%%Q%q%%%%%%%%%%%%%%Qq%%%%%%%%%Qq%%%Qq%QqQq
27790D0QqQ%qQ%qQqQ%qQqQq%%%%%%%%%%%%Qq%%%%Q%q%%%QqQq%%%%%%Q%q%%%%%Q%q%%%%%%%
27774D0%Qq%%%%%%%%%%%%%%%%%%%%%%Qq%%%%%%%Q%q%%%%%QqQq%QqQq%QqQ%%%Qk4J6q%%j6K4
27759D8Qk4K4k4QJ6j6%%%%%%%Q%%%q%%Qq%%%%%%%%Qq%%%%%%%%%%%%%%%%%%%%%Qq%%%%%%%%
27744D0%%%%%%%%%%%%%%%%%%%%%%%%%%%%%%%%%%%%%%%%%%%%%%%%Qq%%Qq%%Qq%%%%%Q%%%q%
27729D0%%%%%%%%%%%%%%%%%%%%%Qq%%%%%%%%%%%%%%%%%%%%%%%%%%%%%%%%%%%%%%%%%%%%%%
27713D0%%%%%%%%%%%%%%%%%%%%%%%%%%%%%%%%%%%%%%%%%%%%%Qq%%%%%%%Qq%%%%Qq%%%%%%%
27697D0%%%%%%%%%%%%%%%%%%%%%%%%%%%%%%%%%%%%%%%%%%%%%%Qq%%%%%%Qq%%%%%%%%%%%%%
27681D0%%%%%%%%%%%%%%%%%%%%%%%%%%%%%%%%%%%%%%%%%%%%%%%%%%%%%%%%%%%%%%%%%%%%%
27665D0%%%%%%%%%%%%%%%%%%%%%%%%%%%%%%%%%%%%%%%%%%%%%%%%%%%%%%%%%%%%%%%%%%%%%
27650D0%%%%%%%%%%%%%%%%%%%%%%Qq%%%%%%%%%%Q%q%%%%%%%%%%%%%%%%%%%%%%%%%%%%%%%%
27634D0Qq%%%%%%%%%%%%%%%%%%%%%%%%%%%%%%%%%%%%%%%%%%%%%%%%%%%%%%%%%%%%%%%%%%%
27618D0%%%%%%%%%%%%%%%%%%%%%%%%%%%%%%%%%%%%%%%%%%%%%%%%%%%%%%%%%%%%%%%%%%%%%
27602D0%%%%%%%%%%%%%%%%%%%%%%%%%%%%%%%%%%%%%%%%%%%%%%%%%%%%%%%%%%%%%%%%%%%%%
27586D0%%%%%%%%%%Qq%%%%%%%%%%%%%%%%%%%%%%%%%%%%%%%%%%%%%%%%%%%%%%%%%%%%%%%%%
27571D0%%%%%%%%%%%%%%%%%%%%%%%%%%%%%%%%%%%%%%%%%%%%%%%%%%%%%%%%%%%%%%%%%%%%%
27555D0%%%%%%%%%%%%%%%%%%%%%%%%%%%%%%%%%%%%%%%%%%%%%%%%%%%%%%%%%%%%%%%%%%%%%
27539D0%%%%%%%%%%%%%%%%%%%%%%%%%%%%%%%%%%%%%%%%%%%%%%%%%%%%%%%%%%%qQqQ%qQ%qQ
27523D0%%%%%%%%%%%%%%%%%%%%%%%%%%%%%%%%%%%%%%%%%%%%%%%%%%%%%%%%%%%%%%%%%%%%%
27507D0%%%%%%%%%%%%%%%%%%%%%%%%%%%%%%%%%%%%%%%%%%%%%%%%%%%%%%%%%%%%%%%%%%%%%
27492D0%%%%%%%%%%%%%%%%%%%%%%%%%%%%%%%%%%%%%%%%%%%%%%%%%%%%%%%%%%%%%%%%%%%%%
27476D0%%%%%%%%%%%%%%%%%%%%%%%%%%%%%%%%%%%%%%%%%%%%%%%%%%%%%%%%%%%%%%%%%%%%%
27460D0%%%%%%%%%%%%%%%%%%%%%%%%%%%%%%%%%%%%%%%%%%%%%%%%%%%%%%%%%%%%%%%%%%%%%
27444D0%%%%%%%%%%%%%%%%%%%%%%%%%%%%%%%%%%%%%qQ%%%%%%%%%%%%%%%%%%%%%%%%%%%%%%
27428D0%%%%%%%%%%%%%%%%%%%%%%%%%%%%%%%%%%%%%%%%%%%%%%%%%%%%%%%%%%%%%%%%%%%%%
27413D0%%%%%%%%%%%%%%%%%%%%%qQ%%%%qQ%%%%%%%%%%%%%%%%%%%%%%%%%%%%%%%%%%%%%%%%
27397D0%%%%%%%%%%%%%%%%%%%%%%%%%%%%%%%%%%%%%%%%%%%%%%%%%%%%%%%%%%%%%%%%%%%%%
27381D0%%%%%%%%%%%%qQ%%%%%%%%%%%%%%%%%%%%%%%%%%%%%%%%%%%%%%%%%%%%%%%%%%%%%%%
27365D0%%%%%%%%%%%%%%%%%%%%qQ%%%%%%%%%%%%%%%%%%%qQ%%%qQ%%%%%%%%%%%%%%%%%%%%%
27349D0%q%Qq%%Q%%%%%%%%%%%%%%%%%%%%%%%%%%%%%%%%%%%%%%%%%%%%%%%%%%%%%%%%%%%%%
27334D0%%%%%%%%qQ%%%%%%%%%%%%%%%%%%%%%%%qQ%%%%%%%%%%%%%%%%%%%%%%%%%%%qQ%%%%%
27318D0%%%%%%%%%%%%%%%%%%%%%%%%%%%%%%%%%%%%%%%%%%%%%%%%%%%%%%%%%%%%%%%%%%%%%
27302D0%%%%%%%%%%%%q%Q%%%%%%%%%qQqQqQ%%%%%%%qQqQqQqQ%%qJ6%j6Q%qQ%%%qQ%qQ%%%%
27287D0%qQ%%%%%%%%%%%%%%%%%%%%%%%%%%%%%%%%%%%%%%%%%%%%%%qQ%%%%%%%%%%%%%%%%%%
27271D0%%%%%%%%%%qQqQ%q%Q%%%qQ%%%%%%%%%%%%%%%%%%%%%%qQ%%%%%%%%%%%%%qQ%%%%%%%
27255D0%qQq%Q%%%q%Q%%%%qQ%%%%%%%%%qQ%qQ%%%%%%%%%%%%%qQ%qQ%%%%%%%%%%%%%%%%%%%
27239D0%%%%%%%%%%%%%%%%%%%%%q%%Q%q%Q%%%%%qQqQqQ%%%%%%%%%%%%%%%%%%qQ%qQ%%%qQ%
27224D0%%%%%qQ%%%%%%%%%%%%%%%%%qQ%%q%Q%%%%%%qQ%%%qQ%q%Q%qQqQqQq%Q%qQqQ%%%q%Q
27208D0%%%%qQ%qQ%%%qQ%q%%Q%%qQq%Qq%Qq%%%QqQ%qQqQ%qQqQ%%%%%%%qQ%qQ%qQ%%%%%%%%
27192D0qQqQq%Qq%Qq%%%Q%%qQq%%%QqQ%%%%%%q%Qq%%Qq%Q%%%%%%%%%%%%%qQ%q%QqQ%%%qQ%
27176D0%%qQqQqQq%QqQ%q%%%%%%QqQq%%Q%%%%%%qQ%%qQ%q%Qq%Q%q%%%Qq%%%%%%%Qq%%%%%Q
27160D0qQ%%q%%Qq%%Qq%%Q%qQ%q%%Q%q%QqQq%Q%qQ%q%%Qq%%%Qq%Qq%%%%QqQq%%%%QqQq%%Q
27145D0%%qQq%QqQq%Qq%%%%%%%%QqQq%%%%QqQq%%Q%%q%%%%Qq%%QqQq%Qq%Qq%Q%%qQ%q%%Q%
27129D0q%%%%%%%Q%qQ%q%%Qq%%%%%%%%%Qq%Qq%%%Qq%%%%%%%Q%%%q%%QqQq%Q%%%q%%%%Q%qQ
27113D0qQq%%Q%q%%Qq%Qq%%%%%%%%Qq%Q%q%%%%%%%%%%%%%%%%%%%%%%Q%%%qQqQ%qQqQ%q%Qq
27097C2%%%QqQ%%q%%Q%q%%Qq%%%Qq%%%%%%%%%%%%%%%%%%%%%%%%Q%q%Q%q%%%%Q%qQqQqQ%%q
27081C2Qq%%%%%%%%%%%%%%%%%%%%%%%%%%%%%Qq%%%%%Q%q%%%%Q%%%qQq%%%Q%q%%%%%%%Qq%%
27066C2Qq%%%%Qq%%%%%%%%%%%%%%%%%%%%%%%QqQqQ%qQq%Qq%Q%qQqQ%qQq%%%Qq%%%%%%Q%q%
27050C2QqQ%q%Qq%Qq%%%%%Qq%%%%%%Qq%%%%%%%QqQqQ%q%QqQqQq%%%%%%%%%%%%%%%QqQq%%%
27034C2%%%Qq%%%%%%%%%%%%Qq%%%%%%%%%%%%Qq%Qq%Qq%Qq%%%%%%Qq%%%%%%%%%%%%%Qq%%%%
27018C2%%%%%%Qq%Q%q%Q%%q%%%%%%%%%%%Qq%%%%%%%%%%QqQq%%%%%%%%%%%%%%%%%%%%%%%%%
27002C2%%Qq%%%%%%%%%%Q%qQq%%%Q%%%q%%%%%%%%%%%Qq%%Qq%Qq%Qq%%%%%%%%%%%%%%%%%%%
26987C2%%%%%%%%%%%%%Qq%%%%%Qq%%%%%%%%%%%%%%%%%Qq%%%%%%%%%%Qq%%%%%%Qq%%%%%%%%
26971C2%%%%%%%%%Qq%%%%%%%%%%%%%%%%%%%%%%%%%%%%%%%%%%%%%%%%%%%%%%%%%%%%%%%%%%
26955C2%%%%%%%%%%%%%%%%%%%%%%%%%%%%%%%%%%%%%%%%%%%%%%%%%%%%%%%%%%%%%%%%%%%%%
26939C2%%%Qq%%%%%%%%%%%%%%%%%%%%%%%%%%%%%%%%%%%%%%%%%%%%%%%%%%%%%%%%%%%%%%%%
26924C2%%%%%%%%%%%%%%%%%%%%%%%%%%%%%%%%%%%%%%%%%%%%%%%%%%%%%%%%%%%%%%%%%%%%%
26908C2%%%%%%%%%%%%%%%%%%%%%%%%%%%%%%%%%%%%%%%%%%%%%%%%%%%%%%%%%%%%%%%%%%%%%
26892C2%%%%%%%%%%%%%%%%%%%%%%%%%%%%%%%%%%%%%%%%%%%%%%%%%%%Qq%%%%%%%%%%%%%%%%
26876C2%%%%%%%%%%%%%%%%%%%%%%%%%%%%%%%%%%%%%%%%%%%%%%%%%%%%%%%%%%%%%%%%%%%%%
26860C2%%%%%%%%%%%%%%%%%%%%%%%%%%%%%%%%%%%%%%%%%%%%%%%%%%%%%%%%%%%%%%%%%%%%%
26845C2%%%%%%%%%%%%%%%%%%%%%%%%%%%%%%%%%%%%%%%%%%%%%%%%%%%%%%%%%%%%%%%%%%%%%
26829C2%%%%%%%%%%%%%%%%%%%%%%%%QqQq%j6L2j6QQ%q%%qQ%q%%Qq%%%%%%%%%%%%%%%%%%%%
26814C2%Qq%%%%%%%%%%%%%%%%%%%%%%%%%%%%%%%%%%%%%%%%%%%%%%%%%%%%%%%%%%%%%%%%%%
26798C2%%%%%%%%%%%%%%%%%%%%%%%%%%%%%%%Q%q%%%%%%%%%%%%%%%%%%%%%%%%%%%%%%%%%%%
26782C2%%%%%%%%%%%%%%%%%%%%%%%%%%%%%%%%%%%%%%%%%%%%%%%%%%%%%%%%%%%%%%%%%%%%%
26766C2%%%%%%%%%%%%%%%%Qq%%%%%%%%%%%%%%%%%%%%%%%%%%%%%%%%%%%%%%%%%%%%%%%%%%%
26750C2%%%%%%%%%%%%%%%%%%%%%%%%%%%%%%%%%%%%%%%%%%%%%%%%%%%%%%%%%%%%%%%%%%%%%
26735C2%%%%%%%%%%%%%%%%%%%%%%%%%%%%%%%%%%%%%%%%%%%%%%%%%%%%%%%%%%%%%%%%%%%%%
26719C2%%%%%%%%%%%%%%%%%%%%%%%%%%%%%%%%%%%%%%%%%%%%%%%%%%%%%%%%%%qQ%%%%Q%q%%
26703C2%%%%%%%%%%%%%%%%%%%%%%%%%%%%%%%%%%%%%%%%%%%%%%%%%%%%%%%%%%%%%%%%%%%%%
26687C2%%%%%%%%%%%%%%%%%%%%%%%%%%%%%%%%%%%%%%%%%%%%%%%%%%%%%%%%%%%%%%%%%%%%%
26672C2%%%%%%%%%%%%%%%%%%%%%%%%%%%%%%%%%%%%%%%%%%%%%%%%%%%%%%%%%%%%%%%%%%%%%
26656C2%%%%%%%%%%%%%%%%%%%%%%%%%%%%%%%%%%%%%%%%%%%%%qQ%%%%%%%%%%%%%%%%%%%%%%
26640C2%%%%%%%%%%%%%%%%%%%%%%%%%%%%%%%%%%%%%%%%%%%%%%%%%%%%%%%%%%%%%%%%%%%%%
26624C2%%%%%%%%%%%%%%%%%%%%%%%%%%%%%%%%%%%%%%%%%%%%%%%%%%%%%%%%%%%%%%%%%%%%%
26608C2%%%%%%%%%%%%%%%%%%%%%%%%%%%%%%%%%%%%%%%%%%%%%%%%%%%%%%%%%%%%%%%%%%%%%
26593C2%%%%%%%%%%%%%%%%%%%%qQ%%j6J6%qQ%%%qQ%%%%%%%%%%%%%%%%%%%%%%%%%%%%%%%%%
26577C2%%%%%%%%%%%%%%%%%%%%%%%%%%%%%%%%%%%%%%%%%%%%%%%%%%%%%%%%%%%%%%%%%%%%%
26561C2%%%%%%%%%%%%%%%%%%%%%%%%%%%%%%%%%%%%%%%%%%%%%%%%%%%%%%%%%%%%%%%%%%%%%
26546C2%%%%%%%%%%%%%%%%%%%%%%%%%%%%%%%%%%%%%%%%%%%%%%%%%%%%%%%%%%%%%%%%%%%%%
26530C2%%qQ%%Qq%qQ%%%%%%%%%%%%%%%%%%%%%%%%%%%%%%%%%%%%%%%%%%%%%q%Q%%%%%%%%%%
26514C2%%%%%%%%%%%%%%%%%%%%%%%%%%%%%%%%%%%%%%%%%%%%%%%%%%%%%%%%%%%%%%%qQq%Q%
26498C2%%%%%%%%%%%%%%%%%%%%%%%%%%%%%%%%%%%%%%%%%%%%%%%%%%%%%%%%%%%%%%%%%%%%%
26482C2%%%%%%%%%%%%%%%%%%%%%%%%%%%%%%%%%%%%%%%%%%%%%%%%%%%qQQq%qQ%%%%%%%%%%%
26467C2%%%%%%%%%%%%%%%%%%%%%%%%%%%%%%%%%%%%%%%%%%%%%%%%%%%%%%%%%%%%%%%%%%%%%
26451C2%%%%%%%%%%%%%qQ%%%%%%%%%%%%%%%%%%%%%%%q%%Q%%q%Q%%%%%%%%%%%%%%%%%%%%%%
26435C2%%%%%%%%%%%%%%%%%%%%%%%%%%%%%%%%qQ%%%%%%%%%%%%%%%%%%%%%%%%%%%%%%%%%%%
26419C2%%%%%%%%%%%qQ%%%%%%%%%%%%%%%%%%%%qQq%Q%%%%%%%%%%%%%%%%%%%%%%%%%%%%%%%
26404C2%%%%%%%%%%%%%%%%%%%%%%%%%%%%%%%%%%%%%%%%%%%%%%%%%%%%%%%%%%%%%%%%%%%%%
26388C2%%%%%%%%%%%%%%q%Q%%%%%qQ%%qQ%%%%%%%%%%%%%%%%%%%%%%%%%%%%%%%%%%%%%%%%%
26372C2%%%%%%%qQ%%%%%%%%%%qQqQ%%%%%%%%%%%%%%%%%%%%%%qQ%%%%%%%%%%%%%%%q%Q%%%q
26356B4Q%%%qQq%%%QqQ%qQQj6Qq%Q%%%q%Q%qQ%%%%%%%%%qQ%%%qQ%qQ%%%%%%%qQq%%Q%%%%%
26341C2%%%%%%%%%qQ%%%qQ%%%%%%%q%Q%%qQ%%%%%%%%%%%%%%%%%%qQ%q%%%%%%%Q%%qQ%%%%q
26325B4Q%%qQ%%qQ%q%Qq%QqQ%%%%%%%%%%%q%Q%qQ%%%%%%qQ%%%qQ%qQ%%%%%%%%%%%%%%%%%%
26309C2%%%%%%%%%%qQ%%%%qQ%%%%%%%%%%qQqQ%q%Qq%%Q%q%Qq%%%Q%%%q%Q%qQ%%qQq%%Qq%%
26293B4%%Q%%%qQ%qQ%%%%%%qQ%%%%%%%%%%%%%%%%%%%%%%%%%%%%%%%%%%%%%%%%%%%%%%%%%%
26277C2%%%qQ%%%%%qQ%%%%%%qQq%Q%%%qQ%%qQ%%%%%%%%%%%%qQqQ%%qQqQ%%%%%qQqQ%qQq%%
26262B4Q%%%%%%%%%%%%%%%%%%%%%%%%%%%%%%%%%%%%%%%%%%%%q%Q%%%%%%%%%%%%%%%qQ%%%%
26246C2%%%%%%%%%%%qQqQ%%%%%%%%%%%%%%%%%%%%%%%q%%%%%Qq%Q%q%Qq%%%Qq%%%Q%%qQ%%%
26230C2qQ%q%Q%q%%Q%q%Qq%Q%%%qQqQqQ%qQ%qQ%q%QqQq%%%%%%%%%Qq%%%Q%%%q%QqQ%%q%%Q
26214C2%qQ%q%%%%%%%%%%Q%%%%qQ%%q%%%%%Q%q%%QqQ%qQ%%q%Q%q%Q%%%%%%%qQ%%qQqQqQq%
26198B4Q%%%%%%%%%%%%%%%%%%%%%%%%%%%%%qQqQ%%%%qQ%q%Qq%%Qq%%%%%%Qq%Qq%Qq%Qq%Q%
26183C2%%%%%qQ%%%%qQqQ%qQ%%qQ%%qQq%%Qq%Qq%Q%q%%%%%%QqQ%qQq%QqQq%%Q%%%%%%%q%%
26167B4Qq%Qq%Qq%%%%Q%qQ%%qQq%%Q%%qQq%%%%Q%%%%q%%%%%%Q%q%%%QqQ%qQq%QqQ%q%%%%%
26151B4Qq%%%Qq%Q%%qQ%q%QqQqQ%%%qQ%%%%%q%Q%%%%%qQ%%%%%%q%Q%qQ%%%%%%%%%%qQ%%%%
26135C2%%qQq%Q%%qQq%Q%q%%%%%Q%q%Qq%QqQq%QqQqQ%%qQ%qQqQq%%%%%Qq%Q%%q%QqQ%%qQ%
26119C2%q%Q%%qqQ%Q%q%Q%%%%%%%%q%Q%q%%%%%QqQq%Q%qQq%%%%%%Q%qQq%Qq%%%%%%Qq%%Qq
26104B4%%%Qq%QqQ%%qQqQ%q%%%%Qq%%Q%%%%qQqQ%%qQ%%%qQ%%%qQqQq%%%%%%Qq%%%%%Q%qQ%
26088C2q%%%Qq%QqQ%q%%Q%%q%Qq%%%%Q%q%%%%%%%Q%q%%%Q%%q%Qq%%Q%%q%%%%Qq%Qq%%%%Qq
26072B4%%Qq%Qq%%%%%%Q%%qQ%%%%q%%%%Qq%%Qq%%%%Q%q%Qq%Qq%%%%%%Q%q%%%%QqQ%q%%%%%
26056B4Q%qQ%q%%Qq%Qq%Q%%%qQq%Q%%q%%%%%%Q%%%%%%%%q%%Qq%Q%qQ%qQ%%%%%qQq%%%%%%%
26040B4%%%%%%%%%%%QqQq%%%%%%Qq%%%%%%%%%%%%%Q%qQq%QqQqQq%%Qq%%%%%%%%%%%%%%Q%%
26025C2q%%Qq%Q%q%%QqQqQq%%%%%%%%%%%Qq%%%%%%%%%%%%%%%%%%%%%%%%%%%%%%%%%%%%%%%
26009B4%%%%%%%%%%%%Qq%%%%%%%%%%%Q%q%Qq%%QqqQQ%q%Qq%Qq%%%%%%%%%%%%Qq%%%%%%%%%
25993B4%%%%%%%%%Qq%%%%%%%%%%%%%%%%%%%%Qq%%%%%%%%%%%%Qq%%%%Q%q%%%%%%%%%%%%%%%
25977B4%%%%%%%%%%%%%%%%%%%%%%%%%%%%Q%%q%%%Q%%q%%%%%%%%%%%%%%%%%%%%%%%%%%%%%Q
25962C2q%%%%%%Qq%%%%Q%%qQqQq%Qq%%%%%%%%%%%%%%Qq%%%%%%%Qq%%%%%%%%%%%%%%%%%%%%
25946B4%%%%Qq%Qq%%%%%%%%%%%%%%%%%%%%%%%%%%%%%%%Qq%%%%%%%%%%%%%%%%%%%%%%%%%%%
25930B4%%%%%%%%%%%%%%%%%%%%%%%Qq%%QqQq%%Qq%%%Qq%%%%%%%%%%%%%%%%%%%Qq%%%%%%%%
25914B4%%%%Qq%Q%q%Qq%%%%%%%%%%%%%%%%%%%%%%%%%%%%%%%%%%%%%%%%%%%Q%q%%%%%%%%Qq
25898B4Qq%%%%Qq%%%%%Q%q%%%%%Qq%Qq%Qq%%Q%q%%Qq%%Q%q%%%Qj6QQq%%K4k4J6j6qqQQj6L2
25884D0qk4K4L2k4j6qK4qq%Q%%qJ6k4Q%%Qq%%Qq%Q%q%%Q%q%%%%Qq%%Qq%%%%Qq%Q%q%%%Qq%
25870B4%Qq%%%%%%%%%%Qq%%%%%%%%%%%%%%%%%%Qq%%%%%%%%%%%%%%%%%%%%%%%%%%%%%%%%%%
25854B4%%Qq%%%%%%%%%%%%%%%%%%%%%%%%%%%%%%%%%%%%%%%%%%%%%%%%Qq%%%%%%%Qq%Qq%%%
25838B4%%%%%%%%%%%%%%%%%%%%%%%%%%%%%%%%%%%%%%%%%%%%%%%%%%%%Qq%QqQ%qQq%Qq%%%%
25823B4%%%%%%%%%%%%%%%%%%%%%%%%%%%%%%%%%%%%%%%%%%%%%%%%%%%Q%q%%%%%%%%%%Qq%%%
25807B4%%%%%%%%%%%%%%%%%%%%%%%%%%%%%%%%%%%%%%%%%%%%%Qq%%%%%%%%%%%%%%%%%%%%%%
25791B4%%%%%%%%%%%%%%%%%%%%%%%%%%%%%%%%%%%%%%%%%%%%%%%%%%%%%%%%%%%%%%%%%%%%%
25775B4%%%%%%%%%%%%%%%%%%%%%%%%%%%%%%%Qq%%%Qq%%Qq%%%%%%%%%%%%%%%%%%%%%%%%%%%
25759B4%%%%%%%%%%%%%%%%%%%%%%%%%%%%%%%%%%%%%%%%%%%%%%%%%%%%%%%%%%%%%%%%%%%%%
25744B4%%%%%%%%%%%%%%%%%%%%%%%%%%Qq%%%%%%%%%%%%%%%%%%%%%%%%%%%%%%%%%%%%%%%%%
25728B4%%%%%%%%%%%%%%%%%%%Qq%%%%%%%%%%%%%%%%%%%%%%%%%%%%%%%%%%%%%%%%%%%%%%%%
25712B4%%%%%%%%%%%%%QqQq%%%%%%%%%%%%%%%Qq%%%%%%%%%%%%%%%%%%%%%%%%%%%%%%%%%%%
25696B4%%%%%%%%%%%%%%%%%%%%%%%%%%%%%%%%%%%%%%%%%%%%%%%%%%%%%%%%%%%%%%%%%%%%%
25680B4%%Qq%%%%%%%%%%%%%%%%%%%%%%%%%%%%%%%%%%%%%%%%%%%%%%%%%%%%%%%%%%%%%%%%%
25665B4%%%%%%%%%%%%%%%%%%%%%%%%%%%%%%%%%%%%%%%%%%%%%%%%%%%%%%%%%%%%%%%qQ%%%%
25649B4%%%%%%%%%%%%%%%%%%%%%%%%%%%%%%%%%%%%%%%%%%%%%%%%%%%%%%%%%%%%%%%%%%%%%
25633B4%%%%%%%%%%%%%%%%%%%%%%%%%%%%%%%%%%%%%%%%%%%%%%%%%%%%%%%%Qq%%%%%%%%%%%
25617B4%%%%%%%%%%%%%%%%%%%%%%%%%%%%%%%%%%%%%%%%%%%%%%%%%%%%%%%%%%%%%%%%%%%%%
25602B4%%%%%%%%%%%%%%%%%%%%%%%%%%%%%%%%%%%%%%%%%%%%%%%%%Qq%%%%%%%%%%%%%%%%%%
25586B4%%%%%%%%%%%%%%%%%%%%%%%%%%%%%%%%%%%%%%%%%%%%%%%%%%%%%%%%%%%%%%%%%%%%%
25570B4%%%%%%%%%%%%%%%%%%%%%%%%%%%%%%%%%%%%%%%%%%%%%%%%%%%%%%%%%%%%%%%%%%%%%
25554B4%%%%%%%%%%%%%%%%%%%%%%%%%%%%%%%%%%%%%%%%%%%%%%%%%%%%%%%%%%%%%%%%%%%%%
25538B4%%%%%%%%%%%%%%%%%%%%%%%%%%%%%Qq%%%%%%%%%%%%%%%%%%%%%%%%%%%%%%%%%%%%%%
25523B4%%%%%%%%%%%%%%%%%%%%%%%%%%%%%%%%%%%%%%%%%%%%%%%%%%%%%%%%%%%%%%%%%%%%%
25507B4%%%%%%%%%%%%%%%%%%%%%%%%%%%%%%%%%%%%%%%%%%%%%%%%%%%%%%%%%%%%%%%%%%%%%
25491B4%%%%%%%%%%%%%%%%%%%%%%%%%%%%%%%%%%%%%%%%%%%%%%%%%%%%%%%%%%%%%%%%%%%%%
25475B4%%%%%%%%%qQ%%%%%%%%%%%%%%%%%%%%%%%%%%%%%%%%%%%%%%%%%%%%%%%%%%%%%%%%%%
25459B4%%%%%%%%%%%%%%%%%%%%%%%%%%%%%%%%%%%%%%%%%%%%%%%%%%%%%%%%%%%%%%%%%%%%%
25444B4%%%%%%%%%%%%%%%%%%%%%%%%%%%%%%%%%%%%%%%%%%%%%%%%%%%%%%%%%%%%%%%%%%%%%
25428B4%%%%%%%%%%%%%%%%%%%%%%%%%%%%%%%%%%%%%%%%%%%%%qQ%%%qQ%%j6QQq%Q%%%%%%%%
25412B4%%%%%%%%%%%%%%%%%%%%%%%%%%%%%%%%%%%%%%%%%%%%%%%%%%%%%%%%%%%%%%%%%%%%%
25396B4%%%%%%%%%%%%%%%%%%%%%%%%%%%%%%%%%%%%%%%%%%%%%%%%%%%%%%%%%%%%%%%%%%%%%
25381B4%%%%%%%%%%%%%%%%%%%%%%%%%%%%%%%%%%%%%%%%%%%%%%%%%%%%%%%%%%%%%%%%%%%%%
25365B4%%%%%%%%%%%%%%%%%%%%%%%%%%%%%%%%%%%%%%%%%%%%%%%%%%%%%%%%%%%%%%%%%%%%%
25349B4%%%%%%%%%%%%%%%%%%%%%%%%%%%%%%%%%%%%%%%%%%%%%%%%%%%%%%%%%%%%%%%%%%%%%
25333B4%%%%%%%%%%%%%%%%%%%%%%%%%%%%%%%%%%%%%%%%%%%%%%%%%%%%%%%%%%%%%%%%%%%%%
25317B4%%%%%%%%%%%%%%%%%%%%%%%%%%%%%%%%%%%%%%%%%%%%%%%%%%%%%%%%%%%%%%%%%%%%%
25302B4%%%%%%%%%%%%%%%%%%%%%%%%%%%%%%%%%%%%%%%%%%%%%%%%%%%%%%%%%%%%%%%%%%%%%
25286B4%%%%%%%%%%%%%%%%%%%%%%%%%%%%%%%%%%%%%%%%%%%%%%%%%%%%%%%%%%%%%%%%%%%%%
25270B4%%%%%%%%%%%%%%%%%%%%%%%%%%%%%%%%%%%%%%%%%%%%%%%%%%%%%%%%%%%%%%%%%%%%%
25254B4%%%%%%%%%%%%%%%%%%%%%%%%%%%%%%%%%%%%%%%%%%%%%%%%%%%%%%%%%%%%%%%%%%%%%
25238B4%%%%%%%%%%%%%%%%%%%%%%%%%%%%%%%%%%%%%%%%%%%%%%%%%%%%%%%%%%%%%%%%%%%%%
25223B4%%%%%%%%%%%%%%%%%%%%%%%%%%%%%%%%%%%%%%%%%%%%%%%%%%%%%%%%%%%%%%%%%%%%%
25207B4%%%%%%%%%%%%%%%%%%%%%%%%%%%%%%%%%%%%%%%%%%%%%%%%%%%%%%%%%%%%%%%%%%%%%
25191B4%%%%%%%%%%%%%%%%%%%%%%%%%%%%%%%%%%%%%%%%qQ%%%%%%qQ%%%%%%%%%%%%%%%%%%%
25175B4%%%%%%%%%%%%%%%%%%%%%%%%%%%%%%%%%%%%%%%%%%%%%%%%%%%%%%%%%%%%%%%%%%%%%
25160B4%%%%%%%%%%%%%%%%%%%%%%%%%%%%%%%%%%%%%%%%%%%%%%%%%%%%%%%%%%%%%%%%%%%%%
25144B4%%%%%%%%%%%%%%%%%%%%%%%%%%%%%%%%%%%%%%%%%%%%%%%%%%%%%%%%%%%%%%%%%%%%%
25128B4%%%%%%%%%%%%%%%%%%%%%%q%Q%%%%%%%%%%%%%%%%%%%%%%%%%%%%%%%%%%%%%%%%%%%%
25112B4%%%%%%%%%%%%%%%%%%%%%%%%%%%%%%%%%%%%%%%%%%%%%%%%%%%%%%%%%%%%%%%%%%%%%
25096B4%%%%%%%%%%%%%qQ%%%%%%%%%%%%%%%%%%%%%%%%%%%%%%%%%%%%%%%%%%%%%%%%%%%%%%
25081B4%%%%%%%%%%%%%%%%%%%%%%%%%%%%%%%%%%%%%%%%qQ%%%%%%%%%%%%%%%%%%%%%%%%%%q
25065A6Q%%qQ%qQ%qQ%%%%%%qQ%%%%%%%%%%%%%%%%%%%%%%%%%%%%%%%%%%%%%%%%%%%%%%%%%%
25049B4%%%%%%%%%%%%%%%%%%%%%%%%%%%%%%%%%%%%%%%%%%%%%%%%%%%%%%%%%%%%%%%%%%qQ%
25033B4%%%%%%%%%%%%%%%%%%%%%%%%%%%%%%%%%%%%%%%%%%%%%%%%%%%%%%%%%%%%%%%qQ%%%%
25017B4%%%%%%%%%%%%%%%%%%%%%%%%%%%%%%%%%%%%%%%%%%%%%%%%%%%%%%%%%%qQ%%%%%%%%%
25002B4%%%%%%%%%%%%%%%%%%%%%%%%%%%%%%%%%%%%%%%%%%%%%%%qQ%%%%%%%%%%%%%%%%%%%%
24986B4%%%%%%%%%%%%%%%%%%%%%%%%%%%%%%%%%%%%%%%%%%qQ%%%%%%%%%%%%%%%%%%%%%%%%%
24970B4%%%%%%%qQ%%%%%%%%%%%%%%%%%%%%%%%qQ%%%%%%%%%%%%%%%%%%%%%%%%%%%%%%%%%%%
24954B4%%%%%%qQ%%%%%%%%%%%qQq%%Q%QqqJ6j6%QK4l2QQqqJ6qQq%%qQ%%qQ%%%%%%%%%%%%%
24940B4%%%%qQ%%%%%%%%%%%%qQ%%%%%%%%%%%%%%%%%%%%%%%%%%%%%%%%%%%%%%%%%%%%%%%%%
24924B4%%%%%%%%qQ%%%%%%%%qQ%qQqQ%%%%q%Q%%%%%%qQ%%%%%%%%%%%%%%%%%%%%%%%%%%%%%
24908B4%%%%%%%%%%%%%%%%%%%%%%%%%%%%%%%qQqQ%%%%%%qQ%%%%%%%%%%%%%%%%%%%%%%%%%%
24892B4%%%%%%%%%%%%%%%%%%%%%%%%%%%%%%%%%%%%%%%%%%%%%%%%%%%%%%%%%%%%%%%%%%%%%
24876B4%%%%%%%%%%%%%%%%%%%qQ%%%%%%%%%%%%%%%%%%%%%%%%%%%%%%%%%%%%%%%%%%%%%%%%
24861B4%%%%%%%qQ%%qQ%%%%%%%%%%%%%%%%%%%%%%%%%%%%%%%%%%%%%%%%%%%%%%%%%%%%%%%%
24845B4%%%%%%%%qQ%%%%%%%%%%%%%%%%qQ%%%%qQ%%%%%%%%%%%%%%%%%%%%%%%%%%%qQqQq%%Q
24829B4%%%%qQ%%%%%%%%%%%%%%q%Q%%%%%%%%%%%%%%%%%%%%%%%%%%%%%%%%%%%%%%qQ%%%%%%
24813B4%%%%%%%%%%%%%%%%%%%%%%%%%%%%qQ%%%%%%%%%%%%%%%%%%%%%%%qQ%%q%%QqQ%%%qQ%
24797B4qQ%%%%%%%qQ%%%%%%%%%%%%%%%%%%%%%%%%%%%%%%%%%%%%%%%%%%%%%%%%%%%%%%%%%%
24782B4%%%%%%%%%%%%%%%%%%%%%%%%%%%%%%%%%%%%%qQ%%%q%Q%%qQ%%%%qQ%%%%%qQ%%%%%%%
24766B4%%%%%%%%%%%%%%%%%%%%%%%%%%%%%%%%%%%%%%%%%%%%qQqQ%%%%%%%%%%%%%%%%%%%%%
24750B4%%%%%%%%%%%%%%%%%%%%%%%%%%%%%%%%%%%%qQ%%%%%%%%%%%%%%%%%%%%%%%%%%%%%%%
24734B4%%%%qQ%%%%%%%%%%%%%%%%%%%%%%%%%%%%%%%%%%%%%%%%%%%%%%%%%%%%%%%%%%%%%%%
24718B4%%%qQq%Q%%%%qQ%%%%%%%%q%%Q%q%QqQ%%%qQ%%%qQ%%qQq%Qq%Q%%%%%%%%%%%%%%%%%
24703B4%%%%%%%%%%%%%%%%%%%q%Q%%%%%%%%qQ%%%%%%%%%%%%%%%%%%q%%QqQqQ%%%q%Q%%%%%
24687B4%%%%%%%%%%%%%%%%q%QqQ%%%%%%%%%%%qQ%qQ%qQqQ%%%%qQ%qQ%%%%%%%%%%%%%%%%%%
24671B4%%%%%%%%%%%%%%%%%%%%qQ%%qQqQqQ%%%%%%%%%%%%%%%%%%%%%qQ%%%%%%%qQ%%%%%%%
24655B4q%%Q%qQqQqQqQ%%%%%%%%%qQqQ%qQ%qQ%%%%%qQqQ%%%%%qQq%Q%%q%Q%%qQ%%%%qQ%%%
24640B4qQ%%%%%%%%%%%%%%%%%%%%%%%%%%%%%%%qQ%%%%%%qQqQ%%%%%%%%%%%%%%%%%%%%%%%%
24624B4%%%qQqQ%%%%%%qQ%%%%%%%%%%%%%%%%qQ%%%%%qQ%%%%%%%%%%%%%%%%%%qQqQ%%%%%%%
24608B4%%%%qQ%%%%%%qQqQ%qQ%%%qQ%%qQ%%%%%qQ%qQ%%qQ%qQq%%Qq%QqQ%%%qQ%q%Q%%%q%Q
24592B4%%%%qQ%%q%Q%%%%%qQ%%qQ%%%%%qQ%%%%%%%%%%%%%%%%%%%%%%qQq%%%QqQ%%%%%%%%%
24576B4q%%Q%qQ%%q%QqQq%Q%%%%%%%%%%%%%%%%%%%%%%%%%%%%q%Q%%%qQ%%%qQ%%%qQ%%%%%%
24561B4qQ%%%%%qQ%%%qQ%%qQq%Q%%%%%%%%%%%%%%qQq%%Q%%%%%%%%qQ%%qQ%%%%%%%%%%%%%q
24545A6%%QqQ%q%Q%%%q%Qq%Q%%%qQqQ%%%qQq%Qq%Qq%QqQqQq%Q%%qQqQqQq%%QqQ%%%%%%qQ%
24529B4%%qQ%qQ%%qQ%qQ%%%q%Q%qQ%q%Qq%%%Qq%Q%qQqQq%Q%q%Q%qQ%%%%%%%%%%%%%%%qQ%%
24513B4%%%%qQ%%qQqQ%qQq%Q%%%%qQqQ%%qQ%%%%%%qQ%qQ%%qQqQ%qQ%%%q%%Q%%%%%%%%%%%%
24497B4%%%qQqQ%%%qQ%qQ%%%%%q%%%%%%QqQ%q%Q%%q%Qq%%%QqQ%%%%%qQ%%%qQ%%qQq%Q%qQ%
24482B4qQ%qQ%qQ%%%%%%%j6J6q%%%Q%q%Q%q%Q%%qQq%QqQ%q%Qq%%%QqQ%%%%%%%%qQ%q%%%%%
24466A6%%%Qq%%QqQ%q%%Qq%%Q%%q%QqQq%%%%Q%%qQ%%qQ%%%q%%%Q%qQ%qQq%Q%%%q%%%Q%%%q
24450A6Q%qQ%qQ%%%%qQ%%%%%%q%Q%%%%%q%%Q%%%%%%%%qQ%%%%%%%%%qQ%%%qQqQqQ%%%%%%%%
24435B4%%%%qQqQqQ%%%%%%%%%%qQ%%%%%%qQ%%qQq%%%%%%%%Q%q%QqQq%%%%%%Q%%q%%%QqQ%%
24419B4%%q%QqQ%%%%%%%qQ%%%qQ%%qQ%%%%%%qQ%%qQq%Q%%%qQqQ%%%%qQq%Q%q%%%QqQqQ%q%
24403A6Q%%%%%q%%Q%%%%%%%%%%%%%qQ%%%%qQ%%qQ%%%q%Qq%%Qq%%Q%qQ%qQ%qQqQ%%%qQqQ%%
24387B4%%%q%%Q%%%qQ%%%qQ%%%%q%Q%qQ%%%%qQ%%%qQ%%%%%qQq%Q%qQqQq%Q%qQqQ%%qQ%%%%
24371B4%%%%%%%%%%%%q%Q%%%qQ%%%%%qQqQ%%%q%QqQ%%qQ%%%%%%%%%%q%%%%%%%%%QqQq%%%%
24356A6%%QqQqQ%qQq%QqQ%%qQ%qQq%Qq%Q%%%qQqQq%Q%qQ%%%qQ%qQ%%%%%qQqQqQqQ%qQ%qQ%
24340B4%q%Q%q%Qq%Q%%%%%%q%QqQ%%%%%qQ%%%q%%Q%q%Q%qQqQq%Qq%Qq%QqQq%%QqQ%q%Qq%Q
24324B4q%Qq%Qq%%Qq%%%%QqQ%%qQq%%Q%%%%%qQqQqQ%%%%%qQ%qQ%%q%Q%qQq%Q%%%%%%%qQ%%
24308B4%%%%%%%%%%%%%%%%qQ%%q%%%Q%q%Q%%qQ%qQ%%q%%%%QqQ%%q%Q%%%q%%QqQ%qQqQqQ%%
24293B4%%%qQqQqQq%%Qq%Q%%q%Qq%%%%Qq%%%%%%%Qq%%%%QqQ%qQqQ%%%%%%%%%%%%%%%q%%%Q
24277B4%%qQ%%q%%%%%%%QqQq%%%Q%q%Qq%Q%q%Q%%q%%Q%%%%%qQ%%%%%q%%%%%%%%%Q%qQ%%%%
24261B4%%%%qQ%%qQ%%qQ%qQ%qQ%q%Qq%Q%%%%%qQq%Q%qQ%%%q%Q%%qQq%Q%%%qQ%qQqQ%%%%qQ
24245B4%q%%QqQQj6%%Q%%qQq%Qq%%%%%%%%%%%%%%QqQ%%%%%%q%Q%%%%%q%Q%q%%%Qq%%%%%%Q
24230B4q%Qq%%%Q%q%%Qq%%QqQ%qQ%%%%%%%%q%%%Qq%Q%q%%%Qq%%%%%Q%qQ%qQ%%%qQ%qQqQqQ
24214B4%%%%%%%q%%%QqQ%%%%qQ%%q%%%%Qq%%Q%qQq%QqQ%q%%%%%%%%%%%%%%%%Q%%qQ%%qQ%%
24198B4%q%%Qq%Qq%%%Q%q%%%%%QqQq%%%%Q%%qQq%%Qq%%Q%q%%%%%Q%qQqQqQq%%%%%Q%%qQq%
24182A6%%%%%%Qq%Q%qQ%%%qQ%qQ%q%%Qq%%%%%Qq%%%%%%%Q%q%%%%%QqQ%qQq%%%%%%%%%%%%%
24166A6%%%%%%%%QqQq%%%Qq%%%%%%%%%%%%%%%%Qq%Qq%%%%QqQq%Q%q%%Qq%Qq%%%%%%%Qq%%%
24151A6%%%%Qq%Qq%Q%%q%%%QqQ%q%Qq%QqQq%%%%%%Qq%Qq%%Q%q%Qq%%%%%Qq%%%%%%%%%%Qq%
24135A6%QqQq%Q%qQ%%%q%%%%%%Qq%%%%%%Qq%QqQ%%q%%Qq%%Qq%%%%%%%%Qq%%%%%%Q%%qQ%q%
24119A6QqQqQ%q%Qq%%%%%Qq%%Qq%%%Qq%%%%QqQ%q%Qq%%Qq%%%%%%Q%q%%Qq%QqQ%qQq%QqQqQ
24103B4q%Q%qQq%%%%%%%QqQq%Q%qQ%%%%qQq%QqQq%Q%%%%%%qQ%%qQqQ%q%%%%%%Qq%%Qq%Qq%
24087A6%%%%%%%%Qq%%QqQqQ%q%%%%%Q%q%%Qq%%Qq%%%%%%%%Q%%%%q%Q%%%q%%%%Qq%%%%%%%%
24072A6%%%%Q%qQq%%%%%%%QqQq%%%%%%%%Qq%%Qq%%%%Q%%%%%%%qQ%%q%%%%%%%%%%%QqQ%q%%
24056A6%%%%%%%%%Qq%%%%%%%%%%%%%%%QqQ%q%%%%%%%%%%%Qq%%%QqQ%q%%Qq%Q%q%%%%%%%%%
24040A6%%%%%%%Qq%Qq%%QqQqQ%q%%%%%%%%%%%%%%%Qq%%%%%%%%%%%Qq%%%%%%%%%%%%%%%%%Q
24024B4q%%%Qq%%%%%Qq%Qq%%Qq%%%%Qq%%%%Qq%%Qq%%%%%%%%%%%%%%%%%%QqQ%%%q%Qj6qQJ6
24009B4qJ6q%%%q%Qq%%%%%%%Qq%%%%QqQqQq%%%Qq%Qq%%%%%%%%%%%%%%%%%%%%%%%%%%%%%%%
23993A6%%%Qq%%%Qq%%%%Q%q%%%%QqQq%%%%%%%%%%%%%%%%%%%%Qq%%%%%%Q%q%%%%%Q%q%%%Q%
23978B4qQq%%Q%%%qQ%%%q%Qq%%Q%%qQqQ%%qQ%%qQ%q%%%%%%%%Qq%Qq%%%Q%q%%%%%%%Q%qQq%
23962A6Qq%Qq%%%%%%%%%%%%%%%%%%%%%%%%Qq%%%%%%Qq%%%%QqQq%%%QqQqQ%%q%%%%%%%%%%%
23946A6%%%%Q%q%%%%%%%%%%%%%%%%%%Qq%%%%%%%Qq%Qq%Q%%q%Q%q%Qq%%%%%%%%%Qq%Qq%Q%%
23930B4qQ%q%%%Qq%Qq%%%%%%%%%%%Qq%%%%%%%%%%%%%%Qq%Qq%%%%%%%%%%Q%q%%%%%%%%%%%%
23914A6%Q%qQ%qQq%%%%%%%%%%%%%%%%%%%%%%%%%%%Qq%Qq%%%%%Qq%%%%%%%%%%%%QqQ%q%%Qq
23899A6%%Qq%%%%%%%Qq%%%%Qq%Qq%%%%%Q%qQq%%Qq%%%%%%%%%%Qq%%%%%%%%%%%%%%%%%%%%%
23883A6%%%%%%Qq%%%%%Qq%%%%%%%%%%%%%%%%%Qq%%%%%%%%%%%%%%%%%%%QqQq%%%%Qq%Qq%%%
23867A6%%Q%qQq%%%Qq%%Qq%%%%%Qq%%Qq%Qq%Qq%%%QqQ%q%%%%%%%%%%%%%Qq%%%%%%%%%%%%%
23851A6%%%%%%%%Qq%%Q%q%%%%%%%%%%%%Qq%%%%%%%%%%%%%%%%%%%%%%%%%%%%%%%%%%%Qq%%%
23835A6%%%%%%Qq%%%%QqQq%%%%%%%%%%%%%%%%%%%%%%%%%%%%%Qq%%%%%%%%%%%%%%%%%%%%%%
23820A6%Qq%%%Q%q%%%%%%%%%%%%%%%%%%%%%%%%%%%%%%%%%%%%%%%%%%%%%%%%%%%%%%Qq%%Qq
23804A6%%Qq%Q%q%%%%%%%%%%%%%%%%%%%%%%%Qq%%%%%%%%%%%%%%%%%%%%%%%%Qq%%%%Qq%Qq%
23788A6%%%%%%%%%%%%%%%%%%%%%%%%%%%%%%%%%%%%%%%%%%%%%%%%%%%%%%%%%%%Q%%q%Qq%%%
23772A6%%%%Qq%%Qq%%%%%%%Qq%%%%%%%%%%%%%%%%%%%%%%%%%%%%%%%%%%%%%%%%%%%%%%%%%%
23756A6%%%%%%%%%%%%%%%%%%%%%%Qq%%%%%%%%%%%%%%%%%%%%%%%%%%%%%%%%%%%%%%%%%%%%%
23741A6%%%%Qq%QqQqQq%%Qq%%%%%%%%%%%%%%%%%%%%%%%%%%%%%%Qq%%%%%%%%%%%%%%%%%%%%
23725A6%%%%%%%%%%%%%%%%%%%%%%%%%Qq%%%Qq%%%%%%%%%Qq%%%%%%%%%%%%%%%%%%%%%%%%%%
23709A6%%%%%Qq%%%%%%%%%%%%%%%%%%%%%%%%%%%%%%%%%%%%%%%%%%%%%%%%%%%%Qq%Qq%%%%%
23693A6%%%%%%%%%%%%%%%%%%%%%%%%%%%%%%%%%%%%Qq%%%%%Qq%%%%Qq%%%%%%%%%%%%%%%%%%
23678A6%%%%%%%%%%%%%%%%%%%%%%%%%%%%%%%%%%Qq%%%%%Qq%%%%%%%%%%%Qq%%%%%Q%%%q%%%
23662A6%%%%%%%%%%%%%%Qq%%%%Qq%Qq%%%Qq%%%%%%%%%%%%%%%%%%%%%%%%%%%%%%%%%%%%%%%
23646A6Qq%%%%%%%%%%%%%%Q%q%%%%%%%%%%%%%%%%%%%%%%%%%%%%%%%%%%%%%%%%%%%%%%%%%%
23630A6%%%%%%%%%%%%%%%%%%%Qq%%%%%%%%%%%%%%%%%%%Qq%%Qq%%%%%%%%%%%%%%%%%%%%%%%
23614A6%%%%%%%%%%%%%%%%%%%%%%%%%%%%%%%%%%%%%%%%%%%%%%%%%%%%%%%%%%%%%%%%%%%%Q
23599B4q%%%%%%%%%%%%%%%%%%%%%%%%%%%%%%%%%%%%%%%%%%%%%%%%%%%%%%%%%%%%%%%%Qq%%
23583A6%%%%%%%%%%Qq%%%%%%%%%%%%%%%%%%%%%%%%%%%%%%%%%%%%%%%%%%%Qq%%%Qq%%%%%%%
23567A6%%%%%%%%%%%%%%%%%%%%%%%%%%%%%%%%%%%%%%%%%%%%%%%%%%%%%%Q%q%%%%%%%%%%%%
23551A6%%%%%%%%%%%%%%%%%%%%%%%%%%%%%%%%%%%%%%%%%%qQ%%J6j6%J6j6%J6qq%%QqQq%%%
23537A6%%%%%%%%%%Qq%Qq%%%%%%Qq%%%%%%%%%%%%%%%%%%%%%%%%%Qq%%%%%%%%%%%%%%%%%%%
23521A6Qq%%%%%%%%%%%%%%%%%%%%%%%%%%%%%%%%%%%%Qq%%%%%%%%%%%%%%%%%%%%%%%%%%%%%
23505A6%%%%%%%%%%%%%%%%%%%%%%%%%%%%%%%%%%%%%%%%%%%%%%%%%%%%%%%%%%%%%%%%QqQq%
23489A6%%Qq%%%%%%%%%%%%%%%%%%%%%%%%%%%%%%%%%%%%%%%%%%%%%%%%%%%%%%%%%%%%%%%%%
23473A6%%%%%%%%%%%%%%%%%%%%%%%%%%%%%%%%%%%%%%%%%%%%%%%%%%%%%%%%%%%%%%%%%%%%%
23458A6%%%%%%%%%%%%%%%%%%%%%%%%%%%%%%%%%%%%%%%%%%%%%%%%%%%%%%%%%%%%%%%%%%%%%
23442A6%%%%%%%%%%%%%%%%%%%%%%%%%%%%%%%%%%%%%%%%%%%%%%%%%%%%%%%%%%%%%%%%%%%%%
23426A6%%%%%%%%%%%%%qJ6%q%Qq%%%%%%%%Qq%%%%%%%%%%%%%%%%%%%%%%%%%%%%%%%%%%%%%%
23410A6%%%%%%%%%%Q%q%%%%%%Qq%%%%%%%%%%%%%%%%%%%%%%Qq%%%%%%%%%%%%%%%%%%%%%%%%
23395A6%%%%%%%%%%%%%%%%%%%%%%%%%%%%%%%%%%%%%%%%%%%%%%%%%%%%%%%%%%%%%%%%%%%%%
23379A6%%%%%%%%%%%%%%%%%%%%%%%%%%%%%%%%%%%%%%%%%%%%%%%%%%%%%%%%%%%%%%%Q%qQq%
23363A6%%%%%%%%%%%%%%%%%%%%%%%%%%%%%%%%%%%%%%%%%%%%%%%%%%%%%%Qq%%%%%%%%%%%%%
23347A6%%%%%%%%%%%%%%%%%%%%%%%%%%%%%%%%%%%%%%%%%%%%%%%%%%Qq%%%%%%%%%%%%%%%%%
23331A6%%%%%%%%%%%%%%%%%%%%%%%%%%%%%%%%Qq%%%%%%%%%%%%QqQq%%%%%%%%%%%%%%%%%%%
23316A6%%%%%%%%%%%%%%%%%%%%%%%%%%%%%%%%%%%Qq%%%QqQ%q%Qq%%%%%%%%%%%%%%%%%%%%%
23300A6%%%%%%%%%%%%%%%%%%%%%%%%%%%%%%%%%%%%%%%%%%%%%%%%%%%%%%%%%%%%%%%%%%%%%
23284A6%%%%%%%%%%%%%%%%%%%%%%%%%%%%%%%%%%%%%%%%%%%%%%%%%%%%%%%%%%%%%%%%%%%%%
23268A6%%%%%%%%%%%%%%%%%%%%%%%%%%%%%%%%%%%%%%%%%%%%%%%%%%%%%%%%%%%%%%%%%%%%%
23252A6%%%%%%%%%%%%%%%%%%%Qq%%%%Qq%%%%%%%%%%%%%%%%%%%%%%%%%%%%%%%%%%%%%%%%%%
23237A6%%%%%%%%%%%%%%%%%%%%%%%%%%%%%%%%%%%%%%%%%%%%%%%%%%%%%%%%%%%%%%%%%%%%%
23221A6%%%%%%%%%%%%%%%%%%%%%%%%%%%%%%%%%%%%%%%%%%%%%%%%%%%%%%%%%%%%%%%%%%%%%
23205A6%%%%%%%%%%%%%%%%%%%%%%%%%%%%%%%%%%%%%%%%%%%%%%%%%%%%%%%%%%%%%%%%%%%%%
23189A6%%%%Qq%%%%%%%%%%%%%%%%%%%%%%%%%%%%%%%%%%%%%%%%%%%%%%%%%%%%%%%%%%%%%%%
23174A6%%%%%%%%%%%%%%%%%%%%%%%%%%%%%%%%%%%%%%%%%%%%%%%%%%%%%%%%%%%%%%%%Qq%%%
23158A6%%%%%%%%%%%%%%%%%%%%%%%%%%%%%%%%%%%%%%%%%%%%%%%%%%%%%%%%%%%%%%%%%%%%%
23142A6%%%%%%%%%%%%%%%%%%%%%%%%%%%%%%%%%%%%%%%%%%%%%%%%%%%%%%%%%%%%%%%%%%%%%
23126A6%%%%%%%%%%%%%%%%%%%%%%%%%%%%%%%%%%%%%%%%%%%%%%%%%%%%%%%%%%%%%%%%%%%%%
23110A6%%%%%%%%%%%%%%%%%%%%%%%%%%%%%%%%%%%%%%%%%%%%%%%%%%%%%%%%%%%%%%%%%%%%%
23095A6%%%%%%%%%%%%%%%%%%%%%%%%%%%%%%%%%%%%%%%%%%%%%%%%%%%%%%%%%%%%%%%%%%%%%
23079A6%%%%%%%%%%%%%%%%%Qq%%%%%%%Qq%%Qj6%%J6j6QQq%%%%%%%%%Qq%%%%%%%%%%%%%%%%
23064A6%%%%%%%%%%%%%%%%%%%%%%%%%%%%%%%%%%%%%%%%%%%%%%%%%%%%%%%%%%%%%%%%%%%%%
23048A6%%%%%%%%%%%%%%%%%%%%%%%%%%Qq%%%%%%%%%%%%%%%%%%%%%%%%%%%%%%%%%%%%%%%%%
23032A6%%%%%%%%%%%%%%%%%%%%%%%%%%%%%%%%%%%%%%%%%%%%%%%%%%%%%%%%%%%%%%%%%%%%%
23016A6%%%%%%%%%%%%%%%%%%%%%%%%%%%%%%%%%%%%%%%%%%%%%%%%%%%%%%%%%%%%%%%%%%%%%
23000A6%%%%%%%%%%%%%%%%%%%%%%%%%%%%%%%%%%%%%%%%%%%%%%%%%%%%%%%%%%%%%%%%%%%%%
22985A6%%%%%%%%%%%%%%%%%%%%%%%%%%%%%%%%%%%%%%%%%%%%%%%%%%%%%%%%%%%%%%%%%%%%%
22969A6%%%%%%%%%%%%%%%%%%%%%%%%%%%%%%%%%%%%%%%%%%%%%%%%%%%%%%%%%%%%%qQ%%%%%%
22953A6%%Qq%%%%%%%%%%%%%%%%%%%%%%%%%%%%%%%%%%%%%%%%%%%%%%%%%%%%%%%%%%%%%%%%%
22937A6%%%%%%%%%%%%%%%%%%%%%%%%%%%%%%%%%%%%%%%%%%%%%%%%%%%%%%%%%%%%%%%%%%%%%
22922A6%%%%%%%%%%%%%%%%%%%%%%%%%%%%%%%%%%%%%%%%%%%%%%%%%%%%%%%%%%%%%%%%%%%%%
22906A6%%%%%%%%%%%%%%%%%%%%%%%%%%%%%%%%%%%%%%%%%%%%%%%%%%%%%%%%%%%%%%%%%%%%%
22890A6%%%%%%%%%%%%%%%%%%%%%%%%%%%%%%%%%%%%%%%%%%%%%%%%%%%%%%%%%%%%%%%%%%%%%
22874A6%%%%%%%%%%%%%%%%%%%%%%%%%%%%%%%%%%%%%%%%%%%%%%%%%%%%%%%%%%%%%%%%%%%%%
22858A6%%%%%%%%%%%%%%%%%%%%%%%%%%%%%%%%%%%%%%%%%%%%%%%%%%%%%%%%%%%%%%%%%%%%%
22843A6%%%%%%%%%%%%%%%%%Qq%%%Qq%%%Qq%%Qq%%%%%%%%%%%%%%%%%%%%%%%%%%%%%%%%%%%%
22827A6%%%%%%%%%%%%%%%%%%%%%%%%%%%%%%%%%%%%%%%%%%%%%%%%%%%%%%%%%%%%%%%%%%%%%
22811A6%%%%%%%%%%%%%%%%%%%%%%%%%%%%%%%%%%%%%%%%%%%%%%%%%%%%%%%%%%%%%%%%%%%%%
22795A6%%%%%%%%%%%%%%%%%%%%%%%%%%%%%%%%%%%%%%%%%%%%%%%%%%%%%%%%%%%%%%%%%%%%%
22779A6%%%%%%%%%%%%%%%%%%%%%%%%%%%%%%%%%%%%%%%%%%%%%%%%%%%%%%%%%%%%%%%%%%%%%
22764A6%%%%%%%%%%%%%%%%%%%%%%%%%%%%%%%%%%%%%%%%%%%%%%%%%%%%%%%%%%%%%%%%%%%%%
22748A6%%%%%%%%%%%%%%%%%%%%%%%%%%%%%%%%%%%%%%%%%%%%%%%%%%%%%%%%%%%%%%%%%%%%%
22732A6%%%%%%%%%%%%%%%%%%%%%%%%%%%%%%%%%%%%%%%%%%%%%%%%%%Qqq%Q%%%%%%%%%%%%%%
22716A6%%%%%%%%%%%%%%%%%%%%%%%%%%%%%%%%%%%%%%%%%%%%%%%%%%%%%%%%%%%%%%%%%%%%%
22700A6%%%%%%%%%%%%%%%%%%%%%%%%%%%%%%%%%%%%%%%%%%Qq%%%%%%%%%%%%%%%%%%%%%%%%%
22685A6%%%%%%%%%%%%%%%%%%%%%%%%%%%%%%%%%%%%%%%%%%%%%%%%%%%%%%%%%%%%%%%%%%%%%
22669A6%%%%%%%%%%%%%%%%%%%%%%%%%%%%%%%%%%%%%%%%%%%%%%%%%%%%%%%%%%%%%%%%%%%%%
22653A6%%%%%%%%%%%%%%%%%%%%%%%%%%%%%%%%%%%%%%%%%%%%%%%%%%%%%%%%%%%%%%%%%%%%%
22637A6%%%%%%%%%%%%%%%%%%%%%%%%%%%%%%%%%%%%%%%%%%%%%%%%%%%%%%%%%%%%%%%%%%%%%
22621A6%%%%%%%%%%%%%%%%%%%%%%%%%%%%%%%%%%%%%%%%%%%%%%%%%%%%%%%%%%%%%%%%%%%%%
22606A6Qq%%%Qq%Qq%%j6%K4q%%%%%%%%%Q%q%%%%%%%%%%%%%%%%%%%%%%%%%%%%%%%%%%%%%%%
22590A6%%%%%%%%%%%%%%%%%%%%%%%%%%%%%%%%%%%%%%%%%%%%%%%%%%%%%%%%%%%%%%%%%%%%%
22575A6%%%%%%%%%%%%%%%%%%%%%%%%%%%%%%%%%%%%%%%%%%%%%%%%%%%%%%%%%%%%%%%%%%%%%
22559A6%%%%%%%%%%%%%%%%%%%%%%%%%%%%%%%%%%%%%%%%%%%%%%%%%%%%%%%%%%%%%%%%%%%%%
22543A6%%%%%%%%%%%%%%%%%%%%%%%%%%%%%%%%%%%%%%%%%%%%%%%%%%%%%%%%%%%%%%%%%%%%%
22527A6%%%%%%%%%%%%%%%%%%%%%%%%%%%%%%%%%%%%%%%%%%%%%%%%%%%%%%%%%%%%%%%%%%%%%
22511A6%%%%%%%%%%%%%%%%%%%%%%%%%%%%%%%%%%%%%%%%%%%%%%%%%%%%%%%%%%%%%%%%%%%%%
22496A6%%%%%%%%%%%%%%%%%%%%%%%%%%%%%%%%%%%%%%%%%Qq%Qq%%%%%%%%%%%%%%%%%%%%%%%
22480A6%%%%%%%%%%%%%%%%%%%%%%%%%%%%%%%%%%%%%%%%%%%%%%%%%%%%%%%%%%%%%%%%%%%%%
22464A6%%%%%%%%%%%%%%%%%%%%%%%%%%%%%%%%%%%%%%%%%%%%%%%%%%%%%%%%%%%%%%%%%%%%%
22448A6%%%%%%%%%%%%%%%%%%%%%%%%%%%%%%%%%%%%%%%%%%%%%%%%%%%%%%%%%%%%%%%%%%%%%
22432A6%%%%%%%%%%%%%%%%%%%%%%%%%%%%%%%%%%%%%%%%%%%%%%%%%%%%%%%%%%%%%%%%%%%%%
22417A6%%%%%%%%%%%%%%%%%%%%%%%%%%%%%%%%%%%%%%%%%%%%%%%%%%%%%%%%%%%%%%%%%%%%%
22401A6%%%%%%%%%%%%%%%%%%%%%%%%%%%%%%%%%%%%%%%%%%%%%%%%%%%%%%%%%%%%%%%%%%%%%
22385A6%%%%%%%%%qQ%%%%%%%%%%%%%%%%%%%%%%%%%%%%%%%%%%%%%%%%%%%%%%%%%%%%%%%%%%
22369A6%%q%%Q%Qq%%%%%%%%%%%%%%%%%%%%%%%%%%%%%%%%%%%%%%%%%%%%%%%%%%%%%%%%%%%%
22353A6%%%%%%%%%%%%%%%%%%%%%%%%%%%%%%%%%%%%%%%%%%%%%%%%%%%%%%%%%%%%%%%%%%%%%
22338A6%%%%%%%%%%%%%%%%%%%%%%%%%%%%%%%%%%%%%%%%%%%%%%%%%%%%%%%%%%%%%%%%%%%%%
22322A6%%%%%%%%%%%%%%%%%%%%%%%%%%%%%%%%%%%%%%%%%%%%%%%%%%%%%%%%%%%%%%%%%%%%%
22306A6%%%%%%%%%%%%%%%%%%%%%%%%%%%%%%%%%%%%%%%%%%%%%%%%%%%%%%%%%%%%%%%%%%%%%
22290A6%%%%%%%%%%%%%%%%%%%%%%%%%%%%%%%%%%%%%%%%%%%%%%%%%%%%%%%%%%%%%%%%%%%%%
22274A6%%%%%%%%%%%%%%%%%%%%%%%%%%%%%%%%%%%%%%%%%%%%%%%%%%%%%%%%%%%%%%%%%%%%%
22259A6%%%%%%%%%%%%%%%%%%%%%%%%%%%%%%%%%%%%%%%%%%%%%%%%%%%%%%%%%%%%%%%%%%%%%
22243A6%%%%%%%%%%%%%%%%%%%%%%%%%%%%%%%%%%%%%%%%%%%%%%%%%%%%%%%%%%%%%%%%%%%%%
22227A6%%%%%%%%%%%%%%%%%%%%%%%%%%%%%%%%%%%%%%%%%%%%%%%%%%%%%%%%%%%%%%%%%%%%%
22211A6%%%%%%%%%%%%%%%%%%%%%%%%%%%%%%%%%%%%%%%%%%%%%%%%%%%%%%%%%%%%%%%%%%%%%
22196A6%%%%%%%%%%%%%%%%%%%%%%%%%%%%%%%%%%%%%%%%%%%%%%%%%%%%%%%%%%%%%%%%%%%%%
22180A6%%%%%%%%%%%%%%%%%%%%%%%%%%%%%%%%%%%%%%%%%%%%%%%%%%%%%%%%%%%%%%%%%%%%%
22164A6%%%%%%%%%%%%%%%%%%%%%%%%%%%%%%%%%%%%%%%%%%%%%%%%%%%%%%%%%%%%%%%%%%%%q
22148HQ%%%%%%%%%%%%%%%%%%%%%%%%%q%Q%Qq%%%%%%%%%%%%%%Q%j6QQq%Qj6K4j6QQk4M8m8K4
22134C2m0QM0k4q%Q%j6J6%%%Qq%%%%q%Q%%%Qq%%%%q%Q%%%%%%%%%%%%%%%%%%%%%%%%%%%%%%
22119A6%%%%%%%%%%%%%%%%%%%%%%%%%%%%%%%%%%%%%%%%%%%%%%%%%%%%%%%%%%%%%Qq%%%%%%
22103A6%%%%%%%%%%%%%%%%%%%%%%%%%%%%%%%%%%%%%%%%%%%%%%%%%%%%%%%%%%%%%%%%%%%%%
22087A6%%%%%%%%%%%%%%%%%%%%%%%%%%%%%%%%%%%%%%%%%%%%%%%%%%%%%%%%%%%%%%%%%%%%%
22072A6%%%%%%%%%%%%%%%%%%%%%%%%%%%%%%%%%%%%%%%%%%%%%%%%%%%%%%%%%%%%%%%%%%%%%
22056A6%%%%%%%%%%%%%%%%%%%%%%%%%%%%%%%%%%%%%%%%%%%%%%%%%%%%%%%%%%%%%%%%%%%%%
22040A6%%%%%%%%%%%%%%%%%%%%%%%%%%%%%%%%%%%%%%%%%%%%%%%%%%%%%%%%%%%%%%%%%%%%%
22024A6%%%%%%%%%%%%%%%%%%%%%%%%%%%%%%%%q%QqQ%%%%%%%%%%%%%%%%%%%%%%%%%%%%%%%%
22009A6%%%%%%%%%%%%%%%%%%%%%%%%%%%%%%%%%%%%%%%%%%%%%%%%%%%%%%%%%%%%%%%%%%%%%
21993A6%%%%%%%%%%%%%%%%%%%%%%%%%%%%%%%%%%%%%%%%%%%%%%%%%%%%%%%%%%%%%%%%%%%%%
21977A6%%%%%%%%%%%%%%%%%%%%%%%%%%%%%%%%%%%%%%%%%%%%%%%%%%%%%%%%%%%%%%%%%%%%%
21961A6%%%%%%%%%%%%%%%%%%%%%%%%%%%%%%%%%%%%%%%%%%%%%%%%%%%%%%%%%%%%%%%%%%%%%
21945A6%%%%%%%%%%%%%%%%%%%%%%%%%%%%%%%%%%%%%%%%%%%%%%%%%%%%%%%%%%%%%%%%%%%%%
21930A6%%%%%%%%%%%%%%%%%%%%%%%%%%%%%%%%%%%%%%%%%%%%%%%%%%%%%%%%%%%%%%%%%%%%%
21914A6%%%%%%%%%%%%%%%%%%%%%%%%%%%%%%%%%%%%%%%%%%%%%%%%%%%%%%%%%q%QQj6Q%%%%%
21898A6%%%%%%%%%%%%%%%%%%%%%%%%%%%%%%%%%%%%%%%%%%%%%%%%%%%%%%%%%%%%%%%%%%%%%
21882A6%%%%%%%%%%%%%%%%%%%%%%%%%%%%%%%%%%%%%%%%%%%%%%%qQ%%%%%qQ%%%%%%%%%%%%%
21867A6%%%%%%%%%%%%%%%%%%%%%%%%%%%%%%%%%%%%%%%%%%%%%%%%%%%%%%%%%%%%%%%%%%%%%
21851A6%%%%%%%%%%%%%%%%%%%%%%%%%%%%%%%%%%%%%%%%Qq%%%%%%%%%%%%%%%%%%%%%%%%%%%
21835A6%%%%%%%%%%%%%%%%%%%%%%%%%%%%%%%%%%%%%%%%%%%%%%%%%%%%%%%%%%%%%%%%%%%%%
21819A6%%%%%%%%%%%%%%%%%%%%%%%%%%%%%%%%%%%%%%%%%%%%%%%%%%%%%%%%%%%%%%%%%%%%%
21803A6%%%%%%%%%%%%%%%%%%%%%%%%%%%%%%%%%%%%%%%%%%%%%%%%%%%%%%%%%%%%%%%%%%%%%
21788A6%%%%%%%%%%%%%%%%%%%%%%Qq%%%%%%%%%%%%%%%%%%%%%%%%%%%%%%%%%%%%%%%%%%%%%
21772A6%%%%%%%%%%%%%%%%%%%%%%%%%%%%%%%%%%%%%%%%%%%%%%%%%%%%%%%%%%%%%%%%%%%%%
21756A6%%%%%%%%%%%%%%%%%%%%%%%%%%%%%%%%%%%%%%%%%%%%%%%%%%%%%%%%%%%%%%%%%%%%%
21740A6%%%%%%%%%%%%%%%%%%%%%%%%%%%%%%%%%%%%%%%%%%%%%%%%%%%%%%%%%%%%%%%%%%%%%
21724A6%%Qq%qQ%%%%%%%%%%%%%%%%%%%%%%%%%%%%%%%%%%%%%%%%%%%%%%%%%%%%%%%%%%%%%%
21709A6%%%%%%%%%%%%%%%%%%%%%%%%%%%%%%%%%%%%%%%%%%%%%%%%%%%%%%%%%%%%%%%%%%%%%
21693A6%%%%%%%%%%%%%%%%%%%%%%%%%%%%%%%%%%%%%%%%%%%%%%%%%%%%%%%%%%%%%%%%%%%%%
21677A6%%%%%%%%%%%%%%%%%%%%%%%%%%%%%%%%%%%%%%%%%%qQ%%%%%%%%qJ6k4J6%%%%%%%%%%
21662A6%%%%%%%%%%%%%%%%%%%%%%%%%%%%%%%%%%%%%%%%%%%%%%%%%%%%%%%%%%%%%%%%%%%%%
21646A6%%%%%%%%%%%%%%%%%%%%%%%%%%%%%%%%%%%%%%%%%%%%%%%%%%%%%%%%%%%%%%%%%%%%%
21630A6%%%%%%%%%%%%%%%%%%%%%%%%%%%%%%%%%%%%%%%%%%%%%%%%%%%%%%%%%%%%%%%%%%%%%
21615A6%%%%%%%%%%%%%%%%%%%%%%%%%%%%%%%%%%%%Qq%%%%%%%%%%%%%%%%%%%%%%%%%%%%%%%
21599A6%%%%%%%%%%%%%%%%%%%%%%%%%%%%%%%%%%%%%%%%%%%%%%%%%%%%%%%%%%%%%%%%%%%%%
21583A6%%%%%%%%%%%%%%%%%%%%%%%%%%q%Q%%%%%%%%%%%%%%%%%%%%%%%%%%%%%%%%%%%%%%%%
21567A6%%%%%%%%%%%%%%%%%%%%%%%%%%%%%%%%%%%%%%%%%%%%%%%%%%%%%%%%%%%%%%%%%%%%%
21551A6%%%%%%%%%qQ%%qJ6q%%%qQ%%%%%%%%%%%%%%%%%%%%%%%%%%%%%%%%%%%%%%%%%%%%%%%
21536A6%%%%%%%%%%%%%%%%%%%%%%%%%%%%%%%%%%%%%%%%%%%%%%%%%%%%%%%%%%%%%%%%%%%%%
21520A6%%%%%%%%%%%%%%%%%%%%%%%%%%%%%%%%%%%%%%%%%%%%%%%%%%%%%%%%%%%%%%%%%%%%%
21504A6%%%%%%%%%%%%%%%%%%%%%%%%%%%%%%%%%%%%%%%%%%%%%%%%%%%%%%%%%%%%%qQqQ%%%%
21488A6%%%%%%%%%%%%%%%%%%%%%%%%%%%%%%%%%%%%%%%%%%%%%%%%%%%%%%%%%%%%%%%%%%%%%
21473A6%%%%%%%%%%%%%%%%%%%%%%%%%%%%%%%%%%%%%%%%%%%%%%%%%%%%%%%qQ%%%%%%%%%%%%
21457A6%%%%%%%%%%%%%%%%%%%qQ%%%%%%%%%%%%%%%%%%%%%%%%%%%%%%%%%%%%%%%%%%%%%%%%
21441A6%%%%%%%%%%%%%%%%%%%%%%%%%%%%%%%%%%%%%%%%qQ%%Qq%q%QqQ%%%%%%%%%%%%%%%%%
21425A6%%%%%%%%%%%%%%%%%%%%%%%%%%%%%%%%%%%%%%%%%%%%%%%%%%%%%%%%%%%%%%%%%%%%%
21410A6%%%%%%%%%%%%%%%%%%%%%%%%%%%%%%%%%%%%%%%%%%%%%%%%%%%%%%%%%%%%%%%%%%%%%
21394A6%%%%%%%%%%%%%%%%%%%%%%%%%%%%%%%%%%%%%%%%%%%%%%%%%%%%%%%%%%%%%%%%%%%%%
21378A6%%%%%%%%%%%%%%%%%%%%%%%%%%%%%qQ%%%%%%%%%%%%%%%%%%%%%%%%%%%%%%%%%%%%%%
21362A6%%%%%%%%%%%%%%%%%%%%%%%%%%%%%%%%%qQ%%%%%%%%%%%%%%%%%%%%%%%%%%%%%%%%%%
21346A6%%%%%%%%%%%%%%%%%%%%%%%%%%%%%%%%%%%%%%%%%%%%%%%%%%%%%%%%%%%%%%%%%%%%%
21331A6%%%%%%%%%%%%%%%%%%%%%%%%%%%%%%%%%%%%%%%%%%%%%%%%%%%%%%%%%%%%%%%%%%%%%
21315A6%%%%%%%%%%%%%%%%%%%%%%%%%%%%%%%%%%%%%%%%%%%%%%%%%%%%%%%%qQ%%%%%%%%%%%
21299A6%%%%%%%%%%%%%%%%%%%%%%%%%%%%%%%%%%%%%%%%%%%%%%%%%%%%%%%%%%%%%%%%%%%%%
21283A6%%%%%%%%%%%%%%%%%%%%%%%%%%%%%%%%%%%%%%%%%%%%%%%%%%%%%%%%%%%%%%%%%%%%%
21267A6%%%%%%%%%%%%%%%%%%%%%%%%%%%%%%%%%%%%%%%%%%%%%%%%%%%%%%%qQ%%%%%%%%%%%%
21252A6%%%%%%%%%%%%%%%%%%%%%%%%%%%%%%%%%%%%%%%%%%%%%%%%%%%%%%%%%%%%%%%%%%%%%
21236A6%%%%%%%%%%%%%%%%%%%%%%%%%%%%%%%%%%%%%%%%%%%%qQ%%%%%%%%%%%%%%%%%%%%%%%
21220A6%%%%%%%%%%%%%%%%%%%%%%%%%%%%%%%%%%%%%%%%%%%%%%%%%%%%%%%%%%%%%%%%%%%qQ
21204A6%%%%%%%%%%%%%%%%%%%qQ%qQqQ%%qQ%Qj6J6%j6%qJ6%QqQq%%%%%%%%%%%%%qQ%%%%%%
21189A6%%%%%%%%%%%%%%%%%%%%%%%%%%%%%%%%%%%%%%%%%%%%%%%%%%%%%%%%%%%%%%%%%%%%%
21174A6%%%%%%%%%%%%%%%%%%%%%%%%%%qQ%qQ%%%%%%%%%%%%%%%%%%%%%%%%%%%%%%%%%%%%%%
21158A6%%%%%%%%%%%%%%%%%%%%%%%%%%qQ%%%%%%%%%%%%%%%%%%%%%%%%%%%%%%%%%%%%%%%%%
21142A6%%%%%%%%%%%%%%%%%%qQqQqQ%%%%%%%%%%%%%%%%%%%%%%%%%%%%%%%%%%%%%%%%%%%%%
21126A6%%%%%%%%%%%%%%qQ%%%%%%%%%%%%%%%%%%%%%%%%%%%%%%%%%%%%%%%%%%%%%%%%%%%%%
21110A6%%%%%%%%%%%%qQ%%%%%%%%%%%%%%%%%%%%%%%%%%%%%%%%%%%%%%%%%%%%%%%%%%%%%%%
21095A6%%%%%%%%%%%%%%%%%%%%%%%%%%%%%qQ%%%%%%%%%%%%%%%%%%%%%%%%%%%%%%%%%%Q%%j6
21079H%%Q%%%%%%%%qQ%%%%qQ%%%%%%%%%%%%%%%%%%%%%%%qQ%%%%%%%%%%%%%%%%%%%%%%%%%%
21063A6%%%%%%%%%%%%%%%%%%%%%%%%%%%%%%%%%%%%%%%%%%%%%%%%%%%%%%%%q%Q%%%%%%%%%%
21047A6%%%%%%%%%%%%%%%%%%%%%%%%%%%%%%%%%%%%%%%%%%%%%%%%%%%%%%%%%%%%%%%%%%%%%
21031A6%%%%%%%%%%%%%%%%%%%%%%%%%%%%%%%%%%%%%%%%%%%%%%%q%Q%%%%qQ%%%%%%%%%%%%%
21015A6%%%%%%%%%%%%%%%%%%%%%%%%%%%%%%%%%%%%%%%%%qQ%%%%%%%%%%%%%%%%%%%%%%%%%%
21000A6%%%%%%%%%%%%%%%%%%%%%%%%%%%%%%%%%%%%q%Q%%%%%%%%%%%%%%%%%%%%%%%%%%%%%%
20984A6%%%%%%%%%%%%%%%%%%%%%%%%%%%%%%%%%%%%%%%%%%%%%%%%%%%%%%%%%%%%%%%%%%%%%
20968A6%%%%%%%%%%%%%%qQ%%%%%%%%q%QQj6Q%%%%qQ%%%%%%%%%%%%%%%%%%%%%%%%%%%%%%%%
20952A6%%%%%%%%%%%%%%%%%%%%%%%%%%%%%%%%%%%%%%%%%%%%%%qQ%%%%%%%%%%%%%%%%%%%%%
20937A6%%%qQ%%%%%%%%%%%%%%%%%%%%%%%%%%%%%%%%%%%%%%%%%%%%%%%%%%%%%%%%%%%%%%%%
20921A6%%%%%%%%%%%%%%%%%%%%%%%%%%%%%%%%%%%%%%%%%%%%%%%%%%%%%%%%%%%%%%%%%%%%q
20905HQ%%%%q%Q%%%%%%%%%%%%%%%%%%%%%%%%%%%%%%%%%%%%%%%%%%%%%%%%%%%%%%%%%%%%qQ
20889A6%%%%%%%%%%%%%%%%%%%%%%%%%%%%%%%%%%%%%%%%%%%%%%%%%%%%%%%%%%%%%%%%qQ%q%
20873HQ%%%%%%%%%%%%%%%%%%%%%%%%%%%%%%%%%%%%%%%%%%%%%%%%%%%%%%%%%%%%%%%%%%%%%
20857A6%%%%%%%%%%%%%%%%%%%%%%%%%%%%%%%%%%%%%%%%%%%qQ%%qQqQ%%%%qQ%%%%%%%%%%%%
20841A6%%%%%%%%%%%%%%%%%%%%%%%%%%%%%%%%%%%%%%%%%%%%%%%%%%%%%%%%%%%%%%%%%%%%%
20826A6%%%%%%%%%%%%%%%%%%%%%%%%%%%%%%%%%%%%%%%%%%qQ%%%%%%%%%%%%%%%%%%%%%%%%%
20810A6%%%%%%%%%%%%%%%%%%%%%%%%%%%%%%%%%%%%%%%%%%%%%%%%%%%%%%%%%%%%%%%%%%%%%
20794A6%%%%%%%%%%%%%%%%%%%%%%%%%%%%%%%%%qQ%%qQ%%%%%%%%%%%%%%%%%%%%%%%%%%%%%%
20778A6%%%%%%%%%%%%%%%%%%%%%%%%%%%%%%%%%%%%%%%%%%%%%%%%%%%%%%%%%%%%%%%%%%%%%
20762A6%%%%%%%%%%%%%%%%%%%%%%%%%%%%%%%%%%%%%%%%%%%%qQ%%%%%%%%%%%%%%%%%%%%%%%
20747A6%%%%%%%%%%%%%%%%%%%%%%%%%%%%%%%%%%qQ%%%%%%%%%%%%%%%%%%%%%%%%%%%%%%%qQ
20731A6%qQ%qQ%%%%qQ%q%QQqqQ%%%%%%qQ%%%%%%%%%%%%%%%qQqQ%%%%%%%%%%%%%%%%%%%%%%
20715A6%%%%%%%%%%%%%%%%%%%%%%%%%%%%%%%%%%%%%%%%%%%%%%%%%%%%%%%%%%%%%%%%%%%%%
20699A6%qQ%%%%%%%%%%%%%%%%%%%%%%%%%%%%%%%%%%%%%%%%%%%%%%%%%%%%%%%%%%%%%%%%%%
20684A6%%%%%%%%%%%%%%%%%%%%%%%%%%%%%%%%%%%%%%%%%%%%%%%%%%%%%%%%%%%%%%qQ%%%%%
20668A6%%%%%%%%%%%%%%%%%%%%%%%%%%%%%%%%%%%%%%%%%%%%%%%%%%%%%%%%%%%qQ%%%%%%%%
20652A6%%%%%%%%%%%%%%%%%%%%%%%%%%%%%%%%%%%%%%%%%%%%%%%%%%%%%%%%%%%%%%%%%%%%%
20636A6%%%%%%%%%%%%%%%%%%%%%%%%%%%%%%%%%%%%%%%%%%%%%%%%%%%%%%%%%%%%%%%%%%%%%
20620A6%%%%%%%%%%%%%%%%%%%%%%%%%%%%%%%%%%%%%%%%%q%QqQ%%%%%%%%%%%%%%%%%%%%%%%
20605A6%%%%%%%%%%%%%%%%%%%%%%%%%%%%%%%%%%%%%q%%Q%%%%%qQ%%%%%%qQ%%%%%%%%%%%%%
20589A6%%%%%%%%%%%%%%%%%%%%%%%qQ%%%%%%%%%%%qQ%%%%%%%%%%%%%%%%%%%%%%%%%%%%%%%
20573A6%%%%%%%%%%%%%%%%%%%%%%%%%%%%%%%%%%%%%%%%qQ%%%%%%%%%%%%%%%%%%%%%%%%%%%
20557A6%%%%%%%%%%%%%%%%%%%qQqQ%%%%%%%%%%%%%%%%%%%%%%%%%%%%%%%%%%%%%%%%%%%%%%
20541A6%%%%qQ%%%%%%%%%%%%%%qQ%%%%%%%%%%%%%%%%%%%%%%%%%%%%%%%q%Q%%%%%%%%%%%%q
20526HQ%%%%%%%qQ%%%qQ%%qQ%%%%%%%%%%%%%%%%%%%%%%%%%%%%%%%%%%%%%%%%%%%%%%%%%%%
20510A6%%%%%%%%%%%%%%%%%%%%%%%%%%%%%%%%%%%%%%%%%%%%%%%%%%%%%%%%%%qQ%%%qQ%qQ%
20494A6%%%%%qQ%qQ%qQ%%%%%%%%%%%%%%%%%%%%%%%%qQqQ%%%%%%%%%%%%%%%%%%%%%%%%%%%%
20478A6%%%%%%%%%%%%%%%%%%%%%%%%%%%%%%%qQ%%%%%%%%%%%%%%%%qQ%%%%%%%%%%%%%q%Q%%
20462A6%%qQ%%%%%%%%%%%%%%%%%%%%%%%%%%%%%%%%%%%%%%%%%%%%%%%%%%%%%%%%%%%%%%%%%
20446A6%%%%%%%%%%%%%%%%%%%%%%%%%%%%%%%%%%%%%%%%%%%%%%%%%%%qQ%%qQ%%%%%%%%%q%Q
20431A6%%%%%%%%%%%%%%%%%%%%%%%%%%%%%%%%%%%%%%%%%%%%%%%%%%%%%%%%%%%%%%%%%%%%%
20415A6%%%%%%%%%%%%%%qQ%%%%%%%%%%%%%%%%%%%%%%%%%qQ%%%%%%%%%%%%%%%%%%%%%%%%%%
20399A6%%%%%%%%%%%%qQ%%%%%%%%%%%%%%%%%%%%%%%%%%%%%%%%%%%%%%%%%%%%%%%%%%%%%%%
20383A6%%%%%%%%%%%%%%%%%%%%%%%%%%qQqQ%%%%%%%%%%%%%%%%%%%%%%%%%%%%%%%%%%%%%%%
20367A6%%%%%%%%%%%%%%%%%%%%%%%%%%%%%%qQ%%%%%%%%%%%%%%%%%%%%%%%%%%qQ%%%%%%%%%
20352A6%%%%%%%%%%%%%%%%%%%%%q%Q%%%%%%%%%%%%%%%%%%%%%%%%%%%%%%%%%%%%%%%%%%%%%
20336A6%%%%%%%%%%%qQqQ%qQ%%%%%%%%%%%%%%%%qQ%%%%%%%%%%%%%%%%%%%%%%%%%%%%%%%%%
20320A6%%%%%%qQ%%%%%%%%%%%%%%%%%%%%%%%%%%%%%%%%%%%%%%%%%%%%%%%%%%%%%%%%%%%%%
20304A6%qQ%%%%%%%%%%qQ%%%%%%%%%%%%%%%%%%%%%%%%%%%%%%%%%%%%%%%%%%%%%%%%%%%%%%
20288A6%%%%%%%%%%%%%%%%%%%%%%%%%%%%%%%%%%%%%%%%%%%%%%%%%%%%%%%%%%%%%%%%%%%%%
20273A6%%%%%%%%%%%%%%%%%%%%%%%%%%qQqQ%q%Q%%%%qQ%%q%%%%Q%%%%qJ6j6%QQqj6L2k4K4
20258C2qk4J6q%J6j6Q%q%Q%%%%qQ%%%%%qQ%%q%QqQ%%%%%%%%%q%Q%%%%%%%%%%qQ%%%%%%%qQ
20243A6%%%%%%%%%%%%%%%%%%%%%%%%%%qQqQ%%%%%%%%%%%%%%%%%%%%%%%%%%%%%qQ%%%%%%%%
20228A6%%%%%%%%%%%%%%%%%%%%%%%%%%%%%%%%%%%%%%%%qQ%%%%%%%qQqQ%%%%qQ%qQ%%%%%%%
20212A6%%%%%%%%%%%qQ%%%%%%%%%%%%%%%q%Q%%%%%%%%%%%%%%%%%%%%qQ%%%%%%%%%%%%%%%%
20196A6%%%%%%%%%%%%%%%%%%%%%%%%%%%%%%%%%%%%%%%%%%%%%%%%%%%%%%%%%%%%%%%%%%%%%
20180A6%%%%%%%%%%%%%%%%%%%%%%%%%%%%%%%%%%%%%%qQ%%%%%%%%%%%%%%%%qQ%%%%%%%%%%%
20164A6%%%%%%%%%%%%%%%%%%%%%%%%%%%%%%%%%%%%%%%%%%%%%q%Q%%%%%%qQ%%%%%%%%%%%%%
20149A6%%%%%%%%%%%%qQ%qQ%%%%%q%Q%qQ%%%%q%QqQ%%%%%%%%%%%%%%%%%%%%%%%%%%%%%%%%
20133A6%%%%%%%%%%%%%%%%%%%%%%%%%%%%%%%%%%%%%%%qQ%%%%%%%%%%%%%%%%%%%%%%%%%%%%
20117A6%%%%%%%%%%%%%%%%%%qQqQ%%qQ%%%%qQ%%%%%%%%%%%%%%%%%%%%%%%%%%%%%%%%%%%%%
20101A6%%%%%%%%%%%%%%qQ%%%%%%%%%%qQ%%%%%qQ%%%%%%%%%%%%%%%%%%%%%%%%%%%%%%%%%%
20085A6%%%%%%%%%%%qQ%%%%%%%%%%%%%%%%%%%%%%%%%%%%%%%%%%%%%%%%%%%%%%%%%%%%%%%%
20070A6%%%%%%%%%%%%%%%%%%%%%%%%%%%%%%%%%%%%%%%%%%%%%%%%%%%%%%%%%%%%%%%%%%%%q
20054HQqQ%%%%%%%%%%%%%%%%%%%%%%%%%%%%%%%%%%%%%%%%%%%%%%%%%%%%%%%%%%%%%%%%%%%
20038A6%%%%%%%%%%%%%%%%%%%%%%%%%%%qQ%%%%%qQ%%%%%%%%%%%%%%%%qQqQqQ%Qj6%Q%qQ%%
20022A6%%%%%%%%%%%%%%qQ%%%qQqQ%%%%%%%%%%%%%%%%%%%%%%%%%%qQ%%%qQ%%%%%%%%%%%%%
20006A6%%%%%%%%%%%%%%%qQ%%%%%%qQ%%%%%%%%%%%%%%%%%%%%%%%%%%%%%%%%%%%%%%%qQ%%%
19991A6%%%%%%%%qQ%%%%%%%%%%%%%%%%%%%%%%%%%%%%%%%%%%%%%qQ%%%%%%%%%%%%%%%%%%%%
19975A6%%%%%%%%%%%%%%%%%%%%%%%%%%%qQ%%%%%%%%%qQq%Q%%%%%%%%%%%%%%%%%%%%%%%%%%
19959A6%%%%%%%%%%%%%%%%%%%%%%%%%%%%%%%%%%%q%Q%%%%%%%%%%%%%%%%%%%%%%%%%%%qQ%%
19943A6%%%%%%%%%%%%%%%%%%%%%%qQ%%%q%Q%%%%%%%%%%%%qQ%%%%%%%%%%%%%%%%%%%%%%%%%
19928A6%%%%%%%%%%%%%%%%%%%%%%%%%%%%%%%%%%%%%%%%%%%%%%%%%%%%%%%%%%%%%%%%qQ%%%
19912A6%%q%%%QqQ%%%%%%q%%%%Q%q%%Q%%%%%%%%%%qQ%%%%%%%%%%%%%%%%%%%%%%%%%%%%%%q
19896HQ%%%%%%%%%%%q%Q%%qQ%%%%%%%%%%%%%%%%%%%%%%%%%%%%%%%%%%%%%%%%%%%%%%%%%%%
19880A6%%%%%%%%%%%qQ%%%%%%%%%%%%%%%%%%%%%%%%%%%%qQ%%%%%%%%%%%%%%%%%%%%%%%%%%
19864A6%%%%qQ%%%%%%%%%%qQ%%%%%%%%%%%%%%%%%%%%%%%%%%%%%%%%%%%%%%%%%%qQ%%qQ%qQ
19848A6%%%%%%%%%%%%%%%%%%%%%%%%%%%%%%%%%%%%%%%%%%%%%%%%%%%%%%%%%%%%%%%qQ%%%%
19833A6%%%%%%%%%%%%%%%%%%%%%%qQ%q%Q%%%%%%%%%%%%%%%%%%%%%%%%%%%qQ%qQ%%%%%%%%%
19817A6%%%%%%%%%%%%%%%%%%%%%%%%%%%%%%%%%%%%%%%%%%%%%%%%qQ%%%qQ%%%%%%%%%%%%%%
19801A6%%%%%%%qQqQ%%%%%%qQ%%%%%%qQ%%%qQ%qQqQ%%q%%QqQq%%%QqQqQ%%%%qQ%%%%%%%%%
19785A6%%%%%%%%%%%%%%%%%%%%%%%%%%%%%%%%%%%%%%%%%%%%%%%%%%%%%%%%%%%%%%%%%%%%%
19769A6%%%%%%%%%%%%%%%%%%%%qQ%%%%%%%%%%%%%%%%%%%%%%%%%%%%%%%%%%%%%%%%%%%%%%%
19754A6%%%qQ%qQ%%%%%%%%%%%%%%%%%%%%%%%%%%%qQ%%%%qQ%%%%%%%%%%%%%%%%%%%%%%%%%%
19738A6%%%qQ%qQ%%qQ%%%qQ%%%%%%%%%q%%%Q%q%Q%qQ%%%%%%%%%%qQ%%%%%%%%%%%%%%%%%%%
19722A6%%%%%%%%%%%%%qQ%qQ%%%%%qQ%%qQqQ%%%%%%qQ%%%%%%%%%qQ%qQ%%%%%%%%qQ%%%%%%
19706A6%%%%%%%%%qQ%%%%qQ%%%%%qQ%%%%%%%%%%%%%%%%%qQqQ%%qQ%%%%%%%%%%%%%%%%%%%%
19690A6%%%%%%%%%%%qQ%%qQ%%%%%%%%%%qQ%%%%%%qQ%%%%%qQ%qQqQ%%%%qQ%%%%%%%%%%%qQ%
19675A6%%qQ%%%%%%qQ%%qQqQ%%%%qQqQ%%%%%%%%%%%%%%qQ%%%%%%%%%%%%%qQ%%%%%%%%%%%q
19659HQ%%%%qQqQ%%%%%%%%%%%%%%%%%%%%%%%%%%%%%%%%qQ%qQ%%%%%%%%%%%%%%%%%q%%Q%q%
19643HQq%Q%%%%%%%%%%%%%qQ%%%%qQ%qQqQ%%%%%%%qQ%%%%%%%%%%%%%%%%%%%qQ%%%%%qQqQ%
19627A6%%%%%%%%%%%%%%%%%%%%%%%%%%%%%%%%%%%%%%%%%%%%%%%%qQ%%%qQqQ%%qQ%%%%q%Qq
19611H%Q%%%%%%%%qQ%%%%%%%%%%%%qQ%%%%%%%qQ%%%%%%%%qQ%qQ%%%%%%%%%%%%%%%%%%%%%%
19595A6%%%%%%%%%%%%%%%qQ%%%%%%%%qQ%%%%%%%%%%%%%%qQ%%%%%%%%%%%%%%%%%%%%%%%%%%
19579A6%%%%%%%%%%%%%%%%%%%%qQ%%%%%%%%%%%%%qQ%%qQqQ%%%%qQ%%%%%%%%%%%%%%%%%%%%
19563A6%%%%%%%%%%%%%%%%%%%%%%qQ%qQ%qQq%%Q%%%%%qQqQ%%%%%%%qQ%%%%%qQ%%%%%%%%%%
19548A6%%%%%%%%%%%%%%%%%%%%%qQ%%%%%%%%%%%%%%%%%%%%%%%%%%%%%%%%%%%%%%%%%%%%%%
19532A6%%%%%%%%%%%%%%%%%%%qQqQ%%qQ%%%%%%%%%%%%%%%%%%%%%%%%%%%%qQ%%%%%%%%%%%%
19516A6%%%%%%%%%%%%%%%%%%%%%%%%%%%%%%%%%%%%%%%%%%%qQ%%%%%%%%%%%%%%%%%%%%%%%%
19500A6%%%%%%%%%%%%%%%qQ%%%%%%%%%%%%%%%%%%%%%%%%%%%%%qQ%%%%%%%%%%%%%%%%%%%%%
19484A6%%%%%qQ%%q%Qq%QqQ%%%%%%%%qQ%%%%%%%%%%%%%%%%%%%%qQ%%%%%qQ%%qQ%%%%%%%%%
19469A6%qQ%%%qQ%%%%%%%%%qQ%%qQ%q%%Q%%qQ%%%qQ%%%%%%%%%%%%%%%%%%%%%%%%%%%%%%%%
19453A6%%qQ%%%%%%%%%%%%%%%%%%%%%%%%%%%%%qQ%%%%%%qQ%%%%%%%qQ%%%%%%%%%%%qQ%qQ%
19437A6%%%%%%%%%%%q%%Q%qQqQ%%%%%%%%%qQ%%%%%%%%%%%%%%%%%%%%%%%%%%%%%%qQ%%%%%%
19421A6%%%%%%%%q%Q%%%%%%%qQ%%%%%%%%%%%%%%%%%%qQ%%%%%%%%%%%%qQ%%qQ%%%%%%%%%%%
19405A6%%%%%%%%%%%%%qQ%%%%%%%%%%%%%qQ%%%%%qQ%%%%%%%%%%%%%%qQ%%%%%%%%%%%%%%qQ
19390A6%%%%%%%%%%%%%%%%%%%%%%%%%%%%%%%%%%%%qQ%%%q%%%Q%%%%%%%%%%%%%%%%%%qQ%%%
19374A6%%%%%%%%%%%%%%%%%%qQ%%%%qQ%%%%%%%%%%%%qQ%%%%qQ%%%%%%%%%%%%%%%%%%%%%%%
19358A6%%%%%%%%%%%%%%%%%%%%%%%%%%%qQqQ%%%%%%qQ%%qQ%q%Q%qQ%%%%%%%%%%%%%%%%%%%
19342A6%%%%%%%%%%%%qQ%%%%%%%%%%qQ%%%%%%%%%%%%%%%%%%%%%%%%%qQ%%qQ%q%Q%%%q%%Qq
19326HQ%%qQ%%%%%%%%q%%%%Qq%J6%qQq%Qq%qQqQ%%%%%%%%qQ%%%%%%q%Q%%q%%%QqQ%%%%%qQ
19311A6%%%%%%%%%%%%%%%%%%%%%%%%%q%%Q%%%%%qQ%qQ%%%%%qQ%%%%%%%%%%%%%%%%%%%%%%%
19295A6%%%%%%%%%qQ%%%%%qQqQ%q%QqQ%%%%%%%qQ%%%%%%%%%%%%%%%%%%%%%%%%%%%%%%%%%%
19279A6%%%%%%%qQqQ%%%%%%qQ%%%%%%%%%%%%%%%%%%%%%%%%%%%%%%%%%%%%%%%%%%%%%%%q%Q
19263A6qQqQ%qQ%%%%%%%%%%%%%%%%%%%%%%%%%%%%%%%%%%%qQ%qQ%%%%%%%%%%%%%%%%%%%%%%
19248A6%%%%qQqQ%%%qQ%%%%%%%%%%%%%%%qQ%%%%%%%%%%%%qQqQ%%%%%%%%%%%%%%qQ%%%%%%%
19232A6%%%%%%%%%%%%%%%%%%%%%%%%%%%%%%%%%%%%%%%%%%%%%%%%%%%%%q%%Q%%%q%Q%%%%%%
19216A6%%%%%%%%%%%%%%%%%%qQ%%qQ%%%%%%%%%%qQqQ%%%%%%%%%%%%%%%%%%%%%%%%%%%%%%%
19200A6%%%%%%%%%%q%Q%%%%%%%%%%%%%%%%%qQ%%%%q%Q%%%%%%%%%%%%%%%%%%%%%%%%%%%%%%
19184A6%%%%%%%%%%%qQqQ%%%%qQ%%%%%%%%%%%%%%%%%%qQqQ%qQ%%%qQq%%%Q%%%%%%%%%%%%%
19169A6qQ%%%%qQ%%%%%%%%qQ%%%%%%%%%%%%%%qQ%%%%qQ%%%%%qQ%%%%%%%%%%%%%%%%%%%%%%
19153A6%%%%%%%%%%%%%%%%%%%%%%%%qQq%Q%%qQ%%%%%%%%%%%%%%%%%%%%%%%%%%%%%%%%%%%%
19137A6%%%%%%%%%%%%%%%%%q%Q%%%%%%qQqQ%%%%qQ%%%%%%%%%qQ%%%qQ%%qQ%%%%%%%%%%%%%
19121A6%%%%%%%%%%%%%%%%%%%%qQ%%%%%%%%%%%%%%%%%%%%%%%%%%%%%%%%q%Q%%%%%%%%%%%q
19105HQ%%%%%%%%%%%%%%%%%%%%%%%%%%%%%%%%%%%%%%%%%%%%%%%%%%%%%%%%%%%%%%%%%qQq%
19089HQ%%%%%qQQq%%%%%%%%%%q%Q%%%%qQqQ%%%%%%%%%%%%%%%%%%%%%%%%%%%%%%%%%%%%%%%
19073A6%%%%%%%%%%%%%%%%%%%%%qQ%%%%%%%%%%qQ%%%%%%%%%qQ%%%%%%%%%%qQ%%%%qQ%%%qQ
19058A6%%q%Qq%%Q%qQqQ%qQ%%%%%%%%%%%%%%%%%%%%qQ%%%%%%%%%%%%%%%%%%%%%%%%qQ%%%%
19042A6%%%%%%%%%%%%%%%%%qQ%%%%%qQ%%%%%%%%%%%%%%%%%%%%%%%%%%qQqQ%%qQ%qQqQ%qQ%
19026A6%%qQ%%qQ%%%%%%%%%%%%%%%%%%%%%%%%%%%%%%%%%%%%%%%%%%%%%qQ%%%%%%%%%%%%%%
19010A6%%%%%%%%%%%%%%%%%%q%Q%%%%%%%%%%%%%%%%%%%%%%%%%%%%%%%qQ%qQ%qQ%%%%%%%%%
18994A6%%%%%%%%%%%%%%%%%%%%%%%%%%qQ%%%%%%%%%%%%%%%qQ%%%%%%%%%%%%%%%%%%%%%%%%
18979A6%%%%%%%%%%%%%%%%%%%%qQqQ%%%%%%%qQ%q%Q%%q%Q%%%qQ%%%%%%%%%%%%%%%%%%%%%%
18963A6%%%%%%%%%%%%%%%%%%%%%%%%qQ%%%%%qQqQ%%%%qQ%%%%%q%Q%%%qQq%Q%%%%%%%%%%%%
18947A6%%%%%%%%%%%%%%%%%qQ%%%%%%%%%%%%%%%qQ%qQ%%%%%%%qQ%%%%%qQq%Q%qQ%qQ%%qQ%
18931A6%%%%%%%%%%%%%%%%%%%%%%%%qQ%%%%%%qQ%%%%%%qQ%qQ%%%%%%%%%%%%%qQ%%%%%%%%%
18915A6%%%%%%%%%%%%%%%%%%%%%%qQ%%%%%%%%%%%%%%%%%%%%%%%%%%%%%%%%%%%%qQ%%qQqQq
18900HQ%%%%%%%%%%%%%%qQ%%%%%%%%%%%%%%%%%%%%%%%%%%%%%%%%%%%qQ%%%%qQ%%%%%%%qQ%
18884A6%%%%%qQ%%qQ%%qQ%%%%%%%%%%%%%%%%%%%%%%%%%%%%%%%%%%%%%%%%%%%%%%%%%%%%%q
18868HQ%%%%%%%%%%%%%%%%%%%%%%%%%%%%%%%%%%%%%qQ%%qQ%%qQ%%%%q%Q%%%%%%%q%J6qQQj6
18852A6%%qQ%%qQq%Q%%%%%%%%%%%%%%%%%%%%%%%%%%%%%%%%%%%%%%%%%%%%%%%%%%%%%%%%%%
18836A6%%%%%%%%%%%%%%%%%%%%%%%qQ%qQ%%%%%%%%%%%%%%%%%%%%%%%%%%%qQ%%%%%%%%%%%q
18820HQ%%%%%%qQ%%%%%%%%%qQ%%%%%%%%%%%%%%%%%%%%%%%%%%%%%%%%%%%%%%%%%%%%%%%%%%
18804A6%%%%%%%%%%%%qQ%%%%%%qQqQ%q%Q%%qQ%%%%%%qQ%%%%%%%%qQ%%%%%%%%%%%%%%%%%%%
18789A6%%%%%%%%%%%%%%%%%%%%%%%%%%%%%%%%%%%%%%%%%%qQ%%%%%qQ%%%%%%%%%%%%%%%%%%
18773A6%%qQ%%%%%%%%%%%%%%qQ%%%q%Q%%%%q%%Q%qQ%qQ%%%%%%%%%%%%%%%%%%%%%%%%%%%%%
18757A6%%%%%%%%%%%%%%%%%%%q%Q%%%%%%%%%%%%%%%%%%%%%%%%%%%%%%%%%%%%qQ%%%%%%%%%
18741A6%%%%%%%qQ%%%%%%%%%%%%%%qQ%q%Q%%%qQ%%%qQ%qQqQ%%%%%%%%%%%%qQ%%%%%%%%%%%
18725A6%%%%%%%%%%%%q%Q%%%%%%qQqQ%%%%%%%%%%%%%%%%%%%%%%%%%%%%%%%%%%%%%%%%%%%q
18710HQ%qQ%%%%%%%qQ%%qQ%qQ%%%%%%%%%%%%%qQ%%%%%%%%%%%%%%%%%%%%%%%%%%%%%%%%%%%
18694A6%%%%%%qQ%%q%%Q%%%%%%%%%%%%%%%%%%%%%%%%%%%%%%%q%Q%%%qQ%%%qQ%%%%%%%%q%Q
18678A6%%qQ%%%%%%%qQ%%%%%%%%%%%%%%%%%%%%qQ%%q%%%QqQ%%%%qQ%%%%%qQ%%%%%%qQ%%%%
18662A6%%qQ%%%%%%%%%qQ%%%%%%%%%%%qQ%%%%%%%%%%%%%%%%%%%%%%%%%%%%%%%%%%%%%%qQ%
18646A6%%%%%%%%%%%%%%%%%qQ%%%%%%%%%%%%%%%%%%%%%%%%%%%%%%%%%%%q%Q%%%%%%%%%%%%
18630A6%%%%%%%%%%%%%%%%%%qQ%%%%%%%%%%%%q%Q%%%%qQ%%%%%%qQ%%%qQq%Q%%%q%Qq%Q%%%
18615A6%%%%%%%qQ%%%%%%qQqQ%%%qQ%%%qQ%qQ%%%%%%%%qQ%%q%Q%%%%%%%%%%%%%%%%%%%%%%
18599A6%%%%%%%%%%%%%qQ%%%%%%%%%%%%%%qQ%%%%%%%%%qQ%%%qQ%%%%%%%%%%%%%%%%%%%%%%
18583A6%%%%%%%%%%%%%%%%%%%%%%%%%%%%%%%%%%%%%%%%%%%%%%qQ%%%%%q%QqQ%%qQ%%%%%%%
18567A6qQqQ%%%%%%%%%%%%%%%qQ%%%%qQ%%%%q%Q%%%%%%%%%%%%%%%%%%%%%%%%%%%%%%%%%%q
18551HQ%qQ%%%qQ%%%%%%%%%%qQ%%%%%%%%qQ%%%%%%%%%%%%%%%%%%%%%%%%%%%%%%%%%%%%%qQ
18535A6%%%qQ%%%%%%%%%%%%%qQqQ%qQ%%%%%%%%%%%%%%%qQ%%%%%%%%%%%%%%qQ%%%%%%%%%qQ
18520A6%%%%%%%%%%%%%%%%%%%%%%%%%%%%%%%%%%%%%%%%%%%%%%%%%%%%%%qQ%%%%%%%qQ%qQ%
18504A6%%%%%%%%%%%qQqQq%Q%%qQ%%%%%%%%%%qQ%%%%%%%%%%%%%%%qQ%%%%%%%%%%%%%%%%%%
18488A6%%%%%%%%%%q%Q%%%qQ%%%%%%%q%%%Q%q%Q%%%%%%%%%%%%%%%%%q%Q%%%%qQqQqQ%%%%%
18472A6qQ%%%%%%%%%%%%%%%%%%%%%qQ%%%%%qQ%qQ%%%%%%%%%%%%%%%%%%%%%%%%%%%%%%%%%%
18456A6%%%%%%%%%%%%%qQ%%%%%%%%%%%%%qQ%%%%%%%%%%q%Q%%%%%%%%%%%qQ%%qQq%Q%%%qQ%
18441A6%%%%%%%%%%%%%%%%%%%%%%%%%%qQ%%%%%%%%%%%%%%%%%%%%%%%%%%%%qQqQqQq%Q%%%%
18425A6%%%%%%%%%%%%%%%%%qQ%%%%%%%%%%qQ%%%%qQ%%qQ%%%qQ%q%Q%%%%qQ%%%qQ%%q%%%Q%
18409A6%%%%%%%qQ%q%Q%q%Qq%Q%%q%%Q%%%%%%%%%%%%%qQqQ%qQ%%%qQ%%%%%%%%%%%%%%qQqQ
18393A6%%%qQqQ%%qQ%%qQq%Q%qQ%q%QQ%j6%%Q%qj6K4qJ6Qj6%L2p2R6o4k4M8k4K4k4Q%qJ6j6
18381HK4k4%Q%%%%qQqQ%%qQ%%q%Q%q%Qq%Qq%Q%%%qQqQ%%qQ%%qQ%%%%%%%%%qQ%%qQ%%qQ%q%
18365H%Q%%%%%%%%qQ%%%%%q%Q%qQ%q%Q%%%%%%%qQq%%Q%%qQ%%qQqQ%%%%%qQq%Q%%%%%%%%%%
18349A6%%%%%%%%%%%%%%%%%%q%Q%%%%%%%q%Q%%%%%%%%%qQ%q%Q%%%%%%%%%%%%%%%%%%%%%%%
18334A6%%%%%%qQ%qQ%%%%%%%%%%%%%%%%%%%qQ%%%q%Q%qQ%qQ%%%qQ%%%%%%%%%%%%%%%%%q%Q
18318A6%%%%%%%%%%%%%%%%%%%qQ%%%%%%%%%%%%%%%%%%%%%%%%%%%qQ%%%%qQ%%%%%%q%Q%%%%
18302A6%qQ%%%%%%%%%%%%%%qQqQqQ%qQqQq%QqQ%%qQqQ%%qQqQ%qQ%%%%%%%%%%%%%%%qQ%%%%
18286A6%%q%Q%%%%%%%%%%%%%%%%%%q%Q%%%%%%%%qQ%%%%%%%%%%%qQ%qQ%qQ%qQ%%%%%%%%%%%
18270A6%%%%%%%%%q%Q%%qQ%%%%%%%qQ%%%%%%%%%%%%%%%%%%%%%%qQ%%%%%%%%%%%%%%%%%%%%
18255A6%%%%%%%%%%%%%%%%%%%%%%%%%%%%%%%qQqQ%%%%%%%%%qQ%qQ%%%%%%%%%%%%%%%%%%%%
18239A6%%%%%qQqQ%%%%%%%%%%%%%%%%%%%%%%%%%%%%%%qQ%%%%%%%%%%%%%q%%QqQ%%%%%%%%%
18223A6%%qQ%%%%%%%%qQq%Q%%%%%qQ%%%%%%%%%%%%%%%%%%%%%%%%%%%%%%%qQ%%%%%%qQqQqQ
18207A6%%q%Q%qQ%%qQ%%qQ%%%%%%%%%%%qQ%%%%%%%%%qQ%%q%Q%%%%%%qQ%%%%%%%qQ%%%%%%%
18191A6%%%%%%%%%%%%%%%%%%%%%%%%%qQqQ%%%%%%%%%%%%%qQ%%%%%%%qQ%%%%%%%q%Q%%%%%%
18176A6qQ%%qQqQ%%%%qQ%%%%%%qQ%%%%%%%%%%%%%%%%%%%%%%%%%%%%qQ%%%qQ%%%%%%%%%%%%
18160A6%%%%%%%%%%%%%%%%%%%%%%%%%%%%%%qQ%%%qQqQq%%%%%J6j6qQ%Q%qQqQ%qQqQ%qQ%%%
18145A6%%%%%%%qQ%%%qQ%%%%%%%%%%%%%%%%%%%%%%%%%%qQ%%%%%%%%%%%%%%%%%%%%%%%%%%%
18129A6%%%%%%%qQ%%%%%%%%%%%%%%%%%%%%%%qQ%qQ%%%%%%%%%%%%%%%%%%%%%%%%%%%%%%%%%
18113A6%%q%Q%%%qQ%%%%%%qQqQ%%%%%q%Q%%%%%%%%%%%q%Q%%%%%%%%%qQ%%%%%%%%%%%%%%%%
18097A6%%%%%%%%%%%%%%%%%%%%qQ%%%%%%q%%Q%%%%%q%Q%%%qQqQ%%%%qQ%%%%%%qQ%%%%%%%%
18081A6%%%%%%%%%%%%%%%%%%%%q%Q%%%%qQ%%%%%%%%%%%%%%%%%%%%%%%qQ%%%%%%%%%%%%%%%
18066A6%%%%%%%%%%%%%qQqQ%%%%qQ%%%%%%%%%%%%%qQ%%%%%%%%%%%%%%%%%%%%%%%%%%%%%%%
18050A6%%%%%%%q%%%Q%%%%%%qQ%%%%%%%%%qQ%%%%%%%%%%%%%%%%qQ%%%%%%%%%%%%%%%%qQ%%
18034A6%%qQqQ%%%qQ%%qQ%%q%%Q%%qQ%%%%%%%%%%%%%%%%%%%%%qQ%%%%%%%%%%%%%%%%%%%%%
18018A6%%%%%%%%%%%%qQ%q%Q%%%%qQ%%%%%%%%%qQ%qQ%%%%%%%%%%%%%%%%%%%%%qQ%%%%%%%%
18002A6%%%%%%%%%%%%q%Q%%%%%%%%%%qQq%QqQ%%%%%%%%%%%%%%%%%%%%%%%%%%%%qQ%%qQ%%%
17987A6%%%%%%%%%%%%%%%%%%%%%%%%%%%%%%%%%%%%%%%%%%%%%%%%%%%qQqQ%%%%%%%%%%%%%%
17971A6%%%%%%%%%%%%qQ%%%%%%%%%%%%%%%%%%%%%%%%%%%%%%%%%%%%%q%Q%%%%%%%%%%%%%%%
17955A6%%%%%%%%%%%%%%qQ%%qQ%%%%%%qQq%Q%%%qQ%%%%qQqQ%qQ%%%%%%%%%%%%%%%%%%%%%%
17939A6%%%%%%%%qQ%%%%%%%%qQ%%%%%%%%%%%%%%%%%%%%%%%%%%%%%%%%%%%%%%%qQ%%%%%%qQ
17923A6qQ%%qQ%q%Q%%%%%%%%%%%%%%%%%%%qQqQ%%qQJ6j6q%Q%%%%%%%q%Q%%qQ%%%%q%Q%qQq
17908H%%Q%%%%%%%%%%%%%%%%%qQq%Q%%%%%qQ%%%%%%%%%%%%%%%%%%%%%%%%%%%%%%%%%%%%%%
17892A6%%%%%%%%%%%%%%%%%qQ%%%%%qQ%%%qQ%%%%%%%%%%%%%%%qQ%%qQ%%%%%%%%%%%%%%%%%
17876A6%%%%%%%%%%%%%%%%%%%%%%%%%%%%%%%%%%%%%%%%%%%%%%%%%%%%%%%%%%%%%%%%%%%%%
17860A6%%%%%%%%%%%%%%%%%%%%%%%qQ%%%%%%%%%%%%%%%%%%%%qQ%%%%%%qQ%%%q%Q%%%%%%%%
17845A6%%%%%%%%%%%%%q%Q%%%%%%%%qQ%%%%%%%%%%%%%%%%%%%%%%qQ%%%%%%%%%%%%%qQ%%%%
17829A6qQ%%%%%qQ%%%%%%%%%%%%%%%%%%%%%%%%%%%%%%%%%%%%%%%%%qQ%%%%%%%qQ%%%%%%%%
17813A6%%%%%%%%%%%%%%%%%%%%%%%%%%%%%%%%%%%%%%%%%%%%%%qQ%%%%qQ%%%%qQq%%Q%qQqQ
17797A6qQ%qQqQqQ%%%%%%%%%%%%%%%%%%%%%%%%%%%%%%%%%%%%%%%%%%%%%%%%qQ%%qQ%%%%%%
17782A6%%%%%%%qQ%qQ%%qQ%%%%%%%%%%%%%%%%%%%%%%%%%qQqQ%%%%%q%Q%qQ%%%qQ%%%%%%%%
17766A6%%%%%%%%%%%%%%%%qQ%%qQ%q%Q%qQ%%qQ%%%%%%%%%%%%%%%%%%%%%%%%%%%%%%%%%%%%
17750A6%%%%%%%%%%%%%%%%%%%%%%%%%%%%%%%%%%%%%%%%q%%Q%%%%qQ%%%qQ%%%qQ%qQ%%%%%%
17734A6%%%%%%%%%%%%%%%%%%%%%%%%%%%%%%%%%%%%%%%%%qQ%%%%%%%%%%qQ%%%%%%%%%%%%%%
17718A6%%%%%%%%%%%%%%%%%%%%%%%%%%%%%%%%%%%%%%%%%%%%%%%%%%%%%%qQ%%%%%%%%%%%%%
17703A6%%%%%%%%%%%%%%%%%%%%%%%qQqQ%%%%%%%%%%%%%%%%%%%%%%%%%%%%%%%%%%%%%%%%%%
17687A6%%%%%%%%%%%%%%%%qQ%%%%%qJ6q%%%%%%%%%%%%%%%%%%%%%%%%%%%%%%%%%%%%%%%%%%
17671A6qQ%%%%%%%%%%%%%%%%%%%%%%%%%%qQ%%%%%%qQ%%%%%%%%qQ%%%%%%q%%Q%%%%%%%%%%%
17655A6%%qQ%%%%%%%%%%%%qQ%%%%%%%%%%%%%%%%%%%%%%%%%%%%%%%%%%%%%%%%%%%%%%%%%%%
17640A6%%%%%%qQ%%%qQ%qQqQ%%%%%%%%%%qQ%%qQ%%%%%%%%%%%%%%%%%qQ%%%%%%%%%%%%%%%%
17624A6%%%%%%%%%%%%%%%%%%%%%%%%%%%%%%%%%%%%%%%%%%%%%%%%%%%%%%%%%%%%%%%%%%%%%
17608A6%%qQ%%%%%%%%qQ%qQ%%%%%%%%%%%%%%%%%%qQ%%%%%%%%%%%%%%%%%%qQ%%%%%%%%q%%Q
17592A6%%%%%%%%%%%qQ%%%%%%%%%%%%%%%%%%%%%%%%%%%%%%%%%%%%%%%%%%%%%%%%%%%%%%%%
17576A6%%%%%%%%qQ%%%%%%%%%%%%%%%%%%%%qQ%%%%%%%%qQ%%%%%qQ%%%%%%%%%q%Q%qQ%%%%%
17561A6%qQ%%%%%%%%%%%%%%%%%%%%%%%%%%qQ%%%%%%%%%%%%%%%q%Qq%Q%%qQ%%%%%%%%%%%%q
17545HQ%%%%%%%%%%%%%%%%%%%%%%%%%q%%Q%%%qQ%%%%%%%%%%qQ%%%%%%%%%%%%%%%%%%%%%%%
17529A6%%%%%%%%%%%%%%%%qQ%%%%%qQ%%%%%%%%%%%%%%%%qQqQ%%%%%%%%%%%%%%%%%%%%%%%%
17513A6%%%%%%%%%%%%%%%%%%q%QqQ%%%%%%%%%%%%qQ%qQqQ%%%%%%%%%%%%%%%%%%%%%%%%%%%
17497A6%%%%%%%%%%%%%%%%%%%qQ%%%%%%q%Q%q%Q%qQ%%%%%%%qQ%%%%%%%%%%%%%%%%%%%%%%%
17481A6%%%%%%%%%%%%%%%%%%%%%%%%%%%%%%%%%%%%%%%%%%%%%%%%%%%%%%%%%%%%%%%%%%%%%
17466A6%%%%%%%%%%%%%%%%%%%%%%%%%%q%Q%%%%%%qQ%%%qQ%%%%%%%%%%%q%Q%%%%qQqQ%%%qQ
17450A6%%q%Q%%Qq%q%J6j6J6%qQj6%%%Q%%%%%qQ%%%%qQ%%%qQq%Q%qQ%%%%%%%%%%%%%%%%%%
17435A6%%%%%%q%Q%%qQqQ%%%%%%%%qQ%qQqQ%%%%%%%%%%%%%%%%%qQ%%%%%%%%%%%%%%%%%qQ%
17419A6%%%%%%%%%%%%%qQ%%%%%%%%%%%%%%%%%%%%%%%%%%%%%%%%%%%%%%%%%%%%%%%qQ%%%%%
17403A6%%%%%qQ%%%%%%%%qQ%%%%qQ%%%%%%%%%%%%%%%%%%%%%%%%%%%qQ%%%qQ%%%%%%%qQqQq
17388HQ%%%%%%%%%%%%%qQqQ%%%%%%qQ%%%%%%%%%%%%%%%%%%%%%%%%%%%%%%%%%%%%%%%%%%%%
17372A6%%%%%%%%%%%%%%%%%%%%%%%%%%%%%%%%%%%%%%%qQ%%%%%%%%%%%%%%%q%Q%%%%%%%%%q
17356HQ%%%%%%%%%%%%%%%%%%%%%%%%%%%%%%%%qQ%%%%%%%%%%%%%%%%%%%%%qQ%%%%qQ%%%%%%
17340A6%%%%%%%%%%%%%%%%%%%%%%%%%%%%%%%%%%%%%%qQ%%%qQ%qQ%%%qQ%%%qQ%%%%%%%%%%%
17324A6%%%%%%%%%%%%%%%%%%%%%%%%qQ%%%%%%%%%%%%qQ%%%qQq%Q%%%%%%%%%%%qQ%%%qQ%%%
17308A6%%%%%%%%%%%%%%%%qQqQ%%%%%%%qQ%%%%%%%%%qQq%%Q%%%%%%%%%%%%%%%%%%%%%%%%%
17292A6%%%%%%%%%%%%%%%%%%%%%%%%%%%%%%%%%%%%%%%%%%%%%%%%%%%%%%%%%%%%%%%%%%%%%
17277A6%%%%q%Q%%%%%%%%qQ%%%%%%%%%%%%%%%%%%%%%%%%%%%%%%%%%%%%%%%%%%%%%%%%%%%%
17261A6%%%%%%%%%%%%%%%%%%%%%%%%%%%%%%%%%%%%%%%%%%%%qQ%%%%%%%%%%qQ%%%qQ%%%%%%
17245A6%%%%qQ%%%%%%%q%%Q%%%%%%%%%%%%%%%%%%%%%%%%%%%%qQ%%%%%%%%%%%%%%%%%%%%%%
17229A6%%%%%%%%%qQ%%qQ%%%%%%%%%%%%%%%%%%%%%%%%%%%%%%%%%%%%%%%%%%%%%qQ%%%%%qQ
17213A6%%%qQqQ%%%qQqQ%%%q%Q%%%%%%%qQ%%%%%%%%%%%%%%%%%%%%%%%%%%%%%%%%%%%%%%%%
17198A6%%%%%%%%%%%%%%%%%%%%%%%%%%%%%%%%%%%%%%%%%%%%%%%%%%%%%%%%%%%%%%%qQ%%%%
17182A6%%%%%%%%%%%%%%%%%%%%%%%%%%%%%%%%%%%%%%%%%%%%%%%%qQ%%%%%%%qQ%%qQ%%qQq%
17166H%QqQqQ%%%%%%%%%%%%%%%%qQ%%%qQ%%%%%%%%%%%%%%%%%%%%%qQ%%qQqQ%%%%%%%%%%%%
17150A6%%%%%%%%%%%%%%%%qQ%%%%%%%%%%%%qQ%%q%%%%%QqQ%%%%qQ%%%%%%%%%%%%%%%%%%%%
17134A6%qQ%%qQ%%%%%%%%%%%%%%qQ%%%%qQ%%%qQ%%%%qQqQ%qQ%qQ%%%%%%%%%%%%%%%%%%%%%
17118A6%%%%q%%Q%%%%%%%%%%%%%%qQ%%%%%%%%%%%%qQ%%%%%%%%%%%%%%%%%%%%%%%%%%%%%%%
17103A6%%%%%%%q%Q%%%%%%%%%qQ%%%%qQqQ%%q%Q%%%%%%%%%%%%%%%%%qQ%%%%%%%%%%%%%%qQ
17087A6%%%%%%%qQ%qQ%%%%%%%%%%%%qQ%%qQ%%qQ%%%%%%%%%qQ%%%%%%%%%%%%%%%%%%%%%%%%
17071A6%%%%%%%%%%%%%qQ%%%%%%%q%Q%%%qQ%qQ%%%%%%%qQ%%%%%%%%%%%%%%qQqQ%%%%%%%%%
17055A6%%qQ%%%%%%%%%%%%%%%%%%%%%%%%%%qQ%%%%%%%%%%%%%%%%%%%%%%%%%%%%%qQ%q%QqQ
17039A6%%%%%%%%%%qQ%%%q%Q%%%%%qQ%%%%%%%qQ%%%%%%%%%%%%%%%%%%%%%%%%%%%%%%%%%%%
17024A6%%%%%%%%%%%%%%%%%%%%%%%%%%%%%%%%%%%%%%%%qQ%%%%%%%%%%%%%%%qQ%%%%%qQ%%%
17008A6%%%%%%%%%%%%%%%%%%%%qQ%%%%%%%%%%%%%%%%%%%%%%%%%%%%%%%%%%%%%%%%%%%%%%%
16992A6qQ%%%%%%%%%%%%%%%%%%%%%%%%%%%%%%%%%%%%%%%%%%%%%%%%%%qQ%%%%qQQj6%QQq%q
16977HQ%%%%%%%qQ%%%%%qQq%Q%%%qQ%qQ%qQ%qQ%%q%Q%%%%%%%%%%%%%%%%qQ%%%qQ%%%qQ%%%
16961A6%%%%%%%%%%%%%%%%%%%%%%%%%%%%%%%%%%%%%%%%%%%%%%%%%%%%%q%Q%%q%Q%%%%%%%%
16945A6%%%%%%%%%%%%%%%%%%%%%%%%%%%%%%%%%%%qQ%%%%qQ%%%%%%%%%%%%%%%%%%%%%%%%%%
16929A6%%%%%%%%%%%%%%%%%%%%qQ%%%%%%%%%%%%%%%%%%%qQ%%%qQ%%%%%%%%%%%%%%%%%%%%%
16913A6%%%%%%%%%%%%%%%%%%%%%%%%%%%%%%%%%%qQ%%%%%%%%%%%%%%%%%%%%%%%%%%%%%%%%%
16897A6%%qQ%%%%%%%%%%%%%%%%%%%%%%%%%%%%%qQ%%%%%%%%%%%%%%%%%%%%%%%%%%%%%%%%%%
16882A6%%%%%%%%%%%%%%%%%%%%%%%%%%qQq%%Q%%%%%%%%%%%%%%%%qQ%%%%%%%%%%%%%%%%%%%
16866A6%%%%%%%%%%%%%%%qQ%%qQ%q%Q%qQq%%%Q%%%%%%%%%%%%qQ%%%%%%%%%qQ%%%%%%%%%%%
16850A6%%%%%%%%%%%%%%%%qQ%%%%%%%%%%%%%%%%%%%%%%%%%%%%%%%%%%%%%%%%%%%%%%%%%%%
16834A6%%%%%%%%%%q%Q%%%qQ%q%Q%%%%%%%%qQ%%%qQ%%%%%%%%%%%%%%%%%%%%%%%%%%%%%%%%
16818A6%qQ%%qQ%%qQ%%%%%%%%%%%%%%%%%%%%%%%%%%%%%%%%%%%%%%%%%%%%%%%%%%%%%%%%%%
16803A6%%qQ%%qQqQqQ%%%%%%qQ%%%%%%%%%%%%%%%%%%%%%%%%%%%%%%%%%%%%%%%%%%%%%%%%%
16787A6%%%%%%%%%%%%%%%%%%%%%%%%%%q%Q%%%qQ%%%%%%%%%%%%%%%%%%%%%%%%%%%%%%%%%%%
16771A6%%%%%%%%%%%%%%%%%%%%%%q%%Q%qQqQ%%%%%%%%%%%%%%%%%%%%%%%%%%qQ%%%%%%%%%%
16755A6%%%%%qQqQ%%%%%%%%%%%%%%%%%%%%%%%%%%%qQ%%%%%%%%qQ%%qQqJ6j6%Q%%%%%%%%%%
16740A6%%qQ%%%%%%qQ%%%%%%%%%%%%%%%%%%%%%%%%%%%%%%%%%%%%%%%%%%%%%%%%%%%%%%%%%
16724A6%%%%%%%%%%%%%%%%%%%%%%%%%%%%%%%%%%%%%%%%%%qQqQ%%qQ%%qQ%%%%%%%%%%%%%%%
16708A6%%%%%%%%%%%%%%%%%%%%%%%%%%%%%%%%%%%%%%%%%%%%%%%%%%%%%%%%%%%%%%%%%%%%%
16693A6%%%%%%%%qQ%%%%%%%qQ%%%%%%%%%%%%%%%%%%%%%%%%%%qQ%%%%%%%%%%%%%%%%%%%%%q
16677H%Q%%%%%%%qQ%%%%qQ%%%%%%%%%%%%qQ%%%%%%%%%%%%qQ%%%%%%%qQ%%%%%%%%%%%%%%qQ
16661A6%%%%%%%%%%%%%%%%%%%%%%%%%qQ%%%%%%%%%%%%%%%%%%%%%%%%%%%%%%%%%%%%%%%%%%
16645A6%%%%%%%%%%%%%%%%%%%%%%%%%%qQ%%%%%%%%%%%%%%%%%%%%%%%%%%%%%%%%%%%%%%%%%
16629A6%%%%%%%%%%%q%QqQ%%qQqQ%%%%%%%%%%%%%%%%%%%%qQqQ%%%%%%%%%%%%%%%%%%%%%%%
16613A6%%%%%%%%%%%%%%%%%%%%%%%%%%%%%%%%%%%%%%%%%%%%%%%%%%%%%%%%%%%%%%%%%%qQ%
16598A6%qQ%%%%%%%%%%%%%%%%%%%%%%%%q%QqQ%q%Q%%qQ%%%%%%%%%%%%%%%%%%%%%%%%%%%%%
16582A6%%%%%qQ%%%%%%%%%%%%%%%%%%%%%%%%%%%%%%%%%%%%%%%%%%%%%%%%%%%%qQ%%%%%%%%
16566A6%%%%%%%%%%%%%%%%%%%%%%%%%%%%%%%%%%%%%%%%%%%%%%%%%%%%%q%Q%%qQ%%%%%%%%%
16550A6qQ%%%%%%%%%%%%%%%%%qQ%%%%%%%%%%%%%%%%%%%%%%%%%%%%%%%%%%%%%%%%%%%%%%%%
16534A6%%%%%%%%%%%%%%%%%%%%%%%%%%%%%%%%%%%%%%%%%%%%%%%%%%%%%%%%%%%%qQ%%%qQ%%
16519A6%%%%%%%%%%%%qQ%%%qQ%%%%%%%%%%qQq%%J6j6K4qqj6L2k4qQJ6q%k4K4%qQqQ%qQ%%%
16505A6%%%%%%%%%q%Q%%%%%%%%%%%%%%%%%%%%%%%qQ%%%%%%%%%%%%%%%%%%%%%%%%%%%%%%%%
16489A6%%%%%%%%%%%%%%%%%%%%%%%%%%%%%%%%%%%%%%qQ%%%%%%%%%%%%%%%%%%%%%%%%%%%%%
16473A6%%%%%%%%%%%%%%%%%%%%%%%%%%%qQ%%qQ%%%%%%%%%%%%%%%%%%%%%%%%%%%%%%%%%%%%
16457A6%%%%%%%%%%%%%%%%%%%%%%%%%%%%qQ%%%%%%%%%%%%%%%%%%%%%%%%%%%%%%qQ%%%%%%%
16442A6%%%qQ%%%%%%qQ%%%%%%%%%%%%%%%%%%%%%%%%%%%%%%%%%%%%%%%%%%%%%%%%%%%%%%%%
16426A6%%%%%%%%%%%%%%%%%%%q%Q%%%%%%%%%%%%%%%%%%%%%%%%%%%%%qQ%%qQ%%%%%%%%%%%%
16410A6%%%%%%%%%%%%%%%%%%%%%%%%%%%%%%%%%%%%%%%%%%%%%%%%%%%%%%%%%%qQ%%%%%%%%%
16394A6%%qQqQ%qQ%qQqQq%Q%%%%%%%qQ%%%%qQ%%%%%%%%%%%%%%%%%%%%%%%%%%%%%%%%%%%%%
16378A6%%qQ%%%%%%%%%%%%%%%%%%%%%%%%%%qQ%%%%%%%%%%%%%%%%%%%%%%%%%%%%%%%%%%%qQ
16363A6q%Q%%%%%%%%%%%%%%%%%%%%%%%%%%%%%%%%%%%%%%%%%%%%%%%%%%%%%%%%%%%%%qQ%%%
16347A6%%%%%%%%%%%%%%%%%%%%%%%%%%%%%%%%%%%%%%%%%%%qQ%%%%%%%%%%%%%%%%%%qQ%%%%
16331A6%%%%%%%%%%%%%%%%%%qQ%%%%%%%%%%%%%%%%%%%%%%%%%%%%%%%%%%%%%qQ%%%qQ%%%%%
16315A6%%%%%%%%%%%%%%%%%%%%%%%%%%%%%%%%%%%%%%%%%%%%%%%%%%%%%%%%%%%%%%%%%%%%%
16300A6%%%%%%%%%%%%%%%%%%%%%%%%%%%%%%%%%%%%%%%%%%%%qQ%%%%%qQ%%%%%q%Q%%%%%%%%
16284A6qQ%%%%%%%%%%%%%%%%%%%%%%%%%%%%%%%%%Qq%Qj6QqQ%%%%%%%%%%%%%%%%%%%%%%%%%
16268A6%%%%%%%%%%%%%%%%%%%%%%%%%%%%%%%qQ%%%%%%qQ%%%%%%%%%%%%%%%%%%%%%%%%%%%q
16252HQqQ%%%%%%%%%%%%%%%%%%%%qQqQqQ%%qQ%%%%%%%%%%%%%%%%%%%%%%%%%%%%%%%%%%%%%
16236A6%%%%%%%%%%%%%%%%%%%%%%%qQ%q%Q%%%%%%%%%%%%%%%%%%%%%%%%%qQ%qQ%%%%%%%%%%
16221A6%%%%%%%%%%%%%%%%%%qQ%%%%%%%%%%%%%%%%%%%%%%%%%%%%%%%%%%%%%%%%%%%%%%%%%
16205A6%%%%%%%%%%%qQqQ%%%%%%%%%%%%%%%%%%%%%%%%%%%%%%%%%%%%%%%%%%%%%%%%%%%%%%
16189A6%%%%%%%%%%%%qQ%%%%%%%%%%%%%%%%%%%%%%%%%%%%%%%%%%%%%%%%%%%%%%%%%%%%%%%
16173A6%%%%%%%%%%%%%%%%%%%%%%%%%%%%%%%%%%%%%%%%%%%%%%%%%%%%%%%%%%%%%%qQ%%qQ%
16157A6q%Q%%%%qQ%%%%%%%%%%%%%%%%%%%%%%%%%%%%%%%%%%%%%%%%%%%%%%%%%%%%%%%%%%%%
16142A6%%%%%%%%%%%%%%%%%%%%%%%%qQ%%%%%%%%%%%%%%%%%%%%%%%%%%%%%%%%qQ%%%%%%%%%
16126A6%%%%%%%%%%%%%%%%%%%%%%%%%%%%%%%%%%%%%%%%%%%%%%%%%%%%%%%%%%%%%%%%%%%%%
16110A6%%%%%%%%%%%%%%%%%qQ%%%%%%%%%%%%%%%%%%%%%%%%%%%%%%%%%q%Q%%%%%%%%%%%%%%
16094A6%%%%%%%%%%%%%%%%%%%%%%%%%%%%%%%%%%%%%%%%%%%%%%%%%%%%%%%%%%%%%%%%%%%%%
16078A6%%%%%%%%%%%%%%%%%%%%%%%%%%%%%%%%%%%%%%%%%%%%%%%%%%%%%%%%%%%%%%%%%%%%%
16063A6%%%%%%%%%%%%%%%%%%%%%%%%%%%%%%%%%%%%%%%%%%%%%%%%%%%%%%%%%qQ%%%%%%qQ%%
16047A6%%%%%%%%qQ%%%%%%%%qQ%%qQ%qJ6j6%Q%%qQ%q%%%Q%%qQ%%%%%%%%%%%qQ%%%%%%%%%%
16031A6%%%%%%%%%%%%%%%%%%%qQ%%%qQqQ%%%%%%%%%%%%%%%%%%%%%%%%%%%%%%%%%%%%%%%%%
16016A6%%%%%%%%%%%%%%%%%%qQ%%%%%%%%%%%%%%%%%%%%%%%%%%%%%%%%%%%%%%%%%%%%%%%%%
16000A6%%%%%%%%%%%%%%%%%%%%%%%%%%%%%%%%%%%%%%%%%%%%%%%%%%%%%%%%%%%%%%%%%%%%%
15984A6%%%%%%%%%%%%%qQ%%%%%%%%%%%%%%%%%%%%%%%%%%%%%%%%%%%%%%%%%%%%%%%%%%%%%%
15968A6%%%%%%%%%%%%%%%%%%%%%%%%%%%%%%%%%%%%%%%%%%%%%%%%%%%%%%%%%%%%%%%%%%%%%
15953A6%%%%%%%%%%%%%%%%%%%%%%%%%%%%%%%%%%%%%%%%%%%%%%%%%%%%%%%%%%%%%%%%%%%%%
15937A6%%%%%%%%%%%%%%%%%%%%%%%%%%%%%%%%%%%%%%%%%%%%%%%%%%%%%%%%%%%%%q%Q%qQ%%
15921A6%%%%%%%%%%%%%%%%%%%%%%%%%%%%%%%%%%%%%%%%%%%%%%%%%%%%%%%%%%%%%%%%%%%%%
15905A6%%%%%%%%%%%%%%%%%%%%%%%%%%%%%%%%%%%%%%%%%%%%%%%%%%%%%%%%%%%%%%%%%%%%%
15889A6%%%%%%%%%%%%%%%%%%%%%%%%%%%%%%%%%%%%%%%%%%%%%%%%%%%%%%%%%%%%%%%%%%%%%
15874A6%%%%%%%%%%%%%%%%%%%%%%%%%%%%%%%%%%qQ%%%qQ%%qQ%%%%qQ%%%%%%%%%%%%%%%%%%
15858A6%%%%%%%%%%%%%%%%%%%%%%%%%%%%%%%%%%%%%%%%%%%%%%%%%%%%%%%%%%%%%%%%%%%%%
15842A6%%%%%%%%%%%%%%%%%%%%%%%%%%%%%%%qQqQ%%%%%%%%%%%%%%%%%%%%%%%%%%%%%%%%%%
15826A6%%%%%%%%%%%%%%%%%%%%%%%%%%%%%%%%%%%%%%%%%%%%%%%%%%%%%%%%%%%%%%%%%%%%%
15810A6%%%%%%%%%%%%%%%%%qJ6j6QQq%%%%%%%%%%%%%%%%%%%%%%%%%%%%%%%%%%%%%%%%%%%%
15795A6%%qQ%%%%%%%%%%qQ%%%%%%%%%%%%%%%%%%%%%%%%%%%%%%%%%%%%%%%%%%%%%%%%%%%%%
15779A6%%%%%%%%%%%%%%%%%%%%%%%%%%%%%%%%%%%%%%%%%%%%%%%%%%%%%%%%%%%%%%%%%%%%%
15763A6%%%%%%%%qQ%%%%%%%%%%%%%%%%%%%%%%%%%%%%%%%%%%%%%%%%%%%%%%%%%%%%%%%%%%%
15748A6%%%%%%%%%%%%%%%%%%%%%%%%%%%%%%%%%%%%%%%%%%%%%%%%%%%%%%%%%%%%%%%%%%%%%
15732A6%%%%%%%%%%%%%%%%%%%%%%%%%%%%%%%%%%%%%%%%%%%%%%%%%%%%%%%%%%%%qQ%%%%%%%
15716A6%%%%%%%%%%%%%%%%%%%%%%%%%%%%%%%%%%%%%%%%%%%%%%%%%%%%%%%%%%%%%%%%%%%%%
15700A6%%%%%%%%%%%%%%%%%%%%%%%%%%%%%%%%%%%%%%%qQ%%%%qQ%%%%%%%%%%%%%%%%%%%%%%
15685A6%%%%%%%%%%%%%%%%%%%%%%%%%%%%%%%%%%%%%%%%%%%%%%%%qQ%%%%%%%%%%%%%%%%%%%
15669A6%%%%%%%%%%%%%%%%%%%%%%%%%%%%%%%%%%%%%%%%%%%%%%%%%%%%%%%%%%%%%%%%%%%%%
15653A6%%%%%%%%%%%%%%%%%%%%%%%%%%%%%%%%%%%qQ%%%%%%%%%%%%%%%%%%%%%%%%%%%%%%%%
15637A6%%%%%%%%%%%%%%%%%%%%%%%%%%%%%q%Q%%%%%%%%%%%%%%%%%%%%%%%%%%%%%%%%%%%%%
15621A6%%%%%%%%%%%%%%%%%%%%%%%%%%%%%%%%%%%%%%%%%%%%%%%%%%%%%%%%%%%%%%%%%%%%%
15606A6%%%%%%%%%%%%%%%%%%%%%%qQ%%%%%%%%%%%%%%%%%%%%%%%%%%%%%%%%%%%%%%%%%%%%%
15590A6%%%%%%%%%%%%%%%%%%%%%%%%%%%%%%%%%%%%%%%%%%%%%%%%%%%%%%%%%%%%%qQ%%%qQ%
15574A6qQ%%%%%%qQqJ6qQq%%qJ6j6Q%%%qQ%%qQ%%%%%%%%%%%%%%%%%%%%%%%%%%qQ%%%%%%%%
15559A6%%%%%%%%%%%%%%%%%%%%%%%%%%%%%%%%%%%%%%%%%%%%%%%%%%%%%%%%%%%%%%%%%%%%%
15543A6%%%%%%%%%%%%%%%%%%%%%%%%%%%%%%%%%%%%%%%%%%%%%%%%%%%%%%%%%%%%%%%%%%%%%
15527A6%%%%%%%%%%%%%%%%%%%%%%%%%%%%%%%%%%%%%%%%%%%%%%%%%%%%%%%%%%%%%qQ%qQ%%%
15511A6%%%%%%%%%%%qQ%%%%%%%%%%%%%%%%%%%%%%%%%%%%%%%%%%%%%%%%%%%%%%%%%%%%%%%%
15496A6%%%%%%%%%%%%%%%%%%%%%%%%%%%%%%%%%%%%%%%%%%%%%%%%%%%%%%%%%%%%%%%%%%%%%
15480A6%%%%%%%%%%%%%%%%%%%%%%%%%%%%%%%%%%%%%%%%%%%%%%%%%%%%%%%%%%%%%%%%%%%%%
15464A6%%%%%%%%%%%%%%%%%%%%%%%%%%%%%%%%%%%%%%%%%%%qQ%%qQ%%%%%%%%%%%%%%%%%%%%
15448A6%%%%%%%%%%%%%%%%%%%%%%%%%%%%%%%%%%%%%%%%%%%%%%%%%%%%%%%%%%%%%%%%%%%%%
15433A6%%%%%%%%%%%%%%%%%%%%%%%%%%%%%%%%%%%%%%%%%%%%%%%%%%%%%%%%%%%%%%%%%%%%%
15417A6%%%%%%%%%%%%%%%%%%%%%%%%%%%%%%%%%%%%%%%%%%%%%%%%%%%%%%%%%%%%%%%%%%%%%
15401A6%%%%%%%%%%%%%%%%%%%%%%qQ%%%%%%%%%%%%%%%%%%%%%%%%%%%%%%%%%%%%%%%%%%%%%
15385A6%%%%%%%%%%%%%%qQ%%%%%%%%%%%%%%%%%%%%%%%%%%%%%%%%%%%%%%%%%%%%%%%%%%%%%
15369A6%%%%%%%%%%%qQ%qQqQ%%%%%%%%%%%%%%%%%%%%%%%%%%%%%%%%%%%%%%%%%%%%%%%%%%%
15354A6%%%%%%%%%%%%%%%%%%%%%%%%%%%%%%%%%%%%%%%%%%%%%%%%%%%%%%%%%%%%%%%%%qQ%%
15338A6qQQj6%Q%%%%%%%%%%%%%%%%%%%%%%%%%%%%%%%%%%%%%%%%%%%%%%%%%%%%qQ%%%%%%%%
15322A6qQ%%%%%%%%%%%%%%%%%%%%%%%%%%%%%%%%%%%%%%%%%%%%%%%%%%%%%%%%%%%%%%%%%%%
15306A6%%%%%%%%%%%%%%%%%%%%%%%%%%%%%%%%%%%%%%%%%%%%%%%%%%%%%%%%%%%%%%%%%%%%%
15291A6%%%%%%%%%%%%%%%%%%%%%%%%%%%%%%%%%%%%%%%%%%%%%%qQ%%%%qQ%%%%%%%%%%%%%%%
15275A6%%%%%%%%%%%%%%%%%%%%%%%%%%%%%%%%%%%%%%%%%%%%%%%%%%%%%%%%%%%%%%%%%%%%%
15259A6%%%%%%%%%%%%%%%%%%%%%%%%%%%%%%%%%%%%%%%%%%%%%%%%%%%%%%%%%%%%%%%%%%%%%
15243A6%%%%%%%%%%%%%%%%%%%%%%%%%%%%%%%%%%%%%%%%%%%%%%%%%%%%%%%%%%%%%%%%%%%%%
15227A6%%%%%%%%%%%%%%%%%%qQ%%%%%%%%%%%%%%%%%qQ%%%%%%%%%%%%%%%%%%%%%%%%%%%%%%
15212A6%%%%%%%%%%%%%%%%%%%%%%%%%%%%%%%%%%%%%%%%%%%%%%%%%%%%%%%%%%%%%%%%%%%%%
15196A6%%%%%%%%%%%%%%%%%%%%%%%%%%%%%%%%%%%%%%%%%%%%%%%%%%%%%%%%%%%%%%%%%%%%%
15180A6%%%%%%%%%%%%%%%%%%%qQ%%%%%%%%%%%%%%%%%%%%%%%%%%%%%%%%%%%%%%%%%%%%%%%%
15164A6%%%%%%%%%%%%%%%%%%%%%%%%%%%%%%%%%%%%%%%%%%%%%%%%%%%%%%%%%%%%%%%%%%%%%
15148A6%%%%%%%%%%%%%%%%%%%%%%%%%%%%%%%%%%%%%%%%%%%%%%%%%%%%%%%%%%%%%%%%%%%%%
15133A6%%%%%%%%%%%%%%%%%%%%%%%%%%%%%%%%%%%%%%%%%%%%%%%%%%%%%%%%%%%%%%%%%%%%%
15117A6%%%%%%%%%%%%%%%%%%%%%%%%%%%%%%%%%%%%%%%%%%%%%%%%%%qQ%%%qQ%qQ%J6qq%%%%
15101A6%%qQ%%%%%%%%%%%%%%%%%%%%%%%%%%%%%%%%%%%%%%%%%%qQ%%%%%%%%%%%%%%%%%%%%%
15086A6%%%%%%%%%%%%%%%%%%%%%%%%%%%%%%%%%%%%%%%%%%%%%%%%%%%%%%qQ%%%%%%%%%%%%%
15070A6%%%%%%%%%%%%%%%%%%%%%%%%%%%%%%%%%%%%%%%%%%%%%%%%%%%%%%%%%%%%%%%%%%%%%
15054A6%%%%%%%%%%%%%%%%%%%%%%%%%%%%%%%%%%%%%%%%%%Qq%%%%%%%%%%%%%%%%%%%%%%%%%
15038A6%%%%%%%%%%%%%%%%%%%%%%%%%%%%%%%%%%%%%%%%%%%%%%%%%%%%%%%%%%%%%%%%%%%%%
15022A6%%%%%%%%%%%%%%%%%%%%%%%%%%%%%%%qQ%%%%%%%%%%%%%%%%%%%%%%%%%%%%%%%%%%%%
15007A6%%%%%%%%%%%%%%%%%%%%%%%%%%%%%%%%%%%%%%%%%%%%%%%%%%%%%%%%%%%%%%%%%%%%%
14991A6%%%%%%%%%%%%%%%%%%%%%%%%Qq%%%qQ%%%%%%%%%%%%%%%%%%%%%%%%%%%%%%%%%%%%%%
14975A6%%%%%%%%%%%%%%%%%%%%%%%%%%%%%%%%%%%%%%%%%%%%%%%%%%%%%%%%%%%%%%%%%%%%%
14959A6%%%%%%%%%%%%%%%%%%%%%%%%%%%%%%%%%%%%%%%%%%%%%%%%%%%%%%%%%%%%%%%%%%%%%
14943A6%%%%%%%%%%%%%%%%%%%%%%%%%%%%%%%%%%%%%%%%%%%%%%%%%%%%%%%%%%%%%%%%%%%%%
14928A6%qQ%%%%%%%%%%%%%%%%%%%%%%%%%%%%%%%%%%%%%%%%%%%%%%%%%%%%%%%%%%%%%%%%%%
14912A6%%%%%%%%%%%%%%%%%%%%%%%%%%%%%%%%%%%%%%%%%%%%%%%%%%%%%%%%%%%%%%%%%%%%%
14896A6%%%%%%%%%%%%%%%%%%%%%%%%%%%%%%%%%%%%%%%%%%%%%%%%%%%%%%%%%%%%%%%%%%%%%
14880A6%%%%%%%%%%%%%%%%%%%%%%%%%%%%%%%%%%%%%%%%%%%%%%%%%%%%%%%q%%Q%%%%%%%%%%
14864A6%%%%%%%%%%%%%%%%%%%%%%%%%%%%%%%%%%%%%%%%%%%%%%%%%%%%qQ%%%%%%%%%%%%%%%
14849A6%%%%%%%%%%%%%%%%%%%%%%%%%%%%%%%%%%%%%%%%%%%%%%%%%%%%%%%%%%%%%%%%%%%%%
14833A6%%%%%%%%%%%%%%%%%%%%%%%%%%%%%%%%%%%%%%%%%%%%%%%%%%%%%%%%%%%%%%%%%%%%%
14817A6%%%%%%%%%%%%%%%%%%%%%%%%%%%%%%%%%%%%%%%%%%%%%%%%%%%%%%%%%%%%%%%%%%%%%
14801A6%%%%%%%%%%%%%%%%%%%%%%%%%%%%%%%%%%%%%%%%%%%%%%%%%%%%%%%%%%%%%%%%%%%%%
14785A6%%%%%%%%%%%%%%%%%%%%%%%%%%%%%%%%%%%%%%%%%%%%%%%%%%%%%%%%%%%%%%%%%%%%%
14770A6%%%%%%%%%%%%%%%%%%%%%%%%%%%%%%%%%%%%%%%%%%%%%%%%%%%%%%%%%%%%%%%%%%%%%
14754A6%%%%%%%qQ%Qj6%%%Q%%%%%%%%%%%%%%%%%%%%%%%%%%%%%%%%%%%%%%%%%%%%%%%%%%%%
14738A6%%%%%%%%%%%%%%%%%%%%%%%%%%%%%%%%%%%%%%%%%%%%%%%%%%%%%%%%%%%%%%%%%%%%%
14723A6%%%%%%%%%%%%%%%%%%%%%%%%%%%%%%%%%%%%%%%%%%%%%%%%%%%%%%%%%%%%%%%%%%%%%
14707A6%%%%%%%%%%%%%%%%%%%%%%%%%%%%%%%%%%%%%%%%%%%%%%%%%%%%%%%%%%%qQ%%%%%%%%
14691A6%%%%%%%%%%%%%%%%%%%%%%%%%%%%%%%%%%%%%%%%%%%%%%%%%%%%%%%%%%%%%%%%%%%%%
14675A6%%%%%%%%%%%%%%%%%%%%%%%%%%%%%%%%%%%%%%%%%%%%%%%%%%%%%%%qQ%%%%%%%%%%%%
14659A6%%%%%%%%%%%%%%%%%%%%%%%%%%%%%%%%%%%%%%%%%%%%%%%%%%%%%%%%%%%%%%%%%%%%%
14644A6%%%%%%%%qQ%%%qQ%%%%%%%%%%%%%%%qQ%Q%j6K4qQqQj6M8n6%L2k4J6qj6J6%j6%%QqQ
14630A6qQ%%%Qq%%%%%%q%Q%%%%qQ%%%%%%%%%%%%%%%%%%%%%%%qQ%%qQ%%%%%%%%%%%%%%%%%%
14614A6%%%%%%%%%%%%%%%%%%%%%%%%%%%%%%%%%%%%%%%%%%%%%%%%%%%%%%%%%%%%%%%%%%%%%
14599A6%%%%%%%%%%%%%%%%%%%%%%%%%%%%%%%%%%%%%%%%%%%%%%%%%%%%%%%%%%%%%%%%%%%%%
14583A6%%%%%%%%%%%%%%%%%%%%%%%%%%%%%%%%%%qQ%%%%%%%%%%%%%%%%%%%%%%%%%%%%%%%%%
14567A6%%%%%%%%%%%%%%%%%%%%%%%%%%%%%%%%%%%%%%%%%%%%%%%%%%%%%%%%%%%%%%%%%%%%%
14551A6%%%%%%%%%%%%%%%%%%%%%%qQ%%%%%%%%%%%%%%%%%%%%%%%%%%%%%%%%%%%%%%%%%%%%%
14536A6%%%%%%%%%%%%%%%%%%%%%%%%%%%%%%%%%%%%%%%%%%%%%%%%%%%%%%%%%%%%%%%%%%%%%
14520A6%%%%%%%%%%%%%%%qQ%%%%%%%%%%%%%%%%%%%%%%%%%%%%%%%%%%%%%%%%%%%%%%%%%%%%
14504A6%%%%%%%%%%%%%%%%%%%%%%%%%%%%%%%%%%%%%%%%%%%%%%%%%%%%%%%%%%%%%%%%%%%%%
14488A6%%qQ%%%%%%%%%%%%%%%%%%%%%%%%%%%%%%%%%%%%%%%%%%%%%%%%%%%%%%%%%%%%%%%%%
14472A6%%%%%%%%%%%%%%%%%%%%%%%%%%%%%%%%%%%%%%%%%%%%%%%%%%%%%%%%%%%%%qQ%%%%%%
14457A6%%%%%%%%%%%%%%%%%%%%%%%%%%%%%%%%%%%%%%%%%%%%%%%%%%%%%%%%%%%%%%%%%%%%%
14441A6%%%%%%%%%%%%%%%%%%%%%%%%%%%%%%%%%%%%%%%%%%%%%%%%%%%%%%%%%%%%%%%%%%%%%
14425A6%%%%%%%%%%%%%%%%%%%%%%%%%%%%%%%%%%%%%%%%%%%%%%%%%%%%%%%%%%%%%%%%%%%%%
14409A6%%%%%%%%%%%%%%%%%%%%%%%%%%%%%%%%%qQ%%%%%qJ6j6%QQq%%qQ%%%%%%%%%%%%%%%%
14394A6%%%%%%%%%%%%%%%%%%%%%%%%%%%%%%%%%%%%%%%qQ%%%%%%%%%%%%%%%%%%%%%%%%%%%%
14378A6%%%%%%%%%%%%%%%%%%%%%%%%%%%%%%%%%%%%%%%%%%%%%%%%%%%%%%%%%%%%%%%%%%%%%
14362A6%%%%%%%%%%%%%%%%%%%%%%%%%%%qQ%%%%%%%%%%%%%%%%%%%%%%%%%%%%%%%%%%%%%%%%
14346A6%%%%%%%%%%%%%%%%%%%%%qQ%%%%%%%%%%%%%%%%%%%%%%%%%%%%%%%%%%%%%%%%%%%%%%
14331A6%%%%%%%%%%%%%%%%%%%%%%%%%%%%%%%%%%%%%%%%%%%%%%%%%%%%%%%%%%%%%%%%%%%%%
14315A6%%%%%%%%%%%%%%%Qq%%%%%%%%%%%%%%%%%%%%%%%%%%%%%%%%%%%%%%%%%%%%%%%%%%%%
14299A6%%%%%%%%%%%%%%%%%%%%%%%%%%%%%%%%%%%%%%%%%%%%%%%%%%%%%%%%%%%%%%%%%%%%%
14283A6%%%QqqQ%%%%%%%%%%%%%%%%%%%%%%%%%%%%%%%%%%%%%%%%%%%%%%%%%%%%%%%%%%%%%%
14268A6%%%%%%%%%%%%%%%%%%%%%%%%%%%%%%%%%%%%%%%%%%%%%%%%%%%%%%%%%%%%%%%%%%%%%
14252A6%%%%%%%%%%%%%%%%%%%%%%%%%%%%%%%%%%%%%%%%%%%%%%%%%%%%%%%%%%%%%%%%%%%%%
14236A6%%%%%%%%%%%%%%%%%%%%%%%%%%%%%%%%%%%%%%%%%%%%%%%%%%%%%%%%%%%%%%%%%%%%%
14220A6%%%%%%%%%%%%%%%%%%%%%%%%%%%%%%%%%%%%%%%%%%%%%%%%%%%%%%%%%%%%%%%%%%%%%
14204A6%%%%%%%%%%%%%%%%%%%%%%%%%%%%%%%%%%%%%%%%%%%%%%%%%%%%%%%%%%%%%%%%%%%%%
14189A6%%%%%%%%%%%%%%%%%%%%%%%%%%%%%%%%%%%%%%%%%%%%%%%%%%%%%%%%%%%%%%%%%%%%%
14173A6%%%%%%%%%%%%%%%%%Qq%%%%%%qQ%%qJ6j6qQ%Q%qJ6qqQ%%%%%%%%%%%%%%%%%%%%%%%%
14158A6%%%%%%%%%%%%%%%%%%%%%%%%%%%%%%%%%%%%%%%%%%%%%%%%%%%%%%%%%%%%%%%%%%%%%
14142A6%%%%%%%%%%%%%%%%%%%%%%%%%%%%%%%%%%%%%%%%%%%%%%%%%%%%%%%%%%%%%%%%%%%%%
14126A6%%%%%%%%%%%%%%%%%%%%%%%%%%%%%%%%%%%%%%%%%%%%%%%%%%%%%%%%%%%%%%%%%%%%%
14110A6%%%%%%%%%%%%%%%%Qq%%%%%%%%%%%%%%%%%%%%%%%%%%%%%%%%%%%%%%%%%%%%%%%%%%%
14094A6%%%%%%%%%%%%%%%%%%%%%%%%%%%%%%%%%%%%%%%%%%%%%%%%%%%%%%%%%%%%%%%%%%%%%
14079A6%%%%%%%%%%%%%%%%%%%%%%%%%%%%%%%%%%%%%%%%%%%%%%%%%%%%%%%%%%%%%%%%%%%%%
14063A6%%%%%%%%%%%%%%%%%%%%%%%%%%%%%%%%%%%%%%%%%%%%%%%%%%%%%%%%%%%%%%%%QqQj6
14047HQ%%%%%%%%%%%%%%%%%%%%%%%%%%%%%%%%%%%%%%%%%%%%%%%%%%%%%%%%%%%%%%%%%%%%%
14031A6%%%%%%%%%%%%%%%%%%%%%%%%%%%%%%%%%%%%%%%%%%%%%%%%%%%%%%%%%%%%%%%%%%%%%
14016A6%%%%%%%%%%%%%%%%%%%%%%%%%%%%%%%%%%%%%%%%%%%%%%%%%%%%%%%%%%%%%%%%%%%%%
14000A6%%%%%%%%%%%%%%%%%%%%%%%%%%%%%%%%%%%%%%%%%%%%qQ%%%%%%%%%%%%%%%%%%%%%%%
13984A6%%%%%%%%%%%%%%%%%%%%%%%%%%%%%%%%%%%%%%%%%%%%%%%%%%%%%%%%%%%%%%%%%%%%%
13968A6%%%%%%%%%%%%%%%%%%%%%%%%%%%%%%%%%%%%%%%%%%%%%%%%%%%%%%%%%%%%%%%%%%%%%
13952A6%%%%%%%%%%%%%%%%%%%%%%%%%%%%%%%%%%%%%%%%%%%%%%%%%%%%%%%%%%%%%%%%%%%%%
13937A6%%%%%%%%%%%%%%%%%%%%%%%%%%QqQq%q%Q%%%%%%%%%%%%%%%%%%%%%%%%%%%%%%%%%%%
13921A6%%%%%%%%%%%%%%%%%%%%%%%%%%%%%%%%%%%%%%%%%%%%%%%%%%%%%%%%%%%%%%%%%%%%%
13905A6%%%%%%%%%%%%%%%%%%%%%%%%%%%%%%%%%%%%%%%%%%%%%%%%%%%%%%%%%%%%%%%%%%%%%
13889A6%%%%%%%%%%%%%%%%%%%%%%%%%%%%%%%%%%%%%%%%%%%%%%%%%%%%%%%%%%%%%%%%%%%%%
13873A6%%%%%%%Qq%%%%%%%%%%%%%%%%%%%%%%%%%%%%%%%%%%%%%%%%%%%%%%%%%%%%%%%%%%%%
13858A6%%%%%%%%%%%%%%%%%%%%%%%%%%%%%%%%%%%%%%%%%%%%%%%%%%%%%%%%%%%%%%%%qQ%%%
13842A6%%%%%%%%%%%%%%%%%%%%%%%%%%%%%%%%%%%%%%%%%%%%%%%%%%%%%%%%%%%%%%%%%%%%%
13826A6%%%%%%%%%%%%%%%%%%%%%%%%%%%%%%%%%%%%%%%%%%%%%%%%%%%qQqQ%%%%%%%%%%%%%%
13810A6%%%%%%%%%%%%%%%%%%%%%%%%%%%%%%%%%%%%%%%%%%%%%%%%%%%%%%%%%%%%%%%%%%%%%
13794A6%%%%%%%%%%%%%%%%%%%%%%%%%%%%%%%%%%%%%%%%%%%%%%%%%%%%%%%%%%%%%%%%%%%%%
13779A6%%%%%%%%%%%%%%%%%%%%%%%%%%%%%%%%%%%%%%%%%%%%%%%%%%%%%%%%%%%%%%%%%%%%%
13763A6%%%%%%%%%%%%%%%%%%%%%%%%%%%%%%%Qq%Qq%%%%%%%%%%%%%%%%%%%%%%%%%%%%%%%%%
13747A6%%%%%%%%%%%%%%%%%%%%%%%%%%%%%%%%%%%%%%%%%%%%%%%%%%%%%%%%%%%%%%%%%%%%%
13731A6%%%%%%%%%%%%%%%%%%%%%%%%%%%%%%%%%%%%%%%%%%%%%%%%%%%%%%%%%%%%%%%%%%%%%
13715A6%%%%%%%%%%%%%%%%%%%%%%%%%%%%%%%%%%%%%%%%%%%%%%%%%%%%%%%%%%%%%%%%%%%%%
13700A6%Q%q%%%%%%Qj6%%qQQQqQq%%%%%%%%%%%%%%%%%%%%%%%%%%%%%%%%%%%%%%%%%%%%%%%
13684A6%%%%%%%%%%%%%%%%%%%%%%%%%%%%%%%%%%%%%%%%%%%%%%%%%%%%%%%%%%%%%%%%%%%%%
13668A6%%%%Qq%%%%%%%%%%%%%%%%%%%%%%%%%%%%%%%%%%%%%%%%%%%%%%%%%%%%%%%%%%%%%%%
13652A6%%%%%%%%%%%%%%%%%%%%%%%%%%%%%%%%%%%%%%%%%%%%%%%%%%%%%%%%%%%%%%%%%%%%%
13637A6%%%%%%%%%%%%%%%%%%%%%%%%%%%%%%%%%%%%%%%%%%%%%%%%%%%%%%%%%%%%%%%%%%%%%
13621A6%%%%%%%%%%%%%%%%%%%%%%%%%%%%%%%%%%%%%%%%%%%%%%%%%%%%%%%%%%%%%%%%%%%%%
13605A6%%%%%%%%%%%%%%%%%%%%%%%%%%%%%%%%%%%%%%%%%%%%%%%%%%%%%%%%%%%%%%%%%%%%%
13589A6%%%%%%%%%%%%%%%%%%%%%%%%%%%%%%%%%%%%%%%%%%%%%Qj6Q%%%%%%%%%%%%%%%%%%%%
13574A6%%%%%%%%%%%%%%%%%%%%%%%%%%%%%%%%%%%%%%%%%%%%%%%%%%%%%%%%%%%%%%%%%%%%%
13558A6%%%%%%%%%%%%%%%%%%%%%%%%%%%%%%%%%%%%%%%%%%%%%%%%%%%%%%%%%%%%%%%%%%%%%
13542A6%%%%%%%%%%%%%%%%%%%%%%%%%%%%%%%%%%%%%%%%%%%%%%%%%%%%%%%%%%%%%%%%%%%%%
13526A6%%%%%%%%%%%%%%%%%%%%%%%%%%%Qq%%%%%%%%%%%%%%%%%%%%%%%%%%%%%%%%%%%%%%%%
13511A6%%%%%%%%%%%%%%%%%%%Qq%%%%%%%%%%%%%%%%%%%%%%%%%%%%%%%%%%%%%%%%%%%%%%%%
13495A6%%%%%%%%%%%%%%%%%%%%%%%%%%%%%%%%%%%%%%%%%%%%%%%%%%%%%%%%%%%%%%%%%%%%%
13479A6%%%%%%%%%%%%%%%%%%%%%%%%%%%%%%%%%%%%%%%%%%%%%%%%%%%%%%%%%%%%%%%%%%%%%
13463A6%%%%%%%%%qQ%%%Qq%%%%%%%%%%%%%%%%%%%%%%%%%%%%%%%%%%%%%%%%%%%%%%%%%%%%%
13447A6Qq%%%%%%%%%%%%%%%%%%%%%%%%%%%%%%%%%%%%%%%%%%%%%%%%%%%%%%%%%%%%Qq%Qq%%
13432A6%%%%%%%%%%%%%%%%%%%%%%%%%%%%%%%%%%%%%%%%%%%%%%%%%%%%%%%%%%%%%%%%%%%%%
13416A6%%%%%%%%%%%%%%%%%%%%%%%%%%%%%%%%%%%%%Qq%%%%%%Qq%%%%Q%q%Qq%%%%%%%%%%%%
13400A6%%%%%%%%%%%%%%%%%%Qq%%%%%%%%%%%%%%%%%%%%%%%%%%%%%%%%%%%%%%%%%%%%%%%%%
13384A6%%%%%%%%%%%%%%%%%%%%%%%%%%%%%%QqQq%%%%%%%%Qq%%%%%%%%%%%%%%%%%%%%%%%%%
13368A6%%%%%%%%%%%%%%%%%%%%%%%%%%%%%%%%%%%%%%%%%%%%%%%%%%%%%%%%%%%%%%%%%%%%%
13353A6%%%%%%%%%%%%%%%%%%%%%%%%%%%%%%%%%%qJ6qQq%%%%%%%%%%%Qq%%%%%%%%%%%%%%%%
13337A6%%%%%%%%%%%%%%%%%%%%%%%%%%%%%Qq%Qq%%%%%%%%%%%%%%%%%%%%%%%%%%%%%%%%%%%
13321A6%%%%%%%%%%%%%%%%%%%Qq%%Qq%%%%%%%%%%%%%%%%%%%%%%%%%%%%%%%%%%%%%%%%%%Qq
13306A6%%Qq%%%%%%%%%%%Qq%%Q%q%%%%%%%%%%%%%%%%%%%%%%%%%%%%%%%%%%%%%%%%%%%%%%%
13290A6%%%%%%%%%%%%Q%q%%%%%%%%Qq%%%%%%%%%%%%%%%%%%%%%%%%%%%%%%%%%%%%%%%%%%%%
13274A6%%%%%%%%%%%%%%%%%%%%%%%%%%%%%%%%%%%%%%%%%%%%%%%%%%%%%%%%%%%%%%Qq%%%%%
13258A6%%%%%%%Qq%%%%%%%%%%%%%%%%%%%%%%%%%Qq%%%%%%%%%%%%%%%%%%%%%%%%%%%%%%%%%
13242A6Qq%%Qq%%%%%%%%%%%%%%%%%%%%%%%%%%%%%%%%Qq%%%%%%%%%%%%Q%q%%Qq%QqQ%qQQqq
13227A6Qq%Qq%%%%%%%%%%%%%%%%%%%%%%%%%%%%%%%%%%%%%%%%%%%%%%%%%%%%%%%%%%%%%%%%
13211A6%%%%%%%%%%%%%%%%%%%%%%%%%%%%%%%%%%%%%%%%%%%%%%%%%Qq%%%%%%%%%%%%%%%%%%
13195A6%%%%%%%%%%%%%%%%%%%%%%%%%%%%%%%%%%%%%%%%%%%%%%%%%%%%%%%%%%%%%%%%%%%%%
13179A6%%%%%%%%%%%%%%%%%%%%%%%%%%%%%%%%%%%%%%%%%Qq%%%qQ%%%%%%%%%%%%%%%%%%%%%
13163A6%%%%%%%%Qq%%%%%%%%%%%%%%%%%%%%%%%%%%%Qq%%%%%%%%%%%%%%%%%%%%%%%%%%%%%%
13148A6%%%%%%%%%%%%%%%%%%%%%%%%%%%%%%%%%%%%%%Qq%Qq%%%%%%%%%%%%%%%%%%%%%%%%%%
13132A6%%%%%%%%%%%%%%%%%%%%%%%%%%%%%%%%%%%%%%%%%%%%%%%%%%%%Qq%%%%%%%%%%%%%%%
13116A6%%%%%%Q%qQ%%q%QqQ%q%%%Qq%J6j6Qq%%Q%qQq%%%%%%%%%%%%%%%%%%%%%%Qq%%%%%%%
13101A6%%%%%%%%%%%%%%%%%%%%%%%%%%%%%%%%%%%Qq%Qq%%%%%%%%%%%%%%%%%%%%%%%%%%%%%
13085A6%%%%Qq%%%%%%%%%%%%Qq%%%%%%%%%%%%%%%%%%%%%%Qq%%%%%%%%%%%%%%%%%%%%%%%%%
13069A6%%%%%%%%%%%Qq%%%%%%%%%%%%%%%%%%%%%%%%%%%%%%%%%%%%%%%%%%%%%%%%%%%%%%%Q
13053B4q%%%%%%%Qq%Q%q%%%Qq%%%%%%%%%%%%%%%%%%%%%%%%%%%%%%%%%%%%%%%%%%%%%%%%%%
13037A6%%%%%%%%%%%%%%%%%%%%%%%%%%%%%%%%%%%%Qq%%%%%%%Qq%%%%%%%%%%Qq%%%%%%%%%%
13022A6%%%%%%%%%%%%%%%%%%%%%%%%%%%Qq%%%%%%%%%%%%%%%%%%%%%%%%%%%%%Q%q%%%%%%%%
13006A6%%%%%%Qq%%%%%%%%%%%%%%%%%%Qq%%%%%%QqQqQq%Q%q%%Qq%Qq%QqQq%%%Qq%%%%Qq%Q
12990B4q%%%%%%%%%%%%%%Qq%%%%%%%%%%%Q%qQq%%Qq%%%%%%%Qq%%%%%Q%qQq%%%%%%%%%%%%Q
12974B4q%%%%%%%%%%%%%%%%%%%%%%%%%%%%%%%%%%Qq%%Q%q%Qq%%Qq%%%%%%%%%%%%%%%%%%%%
12959A6%%%%%%%%Qq%%Qq%%%%%%%%%%%%%%%%%%%%%%Qq%%%%%%Qq%%%%%%%%%%Qq%%%%%%%QqQq
12943A6%%%%%%%%%%%%%%%%%%%%%%%%%%%%%%%%%%%QqQq%Qq%%%%%Qq%%%%Qq%%%%%%%%%%%%%%
12927A6%%%%%%%%%%%%%%%%%%%%%%%%%%Q%qQqQqQq%%QqQq%%%%%%%%%%%%%%%%%%%%%%%%%%%%
12911A6%%%%%%%%%%%%%Qq%%%%%%%Qq%%Q%q%%QqQqQq%Q%qQ%q%%%Qq%%%%%%%%%%%%Qq%%%%%%
12895A6%%%%%%%%%%%%%%%%%%%Qq%%%%%%%%%%%%%%%%%%%%%%%%%%%%%%%%%Qq%%%%%%%%%%%%Q
12880B4q%%%Qq%%%%%%%%%%%%QqQ%%%%%qQqQq%%%%Q%q%Qq%%%%%Q%q%%QqQqQq%%Qq%%%%%%%%
12864A6%%%%%%%%%Qq%%%Q%qQq%%%%%%%%%%%%%%%%%%%%%%%%Qq%%%%%%%%%%%%%%%%%%Qq%Q%q
12848A6Qq%%Q%qQq%%%%%%Q%%q%%%%%%%%%%%%%%%%%%%%Qq%%%Qq%Qq%%%%%%%%%%%%%%%%Qq%%
12832A6Qq%%%%%%%%%%%%%%%%%Qq%%%%%%%%Qq%%%%%%%%%Qq%Q%%%%%q%%%Q%qQq%%Q%%qQq%%%
12816A6Q%q%%%%%%Qq%Q%q%Qq%%%%%Qq%%%Qq%Q%q%%%%%%%%%Qq%%%%%%Qq%%%%Qq%%%%%QqQ%q
12801A6Q%%%%%qQ%%%%q%%%Qq%%%Qq%%%%%%QqQq%Qq%%Q%q%%%%%%%%Qq%QqQqQ%q%Qq%%%%%%Q
12785B4q%%%%%%%%%%%%%%%%%%%%%%Qq%%Qq%%%%%%%%%%%Qq%%%%%%%%%%%%%%%%%%%%%%%%%%Q
12769B4q%%Qq%%%%Q%q%Q%%qQ%q%%%%%%%%Q%%qQqQq%J6k4J6j6K4k4%J6qqJ6Q%j6J6qqQq%%Q
12756B4qQqQqQq%%Qq%%%Q%q%%%%%Qq%%%%%%Q%%qQ%q%Qq%%%%%%%%%%%%%%%%%%%%%Q%q%%%%%
12740A6%%%%%%%%%%%%%%%%%%%%%%%%%Qq%%%QqQ%%%%%qQ%%qQq%%%%%%%%Qq%Q%q%%%%%%%%%%
12724A6Qq%%%%%%%Qq%%%%%%%%%%%%%%%%Q%%%%qQq%Qq%Qq%Q%q%%%%%%QqQ%q%Q%q%%Qq%%%%%
12708A6Q%qQq%%QqQ%%%q%%%QqQq%%%%Qq%%%QqQqQ%%%qQ%q%%%%%Qq%QqQq%Qq%%%%%Q%q%%%%
12692A6%%%Qq%%Q%q%Q%%qQq%%Qq%%%%%%%%%%%%Qq%%Qq%QqQq%%%%%%%%%%%%%%%%%Qq%%%%Q%
12677B4q%QqQqQqQ%qQqQq%%Qq%%%%%Qq%QqQq%Qq%%%%%%%%%%%Q%%q%%%%%%%%%%%Q%q%%Q%qQ
12661B4q%%%%%Qq%%Qq%Qq%%%%Qq%%Q%qQ%q%Qq%QqQq%%%%Q%%qQq%%%Qq%%%%%%%%Qq%Qq%Qq%
12645A6%%Qq%%%%%QqQq%%QqQqQ%q%%%%%%%%%%%%%%%%Q%%q%%%%%%%%%%%%%%Qq%Qq%%%%%%%%
12629A6%%%%%%%Qq%%%%%%%%%%%%%%%%%%%%%%%%Qq%Qq%%Q%q%%%%%%%%%%%%%%%%%%Qq%%%Qq%
12613A6%%%Q%q%Q%q%%%%%%%%Qq%Qq%%%%%%%%%%%%Qq%%%%Qq%Qq%%%%%%%%%%%%QqQ%qQ%qQ%q
12598A6Qq%%Q%q%Qq%Q%%q%QqQq%Qq%Qq%%%Qq%%Qq%Q%%%qQ%%q%%%Qq%%Q%q%%%QqQq%%%Q%qQ
12582B4%q%Qq%Q%%q%%%%%%%%%%%%%%%%%%%%%%%%%%%Q%q%QqQqQ%qQ%%q%%%Qq%Q%q%QqQq%Q%
12566B4qQq%%%%%%%%Qq%%Q%q%Qq%%%Q%%%%qQ%q%%%%Q%%%qQ%q%%%QqQ%qQqQ%%qQ%%%%%q%%%
12550A6%%Q%q%%%Q%%%%%q%%QqQqQq%%QqQq%%QqQqQ%qQqQq%Qq%%%%%%Qq%Q%q%%%%%%%%%Q%q
12534A6Q%%qQ%qQqQ%%%%%%%q%%%%%%%%%%%Qq%%QqQqQqQ%qQqQq%Q%q%%%%%Q%qQ%%%q%%%Q%q
12519A6Qq%%%%%%Q%q%%Qq%%%%%%Q%q%Q%q%Qq%Q%qQ%qQq%Q%q%Q%qQqQq%QqQq%%%%%Qq%%%%Q
12503B4qQqQqQ%%qQ%qQ%qQq%%%Q%q%QqQq%QqQq%%QqQq%%Qq%Q%%%%%%%qQ%%%%%%%%%%%%q%%
12487A6Q%qQq%QqQ%q%%%Q%q%Qq%%%%%Q%q%%%%%%Q%q%%Q%%%%qQ%q%%Q%%%qQq%%%QqQqQ%%%%
12471B4qQ%%q%QqQ%qQ%qQ%%%q%%%Q%%q%%%Q%%%%%%%%%%qQ%%%%%qQqQq%%%%Qq%Q%%%%%qQq%
12455A6Q%qQq%%%%%%%%%%Q%qQ%q%%%%%Qq%%%%%%Q%%qQq%Q%%%%%qQq%Q%%qQ%%q%%%%Qq%%Q%
12440B4q%QqQq%%QqQ%q%%Qq%Qq%Qq%Q%%q%Q%%%%%%%%%%%%%%%%%%qQ%qQ%qQ%%qQqQ%%%q%%%
12424A6Q%%%%%%%%%q%Qq%Qq%Q%qQ%%%q%Qq%%QqQ%%%qQ%qQ%q%%%QqQ%%%%%q%Q%%q%%Qq%%Qq
12408A6%QqQ%%qQ%%%%qQ%%%qQ%q%Q%%qQ%%%qQq%%%%QqQqQq%%Q%%%%%%%%%%%%%%qQ%q%%QqQ
12392B4%q%QqQ%%%%%%q%%Q%%%%qQ%%%%%%%%%%%%%%%%%%%%%qQqQ%%qQ%qQ%%%%%q%QqQ%qQ%%
12376B4%%q%Qq%Q%%%qQ%%%%%%%q%%%Qq%%Q%%%%%%%%qQ%%qQq%Q%qQq%QqQ%q%Q%qQq%%%QqQ%
12361B4%%q%QqQq%%%QqQ%%%q%QqQ%%qQ%%%%%%%%%%%%%%%%%%%%%%%%%%qQ%%qQ%%%q%%%%%Qq
12345A6%Q%q%%%%%Qq%QqQq%Q%%%%%%%%%%%%%qQqQ%qQ%%%%%%qQ%%%%%%%%%q%Q%qQ%q%QqQ%%
12329B4qQqQ%q%Q%%%qQ%%%%%%%%%%%%%%%qQ%%%qQq%%%QqQ%qQq%QqQ%%%qQ%q%QqQ%%%qQ%qQ
12313B4qQ%q%%Q%%%%%%qQ%%%%q%%Q%q%%QqQq%%Q%q%Qq%%%Q%%qQ%q%%%QqQ%%%%%qQq%%Q%qQ
12298B4%%%%%%%%%qQ%%qQ%%%%%%%q%Q%Qq%QqQk4qK4%%%%Qq%%%q%%Q%%%%qQ%%%qQ%%%%qQqQ
12282B4%%%%%%q%Q%%%%%%%%%%qQq%%Qq%QqQqQ%%%%qQq%Q%qQ%qQq%Q%%%%%%%%%%%qQ%q%%Qq
12266A6Qq%%%%Q%q%%Q%%%%%%qQ%qQqQ%qQ%%%%%%%%%%%qQq%Q%%%%%%%%%%%qQ%%%%%%%%%%%%
12251B4%%qQ%%%%%%%%qQqQq%Qq%%%Qq%Qq%QqQ%qQq%%QqQqQ%%%%%qQ%%%%%%qQ%%%%%q%%Qq%
12235A6%%Q%%%q%Q%q%Qq%Q%qQ%%%q%Q%%qQq%%QqQqQqQ%qQ%q%QqQqQqQ%%%%%%%%%%%%%%%%%
12219B4qQ%%%%qQ%qQ%%qQq%%Q%%%%%%qQ%%%%%%%%%%%%%qQ%%%%%%%%%%%%%%%%%%%%%%%%qQ%
12203B4%qQqQ%%%%%%%qQq%Q%%%%%q%Q%%%%%%%%qQ%q%QqQqQ%q%Q%%qQ%%%%%%q%%Q%%%%%%%%
12187B4%%%%%%%%%%%qQ%%qQ%%%%%qQq%Q%%%%%%%%%qQ%%%%q%Q%%%q%Q%%%%%%qQ%qQ%%q%QqQ
12172B4qQ%%q%%QqQ%%%%%%%%qQ%%%%%%%%%%%qQ%q%Q%%%%%%%%%%%%%%%%%%q%%%QqQq%%%%Qq
12156A6Q%%%%%%%%%%%%%%%%%%%%%%%%%%%%%%%%%%%%%%%qQ%q%QqQ%%%%%%%%%%%%%%%%%%%%%
12140B4%qQ%%%%%qQ%%%q%Q%%%%%%%%qQqQqQ%%%%%%%%%%%%%%qQ%%%%qQ%%%%%%%%%%q%Q%%%q
12124A6Q%%%%%%%%%%%%%%%%%%%%%qQq%Q%qQ%%%%%%%%%%%%%%%qQ%qQ%%%%%%%%%%%%%%%%%%%
12108B4%%%%%%%%%%%%%%qQ%%%%%%%%%%%%%%%%%%%%%%%%%%%%%%%%%%%%%%%%%%%%%%%%%%%%%
12093B4%%%%%%%%%qQ%%q%%Qq%Q%qQ%%qQ%qQ%%%%%qQ%%%%%%%qQ%%%%%%%%%%%%qQ%qQ%%q%Q%
12077B4q%QqQ%q%Q%%%qQ%%%%%qQ%%%%%%qQ%%%%%%%%%%%%%%%%%%%%%%%%%%%q%Q%%%%qQ%%%%
12061B4%%%%%%%%%%qQ%%%%%qQ%q%Q%%qQq%Q%%%%%%qQ%%qQ%%%%qQ%q%Q%%%%qQqQqQqQ%qQ%%
12045B4%%%%%%%%qQ%%%qQ%%%%%qQ%%%%%%%%%%%%qQ%%%%%%%%%%%%%%qQ%%%%%%%%qQ%%%%%%%
12029B4%%%qQ%%%qQ%%%qQ%%%%%%%%%%%%%%%%%%%%%%%%%%%%%%%%%%%%%%%%%%%%%%%qQ%%%%%
12014B4%%%qQ%%%%%%%%%%%%%%%%%%%%%%%%%%%%%%%%%%qQ%%%%%%%%%qQqQ%%%%%%%%%%%%%%%
11998B4qQ%%%qQ%%%%%%%%%%%%%%%%%%%%%%%%%%%%%%%%%%%%%%qQ%%%%%%qQ%%%%%%%%%%%%%%
11982B4%%qQ%%%%%%%%%%%%%%%%%%%%%%%%%%%%%%%%%%%%%%%%%%%%%%%%%%%%%%%%%%q%QqQ%%
11966B4%qQ%%%%%%%%%%%%%%%%%%%%%%%%%%%%%%%%%%%%%%%%%%%%%%%%%%%%%%%qQ%%%%%%%%%
11951B4%qQ%%%%%%%qQ%%%%%%%%%%%%%%%%%q%Q%%%%%%%%qQ%%%%%%%%%qJ6j6Q%%%%qQ%%%%%%
11935B4%%%%%%%%%%%%%%%%%%%%%%%%%%%%%%%%qQ%%qQ%%%%%%%%%qQ%%%%%%%%%%%%%%%%%%%%
11919B4%%%%%%%%%%%%%%%%%%%%%%%%%%%%%%%%%%%%%%%%%%%%%%%%%%%%%%%%%%%%%%%%%%%%%
11904B4%%%%%%%%%qQ%%%%%qQ%%%%%%%%%%%%%%%%%%%%%%%%%%%%%%%%%%%%%%%%%%%%%%%%%%%
11888B4%%%%%%%%%%%%%%%%%%%%%%%%%%%%%%q%QqQ%qQ%%%%%%%%%%%%%%%%%%%%%%%%%%%%%%%
11872B4%%%%%%%%%%%%%%%%%%%%%%%%%%%%qQ%%%%%%%%%%%%%%%%%%%%%%%%%%%%%%%%%%%%%%%
11856B4%%%%%%%%%%%%%%%%%%%%%%qQ%qQ%%%%%%%%%qQ%%%%%%%%%%%%%%%%%%%%%%%%%%%%%%%
11840B4%%%%%%%%%%%%%%%%%%%%%%%%%%%%%%%%%%%%%%%%%%%%%%%%%%%%%%%%%%%%%%%%%%%%%
11825B4qQ%%qQq%QqQQ%%q%qQ%%%%%q%Q%%%%%%%%%%qQ%qQ%%qQ%qQ%qQ%%%%%%%%%%%%%%%%%%
11809B4%qQ%%%%%%%%%%%%%%%%%%%%%%%%%%%%%%%%%%%%%%%%%%%%%%%%%%%%%%%%%%%%%%%%%%
11793B4%q%Q%%qQ%%%%%%%%%%%%%%%%%%%%%%%%%%%%%%%%%%%%%%%%%%%%%%%%%%%%%%%%%qQ%%
11777B4%qQ%%%%%%%%%%%%%%%%%%%%%%%%%%%%%%%%%%%%%%%%%%%%%%%%%%%%%%%%%qQ%%%%%%%
11761B4%%%%%%%%%%%%%%%%%%%%%%%%%%%%%%%%%%%%%%%%%%%%%%%%%%%%%%%%%%%%%%%%%%%%%
11746B4%%%%%%%%%%%%%%%%%%%%%%%%%%%%%%%%%%%%%%%%%%%%%%qQ%%%%%%%%%%%%%%%%%%%%%
11730B4%%%%%%%%%%%%%%%%%%%%%%%%%%%%%%%%%%%%%%%%%%%%%%%%%%%%%%%%%%%%%%%%%%%%%
11714B4%%%%%%%%%%%%%%%%%%%%%%%%%%%%%%%%%%%%%%%%%qQ%qQ%%q%Q%%%%%%%%%qQ%%%%%%%
11698B4%%%%%%%%%%%%%%%%%%%%%%%%%%%%%%%%%%%%%%%%%%%%%%%%%%%%%%%%%%%%%%%%%%%%%
11683B4%%%%%%%%%%%%%%%%%%%%%%%%%%%%%%%%%%%%%%%%%%%%%%%%%%%%%%%%%%%%%%%%%%%%%
11667B4%%%%%%%%%%%%%%%%%%%%%%%%%%%%%%%%%%%%%%%%%%%%%%%%%%%%%%%%%%%%%%%%%%%%%
11651B4%%%%%%%%%%%%%%%%%%%%%%%%%%%%%%%%%%%%%%%%%%%%%%%%%%%%%%%%%%%%%%%%%%%%%
11635B4%%%%%%%%%%%%%%%%%%%%%%%%%%%%%%%%%%%%%%%%%%%%%%%%%%%%%%%%%%%%%%%%%%%%%
11619B4%%%%%%%%%%%%%%%%%%%%%%%%%%%%%%%%%%%%%%%%%%%%%%%%%%%%%%%%%%%%%%%%%%%%%
11604B4%%%%%%%%%%%%%%%%%%%%%%%%%%%%%%%%%%%%%%%%%%%%%%%%%%%%%%%%%%%qQ%%%%%%Qq
11588B4%qJ6qqQ%%%qQ%%%%%%%%%%%%%%%%%%%%%%%%%%%%%%%%%%%%%%%%%%%%%%%%%%%%%%%%%
11572B4%%%%%%%%%%%%%%%%%%%%%%%%%%%%%%%%%%%%%%%%%%%%%%%%%%%%%%%%%%%%%%%%%%%%%
11556B4%%%%%%%%%%%%%%%%%%%%%%%%%%%%%%%%%%%%%%%%%%%%%%%%%%%%%%%%%%%%%%%%%%%%%
11541B4%%%%%%%%%%%%%%%%%%%%%%%%%%%%%%%%%%%%%%%%%%%%%%%%%%%%%%%%%%%%%%%%%%%%%
11525B4%%%%%%%%%%%%%%%%%%%%%%%%%%%%%%%%%%%%%%%%%%%%%%%%%%%%%%%%%%%%%%%%%%%%%
11509B4%%%%%%%%%%%%%%%%%%%%%%%%%%%%%%%%%%%%%%%%%%%%%%%%%%%%%%%%%%%%%%%%%%%%%
11493B4%%%%%%%%%%%%%%%%%%%%%%%%%%%%%%%%%%%%%%%%%%%%%%%%%%%%%%%%%%%%%%%%%%%%%
11477B4%%%%%%%%%%%%%%%%%%%%%%%%%%%%%%%%q%QqQ%%%%%%%%%%%%%%%%%%%%%%%%%%%%%%%%
11462B4%%%%%%%%%%%%%%%%%%%%%%%%%%%%%%%%%%%%%%%%%%%%%%%%%%%%%%%%%%%%%%%%%%%%%
11446B4%%%%%%%%%%%%%%%%%%%%%%%%%%%%%%%%%%%%%%%%%%%%%%%%%%%%%%%%%%%%%%%%%%%%%
11430B4%%%%%%%%%%%%%%%%%%%%%%%%%%%%%%%%%%%%%%%%%%%%%%%%%%%%%%%%%%%%%%%%%%%%%
11414B4%%%%%%%%%%%%%%%%%%%%%%%%%%%%%%%%%%%%%%%%%%%%%%%%%%%%%%%%%%%%%%%%%%%%%
11398B4%%%%%%%%%%%%%%%%%%%%%%%%%%%%%%%%%%%%%%%%%%%%%%%%%%%%%%%%%%%%%%%%%%%%%
11383B4%%%%%%%%%%%%%%%%%%%%%%%%%%%%%%%%%%%%%%%%%%%%%%%%%%%%%%%%%%%%%%%%%%%%%
11367B4%%%%%%%%%%%%%%%%%%%%%%%%%%%%%%%%%%%%%%%%%%%%%%%%%%%%%%%qQ%%Qj6qQ%Q%%%
11351B4%%%%%%%%%%%%%%%%%%%%%%%%%%%%%%%%%%%%%%%%%%%%%%%%%%%%%%%%%%%%%%%%%%%%%
11336B4%%%%%%%%%%%%%%%%%%%%%%%%%%%%%%%%%%%%%%%%%%%%%%%%%%%%%Q%q%%%%%%%%%%%%%
11320B4%%%%%%%%%%%%%%%%%%%%%%%%%%%%%%%%%%%%%%%%%%%%%%%%%%%%%%%%%%%%%%%%%%%%%
11304B4%%%%%%%%%%%%%%%%%%%%%%%%%%%%%%%%%%%%%%%%%%%%%%%%%%%%%%%%%%%%%%%%%%%%%
11288B4%%%%%%%%%%%%%%%%%%%%%%%%%%%%%%%%%%%%%%%%%%%%%%%%%%%%%%%%%%%%%%%%%%%%%
11272B4%%%%%%%%%%%%%%%%%%%%%%%%%%%%%%%%%%%%%%%%%%%%%%%%%%%%%%%%%%%%%%%%%%%%%
11257B4%%%%%%%%%%%%%%%%%%%%%%%%%%%%%%%%%%%%%%%%%%%%%%%%%%%%%%%%%%%%%%%%%%%%%
11241B4%%%%%%%%%%%%%%%%%%%%%%%%%%Qq%%%%%%%%%%%%%%%%%%%%%%%%%%%%%%%%%%%%%%%%%
11225B4%%%%%%%%%%%%%%%%%%%%%%%%%%%%%%%%%%%%%%%%%%%%%%%%%%%%%%%%%%%%%%%%%%%%%
11209B4%%%%%%%%%%%%%%%%%%%%%%%%%%%%%%%%%%%%%%%%%%%%%%%%%%%%%%%%%%%%%%%%%%%%%
11193B4%%%%%%%%%%%%%%%%%%%%%%%%%%%%%%%%%%%%%%%%%%%%%%%%%%%%%%%%%%%%%%%%%%%%%
11178B4%%%%%%%%%%%%%%%%%%%%%%%%%%%%%%%%%%%%%%%%%%%%%%%%%%%%%%%%%%%%%%%%%%%%%
11162B4%%%%%%%%%%%%%%%%%%%%%%%%%%%%%%%%%%%%%%%%%%%%%%%%%%%%%%%%%%%%%%%%%%%%%
11146B4%%%%%%%%%%%%%%%%%%%%%%%%%%%%%%%%%%%%%%%%%%%%%%%%%%%%%%%%Qq%%%%%%%%%%%
11130B4%%%%%%%%%%%%%%%%%%%%%%%%%%%%%%%%%%%%%%%%%%%%%%%%QqQqQj6QqJ6q%%%%%%%%%
11115B4%%%%%%%%%%%%%%%%%%%%%%%%%%%%%%%%%%%%%%%%%%%%%%%%%%%%%%%%%%%%%%%%%%%%%
11099B4%%%%%%%%%%%%%%%%%%%%%%%%%%%%%%%%%%%%%%%%%%%%%%%%%%%%%%%%%%%%%%%%%%%%%
11083B4%%%%%%%%%%%%%%%%%%%%%%%%%%%%%%%%%%%%%%%%%%%%%%%%%%%%%%%%%%%%%%%%%%%%%
11068B4%%%%%%%%%%%%%%%%%%%%%%%%%%%%%Qq%Qq%%%%%%%%%%%%%%%%%%%%%%%%%%%%%%%%%%%
11052B4%%%%%%%%%%%%%%%%%%%%%%%%%%%%%%%%%%%%%%%%%%%%%%%%%%%%%%%%%%%%%Qq%%%%%%
11036B4%%%%%%%%%%%%%%%%%%%%%%%Q%qQq%%%%%%%%%%%%%%%%%%%%%%%%%%%%%%%%%%%%%%%%%
11020B4%%%%%%%%%%%%%%%%%%%%%%%%%%%%%%%%%%%%%%%%%%%%%%%%%%%%%%%%%%%%%%%%%%%%%
11004B4%%%%%%%Qq%%%qQQq%%%%%%%%%%%%%%%%%%%%%%%%%%%%%%%%%%%%%%%%%%%%%%%%%%%%%
10989B4%%%%%%%%%%%%%%%%%%%%%%%%%%%%%%%%%%%%%%%Qq%%%%%%%%%%%%%%%%%%%%%%%%%%%%
10973B4%Qq%%%%%%%%%%%%%%%%%%%%%%%%%%%%%%%%%%%%%%%%%%%%%%%%%%%%%%%Qq%%%%%%%Qq
10957B4%%%Qq%%%%%%%%%%%%%%%%%%%%%%%%%%%%Qq%%%%%%%%%%%%%%%%%%%%%Q%q%%QqQ%qQq%
10941B4%%%%%%%%%%%%%%%%%%%%%%%%%%%%%%%%%%%%%%%%%%%%%%%%Qq%%%%%%%%%%%%%%%%%%%
10925B4%%%%%%%%%%%%%%%%%%%%%%%%%%%%%%%%%%%%%%%%%%%%%%%%%Qq%%%%%%%%%%%%Q%q%%Q
10910C2qQq%%%%%%%%%%%%%%%%%%%%%%%Qq%%%%%%%Qq%%%%%%%%%%%%%%%%Qq%%%%%%%%%Q%q%%
10894B4%%%%%%%%%%%%%QqQq%Q%j6Q%%QqqJ6qqQ%%%Qj6J6k4QK4J6m0L2Ql2%%M8o4L2j6qJ6%
10881C2%j6Q%qJ6qQ%q%%%%Qq%%Qq%%%Q%%q%%%%Qq%Qq%%%%%%%%%%Qq%%%%Qq%%%Qq%%%Qq%%%
10866B4%%%%Qq%%%%%%%%%%%%%%%%%%%%Qq%QqQqQ%%q%%%%%%QqQq%%Qq%%Qq%%%%%%%%%%%%%%
10850B4%%%%Qq%%%Qq%%%%%%%%%%%%%%%%%%%%%%%QqQq%%Qq%Q%q%%%%Qq%%%%%%%%%%%%%%%%%
10835B4%%%%%%%%%%Qq%%%%%%%%%%%%%%%%%%%%%%%Qq%Qq%%%%%%%%%%%%%%%%%%%%%%%%%Qq%%
10819B4%%%Q%q%Qq%%%%%%%%%%%%%%%%%Qq%%%%%%Qq%%%%%%%%%%%%Qq%Qq%%%%%%%%%%%%%%%%
10803B4%%Q%qQq%%%%%%%%%%%%%%%%%%Qq%%%%%%%Qq%%%%%%%%%%%%%%%%%%%%%%%%%%%%%%%%%
10787B4%%%%%%%%%%%%%%%%%%%%%%%%%%%%QqQq%%%Qq%%%%%%Qq%Q%q%%%%%%%%Qq%%QqQq%%%%
10771B4%%%%%%%%%%%%QqQqQ%%%%q%%%Qq%%%%Qq%%%%%Qq%%%%%%%%%%%%%%%%%%%%%%%%%%QqQ
10756C2q%%%%%%%%%%Qq%%Qq%Q%q%%Qq%%%%%%%Qq%QqQqQq%%%Qq%Qq%%%%%%%Qq%%%%%%%%%Q%
10740C2%%qQ%%%%%q%Q%%%qQ%%qQq%%%Qq%Qq%%%%Q%%%%q%%%Q%qQ%qQq%%%%%%%%%%%%%QqQqQ
10724C2q%QqQqQq%%%%%%Qq%%%%%%Qq%%Q%%%qQq%%%Q%q%Q%%q%%%%%%Qq%Q%q%Q%%%%qQ%%%q%
10708B4Qq%%Q%%%%%qQ%%%qQ%q%%%QqQq%%%Qq%Qq%Qq%%Q%%qQ%q%Q%q%%%%%Q%q%%%Q%%q%Q%q
10692B4%Q%%%q%%%%%Qq%Qq%%%Q%q%%Q%q%%%%%%%%QqQ%%%%qQ%qQ%%%qQ%%%q%Qq%Qq%%Q%q%%
10677B4QqQqQq%%%Q%q%Q%%%%%qQ%qQ%%qQq%%%%Qq%Q%q%%%Q%q%Q%%q%%Q%qQq%QqQq%Qq%%%Q
10661C2%q%Qq%%%%%%%%Q%q%Q%%%qQqQqQqQ%%%%qQ%%%qQ%%qQq%%Q%q%%%%%%Qq%%%QqQqQqQq
10645B4%%%Q%qQqQ%qQ%qQ%%%qQqQqQq%%QqQq%Qq%%%%QqQ%%%%%%qQ%%%qQ%q%Q%%%%%%qQ%%%
10629C2%%qQ%%%%%%%%%%%%%%%%%qQq%%Qq%%Qq%%Qq%%%%Qq%%Q%%%qQq%%%%%%%%%%QqQ%q%%%
10613B4Q%q%%%%%%Qq%%Q%%%%qQqQ%%qQq%%%%%Qq%%%%Qq%Q%q%%%%Q%%q%Q%qQqQ%qQ%%%qQ%%
10598C2%%%%%%%%%qQqQqQ%%%%qQqQ%qQ%q%Qq%Q%%q%Qq%Qq%Q%%%qQ%%%%%qQ%qQqQ%%%%qQ%%
10582C2qQ%%%qQ%q%%Q%%%%qQ%q%%QqQ%qQ%%%%%%%%%qQ%%%%%%%%%%%%%%%%%%qQ%%%%%%%%%%
10566C2%%%qQ%%%%%%qQ%%%%%%%qQ%%%%qQ%%q%%%Qq%QqQqQ%q%%%%QqQ%q%%%%%%%Qq%%%%%%Q
10550C2q%%QqQ%%qQq%%%%%Q%q%%%QqQ%%%%qQ%%q%Q%%%qQ%%%%%qQ%q%Qq%Q%q%Q%%qQ%%%qQ%
10534C2%q%Q%q%%Qq%Q%%qQ%%%%%%%%%%%%%%%%%%%%%%%%%%%%%%qQ%%%%%q%%QqQ%%%%%%%%qQ
10519C2%%%%%%%%qQ%%%%qQ%%%%%%%%%%%%%qQ%%%%q%Q%%%%%%%%%%%q%%Q%%qQqQ%%%%%%%%qQ
10503C2%%%qQ%qQqQ%%%%%%%%%%%%qQ%qQqQ%%%%%%%%qQ%%%%%%%%%%q%%%Q%qQ%%%%%%qQ%qQ%
10487C2%%%%%%%%qQ%%%%%%%%%%%%%%q%Q%%%%%qQ%%%%%%%%%%%%%qQ%%%qQ%%%q%Qq%%Q%%qQ%
10471C2%%%%%%%%%%%%%%%%%%qQ%%%qQ%q%Q%%%%%%%qQ%qQ%%%%%%qQ%qQ%%%%%%%%%%%%%%%%%
10455C2%%%%%%%%%%%%%%%%%%%%%%%qQ%%%%%%%qQ%%%%%q%%%%Qq%Q%%q%Q%%%%qQq%Qq%Q%%q%
10440B4%Q%%qQ%%%%%%%%%%q%Q%%%%%q%Qq%Q%qQ%%qQ%%%%q%Q%qQ%%%q%QqQ%%%%%%%q%Q%%%%
10424C2%%%%qQ%%%%%qQqQ%%%%%%%%%%%%%%%%qQ%%q%QqQqQq%Q%%qQ%qQ%%%qQ%%%%%qQ%%%%%
10408C2%%%%%%%%%%qQ%%%%%%%%%%%%%%%%%%%%qQqQ%%%%%%%%%%%%%%%%%%%%%%%%%%%%%%%%%
10392C2%%%%%%%%%%%%%%%%%%%%%qQ%%%%qQqQ%%%%%%%%%%%%%%%%%%%%%%%%%%%%%%%%%%%%%%
10377C2%%%%%%%%%%%%%%%%%%%%%qQ%%%%%%%%%%%%%%%%%%%%%%%%%%%%%%%%%%%%%%%%%%%%%%
10361C2%%%%%%%%%qQ%qQ%%qQqQ%%%%%%%%%%%%%%%%%%%%%%%%%%%%%%qQ%%%%%%%%%%%%%%%%%
10345C2%%%%%%%%%%%%%%%%%%%%%%%%%%%%%%%%%%%%%%%%%%%%%%%%%%%%%%%%%%%%%%%%%%%%%
10329C2%%%qQ%q%%Q%%%%%%%%%%%%%%%qQ%%%%%%%%%qQ%%%%%%%%%%%%%%%%%%%%%%%%%%%%%%%
10313C2%%%%%%%%%%%%%%%%%%%%%%%%%%%%%%%%%%%%%%%%%%%%%%%%%%%%%%%%%%%%%%%%%%%%q
10298B4Q%%%%%%%%%%%%%%%%%%%%%%%%%%%%%%%%%%%%%%%%%%%%%%%%%%%%%%%%%%%%%%%%%%%%
10282C2%%%%%%%%%%%%%%%%%%%%%%%%%%%%%%%%%%%%%%%%%%%%%%%%%%%%%%%%%%%%%%%%%%%%%
10266C2%%%%%%%%%%%%%%%%%%%%%%%%%%%%%%%%%%%%%%%%%%%%%%%%%%%%%%%%%%%%%%%%%%%%%
10250C2%%%%%%%%%%%%%%%%%%%%%%%%%%%%%%%%%%%%%%%%%%%%%%%Qj6Q%%%%%%%%%%%%%%%%%%
10235C2%%%%%%%%%%%%%%%%%%%%%%%%%%%%%%%%%%%%%%%%%%%%%%%%%%%%%%%%%%%%%%%%%%%%%
10219C2%%%%%%%%%%%%%%%%%%%%%%%%%%%%%%%%%%%%%%%%%%%%%%%%%%%%%%%%%%%%%%%%%%%%%
10203C2%%%%%%%%%%%%%%%%%%%%%%%%%%%%%%%%%%%%%%%%%%%%%%%%%%%%%%%%%%%%%%%%%%%%%
10187C2%%%%%%%%%%%%%%%%%%%%q%Q%%qQ%j6J6%%%%qQ%%%%%%%%%%%%%%%%%%%%%%%%%%%%%%%
10172C2%%%%%%%%%%%%%%%%%%%%%%%%%%%%%%%%%%%%%%%%%%%%%%%%%%%%%%%%%%%%%%%%%%%%%
10156C2%%%%%%%%%%%%%%%%%%%qQ%%%%%%%%%%%%%%%%%%%%%%%%%%%%%%%%%%%%%%%%%%%%%%%%
10140C2%%%%%%%%%%%%%%%%%%%%%%%%%%%%%%%%%%%%%%%%%%%%%%%%%%%%%%%%%%%%%%%%%%%%%
10125C2%%%%%%%%%%%%%%%%%%%%%%%%%%%%%%%%%%%%%%%%%%%%%%%%%%%%%%%%%%%%%%%%%%%%%
10109C2%%%%%%%%%%%%%%%%%%%%%%%%%%%%%%%%%%%%%%%%%%%%%%%%%%%%%%%%%%%%%%%%%%%%%
10093C2%%%%%%%%%%%%%%%%%%%%%%%%%%%%%%%%%%%%%%%%%%%%%%%%%%%%%%%%%%%%%%%%%%%%%
10077C2%%%%%%%%%%%%%%%%%%%%%%%%%%%%%%%%%%%%%%%%%%%%%%%%%%%%%%%%Qq%%%%%%%%%%%
10061C2%%%%%%%%%%%%%%%%%%%%%%%%%%%%%%%%%%%%%%%%%%%%%%%%%%%%%%%%%%%%%%%%%%%%%
10046C2%%%%%%%%%%%%%%%%%%%%%%%%%%%%%%%%%%%%%%%%%%%%%%%%%%%%%%%%%%%%%%%%%%%%%
10030C2%%%%%%%%%%%%%%%%%%%%%%%%%%%%%%%%%%%%%%%%%%%%%%%%%%%%%%%%%%%%%%%%%%%%%
10014C2%%%%%%%%%%%%%%%%%%%%%%%%%%%%%%%%%%%%%%%%Qq%%%%%%%%%%%%%%%%%%%%%%%%%%%
9998C2%%%%%%%%%%%%%%%%%%%%%%%%%%%%%%%%%%%%%%%%%%%%%%%%%%%%%%%%%%%%%%%%%%%%%%
9982C2%%%%%%%%%%%%%%%%%%%%%%%%%%%%%%%%%%%%%%%%%%%%%%%%%%%%%%%%%%%%%%%%%%%%%%
9966C2%%%%%%%%%%%%%%%%%%%%%Qq%%%%%%%%%%%%%%%%%%%%%%%%%%%%%%%%%%%%%%%%%%%%%%%
9950C2%%%%%%%%%%qQQq%%j6J6%J6j6%%qQQqQq%%%%%%%%%%%%%%%%%%%%%%%%%%%%%%%%%%%%%
9935C2%%%%%%%%%%%%%%%Qq%%%%%%%%%%%%%%%%%%%%%%%%%%%%%%%%%%%%%%%%%%%%%%%%%%%%%
9919C2%%%%%%%Qq%%%%%%%%%%%%%%%%%%%%%%%%%%%%%%%%%%%%%%%%%%%%%%%%%%%%%%%%%%%%%
9903C2%%%%%%%%%%%%%%%%%%%%%%%%%%%%%%%%%%%%%%%%%%%%%%%%%%%%%%%%%%%%%%%%%Qq%%%
9887C2%%%%%%%%%%%%%%%%%%%%%%%%%%%%%%%%%%%%%%%%%%%%%%%%%%%%%%%%%%%%%%%%%%%%%%
9871C2%%%%%%%%%%%%%%%%%%%%%%%%%%%%%%%%%%%%%%%%%%%%%%%%%%%%%%%%%%%%%%%%%%%%%%
9855C2%%%%%%%%%%%%%%Qq%%%%%%%%%%%%%%%%%%%%%%%%%%%%%%%Qq%%%%%%%%%%%%%%%%%%%%%
9839C2%%%%%%%%%%%%%%%%%%%%%%%%%%%%%%%%%%%%%%%Qq%Q%q%Qq%%%%%%%%%%%%%%%%%%%%%%
9823C2%%%%%%%%%%%%%%%%%%%%%%%%%%%%%%%%%%%%%%%%%%%%%%%%%%%%%%%%%%%%%%%%%%%%%%
9807C2%%%%%%%%%%%%%%%%%%%%%%%%%%%Qq%%%%%%%%%%%%%%%%%%%%%%%%%%%%%%%%%%Q%q%%%%
9791C2%%Qq%%%%%%%%%%%%%%%%%%%Qq%%%%%%%%%%%%%%%%%%%%%%%%%%%%%%%%%%%%%%%%%%%%%
9775C2%%%%%%%%%%%%%%%%qQ%%%%%%%%%%%%%%%%%%%%%%%%%%%Q%q%Qq%%%%%%%%%%%%%%%%%%%
9759C2%%%%%%%%%%%%%%%Qq%%%%%%%%%QqQq%%%%%%%%%%%%Qq%%%%%%%%%%%%%%%%%%%%%%%Qq%
9743C2%%%%Q%q%%Qq%Q%q%%%%%%%%%%%%%%%%Q%q%%%%%%%%%%Qq%Q%q%Qq%%%%%%%%%%%%%%%%%
9727C2%%Qq%%%%%%%%%%%%%%Qq%%%%%%%%%%%%%Qq%%%%%%%%%%%%%%%%%%%%%%%%%%%%QqQ%q%Q
9711D0q%Qq%%%%%%%%%%%%%%%%%%%%Qq%Q%q%%%%%%%%%%%%%Qq%%%%%Q%q%%%Q%qQq%Qq%%%%%%
9695C2%%%Qq%%%%%%%%%%%%%%QqQq%%%%%%%%%%%%Qq%QqQ%%%%q%%Q%qQ%qQq%QqQ%q%%%%%%Qq
9679C2%%%Qq%%%%%%Qq%Qq%%%Qq%%%%%%%%Q%%%q%%%%%%%%%%Q%qQ%%%q%%%%%%%%%%%%%%%%%Q
9663D0q%%Qq%%Q%q%%%%%%Qq%Q%qQqQq%%%%%%QqQ%%qQ%q%%Q%qQqQq%%Qq%%%%Qq%%%%%Qq%Qq
9647C2%%%%%%%%%%%%%%%%%%%%Qq%%%%%%Qq%%QqQq%Q%qQ%q%Qq%%Qq%%QqQ%%q%%%%%%%%%Qq%
9631C2%%%%%%%%%%%%%%%Qq%%%%%Q%%q%Qq%%QqQq%%%Qq%QqQ%q%%Qq%%%%%%%QqQ%q%%%%Qq%%
9615C2Qq%Q%qQqQq%%Q%qQq%%Q%q%%%%%%Qq%%%%QqQq%Qq%%%%%%%%%%Qq%%%%QqQqQq%Qq%%Q%
9599D0q%%Q%%qQ%q%%Qq%%%%%Q%%%q%QqQ%%q%%%Q%qQ%qQ%qQqQ%%%%%%%qQ%q%%Q%qQ%%q%Qq%
9583C2%Q%%%%%%%%q%%%%QqQq%Q%%%%%%q%%%%Q%%%q%Q%qQqQq%Q%qQq%Q%%q%%%Q%q%%%Q%%%q
9566C2%Qq%Q%%%%%%%%%%%%%%%%%%%%%qQ%%%%%%%%q%%QqQ%%%qQ%%qQ%qQ%%qQ%%q%Q%%q%%Q%
9550D0%qQ%qQ%%%%%qQ%q%Qq%Q%%%%%qQqQ%%%%qQqQ%%%%%%%%%qQ%%%%%%%%%qQq%QqQqQqQ%q
9534C2Q%%%%%%qQqQ%%%%%%%%%qQ%%%qQ%qQ%%%qQ%%%%%%%%%%qQq%%%Q%%%qQ%%%%%%%%%%%%%
9518D0%%%%%%%%%%%%%%%%%%%%qQ%%%%%%%%%%%%%%%%%%%%%%%%%%qQq%Q%%%%%%%%%%%%%%%%%
9502D0%%%%%%%qQqQ%%%%%%%%%%%%%%%%%%qQ%%%%%%%%%%%%%%qQ%%%%%%%%%%%%%%%%%qQ%%%%
9486D0%%%q%Q%%%%%qQ%%%%%%%%%%%%%%%%%%%%%%%%qQqQ%%qQqQ%%%qQ%%%%%%%%qQqQ%%%%%%
9470D0%%%%%%%%%%%%%%%%%%%%%%%%%%%%%%%%%%%%%%%%%%%%%qQ%qQqQ%%%%%%%%%qQ%%%%%%%
9454D0%%%%%%%%%%%%%%%qQ%%%%%%%%qQ%%%qQ%%%%%%%%%%%%%%%%%%%%%%%%%%%%%%%%%%%%%%
9438D0%%%%%%%%%%%%q%Q%%%q%QqQ%%%%%%%%%%%%%%%%%%%%%%%%%%%%%%%%qQ%%%%%%%%%qQ%%
9422D0%%%%%%%%%%%%%qQ%qQ%%%%%%%%%%%%%%%%%%%%%%%%%%%%%%%%%%%%%%%%%%%%%%%%%%%%
9406D0%%%%%%%%%%%%%%%%%%%%%%%%%%%%%%%%%%%%%%%%%%%%%%%%%%%%%%%%%%%%%%%%%%%%%%
9390D0%qQ%%%%%%%%%%%%%%%%%%%%%%%%%%%%%%%%%%%%%%%%%%%%%%%%%%%%%%%%%%%%%%%%%%%
9374D0%%%%%%%%%%%%%%%%%%%%%%%%%%%%%%%%%%%%%%%%%%%%%%%%%%%%%%%%QqqQqQQq%%%%%%
9358D0%%%%%%%%%%%%%%%%%%%%%%%%%%%%%%%%%%%%%%%%%%%%%%%%%%%%%%%%%%%%%%%%%%%%%%
9342D0%%%%%%%%%%%%%%%%%%%%%%%%%%%%%%%%%%%%%%%%%%%%%%qQ%%%%%%%%%%%%%%%%%%%%%%
9326D0%%%%%%%%%%%%%%%%%%%%%%%%%%%%%%%%%%%%%%%%%%%%%%%%%%%%%%%%%%%%%%%%%%%%%%
9310D0%%%%%%%%%%%%%%%%%%%%%%%%%%%%%%%%%%%%%%%%%%%%%%%%%%%%%%%%%%%%%%%%%%%%%%
9294D0%%%%%%%%%%%%%%%%%%%%%%%%%%%%%%%%%%%%%%%%%%%%%%%%%%%%%%%%%%%%%%%%%%%%%%
9278D0%%%%%%%%%%%%%%%%%%%%%%%%%%%%%%%%%%%%%%%%%%%%%%%%%%%%%%%%%%%%%%%%%%%%%%
9262D0%%%%%%%%%%%%%%%%%%%%%%%%%%%%%%%%%%%%%%%%%%%%%%%%%%%%%%%%%%%%%%%%%%%%%%
9246D0%%%%%Qq%%%%%%%qQ%qQ%%%%%%%%%%%%%%%%%%%%%%%%%%%%%%%%%%%%%%%%%%%%%%%%%%%
9230D0%%%%%%%%%%%%%%%%%%%%%%%%%%%%%%%%%%%%%%%%%%%%%%%%%%%%%%%%%%%%%%%%%%%%%%
9214D0%%%%%%%%%%%%%%%%%%%%%%%%%%%%%%%%%%%%%%%%%%%%%%%%%%%%%%%%%%%%%%%%%%%%%%
9198D0%%%%%%%%%%%%%%%%%%%%%%%%%%%%%%%%%%%%%%%%%%%%%%%%%%%%%%%%%%%Qq%%%%%%%%%
9182D0%%%%%%%%%%%%%%%%%%%%%%%%%%%%%%%%%%%%%%%%%%%%%%%%%%%%%%%%%%%%%%%%%%%%%%
9166D0%%%%%%%%%%%%%%%%%%%%%%%%%%%%%%%%%%%%%%%%%%%%%Qq%%%%%%%%%%%%%%%%%%%%%%%
9150D0%%%%%%%%%%%%%%%%%%%%%%%%%%%%%%%%%%%%%%%%%%%%%%%%%%%%%%%%%%%%%%%%%%%%%%
9134D0%%%%%%%%%%%%%%%%%%%%%%%%%%%%%Q%%%%q%%%%%%%%%%%%%%%%%%%%%%%%%%%%%%%%%%%
9118D0%%%%%%%%%%%%%%%%%%%%%%%%%%%%%%%%%%%%%%%%%%%%%%%%%%%%%%%%%%%%%%%%%%%%%%
9102D0%%%%%%%%%%%%%%%%%%%%%%%%%%%%Qq%%%%%%%%%%%%%%%%%%%%%%%%%%%%%%%%%%%%%%%%
9086D0%%%%%%%%%%%%Qq%%%Q%q%%%%%%%%%%%%%%%%%%%%%%%%%Qq%%%%%%%%%%%%%%%%%%%%%%%
9070D0%%%%%%Qq%%%%%%%%%%%%%%%%%%%%%%%%%%%%%%%%%%%%%%%%%%%%%%%%%%%%%%%%%%%%%%
9054D0%%Qq%%%%%%%%%%%%%%%Qq%%%%%%%%%%%%%%%%%%%%%%%%%%%%%%%%Qq%%%Qq%QqQqQ%%%q
9038D0%%%%%%Qq%%%%%%%%Qq%%%%%Qq%%%%Qq%%%%%%%%%%%%%%%%%%%%%%%%%%Qq%Qq%Q%qQq%%
9022D0%%%%%%%%%%%%%%%%%%Qq%%%%%%%%%%Qq%%%%%%Qq%QqQq%%%%%%%Qj6%%K4l2QK4j6Q%qQ
9007D8%qqJ6q%%%%%Qq%%Q%q%%%%%%%%%%%Qq%%%%%%%%%%%%%%%%%Qq%%%%%Qq%%%%%%%%%%%%%
8991D0%%Qq%%Qq%%%QqQ%q%%%%%%QqQq%%%%%%%%%%%%%Qq%Q%q%%%%%%%Qq%Qq%%%%%%%%%%%%%
8975D0%%%%%%%%%%%%%%Qq%%%%%%%%%%%%%%%%%%%%%%%Qq%%%%%%%%%%%%%%%%QqQq%%Qq%%%%%
8959D0%%%Qq%%%%Q%qQ%qQqQ%%%%%qQ%%%q%QqQq%%QqQqQq%QqQqQq%%Q%q%Q%%q%%%%QqQ%%qQ
8943D8%q%Qq%%%%%%%%%QqQ%qQ%%q%%Qq%%Qq%Qq%%Q%qQ%%qQqQqQq%Q%qQq%%Q%%%%%q%Q%%q%
8927D0Qq%%%%%%%%%%QqQq%Q%%%%qQ%qQ%%%%q%%Q%%%q%Q%%q%%%Q%%q%%%%%%%%Qq%%Q%%q%Q%
8911D8q%Qq%QqQ%q%Q%%%qQ%%%qQ%%q%Q%%qQ%%%qQ%qQ%%%%%%%q%QqQ%%q%%Q%qQ%%%%%qQ%%%
8895D8%%%q%Qq%QqQ%q%%Qq%QqQ%qQ%%%qQqQqQ%%%%qQq%%Q%%q%%%%Qq%%%%%Q%%%%%%%%%%%%
8879D8%%%%%%%%%%%%%%%%%%%%%%qQ%qQ%%%%%%%%%%%%q%Q%%%%%%%%qQ%%%%%%qQ%qQ%%%%%%%
8863D8%%%qQ%%qQ%qQ%%%%%%%%%%%%%%%%%%%%%%%%%%%%%%%%%qQqQ%%%%%%%%%%%%%%%%%%%%%
8847D8%%%%%%%%%%%%%%%%%%%%%%%%%%%%%%%%%%%%%%%%%%%%%%%%qQ%qQ%%%%%%qQ%%%%%%%%%
8831D8%%%%%%%%%%%%%%%%%%%%%%%%%%%%%%%%%%%%%%%%%%%%%%%%%%%%%%qQ%%%%%qQ%%%%%%%
8815D8%%%%%%%%%%%%%qQ%%%%%%%%%%%%%%%%%%%%%%%%%%%%%%%qQ%%%%%%%%%%%%%%%%%%%%%%
8799D8%%%%%%%%%%%%%%%%%%%%%%%%%%%%%%%%%%%%%%%%%qQ%%%%%%%%%%%%%%%%%%%%%%%%%%%
8783D8%%%qQ%%qQ%%%%%%%%%%%%%%%%%%%%%%qQq%Qq%%Q%%%%qQ%%%%%%%%%%%%%%%%%%%%%%%%
8767D8%%%%%%%%%%%%%%%%%%%%%%%%%%%%%%%%%%%%%%%%%%%%%%%%%%%%%%%%%%%%%%%%%%%%%%
8751D8%%%%%%%%%%%%%%%%%%%%%%%%%%%%%%%%%%%%%%%%%%%%%%%%%%%%%%%%%%%%%%%%%%%%%%
8735D8%%%%%%%%%%%%%%%%%%%%%%%%%%%%%%%%%%%%%%%%%%%%%%%%%%%%%%%%%%%%%%%%%%%%%%
8719D8%%%%%%%%%%%qQ%%%%%%%%%%%%%%%%%%%%%%%%%%%%%%%%%%%%%%%%%%%%%%%%%%%%%%%%%
8703D8%%%%%%%%%%%%%%%%%%%%%%%%%%%%%%%%%%%%%%%%%%%%%%%%%%%%%%%%%%%%%%%%%%%%%%
8687D8%qQ%%%%%%%%%%%%%%%%%%%%%%%%%%%%%%%%%%%%%%%%%%%%%%%%%%%%%%%%%%%%%%%%%%%
8671D8%%%%%%%%%%%%%%%%%%%%%%%%%%%%%%%%%%%%%%%%%%%%%%%%%%%%%%%%%q%Q%%%%%%%%%%
8655D8%%%%%%%%%%%%%%%%%%%%%%%%%%%%%%%%%%%%%%%%%%%%%%%%%%%%%%%%%%%%%%%%%%%%%%
8639D8%%%%%%%%%%%%%%%%%%%%%%%%%%%%%%%%%%%%%%%%%%%%%%%%%%%%%%%%%%%%%%%%%%%%%%
8623D8%%%%%%%%%%%%%%%%%%%%%%%%%%%%%%%%%%%%%%%%%%%%%%%%%%%%%%%%%%%%%%%%%%%%%%
8607D8%%%%%%%%%%%%%%%%%%%%%%%%%%%%%%%%%QqQq%%%%%%%%%%%%%%%%%%%%%%%%%%%%%%%%%
8591D8%%%%%%%%%%%%%%%%%%%%%%%%%%%%%%%%%%%%%%%%%%%%%%%%%%%%%%%%%%%%%%%%%%%%%%
8575D8%%%%%%%%%%%%%%%%%%%%%%%%%%%%%%%%%%%%%%%%%%%%%%%%%%%%%%%%%%%%%%%%%%%%%%
8559D8%%Qq%%%%%%%%%Qq%%%Qq%%%%%%%%%%%%Qq%%%%%%%%%%%%%%%%%%%%%Qq%%%%%%%%%%%Qq
8542D8%%%%%QqQqQqQqqQ%%%qQQq%%Qq%%Qq%%%%%%%%%%%%Q%q%%%%%%%%%%%%%%%%%%%%%%%%%
8526D8%%%%%%Qq%%%%%%%%%%%%%%%%%%%%%%%%%%%Qq%%%%%%%%%%%%%%%%%%%%%%%%%%Q%q%%%Q
8510E6q%%%%%%%%%%%Qq%%%%%%%%%%%%%%%Qq%%%%%%%%%%%%%%%%%%%%%%%%%%%%%%%%%%%QqQq
8494D8%%%%Q%%q%%Q%%qQq%%%%%%%%%%%%Qq%%%%%%%%Qq%%%%Qq%QqQq%%%%%Q%qQqQ%%q%Qq%Q
8478E6%%q%%%%Qq%%%%%%%%%%%%%%%%Qq%%%%%%Qq%%%%%%%%%Qq%%%QqQq%%%%%%Qq%%Qq%%Qq%
8462D8QqQq%%%%%QqQq%%%%%%%Qq%%Q%%qQqQ%%%%qQ%qQ%qQq%%%%%%%%Qq%%%%%Q%qQqQ%qQ%q
8446D8QqQq%Qq%Qq%QqQq%Q%%q%QqQq%%Q%q%%%%%Q%%%q%%%%Q%q%%%Q%%%%%q%QqQq%%%%%%Qq
8430D8%%%%%Qq%%Q%%%q%%%%Q%qQ%%%%qQqQ%qQ%q%%%%Q%%q%Qq%%Q%%qQ%q%QqQ%q%%%%Qq%Qq
8414D8%Q%%%%%%%%%%qQ%%%%%%%q%%Q%q%QqQ%%%%%%%qQ%%%qQ%qQqQ%%q%Q%%%%%qQ%%%%%%%%
8398E6%%q%Q%%%qQ%%qQ%%qQ%%%%%%%qQqQ%%%%%%%q%QqQ%%%%%%%qQ%%qQ%%%%%%%%%%%%%%%%
8382E6%%%%%%%q%Q%%%%qQq%Q%%%%q%Q%%%%%%%%%%%%%%%%%%%%%%%%%%%%%%%%%%%%%%%%%%qQ
8366E6%%qQ%qQq%%QqQ%%%qQ%%%%%%qQ%%%%%%%%%%%%%%%%%%%%%%%%%%%%%%%%%%%%%%%%%%%%
8350E6%%%%%%%%%%%%%%%%%%%%%%%%%%%%%%%%%%%%%%%%%%%%%%%%%%%%%%%%%%%%%%%%%%qQ%%
8334E6qQ%%%%%%%%%%%%%%%%%%%%%%%%%%%%%%%%%%%%%%%%%%%%%%%%%%%%%%%%%%%%%%%%%%%%
8318E6%%%%%%%%%%%%%%%%%%%%%%%%%%%%%%%%%%%%%%%%%%%%%%%%%%%qQ%qJ6q%%%%%%%%%%%%
8302E6%%%%%%%%%%%%%%%%qQ%%%%%%%%%%%%%%%%%%%%%%%%%%%%%%%%%%%%%%%%%%%%%%%%%%%%
8286E6%%%%%%%%%%%%%%%%%%%%%%%%%%%%%%%%%%%%%%%%%%%%%%%%%%%%%%%%%%%%%%%%%%%%%%
8270E6%%%%%%%%%%%%%%%%%%%%%%%%%%%%%%%%%%%%%%%%%%%%%%%%%%%%%%%%%%%%%%%%%%%%%%
8254E6%%%%%%%%%%%%%%%%%%%%%%%%%%%%%%%%%%%%%%%%%%%%%%%%%%%%%%%%%%%%%%%%%%%%%%
8238E6%%%%%%%%%%%%%%%%%%%%%%%%%%%%%%%%%%%%%%%%%%%%%%%%%%%%%%%%%%%%%%%%%%%%%%
8222E6%%%%%%%%%%%%%%%%%%%%%%%%%%%%%%%%%%%%%%%%%%%%%%%%%%%%%%%%%%%%%%%%%%%%%%
8206E6%%%%%%%%%%%%%%%%%%%%%%%%%%%%%%%%%%%%%%%%%%%%%%%%%%%%%%%%%%%%%%%%%%%%%%
8190E6%%%%QqQq%Q%qQq%%%%%%%%%%%%%%%%%%%%%%%%%%%%%%%%%%%%%%%%%%%%%%%%%%%%%%%%
8174E6%%%%%%%%%%%%%%%%%%%%%%%%%%%%%%%%%%%%%%%%%%%%%%%%%%%%%%%%%%%%%%%%%%%%%%
8158E6%%%%%%%%%%%%%%%%%%%%%%%%%%%%%%%%%%%%%%%%%%%%%%%%%%%%%%%%%%Qq%%%%%%%%%%
8142E6%%%%%%%%%%%%%%%%%%%%%%%%%%%%%%%%%%%%%%%%%%%%%%%%%%%%%%Qq%Qq%%%%%%%%%%%
8126E6%Qq%%%%%%%%%Qq%Q%qQq%%%Qq%%QqQq%%%%%%%%%%%%%%%%%%%%%%%%%%%%%%%%%%%%%%%
8110E6Qq%%%%%%Qq%%%%%%%%%%%%%%%%%%%%%%%%%Qq%%%%Qq%%%%%Qq%%%%%%Qq%Qq%%%%%Qq%%
8094E6%%%%%%%%%%%%%%Qq%Qq%Q%q%%%%%%%%%%%%%%%%%%%%Qq%Qq%QqQq%%Qq%%Q%qQqQ%q%%Q
8078F4%q%%%%Q%q%%%Q%q%%%%Qq%%%%%%J6%j6j6K4%%%q%Q%%qQqQq%Qq%%%Q%q%%%%Q%qQ%%q%
8063E6%%%%%%%%%%Qq%%%%Q%%q%%%QqQ%%qQ%%%%%qQ%%%%%%%%%qQ%qQ%%%%q%QqQqQ%q%%%Qq%
8047E6%%%Q%%qQ%%%%%%%%%q%Q%q%%%%Q%%%%%%%%qQ%qQq%Q%%%%qQqQ%%qQ%qQ%%%%qQ%%%%%%
8031F4%%%%%%%%%%%qQ%%%%qQ%%%%%%%%qQ%%%qQ%%%%%%%%%%%%%%%%qQ%%%%%%qQ%%q%Q%%%qQ
8015F4%%%%%%%%%%%%%qQqQ%%%%%%%%%%%%%%%%%%%%%%%%%%%%%%%%%%%%%%%%%%%%%%%%%%%%%
7999F4%%%%%%%%%%%q%Q%%%%%%qQ%%%%%%%%%qQ%%%%qQ%%%%%%%%%%%qQ%%%%%%%%%%%%%%%%%%
7983F4%%%%%%%%%%%%%%%%%%%%%%%%%%%%%%%%%%%%%%%%%%%%%%%%%%%%%%%%%%%%%%%%%%%%%%
7967F4%%%%%%%%%%%%%%%%%%%%%%%%%%%%%%%%%%%%%%%%%%%%%%%%%%%%QqqQ%qQ%%%%%%%%%%%
7951F4%%%%%%%%%%%%%%%%%%%%%%%%%%%%%%%%%%%%%%%%%%%%%%%%%%%%%%%%%%%%%%%%%%%%%%
7935F4%%%%%%%%qQ%%%%%%%%%%%%%%%%%%%%%%%%%%%%%%%%%%%qQ%%%%%%%%%%%%%%%%%%%%%%%
7919F4%%%%%%%%%%%%%%%%%%%%%%qQ%%%%%%%%%%%%%%%%%%%%%%%%%%%%%%%%%%%%%%%%%%%%%%
7903F4%%%%%%%%%%%%%%%%%%%%%%%%%%%%%%%%%%%%%%%%%%%%%%%%%%%%%%%%%%%%%%%%%%%%%%
7887F4%%%%%%%%%%%%%%%%%%%%%%%%%%%%%%%%%%%%%%%%%%%%%%%%%%%%%%%%%%%%%%%%%%%%%%
7871F4%%%%%%%%%%%%%%%%%%%%%%%%%%%%%%%%%%%%%%%%%%%%%%%%%%%%%%%%%%%%%%%%%%%%%%
7855F4%%%%%%%%%%%%%%%%%%%%%%%%%%%%%%%%%%%%%%%%%%%%%%%%%%%%%%%%%%%%%%%%%%%%%%
7839F4%%%%%%Qj6Q%%%Qq%%%%Qq%%%%%%%%%%%%%%%%%%%%%%%%%%%%%%%%%%%%%%%%%%%%%%%%%
7823F4%%%%%%%%%%%%%%%%%%%%%%%%%%%%%%%%%%%%%%%%%%%%%%%%%%%%%%%%%%%%%%%%%%%%%%
7807F4%Qq%%%%%%Qq%%%%%%%%%%%%%%%%%%%%%%%%%%%%%%%%%%%%%%%%%%%%%%%%%%%%%%%%%%%
7791F4%%%%%%Q%q%%%%%Qq%%%QqQqQq%%%%%%%%%%%%%%%Q%qQ%%qQ%%q%%%%Qq%%Qq%%%%Qq%%%
7775F4%%%%%%%%%%%QqQ%qQq%Qq%%%%%%%Qq%%%%%%%%%%QqQq%Qq%%%QqQqQ%q%%Q%%%%qQq%Qq
7759F4Q%%%q%%Q%q%QqQ%%qQ%%%%%q%%Q%q%%%%QqQ%q%%%Q%%%q%Qq%%%QqQ%%%q%QqQ%q%%%Q%
7743G2%q%Q%%%qQq%Q%%qQ%%q%Q%%%%%qQqQqQq%QqQq%Q%qQ%q%Qq%%%%%%%Q%%%%%%%%qQ%%qQ
7727G2%qQqQ%qQqQ%%qQ%%%%%%qQqQ%qQ%%%%%qQqQ%%%%%%qQ%%%%%%%%%%%%%%%%%%%qQ%%%%%
7711G2%%%qQ%%%%%%%%%%%%%%%%%%%%%%%%%%%%%%%%%qQ%%%%%%%%%%%%%%%%%%%%%%%%%%%%%%
7695G2%%%%%%%%%%%%%%%%%%%%%%%%%%%%%%%%%%%%%%%%%qQ%%%%%%%%%%%qQ%%%%%%%%%%%%%%
7679G2%%%%%%qQ%%%%%%%%%%%%%%%%%%%%%%%%%%%%%%%%%%%%%%%%%%%%%%%%%%%%%%%%%%%%%%
7663G2%%%%%qQqQ%%%%%%%%%%%%%%%%%%%%%%%%%%%%%%%%%%%%%%%%%%%%%%%%%%%%%%%%%%%%%
7647G2%%%%%%%%%%%%%%%%%%%%%%%%%%%%%%%%%%%%%%%%%%%%%%%%%%%%%%%%%%%%%%%%Qj6Q%%
7631G2%%%%%%%%%%%%%%%%%%%%%%%%%%%%%%%%%%%%%%%%%%%%%%%%%%%%%%%%%%%%%%%%%%%%%%
7615G2%%%%%%%%%%%%%%%%%%%%%%%%%%%%%%%%%%%%%%%%%%%%%%%%%%%QqQqQ%qqJ6q%%%%Qq%%
7599G2%%%%%%%%%%%%%%%%%%%%%%%%%%%%%%%%%%%%%%%%%%%%%%%%%%%%%%%%%%%%%%%%%%%%%%
7583G2%%%%%%%%%%%%%%%%%%%%%%%%%%%%%%%%%%%%%%%%%%%%%%%%%%%%%%%%%%%%%%%%%%%%%%
7567G2%%%%%%%%%%%%%%%%%%%%%%%%%%%%%%%%%%%%%%%%%%%%%%%%%%%%%%%%%%%%%%%%%%%%%Q
7551H0q%%%%%%%%%%%%%%%%%%%%%%%%%%%%Qq%%%%%%%%%%%%%%%%%%%%%%%%%%%%%%%%%%%%%%%
7535G2%%%%%%%%%%%%%%%%%%%%%%%%%%Qq%%%%%%%%%%%%%%%%%%%%%%%%%%Qq%%Qq%Qq%%%%%%%
7519G2%%%%%%%%%%%%%%%%Q%q%%%%Qq%%%%%Qq%%%%%%%%%%%%%%%%%%%Q%%q%%%%%Q%qQqQ%%%%
7503H0%%%%%%qQ%%%%%qQ%qQq%%%%%%%%Qq%Q%%%%%%%%%%%%%%%qQ%%qQ%%%%%%%%qQ%%qQ%qQ%
7487H0qQ%%%%%qQq%%%%%%QqQ%q%Q%q%Q%%%%%%%%%%%q%%Q%qQ%q%Q%%qQ%%%%q%%Q%qQ%%%%%%
7471H0%%%%%%%%%%%%%qQq%Q%%q%%Q%%%%qQqQ%%%%%%%%%%%%%%%%%%%%%%%qQ%%qQ%qQ%%%%%%
7455H0%%%%%%%%%%%%%%%%%%%%%%%%%%%%%%%%%%qQq%Q%%%%%%%%%%%%%%%%%qQ%%%%%%%%%%%%
7439H0%%%%%%%%%%%%%%%%%%%%%%%%%%%%%%%%%%%%%%%%%%%%%%%%%%%%%%qQ%%%%%%%%%%%%%%
7423H0%%%%%%%%%%%%%%%%%%%%%%%%%%%%%%%%%%%%%%%%%%%%%%%%%%%%%%%%%%%%%%%%%%%%%%
7407H0%%%%%%%%%%%%%%%%%%%%%%%%%%%%%%%%%%%%%%%%%%%%%%%%%%%%%%%%%%%%%%%%%%%%%%
7391H0%%%%%%%%%%%%%%%%%%%%%%%%%%%%%%%%%%%%%%%%%%%%%%%%%%%%%%%%%%%%%%%%%%%%%%
7375H0%%%%%%%%%%%%%%%%%%%%%%QqqQ%qJ6q%%qQ%%%%%%%%%%%%%%%%%%%%%%%%%%%%%%%%%%%
7359H0%%%%%%%%%%%%%%%%%%%%%%%%%%%%%%%%%%%%%%%%%%%%%%%%%%%%%%%%%%%%%%%%%%%%%%
7343H0%%%%%%%%%%%%%%%%%%%%%%%%%%%%%%%%%%%%%%%%%%%%%%%%%%%%%%%%%%%%%%%%%%%%%%
7327H0%%%%%%%%%%%%%%%%%%%%%%%%%%%%%%%%%%%%%%%%%%%%%%%%%%%%%%%%%%%%%%Qq%%%%%Q
7311H8q%Q%%q%%%Qq%%%%%%%Q%q%%%%%%%%%Q%q%%Qq%%%Qq%QqQq%Qq%%%%%%%%Qq%%%%%QqQ%q
7295H0Qq%%%Q%q%%Q%qQ%%%%qQqQq%Qq%%%Q%qQq%%%%%Q%%%q%Qq%%%%%%%Q%%%%%%%qQ%%%qQq
7279H0%Q%%%%%%%%q%QqQ%%q%Q%%%%%%qQ%%%%%%%%%qQ%%%qQq%%Qq%Q%%%%%%%%%%%%%%%%qQ%
7263H8%qQ%q%Q%%%%%%%%%%%%qQ%%%%%%%%%%%%%%%%%%%%%qQ%q%Q%q%Q%%%qQ%%%qQ%%%%%%%%
7247H8%%%%%%%%%%%%%%%%%%%%%%%%%%%%%%%%%%%%%%%%%%%%%%%%%%%%%%%%%%%%%%%%%%%%%%
7231H8%%%%%%%%%%%%%%%%%%%%%%%%%%%%%%%%%%%%%%%qQ%%%%%%%%%%%%%%%%%%%%%%%%%%%%%
7215H8%%%%%%%%%%%%%%%%%%%%%%%%%%%%%%%%%%%%%%%%%%%%%%%%%%%%%%%%%%%%%%%%%%%%%%
7199H8%%%%%%%%%%%%%%%%%%%%%%%%%%%%%%Qq%%%%%%%%%%%%%%%%%%%%%%%%%%%%%%%%%%%%%%
7183H8%%%%%%%%%%%%%%%%%%%%%%%%%%%%%%%%%%%%%%%%%%%%%%%%%%%%%%%%%%%%%%%%%%%%%%
7167H8%%%%%%%%%%%%%%%%%%%%%%%%%%%%%%%%%%%%%%%Qq%%%%%%%%%%%%%%%%%%%%%%%%%%%%%
7151H8%%%Qq%%%%%%%%%%%%%%%%Qq%%%%%Qq%%%%%%%%%%%%%%%%%%%Q%%%q%%%Qq%%%q%QQ%Qj6
7135H8q%M0k4l2L2%Qq%%%qQqQq%%%Q%qQq%Qq%Q%q%%QqQ%q%%%%%%%%%%%%Qq%%%%%%Qq%%%%%
7120H8%%QqQ%q%%Qq%%%%Qq%%%%%%%%%Qq%QqQq%%Qq%%Q%qQ%q%%%Qq%%%%%Qq%%%%%%Q%%%q%Q
7104I6q%%%QqQ%qQ%%%%%%%%%%%%%%%%qQ%%%%%q%QqQq%%%%Q%q%Q%q%%%Qq%Qq%QqQ%%qQq%%Q
7088I6q%Q%%qQ%qQ%%%%%%%%%qQ%%%%%%qQ%%%q%QqQ%%%%qQ%q%QqQ%%qQ%%%qQqQ%%%%%q%%Qq
7072H8Q%%%%%%%%%%%qQqQ%%%%%%%%%%%%%%%%%%%%%%%%%%%%%%%%%%qQ%%%%%%%%%qQ%%%%%%%
7056I6%%%%%%%%%%%%%%%%%%%%%%%%%%%%%%%%%%%%%%%%%%%%%%%%%%%%%%%%%%%%%%%%%%%%%%
7040I6%%%%%%%%%%%%%%%%%%%%%%%%%%%%%%%%%%%%%%%%%%%%%%%%%%%%%%%%%%%%%%%%%%%%%%
7024I6%%%%%%%%%%%%%%%%%%%%%%%%%%%%%%Qq%%%%%%%%%%%%%%%%%%%%%%%%%%%%%%%%%%%%%%
7008I6%%%%%%%%%%%%%%%%%%%%%%%%%%%%%%%%%%%%%%%%%%%%%%%%%%%%%%%%%%%%%%%%%%%%%%
6992I6%%%%%%%%%%%%%%%%%%%%%%%%%%%%%%%%%%%%%%%%%%%%%%%%%%%%%%%%%%%%%%%%%%%%%%
6976I6%%%%%%%%%%%%%%%%%%%%%%%%%Qq%%%%%%%%%%%%%%%%%Q%q%Qq%%%%%%%%%%%%%%%%Q%q%
6960I6%%%Qq%%%%QqQ%q%Q%%%qQ%%%%q%%Qq%%%%%%%Qq%%%%%%%%Qq%%%Q%qQqQ%qQ%q%%%QqQ%
6944A04%%qQ%%qQqQ%%%%qQqQ%%%%%%%%%qQq%%Q%%qQ%qQ%%%%%qQ%qQ%%%q%Qq%%Q%%%%%%qQq
6928I6%%Q%%%qQ%qQ%%%%q%Q%%%%%%%q%Q%%%%%%%%%%%%%%%%%%%%%%%%%%%%%%%%%%%%%%%%%%
6912A04%%%%%%%%%%%%%%%%%%%%%q%Q%%%%%qQ%%qQ%%qQ%%%%%%qQ%%%%qQ%%%qQ%q%Qq%Q%%qQ
6896A04%%%%%%%%%%%%%%%%%%%%%%%%%%%%%%%%%%%%%%%%%%%%%%%%%%%%%%%%%%%%%%%%%%%%%
6880A04%%%%%%%%%%%%%%%%%%%%%%%%%%%%%%%%%%%%%%%%%%%%%%%%%%%%%%%%%%%%%%%%%%%%%
6864A04%%%%%%%%%%%%%%%%%%%%%%%%%%%%%%%%%%%%%%%%%%%%%%%%%%%%%%%%%%%%%%%%%%%%%
6849A04%%%%%%%%%%%%%%%%%%%Qq%%%%%%%%%%Qq%%%%%%%%%%%%%%%%%%%%%%%%%%%%%%%%%%%%
6833A04%%%%%%%%%%%%%%%%%%%%%%%%%%%%%%%%%%%%%%%QqQq%%%%%Qq%%%%%%QqQq%%%%Qq%%Q
6817A12qQ%%%q%Qq%Qq%%%%%%%Qq%%%%Qq%%%%%%Q%qQ%%%%%qQq%%%%%%Qq%Q%qQq%%%%%%%%Q%
6801A12qQ%qQ%%%q%QqQqQq%%Q%%%qQ%qQq%Q%%qQ%%q%Q%%q%Q%qQ%%%%%%%%%%%%%%%qQ%%%%q
6785A04Q%q%Qq%%%Q%%q%%%Q%q%QqQ%%qQqQq%Q%%%qQ%%q%%QqQqQ%%%%%%%%%%%%%%%%%%%%%%
6770A12%%%%%%%%%%%%%%%%%%%%%%%%%%%%%%%%%%%%%%%%%%%%%%%%%%%%%%%%%%%%%%%%%%%%%
6754A12%%%%%%%%%%%%%%%%%%%%%%%%%%%%%%%%%%%%%%%%%%%%%%%%%%%%%%%%%%%%%%%%%%%%%
6738A12%%%%%%%%%%%%%%%%%%%%%%%%%%%%%%%%%%%%%%%%%%%%%%%%%%%%%%%%%QqqQ%Qq%%%%%
6722A12%%%%%%%%%%%%%%%%%%%%%%%%%%%%%%%%%%%%%%%%%%%%%%%%%%%%%%%%%%%%%%%%%%%%%
6706A12%%%%%%%%%%%%%%%%%%%%%%%%%%%%Qq%Qq%Qq%%%%%Qq%%%%Qq%Q%q%%%Qq%%%%%%%%%%%
6691A12%%%%%%Qq%%%%%%%%%Qq%Qq%%Qq%%%%%%%Q%%q%%Qq%%Qq%%%%%%%%%%%QqQ%q%%%Q%%%%
6675A20%%q%QqQ%%qQq%Q%%%%q%Q%%%%%q%%%Q%%qQq%%%%%QQqj6J6qQ%q%Q%%qQ%%qQ%%%%%%%
6659A20%%%%%%%%%%%%%%%%%%%%qQ%%%%%%%%qQ%%%%%%%%%%%%%%%%%%%%%%%%%%%%%%%%%%qQ%
6644A20%%%%%%%%%%%%%%%%%%%%%%%%%%%%%%%%%%%%%%%%%%%%%%%%%%%%%%%%%%%%%%%%%%%%%
6628A20%%%%%%%%%%%%%%%%%%%%%%%%%%%%%%qQ%%%%%%%%%%%%%%%%%%%%%%%%%%%%%%%%%%%%%
6612A20%%%%%%%%%%%%%%%%%%%%%%%%%%%%%%%%%%%%%%%%%%%%%%%%%%%%%%%%%%%%%%%%%%%%%
6596A20%%%%%%%%%%%%%%%%%%%%%%%%%%%%%%%%%%%%%%%%%%%%%%%%%%%%%Qq%%Q%qQq%%%%%%%
6581A20%Qq%%%Q%q%%Q%%%%qQ%qQ%%%q%%%%%%%%%%%%%%%%%%%%%%%Q%q%QqQ%%%%%%%%%%qQqQ
6565A28qQ%%q%Q%%q%Q%qQ%%%%q%Q%%%%%%%%%%%%%%%%%%%%%%%%qQ%%%%%qQ%%%%qQ%%%%%qQ%
6549A28q%Qq%Q%q%Q%q%Q%%%%qQ%%%%%%%%%%%%%%%%%%%%%%%%%%%%%%%%%%%%%%%%%%%%%%%%%
6533A28%%%%%%%%%%%%%%%%%%%%%%%%%%%%%%%%%%%%%%%%%%%%%%%%%%%%%%%%%%%%%%%%%%%%%
6517A28%%%%%%%%%%%%%%%%%%%%%%%%%%%%%%%%%%%%%%%%%%%%%%%%%%%%%%%%%%%%%%%%%%%%%
6502A28%%%%%%%%%%%%%%%%%%%%%%%%%%%%%%%%%%%%%%%%%%%%%%%%%%%%%%%%%%Q%q%%%%%%%%
6486A28%%%%%%%%%%%%%%%%%Qq%%%%%%%%%%%%%%%%%%%%%%%Qq%%%%%Q%q%%%%Q%%%%%qQq%%%%
6470A28%%Qq%%Q%qQ%q%QqQq%%%%%%%%%%%Qq%%%%QqQqQ%%%%%%q%%%Q%q%%%%%Q%%%qQ%%%%%%
6454A36%%qQ%%%qQ%%qQqQ%%qQ%%%qQq%Q%%%%%%%%%q%Q%%qQ%%%%%%%qQ%%%qQ%qQ%%%%%%%%%
6438A36qQ%%%%%%%%%%%%%%%%%%%%%qQ%%%%%%%%Qk4J6Qq%q%Q%%%%%%%%%%%%%%%%%%%%%%%%%
6423A36%%%%%%%%%%%%%%%%%%%%%%%%%%%%%%%%%%%%%%%%%%%%%%%%%%%%%%%%%%%%%%%%%%%%%
6407A36%%%%%%%%%%%%%%%%%%%%%%%%%%Qq%%Qq%%%%%%%%%%%%%%%%%%%%%%%%%%%%%%%%%%%%%
6391A36%%%%%%%%%%%%%%%%%%%%%Qq%%%%%%%%%%%%%%%%%%%%%%%%%%%%%%%%%%%%%%%%%%%%%%
6376A36%%%%%%%%%Q%q%QqQqQq%%QqQqQ%q%QqQq%Q%%%%%%%%%%%%%%%q%%%Q%q%Q%qQ%%%qQ%q
6360A36%%%QqQq%%%Q%%%qQ%%%%%%%%%%%%%%qQ%%%%%%%%%%%%%%%%%%%%%%%%%%%%%%%%%%%%%
6344A44%%%%%%%qQ%%%%%%%%%%%%%%%%%%%%%%%%%%%%%%%%%%%%%%%%%%%%%%%%%%%%%%%%%%%%
6328A44%%%%%%%%%%%%%%%%%%%%%%%%%%%%%%%%%%%%%%%%%%%%%%%%%%%%%%%%%%%%%%%%Qj6J6
6313A52q%Qq%%%%%%%%%%%%%%%%%%%%%%%%%%%%%%%%%%%%%%%%%%%%%%%%%%%%%Qq%%%%%%QqQq
6297A44%%%%Qq%%%%%%%%Qq%%%%%%%%%%%%%%Qq%%%Qq%%%%%%%%%%QqQqQ%%%%qQ%%%qQ%qQqQq
6281A44Q%%%%%%%%qQ%%%%%%%%%%%%qQ%%%%%%%%%%%%%%%%%%%%%%%%%%%%%%%%%%%%%%%%%%%%
6266A52%%%%%%%%%%%%%%%%%%%%%%%%%%%%%%%%%%%%%%%%%%qQ%%%%%%%%%%%%%%%%%%%%%%%%%
6250A52%%%%%%%%%%%%%%%%%%%%%%%%%%%%%%%%%%%%%%%%%%%%%%%%%%%%%%%%%%%%%%%%%%%%%
6234A52%%%%%%%%%%%%%%%%%%%%%%%%%%%%%Qq%%%Qq%%%%%%%%%%%%Qq%%%%%%%%Qq%%%%%%%%%
6218A52%%%%%%%%%%%%%Q%q%%%%%%QqQ%q%%%%%%%%%%%%%%%%Qq%Q%%%%qQq%%%%%%%%Qq%QqQ%
6202A60%qQq%Q%%%%%%%%%%%%qQqQq%Qj6J6%q%QQj6%%Q%%%%%%%%%%%%%%%%%%qQ%%%%%%%%%%
6187A60%%%%%%%%%%%%%%%%%%%%%%%%%%%%%%%%%%%%%%%%%%%%%%%%%%%%%%%%%%%%%%%%%%%%%
6171A60%%%%%%%%%%%%%%%%%%%qQ%%%%%%%%%%%%%%%%%%%%%%%%%%%%%%%%%%%%%%%%%%%%%%%%
6156A60%%%%%%%%%%%%%%%%%%%%%%%%%%%%%%%%%%%%%%%%%%%Qq%%%Qq%%%%%%%%%%%Qq%%%%Qq
6140A60QqQ%%%q%%%%%Q%q%Q%%%%%%%%%%%%%%%%qQq%%%Q%%%%qQ%%%%%%%%%%%%%%%%%%%%%%%
6124A68%%%%%%%%%%%%%%%%%%%%%%%%%%%%%%%%%%%%%%%%%%%%%%%%%%%%%%%%%%%%%%%%%%%%%
6108A68%qQ%%%%%%%%%%%%%%%%%%%%%%%%%%%%%%%%%%%%%%%%%%%%%%%%%%%%%%%%%%%%%%%%%%
6093A68%%%%%%%%%%%%%%%%%%%%%%%%%%%%%%%%%%%%%%%%%%%%%%%Qq%%%%Q%%%qQ%qQq%%%%Qq
6077A68%%%%%%%%%%%%%%QqQ%q%Q%%%%%qQqQqQq%%Qq%Q%%%%%qQ%%%%%qQ%%%%%%qQqQ%%%%qQ
6061A76%%%%%%%%%%%%%%%%qQ%%%%%%%%%%%%%%%%%%%%%%%%%%%%%%%%qQ%%%%%%%%%%%%%%%%%
6045A76%%%%%%%%%%%%%%%%%%%%%%%%%%%%%%%%%%%%%%%%%%%%%%%%%%%%%%%%%%%%%%%%%%%%%
6029A76%%%%%%%%%%%%%%%%%%%%%%%%%%%%%%%%Qq%Qq%Q%qQq%%Qq%%%Q%q%%%%%%%%%%%%%%%%
6014A76%%%Qq%%%Qq%%%QqQq%%Qq%%%%%%%QqQ%q%%QqQ%%qQq%%QqQ%qQqQqQ%%%%%qQ%q%%QqQ
5998A84%%%%%%%%%%%%%%%%%%%%%%%%%%qQ%%%%%%%%%%%%%%%%%%%%%%%%%%%%%%%%%%%%%%%%%
5982A84%%%%%%%%%%%%%%%%%%%%%%%%%%%%%%%%%%%%%%%%%%%%%%%%%%%%%%%%%%%%%%%%%%%%%
5966A84%%%%%%%%%%%%%%%%%Qq%%%%%%%Qq%%Q%q%%%%%%%%%%%%%%%Qq%%%Q%q%Qq%%%Qq%%%%%
5950A84%Q%qQ%%%q%Q%qQ%qQ%%%%%%%%%%%%%%%qQ%%%%%%%%%%%%%%%%%%%%%%%%%%%%%%%%%%%
5935A92%%%%%%qQ%%%%%%%%%%%%%%%%%%%%%%%%%%%%%%%%%%%%%%%%%%%%%%%%%%%%%%%%%%%%%
5919A92%%%%%%%%%%%%%%%%%%%%%%%%%%%%%%%%%%%%%%%%%%%Qq%%%%%%%%%%Q%qQq%%%%%QqQq
5903A92%Q%q%QqQqQq%%%%%Qq%%%%%%%Qq%Qq%%%%%%%%%%Q%%qQq%%Q%qQ%%%%%qQ%%%%qQ%%%q
5887A92%Q%%%%%%%%%%%%%%%%%%%%%%%%%%%%%%%%%%%%%%%%%%%%%%%%%%%%%%%%%%%%%%%%%%%
5871B00%%%%%%%%%%%%%%%%%%%%%%%%%%%%%%%%%%%%%%%%%%%%%%%%%%%%%%%%%%%%%%%%%%%%%
5856B00%%%%%%%%%%%%%%%%%%%%%%%%%%%%Qq%QqQq%%Q%qQ%%q%%%Q%qQq%QqQq%Q%qQqQ%%%%q
5840B00Q%%qQ%q%Q%%%%%qQ%%%%%%%%%%%qQ%%%%%%%%%%%%%%%%%%%%%%%%%%%%%%%%%%%%%%%%
5824B08%%%%%%%%%%%%%%%%%%%%%%%%%%%%%%%%%%Qq%Q%q%%%%%%%%%%%%%%%%%%%%%%%%Qq%%%
5808B08%Qq%%%%%Qq%%%%%%%%%%%%%%Q%qQ%qQ%q%Q%q%%%%%%Qq%QqQ%%q%%Q%%q%Q%qQ%%%%%%
5792B16%%%qQ%%%%%%%%%%%%%%%%%%%qQ%%%%%%%%%%%%%%%%%%%%%%%%%%%%%%%%%%%%%%%%%%%
5777B16%%%%%%%%%%%%%%%%%%%%%%%%%%%%%%%%%%%%%%%%%%%%%%%%%%%%%%%%%%%%%%%%%%%%%
5761B16%%%%%%%%%%%%%%%%%Q%q%Q%q%%%%%Qq%Qq%%Qq%Q%%%%%q%Q%%%%%%%q%Q%%%%%q%Q%%%
5745B24%%%%%%%%%%%%%%%%%%%%%%%%%%%%%%%%%%%%%%%%%%%%%%%%%%%%%%%%%%%%%%qQ%%%%%
5729B24%qQ%%%%qQQq%%%Q%%q%%%%%%%%%%%%%%%%%%%%%%%%%%%%%%%%%%%%%%%%%%%%%%%%%%%
5714B24%%QqQq%%%%%Qq%Qq%%%QqQqQq%%%Q%%%q%%Q%%%%%qQ%%%%%%%%%%%%%%%%%%%%%%%%%%
5698B32%%%%%%%%%%%%%%%%%%%%%%%%%%%%%%%%%%%%%%%%%%%%%%%%%%%%%%%%%%%%%%%%%%%%%
5682B32%%%%%%%%%%%%%%%%%%%%%%%%%%%%%%%%%%%%%%%%%%%%%Q%q%%Q%%qQq%QqQ%%%%%%%qQ
5666B40%%qQ%qQqQ%qQ%%%%%%%%%qQ%%%%%%%%%%%%%%%%%%%%%%%%%%%%%%%%%%%%%%%%%%%%%%
5650B40%%%%%%%%%%%%%%%%%%%%%%%%%%%%%%%%%%%%%%%%%%%%%%%QqQqQq%%%%%%%%%%%Q%q%%
5635B40%%%%%Q%%qQq%%%Qq%Q%q%%Qq%Q%q%Q%%%%%q%QqQ%%%%qQ%%qQ%qQ%%%%%%%%%%%%%%%%
5619B48%%%%%%%%%%%%%%%%%%%%%%%%%%%%%%%%%%%qQQq%qQ%%%%%%%%%%%%%%%%%%%%%%%%%%%
5603B48%%%%%%%%%%%%%%%%%%%%%%%%%%%%%%%%%%%%%%%%%%%Qq%%%%%%Q%qQq%%%%Q%%%%%%%%
5587B56%%qQ%%%%%%%%%%%%%%%%%%%%%%%%%%%%%%%%%%%%%%%%%%%%%%%%%%%%%%%%%%%%%%%%%
5571B56%%%%%%%%%%%%%%%%%%%%%%%%%%%%%%%%%%%%%%%%%%%%%Qq%%%Q%qQqQ%%%%%%%q%Q%%%
5556B64%%%%%%%%%%%qQ%%qQ%%%%%qQ%%%%%%%%%%%%%%%%%%%%%%%%%%%%%%%%%%%%%%%%%%%%%
5540B64%%%%%%%%%%%%%%%%%%%%%%%%%%%%%%%%%%%%%%%%%%%%%Qq%%%Qq%%%%%%Qq%%%Qq%Q%%
5524B72%%%%%%qQ%%%%%%%%%%%%%%%%%%%%%%%%%%%%%%%%%%%%%%%%%%%%%%%%%%%%%%%%%%%%%
5508B72%%%%%%%%%%%%%%%%%%%%%%%%%%%%%%%%%%Qq%%%%%%%%%%%%%%%Qq%%QqQq%Q%qQqQq%%
5492B72Qq%Q%%%%%%qQ%qQqQ%qQqQ%%%%%%%%%%%%%%%%%%%%%%%%%%%%%%%%%%%%%%%%%%%%%%%
5477B80%%%%%%%%%%%%%%%%%%%%%%%%%%%%%%%%%%%%%%%%%%%%%%%Qq%Q%%q%%%QqQ%%%%%%%%%
5461B88qQ%%%%%%qQ%qQ%%%%%%%%%%%%%%%%%%%%%%%%%%%%%%%%%%%%%%%%%%%%%%%%%%%%%%%%
5445B88%%%%%%%%%%%%%%%%%%%%%%%%%%%%%%%%%%%%%%%%%Q%%qQq%Q%%%%%%%%%%%%%%%%%%%%
5429B96%%%%%%%%%%%%%%%%%%%%%%%%%%%%%%%%%%%%%%%%%%%%%%%%%%%%%%%%%%%%%%%%%%%%%
5413B96%%%%%Qq%%%%%%Qq%%%%%%Qq%Qq%%%%Q%%qQ%q%%%%%%%%%%%%%%Qq%Q%%%%%qQ%%%%%%%
5398C04%%%%%%%%%%%%%%%%%%%%%%%%%%%%%%%%%%%%%%%%%%%%%%%%%%%%%%%%%%%%%%%%%%%%%
5382C04%%%Qq%Q%q%%Q%%q%%%QqQ%%%%q%%%QqQqQ%qQ%%%%%%%%%%%%%%%%%%%%%%%%%%%%%%%%
5366C12%%%%%%%%%%%%%%%%%%%%QqQq%%%%%%%%%%%Qq%%%%%%%%%%%Q%q%%%Q%%%%qQqQ%%%%%%
5350C20%%%%%%%%%%%%%%qQ%%%qQ%%%%%%%%%%%%%%%%%%%%%%%%%%%%%%%%%%%%%%%%%%%%%%%%
5334C20%%%%%%%%Qq%QqQq%QqQ%%%%%%%%%%%%%%%%%%%%%%%%%%%%%%%%%%%%%%%%%%%%%%%%%%
5319C28%%%%%%%%%%%%%%%%%%%%%%%%%%%%%%%%%%%%%%%%%%%%%%%%%%%%%%Qq%Q%q%%%%Qq%Qq
5303C28%Q%q%Q%%%%%%%%%%%%%%%%%%%%%%%%%%%%%%%%%%%%%%%%%%%%%%%%%%%%%Qq%%%%%Qq%
5287C36%%%%%%%%%%%Qq%%%%Qq%Q%q%Q%%q%Q%qQ%%%%%%%%%%%%%%%%%%%%%%%%%%%%%%%%%%%%
5271C44%%%%%%%%%%%%%%%%%%%%%%%%%%%%%%%%%%Qq%%%QqQ%q%Q%qQqK4j6j6QJ6m0QJ6K4j6Q
5257C60qqQqJ6q%%%%qQ%%%%%qQ%%%%qQ%%%%%%%%%%%%%%%%%%%%%%%%%%%%%%%%%%%%%%%%%%%
5242C52%%%%%%%%%%%%%QqQq%%Q%%%%%%%%%%%%%%%%%%%%%%%%%%%%%%%%%%%%%%%%%%%%%%%%%
5226C60%%%%%%%%%%%%%%%%%%%%%%%%%%%%%%%%%%%%%%%%Q%%qQ%q%Qq%%Q%qQ%qQ%%qQ%qQ%%%
5210C68%%%%%%%%%%%%%%%%%%%%%%%%%%%%%%%%%%%%%%%%%%%%%%QqQq%%%Qq%%%Qq%%%%%Q%%q
5194C68Q%%%%%%%%%%%%%%%%%%%%%%%%%%%%%%%%%%%%%%%%%%%%%%%%%%%%%%%%%%%%%%%%%%Qq
5179C76%%Qq%QqQqQqQ%%%%%%qQ%%%%%%%%%%%%%%%%%%%%%%%%%%%%%%%%%%%%%%%%%%%%%%%%%
5163C84%%%%%%%%%%%%%%%%%%%%QqQqQqQ%qQ%%%%%%%%%%%%%qQ%%%%%%%%%%%%%%%%%%%%%%%%
5147C92%%%%%%%%%%%%%%QqQ%qQqQ%qQ%%%q%%Qq%Q%qQ%%%%qQ%%%%%%%%%qQ%%%%%%%%%%%%%%
5131D00%%%%%%%%%%%%%%%%%%%%%%%%%%%%%%%%%%%Qq%%%%%QqQ%%qQ%%%%%%%%%%%%%%%%%%%%
5115D08%%%%%%%%%%%%%%%%%%%%%%%%%%%%Qq%%%QqQqQ%q%Qq%%Q%q%Q%qQ%%%qQ%%%%%%%%%%%
5100D16%%%%%%%%%%%%%%%%%%%%%%%%%%%%%%%%%%%%%%Qq%Qq%%Qq%Q%qQ%%%%%%%%%%%%%%%%%
5084D24%%%%%Qq%%%%%%%%%%%%%%%%%%%%%%%%%%%%%%%%Qq%%%%%%%Q%%qQ%%%%%%%%%%%%qQ%%
5068D32%%%%%%%%%%%%%%%%%%%%%%%%%%%%%%%%%%%%%%%%%%%%QqQ%%%qQ%%%qQq%Q%%%%%%%%%
5052D40%%%%%%%%%%%%%%%%%%%%%%%%%%%%%%%%%%%%Qq%%%%%%QqQq%%%Q%%%%%%%%%%%%%%%%%
5036D48%%%%%%%%%%%%%%%%%%%%%%%%%%%%%%%%%%%Qq%Q%%%%q%Q%%%%qQq%%QqQ%%%%%%%%%%%
5021D56%%%%%%%%%%%%%%%%%%%%%%%Qq%%%%%%%%Q%qQ%%%%%%%%%%%qQ%%%%%%%%%%%%%%%%%%%
5005D64%%%%%%%%%%%%%%%%%%%%%%%%%%%%%%%%%Q%%%%%%%%%qQ%%%%%%%%%%%%%%%%%%%%%%%%
4989D72%%%%%%%%%Qq%%%%Q%%q%%QqQ%%%%%%%%%%%qQ%%%%%%%%%%%%%%%%%%%%%%%%%%%%%%%%
4973D80%%%%%%%Q%%%qQ%%qQ%qQqQ%%%%%%%%%%%%%%%%%%%%%%%%%%%%%%%%%%%%%%%%%%Qq%Q%
4958D96%qQ%%%%%%%%%%%%%%%%%%%%%%%%%%%%%%%%%%%%%%%%%%%%%%%%%%%%QqQ%%%%%%%%%%%
4942E04%%%%%%%%%%%%%%%%%%%%%%%%%%%%%%%%%%%Q%%%%%qQ%%%%%%%%%%%%%%%%%%%%%%%%%%
4926E12%%%%%%%%%%%%%%%Q%qQ%qQ%qQqQqQ%qQ%%%%%%%%%%%%%%%%%%%%%%%%%%%%%%%%%%%%%
4910E20%%%%%%Qq%%QqQ%%%%%%%%%%%%%%%%%%%%%%%%%%%%%%%%%%%%%%%%%%%%%%Q%%%%%%%%%
4894E36%%%%%%%%%%%%%%%%%%%%%%%%%%%%%%%%%Qq%QqQ%%%%%%%%%%%%%%%%%%%%%%%%%%%%%%
4879E44%%%%%%%%%%%%%%%%%Qq%%%Q%%%%%qQ%%%%%%%%%%%%%%%%%%%%%%%%%%%%%%%Q%q%Q%q%
4863E52%Q%%%%%%%%%%%%%%%%%%%%%%%%%%%%%%%%%%%%%%Q%%qQ%qQ%%%%%%%%%%%%%%%%%%%%%
4847E68%%%%%%%%%%%Qq%%QqQq%QqQ%%%%%%%%%%%%%%%%%%%%%%%%%%%%%%Q%q%Q%qQ%%%qQqQq
4831E76Q%%%%%%%%%%%%%%%%%%%%%%%%%%%%%%%%%%%Qq%Q%%%qQ%%%%%%%%%%%%%%%%%%%%%%%%
4815E92%%%%%%Q%%%qQ%%%%%%%%%%%%%%%%%%%%%%%%%%%%%%%%Qq%%%QqQqQqQ%%%%%%%%%%%%%
4800F08%%%%%%%%%%%%%%%%%%%Qq%%%QqQ%q%QqQ%qQ%%qQq%Q%%%%qJ6q%%Qq%%%%%%Q%qQqQq%
4784F16%Q%%%%%%%%%%%%%%%%%%%%%%%%%%%%%%Qq%%%%%%Q%%%%%%%%%%%%%%%%%%%%%%%%%%%%
4768F32%%%%%%%%QqQ%%%%%%%%%%%%%%%%%%%qQ%%Qq%%%%%%%Q%%q%Q%%%%%%%%%%%%%%%%%%%%
4752F48%%%%%%%%%%%%Qq%Q%%%%%%%%%%%%%%%%%%%%%%%%%%%Qq%QqQ%%%q%%Q%%%%%%%%%%%%%
4737F64%%%%%%%%%%%%%Qq%%Q%%q%Q%qQ%%%%%%%%%%%%%%%%%%%%%%%%%%%Q%%%%%%%%%%%%%%%
4721F80%%%%%%%%%%%Q%qQ%%qQ%%%%%%%%%%%%%%%%%%%%%%%%%%%%Q%%%%%q%Q%%%%%%%%%%%%%
4705F96%%%%%%%%%%%%%%Qq%%Q%qQ%%qQ%%%%%%%%%%%%%%%%%%%%%QqQ%%qQ%%%%%%%%%%%%%%%
4689G12%%%%%%%%%Qq%%QqQ%%%%%%%%%%%%%%%%%%%%%%%Qq%Q%%%%%%%%%%%%%%%%%%%%%%Q%q%
4673G28Q%%%qQ%q%Q%%%%%%%%%%%%%%%%%%%%%%%%Q%%%%%%%%%%%%%%%%%%%%%%%%%%%%QqQ%%%
4658G52%%%%%%%%%%%%%%%%%%%%%%%Qq%%Q%%%%%%%%%%%%%%%%%%%%%%%%%%Qq%Q%%qQqQ%%%%%
4642G68%%%%%%%%%%%%%%Qq%Q%%%%%%%%%%%%%%%%%%%%%%%%%%%Q%%%%%%%%%%%%%%%%%%%%Q%q
4626G84%%%%Q%%%%%%%%%%%%%%%%%%%%%%QqQ%%%%%%%%%%%%%%%%%%%%%%Qq%%Q%%%%%%%%%%%%
4610H08%%%%%%%%%%QqQqQ%%%%%%%%%%%%%%%%%%%%%%%%%%%%%%%QqQ%%%%%%%%%%%%%%%Q%%%%
4594H32%%qQ%%%%%%%%%%%%%%%%%%%%%Q%%%%%%%%%%%%%%%%%Qq%%%%%Q%%%%%%%%%%%%%%%%%%
4579H48%%%%Q%%%qQ%%%%%%%%%%%%%%%%%%Q%%qQ%%%%%%%%%%%%%%%%%%QqQ%qQ%%%%%%%%%%%%
4563H72%%%%%Q%%qQ%%%%%%qQ%%%%%%%%%%%%Q%qQ%%%%%%%qQ%%%%%%%%%%%Q%%%%%%%%%%%%%%
4547H96%%%%%%Q%%%%%%%%%%%%%%%%%%%%%QqQ%%qQ%%%%%%%%%%%%%%%%%Q%%%qQ%%%%%%%%%%%
4531I20%%%%%Q%%%%%%%%%%%%%%%%%Q%qQqQ%%%%%%%%%%%%%%%%%%%%%Q%%%%%%%%%%%%%%%%%Q
4516I52qQ%%%%%%%%%%%%%%%%%%%Q%%%%%%%%%%%%%%%%%%%QqQ%%%%%%%%%%%%%%%%%%Q%%%%qQ
4500I76%%%%%%%Q%qQqQ%%%%%%%%%%%%%%%%%%QqQ%%%%%%%%%%%%%%%%%%%Q%qQ%%%%%%%%%%%%
4484A000%QqQ%%%%%%%%%%%%%%%%%%%Q%%%%%%%%%%%%%%%%%Qq%Q%%%%%%%%%%%%%%%%%Q%%%%%
4468A032%%%%%%%%%Q%qQ%%%%%%%%%%%%Qq%Q%%%%%%%%%%%%%%%%Qq%Q%%%%%%%%%%%%%%%%Q%q
4453A056Q%%%%%%%%%%%%%%%Q%%%%%%%%%%%%%Q%%%%%%%%%%%%%Q%%q%%Q%%%%%Qq%%Q%%%%qQq
4437A088Q%%%%%%%%%%%%%%%Q%%%%%%%%%%%%%%Q%%%%%%%%%%%%%%%%%Q%%%%%%%%%%%%%%%Q%%
4422A128%%%%%%%%%%%Q%%%%%%%%%%%%%%%%%Q%%%%%%%%%%%%Qq%Q%%%%%%%%%%%%%%%%Q%%%%%
4406A160%%%%%%%%Q%%%%%%%%%%%%%Q%%%%%%%%%%%%%%Q%%%%%%%%%%%%%QqQqQ%%%%%%%%%%%Q
4391A200qQ%%%%%%%%%%QqQ%%%%%%%%%%%%Q%%%%%%%%%%%%%%Q%%%%%%%%%%%%%%%Q%%%%%%%%%
4375A232%%%%%Q%%%%%%%%%%%Q%%%%%%%%%%%%%Q%%%%%%%%%%Q%%%%%%%%%%%%%%Q%%%%%%%%%%
4359A272%%%%%Q%%%%%%%%%%%Q%%%%%%%%%%%%%Q%%%%%%%%%%%Q%qQ%%%%%%%QqQ%%%%%%%%%%%
4344A312%%Q%%%%%%%%%%%Q%%%%%%%%%%%QqQ%%%%%%%%%Q%%%%%%%%%%%%Q%%%%%%%%%%%QqQ%%
4328A360%%%%%%%%%Q%qQ%%%%%%Q%%%%%qQQk4J6%J6%%qQqQ%%q%%%QqQ%%%%%Qq%Q%%%qQ%%%%
4313A400%%Q%%%%%%%%%%%%Q%%%%%%%%%Qq%Q%%%%%%%Q%%%%%%%%%%%QqQ%%%%%%%%%QqQ%%%%%
4298A448%%%%Q%%%%%%%%%Q%%%%%%%%%Q%%%%%%%%%%Q%%%%%%%%%%%Q%%%%%%%%Q%%%%%%%%%%Q
4282A504%%%%%%Qq%Q%%%%%%%%%%%Q%%%%%%%Q%%%%%%%%%%Q%%%%%%%%%Q%%%%%%%%%%Q%%%%%%
4267A552%%%%Q%%%%%%%Qq%QqQ%%%QqQqQ%%%%%%Q%%%%%%%%%%%Q%%%%%%%Q%%%%%%%%Q%%%%%%
4251A608%Q%%%%%%%%%Q%%%%%%%%Q%%%%%%%%%Q%%%%%%%%Q%%%%%%%%%Q%%%%%%%%Q%%%%%%%%Q
4236A672%%%%%%Q%%%%%%%%%%%Q%%%%%%%Q%%%%%%%Q%%%%%%%Q%%%%%%%%Q%%%%%%%Q%%%%%%%%
4220A728Q%%%%%%%%%Q%%%%%QqQ%%%%%Q%%%%%%%Q%%%%%%%%Q%%%%%%%%%Q%%%%Q%%%%%%%%%Qq
4204A792J6q%%%Q%%%%%%%QqQ%%%%%Q%%%%%%%Q%%%%%%%%Q%%%%%%Q%%%%%%%Q%%%%%%QqQ%%%Q
4189A872qQ%%%%%%Q%%%%%%%Q%%%%%%Q%%%%%%Q%%%%%%%Q%%%%%%Q%%%%%%%Q%%%%%QqQ%%%%%Q
4174A944%%%%%Q%%%%%%Q%%%%%%%Q%%%%%Q%%%%%%Q%%%%%%%Q%%%%%%Q%%%%%Q%%%%%QqQ%%%%%
4158B016Q%%%%%%Q%%%%%%%Q%%%%Q%%%%Q%%%%%%%Q%%%%%Q%%%%Q%%%%%%%%QqQ%%%Q%%%%%Q%%
4142B104%%%%Q%%%%%Q%%%%%Q%%%%%%Q%%%%%Q%%%%Q%%%%%%Q%%%%%Q%%%%%Q%%%%%Q%%%%%Q%%
4127B192%%%Q%%%%Q%%%%%%Q%%%%Q%%%%%Q%%%%%Q%%%%%Q%%%%Q%%%%%Q%%%%Q%qQ%%%Q%%%%Q%
4111B288%%%Q%%%%%Q%%%%Q%%%%%Q%%%%Q%%%%%Q%%%%Q%%%%Q%%%%%Q%%%%%Q%%%%%Q%%%%Q%%%
4096B384%Q%%%%%Q%%%Q%%%%Q%%%%Q%%%%Q%%%%Q%%Qq%%QQ%%%%%%%Q%%%%Q%%%%Q%%%Q%%%%Q%
4080B496%%%Q%%%%Q%%%%Q%%%Q%%%%Q%%%Q%%%%QqQ%Q%%%%%Q%%%%Q%%%%Q%%%Q%%%%Q%%%Q%%%
4065B608%%Q%%%Q%%%Q%%%Q%%%%Q%%%%Q%%%Q%%%%Q%%%Q%%%Q%%%%Q%%%Q%%%Q%%%%Q%%%Q%%%%
4049B728Q%%Q%%%%Q%%%Q%%%Q%%%Q%%%Q%%%%Q%%Q%%%%Q%%%Q%%Q%%%%Q%%%Q%%%Q%%%Q%%%Q%%
4034B864Q%%%Q%%%%Q%%%Q%%Q%%%Q%%Qq%Q%Q%%%Q%%%Q%%%Q%%Q%%%Q%%%%Q%%%Q%Q%%%Q%%%Q%
4018C008%%Q%%Q%%%Q%%%Q%%Q%%%Q%%Q%%%Q%%Q%%%Q%%Q%%%Q%%Q%%%Q%%Q%%%Q%%%Q%%Q%%%Q%
4002C160%Q%%%Q%%Q%%%QQq%Q%%Q%%Q%%Q%Q%%%Q%%Q%%%Q%%Q%%%Q%Q%%%Q%%Q%%Q%%%Q%%Q%%Q
3987C328%%Q%%Q%%Q%%%Q%%Q%%Q%%Q%Q%%%Q%%Q%%Q%%Q%%Q%%Q%%Q%%%Q%Q%%Q%%Q%%%Q%%Q%%Q
3971C504%Q%%%J6q%QQ%%%Q%Q%%%Q%%Q%Q%%Q%%Q%%Q%Q%%%Q%%Q%Q%Q%%%Q%Q%Q%%Q%%%Q%Q%%Q
3956C696%Q%%%Q%Q%%Q%Q%%Q%Q%%Q%%Q%%Q%Q%%Q%%Q%Q%%Q%Q%%Q%Q%%Q%Q%%Q%Q%%Q%%Q%Q%%%
3940C896QQ%Q%%Q%Q%Q%%Q%Q%%Q%Q%%Q%Q%%Q%%Q%Q%%Q%Q%Q%Q%Q%%Q%%Q%Q%Q%%Q%Q%Q%Q%%Q%
3925D128Q%Q%Q%Q%%Q%Q%Q%%QQ%%Q%Q%%Q%Q%Q%Q%Q%%Q%Q%Q%Q%Q%Q%%Q%Q%Q%Q%Q%%QQqQQ%Q%
3909D376Q%Q%Q%Q%Q%Q%Q%Q%Q%Q%%QQ%%QQ%%Q%Q%Q%Q%Q%Q%Q%Q%Q%Q%Q%QQ%Q%Q%%QQ%Q%Q%Q%
3894D648Q%Q%Q%Q%Q%QQ%Q%Q%Q%Q%Q%Q%QQ%Q%Q%Q%QQ%Q%Q%Q%Q%QQ%Q%Q%QQ%%QQ%Q%QQ%%QQ%
3878D944QQ%Q%Q%QQ%Q%Q%QQ%Q%QQ%Q%QQ%Q%Q%QQ%Q%QQ%QQ%Q%Q%QQ%QQ%Q%QQ%QQ%QQ%Q%Q%Q
3863E272Q%QQ%QQ%QQ%Q%QQ%Q%QQQ%QQQ%Q%QQ%Q%Q%J6Q%%Q%QQQqJ6Q%QQQ%QQ%QQ%QQ%QQ%QQ
3847E624Q%QQ%QQ%Q%QQQ%QQQ%QQ%QQQ%QQQ%QQQ%QQ%QQQ%QQQ%QQ%QQQQ%QQQ%Q%J6%QQQ%QQQ
3832F016%QQQ%QQQ%QQQQ%QQQQQ%QQQ%QQQQ%QQQQ%QQQQQ%QQQQ%QQQQQ%QQQQQ%QQQQQ%QQQQQ
3817F456%QQQQQQQ%QQQQQQ%QQQQQQQ%QQQQQQQQ%J6%QQQQQQQQ%J6%QQQQQQQQ%QQQQQQQQQQQ
3801F928QQQ%J6Q%QQQQQQQQJ6%QQQQQQQQQQQQJ6%QQ%J6QQQQQQQQQQQQQQQQQJ6%J6QQQQQQQ
3787G424QQQQQQQQQJ6QQQQQQQQQQQQJ6QQQQQQQQQQJ6QQQQQJ6QQQQQQJ6QQQQQQJ6QQQQQQJ6
3773G968QQQQQJ6QQQQQJ6QQQJ6QQQQJ6QQQQJ6QQQJ6QQQJ6QQQQJ6QQJ6QQQQJ6QJ6QQQQJ6QQ
3760H512J6QQJ6QQJ6QQQJ6QJ6QQQJ6QQJ6QQJ6QQJ6QJ6QQJ6QQJ6QJ6QQJ6QJ6QQJ6QJ6QQJ6Q
3749I056QJ6QJ6QJ6QQJ6QJ6QJ6QJ6QJ6QQJ6QJ6QJ6QJ6QJ6QJ6QJ6QJ6J6QQJ6QJ6J6QJ6QJ6Q
3738I600J6QJ6J6QJ6J6QQJ6J6QJ6QJ6QK4QJ6QJ6QJ6QJ6J6QJ6J6QJ6QJ6J6QJ6QJ6J6J6QJ6J6
3729A0160QJ6J6QJ6J6J6QJ6J6J6QJ6J6QJ6J6J6QJ6J6QJ6J6J6J6QJ6J6J6J6QJ6J6J6J6QJ6J6
3720A0704J6J6J6QJ6J6J6J6J6QJ6J6J6J6J6J6J6J6QJ6J6J6J6J6J6J6J6J6QJ6J6J6J6J6J6J6
3711A1248J6J6J6J6J6J6J6J6J6J6J6J6J6J6J6J6J6J6J6J6J6K4QJ6K4J6J6J6J6J6J6J6K4QK4
3703A1824J6J6J6J6J6J6J6J6K4J6J6J6J6J6K4J6J6J6K4J6J6J6J6K4J6J6J6J6K4J6J6K4J6J6
3696A2416J6K4J6J6K4J6J6J6K4J6J6K4J6K4J6J6K4J6J6K4J6K4J6J6J6K4J6K4J6K4J6J6K4J6
3688A3056K4J6K4J6K4J6K4J6K4J6K4J6K4J6K4J6K4K4J6J6K4K4J6K4J6K4K4J6K4K4J6K4J6K4
3680A3752K4K4J6K4K4J6K4J6K4K4K4J6K4K4J6K4K4K4K4K4J6K4K4K4J6K4L2J6K4K4K4J6K4K4
3672A4504K4K4K4K4J6K4K4K4K4K4K4K4K4K4K4K4K4K4K4K4K4K4K4K4K4K4K4L2K4K4K4K4K4K4
3665A5320K4K4K4K4L2K4K4K4L2K4K4K4K4L2K4K4K4K4L2K4K4L2K4K4K4L2K4K4L2K4L2K4K4L2
3657A6208K4L2K4K4L2K4L2K4L2K4L2K4L2K4L2K4L2K4L2K4L2L2K4L2K4L2L2K4L2L2K4L2L2K4
3649A7168L2L2L2K4L2L2L2K4L2L2L2K4L2L2L2L2L2K4L2L2L2L2L2L2L2L2L2L2L2L2L2L2L2L2
3641A8224L2L2L2L2L2L2L2M0L2L2L2L2L2M0L2L2L2M0L2L2L2M0L2L2M0L2L2M0L2L2M0L2M0L2
3633A9376M0L2L2M0L2M0M0L2M0L2M0L2M0L2M0M0L2M0M0M0L2M0M0L2M0M0L2M0M0M0M0L2M8L2
3626B0640M0M0M0M0M0M0M0M0M0M0M0M0M0M0M0M0M0M8M0L2M8M0M8M0M0M0M0M0M0N6L2M0M8N6
3618B2048L2M8M0M0M8M0M8M0M8M0M8M0M8M8M0M8M8M0M8M0M8M8M8M0M8M8M8M8M8M8M0M8M8M8
3610B3576M8M8M8M8M8M8M8M8M8N6M8M8M8N6M8M8M8M8N6M8M8N6M8N6M8N6M8M8N6N6M8N6M8N6
3602B5288M8N6N6N6M8N6N6M8N6N6N6N6M8O4M8N6O4M8N6N6N6O4N6N6N6N6N6O4N6N6O4N6N6O4
3595B7192N6N6O4N6O4N6O4N6O4O4N6O4O4N6O4O4O4N6O4O4O4O4O4O4N6P2O4O4O4O4O4P2O4O4
3587B9312O4P2O4O4P2O4P2O4O4P2P2O4P2O4P2P2O4P2P2P2P2P2O4Q0O4Q0O4Q0P2P2P2P2Q0P2
3579C1696P2P2Q0P2Q0P2Q0P2Q0P2Q0Q0P2Q0Q0Q0P2Q0Q0Q8Q0Q0P2Q8P2Q8Q0Q8P2Q8Q0Q0Q8Q0
3571C4376Q8Q8Q0Q8Q8Q0Q8Q8Q8Q0Q8Q8Q8Q8Q8Q8R6Q8Q8Q8R6Q8R6Q8Q8R6Q8R6R6R6Q8R6R6R6
3563C7424R6R6R6R6R6R6R6J04R6J04R6R6J04R6R6J12R6J04J04J04J04J04R6J12J04J04J04
3557D0136J04J12J04J04J12J12J04J12J04J12J12J12J12J12J12J12J12J12J12J20J12J12J20
3552D2688J12J20J20J12J20J20J20J20J20J20J20J20J28J20J20J28J20J28J28J20J28J28J28
3547D5488J28J28J28J36J28J28J36J28J36J28J36J36J36J36J36J28J44J36J36J44J36J44J36
3541D8576J44J36J44J44J44J44J44J44J52J44J52J44J52J52J44J52J52J52J52J52J60J52J60
3536E1992J52J60J52J60J60J60J60J60J68J60J68J60J68J68J60J68J68J76J68J68J76J68J76
3531E5776J68J76J84J68J76J84J76J84J76J84J76J84J92J76J92J84J92J84J92J84J92J92K00
3526E9992J92J92K00J92K00K00J92K08K00K00K08K00K08K08K08K08K08K16K08K16K08K16K24
3520F4704K16K16K16K24K16K24K24K32K24K24K32K32K24K32K40K32K32K40K40K40K40K40K48
3515F9992K40K48K48K48K48K48K56K48K56K56K64K56K64K56K64K64K72K64K72K64K80K72K72
3510G5952K80K72K80K80K88K80K88K88K88K88K96K88K96K96L04K96L04L04L04L12L04L12L12
3505H2712L12L20L20L12L28L20L28L28L20L36L36L28L36L44L36L44L44L52L44L52L52L60L52
3499I0416L60L60L60L68L68L68L76L76L76L76L84L84L84L92L92L92L92M00M00M00M08M08M08
3494I9248M16M16M16M24M24M24M32M32M32M40M40M40M48M48M48M56M56M64M56M72M64M72M80
3489A09448M80M80M80M88M96M96M96M96N04N12N12N12N20N20N28N28N28N36N44N36N52N52
3484A20744N52N60N60N68N68N76N76N84N84N92N92O00O00O08O16O16O16O24O32O32O40O40
3479A33880O48O56O56O56O72O72O72O88O80O96O96P04P04P12P20P20P28P36P36P52P52P52
3474A49288P68P60P76P84P84P92Q00Q00Q16Q16Q24Q32Q40Q40Q48Q64Q64Q72Q72Q88Q88R04
3469A67520R04R12R28R20R44R44R52R60R68R76R84R92J000J008J016J024J040J040J056J064
3464A87152J064J080J096J096J112J112J128J144J144J160J168J176J184J200J216J216J232
3460B06680J240J256J272J272J288J304J312J328J336J344J368J376J384J400J416J424J440
3456B29440J456J472J480J496J504J528J544J552J576J584J600J616J640J648J664J680J704
3452B56184J712J736J752J768J784J808J824J840J864J880J896J920J944J960J976K008K024
3448B87880K040K072K088K112K128K160K184K200K232K248K280K304K328K360K376K416K432
3445C25840K464K488K520K552K576K616K632K672K696K736K768K792K832K856K904K936K968
3441C71848L000L040L080L112L152L192L240L272L312L352L400L440L488L528L576L624L664
3437D28320L720L760L816L864L912L968M024M072M128M184M248M296M360M416M480M544M608
3433D98720M672M736M800M872M944N016N080N160N240N304N392N472N552N632N720N800N896
3429E88008N984O072O168O264O368O456O560O672O776O880O992P104P216P344P456P584P712
3425G03616P832P968Q104Q240Q384Q528Q672Q824Q976R136R296R464R632R808R984J0160J0352
3421H56976J0544J0744J0936J1152J1352J1568J1800J2016J2256J2496J2736J2992J3248J3520
3418A024336J3792J4064J4360J4648J4960J5272J5592J5920J6256J6608J6968J7344J7720
3415A227840J8112J8520J8928J9360J9800K0256K0728K1200K1712K2216K2760K3296K3872
3412A498600K4440K5056K5680K6312K6984K7680K8384K9120K9880L0672L1496L2328L3216
3409A869848L4120L5064L6040L7056L8104L9208M0328M1520M2736M4016M5336M6712M8152
3406B398240M9648N1200N2832N4520N6280N8128O0048O2056O4160O6352O8656P1056P3568
3403C186744P6216P8968Q1880Q4920Q8120R1480R5016R8720J02640J06768J11104J15696J20536
3400D438808J25656J31056J36776J42840J49264J56080J63304J71000J79176J87888J97168
3398F179016K07064K17631K28953K41048K54024K67927K82889K98968L16288L34968L55159
3395I183935L76992M00657M26328M54256M84656N17839N54097N93832O37439O85425P38328
3393A5053784P96800Q61607R33617J013848J103519J204049J317120J444736J589344J753809
3390B7072233J941672K157209K405680K693582L029032L422169L885848M436456N095233N889713
3388F2028827O856319Q043632R517409J1367867J3720818J6754694K0726960K6016745L3192905
3386B08226176M3126344N7173401P7470560J07364748J51856880K17184955L05856637L96358336
3384A564618037L99905273J82960337j82960337l99905273l96358336l05856637k17184955
3383F45218109j51856880j07364748p7470583n7173378m3126321l3192939k6016734k0726994
3381A28289532j6754660j3720829j1367856r517409q043632o856331n889701n095233m436473
3379D6607408l885822l422178l029032k693591k405671k157209j941664j753817j589344j444745
3376B2284335j317119j204041j103512j013855r33617q61600p96800p38335o85425o37439
3374A2992592n93832n54097n17839m84656m54256m26328m00657l77000l55151l34976l16288
3372H177512k98960k82889k67927k54024k41048k28944k17640k07072j97160j87888j79176
3369E614784j71000j63312j56072j49264j42840j36776j31056j25656j20536j15688j11112
3367D091472j06760j02640r8736r5008r1480q8112q4928q1880p8968p6216p3568p1056o8656
3364B973464o6352o4160o2056o0048n8128n6280n4520n2832n1200m9648m8144m6720m5344
3361B258032m4008m2744m1504m0344l9192l8112l7056l6040l5064l4120l3216l2328l1496
3358A772808l0672k9880k9120k8384k7672k6984k6320k5680k5048k4448k3872k3296k2752
3355A428680k2224k1712k1200k0728k0256j9800j9360j8936j8512j8112j7720j7336j6976
3352A175808j6608j6256j5928j5584j5272j4960j4648j4360j4064j3792j3520j3248j2992
3349I84576j2736j2496j2256j2016j1792j1576j1352j1152j0936j0736j0544j0352j0168r984
3345H26480r808r632r464r296r136q976q824q672q528q384q240q104p968p840p704p584p456
3342F80864p344p216p104o992o880o776o664o568o464o360o264o168o072n984n888n808n720
3338E70592n632n552n472n392n304n240n160n080n016m944m872m800m736m672m608m544m480
3334D85088m416m360m296m248m184m128m072m024l968l912l864l808l768l712l672l624l576
3330D17456l528l480l448l392l360l312l272l232l192l160l112l080l040l008k968k928k896
3326C63048k872k824k792k768k728k696k680k640k608k576k544k528k488k464k432k408k384
3322C18616k360k328k304k280k248k232k200k184k152k136k112k088k072k040k024k008j976
3318B81872j960j944j920j896j880j864j840j824j808j784j768j752j736j720j696j680j664
3314B51136j656j632j616j600j584j576j552j544j520j512j496j480j472j456j440j424j416
3310B25160j400j392j368j368j344j336j328j312j304j288j272j272j248j248j232j216j216
3307B03016j200j184j176j168j160j152j136j128j120j104j096j096j080j072j056j056j040
3303A83992j032j032j016j008j000r92r84r76r68r60r52r44r44r28r20r12r04r04q88q88q80
3298A63960q72q56q64q48q48q32q32q24q16q08q08q00p92p84p84p68p68p68p52p52p44p44
3293A46296p36p28p20p20p12p04p04o96o96o80o88o72o72o64o64o56o56o48o40o40o32o32
3288A31336o24o16o16o16o08o00o00n92n92n84n84n76n76n68n68n68n52n52n52n44n44n44
3283A18560n36n28n28n28n20n20n12n12n04n12m96m96m96m96m88m80m80m80m80m72m64m64
3278A07568m64m64m56m56m48m48m48m40m40m40m32m32m32m24m24m24m16m16m16m08m08m08
3273I8024m00m00m00l92l92l92l92l84l84l84l76l76l76l76l68l68l60l68l60l52l60l60l52
3267H9352l44l52l44l52l44l36l44l36l28l36l36l20l28l28l20l28l20l12l20l12l12l12l04
3262H1784l12l04l04l04k96l04k96k96k88k96k88k88k88k88k80k88k80k80k80k72k72k80k64
3257G5136k80k64k64k72k64k64k64k56k64k56k56k56k48k56k48k48k48k48k48k48k40k40k40
3252F9264k40k40k40k32k32k40k32k32k24k32k24k32k24k24k16k24k24k16k16k24k16k08k16
3246F4056k16k08k16k08k08k08k08k08k00k08k00k00k00k00k00k00k00j92j92k00j92j92j92
3241E9408j84j92j84j92j84j92j84j84j84j76j84j76j84j76j84j76j76j76j76j68j76j68j76
3236E5256j68j68j76j68j60j68j68j68j60j68j60j60j68j60j60j60j60j52j60j52j60j52j52
3231E1528j60j52j52j52j52j44j52j52j44j52j44j44j52j44j44j44j44j44j36j44j44j36j36
3225D8160j44j36j36j36j44j36j36j28j36j36j36j28j28j36j28j28j36j28j28j28j28j28j28
3220D5104j20j28j28j20j28j20j20j28j20j20j20j20j20j20j20j12j20j20j20j12j20j12j12
3215D2344j20j12j12j12j12j12j12j12j12j12j12j12j04j04j12j12j04j04j12j04j04j04j12
3210C9816r6j04j12r6j04j04j04j04r6j04r6j04r6j04r6r6r6j04r6r6r6r6r6r6r6r6r6q8r6
3203C6952r6r6q8r6q8q8r6q8r6q8q8q8r6q8q8q8q8q8q0q8q8q8q8q0q8q8q0q8q0q8q0q8q0q0
3195C3968q8q0q0q0q0q8p2q0q0q8p2q0q0q0q0q0p2q0q0p2q0p2q0p2q0p2q0p2p2p2q0p2p2p2
3187C1328p2p2p2p2q0p2o4p2p2p2p2o4p2p2p2o4p2o4p2o4p2o4p2o4p2o4o4p2o4o4o4p2o4o4
3180B8984o4p2n6p2n6o4o4o4o4o4o4n6o4o4o4n6o4o4o4n6o4n6o4n6o4n6o4n6n6o4n6n6o4n6
3172B6896n6o4n6n6n6n6n6o4n6n6n6n6n6m8o4m8n6n6n6n6m8n6n6n6n6m8n6n6m8n6m8n6n6n6
3164B5016m0n6n6m8m8n6m8n6m8m8m8n6m8m8m8n6m8m8m8n6m8m8m8m8m8m8m8m8m8m8m0n6m0m8
3156B3344m8m8m8m8m8m0m8m8m8m0m8m0m8m8m8m0m0m8m8m0m8m0m8m0m8m0m8m0m8l2m8m8m0m0
3148B1824m0m8m0m0m0m0m8m0m0m0m0m0m0m8m0m0m0m0m0m0m0m0m0m0m0m0m0m0m0m0l2m0m0m0
3141B0448m0m0l2m0m0l2m0m0m0l2m0m0l2m0m0l2m0l2m0l2m0l2m0m0l2l2m0m0l2l2m0l2l2m0
3133A9200l2m0l2l2m0l2l2l2m0l2l2m0l2l2l2m0l2l2l2l2m0l2l2l2l2l2l2l2l2l2l2l2l2l2
3125A8064l2l2l2l2l2l2l2l2l2l2l2k4l2l2l2l2k4l2l2l2l2k4l2l2l2k4l2l2l2k4l2l2k4l2
3117A7024l2l2k4l2k4l2l2k4k4l2l2k4l2k4l2k4l2k4l2k4l2k4l2k4l2k4l2k4k4l2k4k4l2k4
3110A6072l2k4k4l2k4k4k4l2k4k4l2k4k4k4l2j6l2k4k4k4l2k4k4k4k4k4l2k4k4k4k4k4k4k4
3102A5200k4k4l2k4k4k4k4k4k4k4k4k4k4k4k4k4k4k4k4k4k4k4j6k4k4k4k4k4k4k4k4j6k4k4
3094A4392k4k4j6k4k4k4k4k4k4j6k4k4k4k4j6k4k4j6k4k4k4j6k4j6k4k4k4j6k4k4j6k4j6k4
3086A3648k4j6k4j6k4k4j6k4j6k4k4j6k4j6k4j6k4j6k4j6k4j6k4j6k4j6k4j6k4j6j6k4j6k4
3078A2960j6k4j6j6k4j6k4j6j6k4j6j6k4j6j6k4j6k4j6j6k4j6j6k4j6j6j6k4j6j6k4j6j6j6
3071A2328k4j6j6j6j6k4j6j6k4j6j6j6j6j6k4j6j6j6j6j6k4j6j6j6j6j6j6j6j6k4j6j6j6j6
3063A1736j6j6j6j6j6j6k4j6j6j6j6j6j6j6j6j6j6j6j6j6j6j6j6j6j6j6j6j6j6j6j6j6j6j6
3055A1184j6qk4qj6j6j6j6j6j6j6j6j6qj6j6j6j6j6j6j6j6qk4qj6j6j6qj6j6j6j6qj6j6j6
3047A0632j6j6qj6j6j6j6qj6j6j6qj6j6j6qj6j6j6qj6j6qj6j6j6qj6j6j6qj6j6qj6j6qj6j6
3038A0088qj6j6qj6qj6j6j6qj6qj6j6qj6j6qj6qqk4qj6qqj6j6j6qj6qj6j6qj6qj6qj6qj6q
3028I544j6qj6j6qj6qqj6j6qj6qj6qj6qj6qj6qj6qqj6j6qqj6qj6qj6qqj6qj6qqj6qqj6qj6
3017I000qj6qqj6qj6qj6qqj6qqj6qqj6qj6qqj6qqj6qj6qqqj6qqj6qqj6qqqj6qqqj6qj6qqq
3006H456j6qqj6qqqqj6qqj6qqqj6qqqj6qqqqj6qqqqj6qqqqj6qqqj6qqqqqqj6qqqqj6qqqqq
2993G912j6qqqqqqj6qqqqqj6%j6qqqqqqj6%j6qqqqqqqj6qqqqqqqqqqqqj6qqqqqqqqqqqj6%
2979G392qj6q%j6qqqqqqqqqqqqqq%j6qqqqq%j6qqqqqqqqqqqqqqqq%j6%j6%j6q%qqqqqqqqq
2965F904qqq%j6q%qqqqqqqqqqqqq%qqqqqqqq%qqqqqqqqq%qqqqqqq%qqqqqqq%qqqqq%qqqqq
2950F424qq%qqqq%qqqqqq%qqqq%qqqq%qqqqqq%qqqq%qqqq%qqq%qqqq%qqq%qqqq%qqqq%qqq
2934E984%qqq%qqq%qqq%qqq%qq%qqq%qq%qqqq%qq%qqqq%qq%qq%qqq%qq%qq%qqq%qq%q%qqq
2919E592%qq%qq%qqqqQqqqqQl2Q%qqQj6%qqq%q%qq%qqq%qq%q%qqq%q%qq%q%qq%qq%qq%q%q
2904E248q%qq%q%qq%qq%q%q%qq%qq%q%qq%qq%q%q%q%qq%qq%%qqq%q%q%q%qq%q%qq%q%q%q%
2888D928qq%q%q%qq%qq%%qq%q%q%qq%%qq%q%q%q%qq%q%q%q%q%q%q%qq%%qq%q%q%q%q%q%q%
2873D632q%q%qq%q%q%q%q%q%q%q%q%q%q%q%q%q%%q%qq%q%%q%qq%q%%q%q%q%q%q%q%q%%q%q
2857D360%qq%%q%q%q%q%%q%q%q%q%q%q%q%q%q%%q%q%q%%q%q%q%q%q%%q%q%q%q%%q%q%q%%q
2841D112%q%q%%q%q%%q%q%q%%q%q%q%q%%q%q%%q%q%q%%q%%q%q%q%%q%q%%q%q%%qq%%q%%q%
2826C888%q%q%%q%q%%q%q%%q%q%%q%%q%q%%q%%qq%%q%%q%%q%q%%q%q%%q%%q%%q%%q%%qq%%
2810C680%q%q%%q%q%%q%%q%%q%q%%q%%%q%q%%q%%q%q%%%qq%%%q%%%q%qQqq%%%qqQqq%%%q%
2795C488%q%%q%q%%%q%q%%%q%%q%%q%%q%%q%%%q%q%%%q%%q%q%%%q%q%%%q%%q%%q%%%q%%q%
2779C312q%%%q%%q%%q%%q%%%q%%q%%q%%q%%%q%%q%%%q%q%%%q%%q%%%q%%%q%%q%%q%%q%%q%
2764C144%%q%%q%%%q%%%q%%q%%%q%%q%%%q%%q%%%q%%%q%%q%%%q%%%q%%q%%%q%%%q%%q%%%q
2748B992%%q%%%q%%%q%%%q%%q%%%q%%%q%%%q%%q%%%q%%%%q%%%q%%q%%%%q%%q%%%%q%%q%%%
2733B856q%%%q%%q%%%%q%%%q%%%q%%%q%%%q%%%q%%%q%%%q%%%%q%%%%q%%q%%%%q%%%q%%%qQ
2717B728q%q%%%qQq%%q%%%q%%%%q%%%q%%%%q%%%%q%%q%%%%q%%%q%%%%q%%%q%%%%q%%%%q%%
2701B600%q%%%q%%%%q%%%%%q%%q%%%%q%%%%%q%%%%q%%%q%%%%q%%%q%%%%%%q%%%q%%%q%%%%
2686B488q%%%%%q%%%q%%%%%q%%%qqJ6j6Q%q%%%%q%%q%%%%%%q%%%qQq%%%q%%%%q%%%%q%%%%
2671B384q%%%q%%%%%%q%%%%q%%%%q%%%%%%q%%%%q%%%q%%%%%q%%%%%q%%%%q%%%%%q%%%%q%%
2655B280%%%q%%%%q%%%%%%q%%qQq%%%%%q%%%%q%%%%%q%%%%%q%%%%qQq%%%q%%%%%q%%%%%q%
2640B184%%%%q%%%%%q%%%%%q%%%%%q%%%%%%q%%%%%q%%%%q%%%%%%q%%%%q%%%%%qQq%%%%%q%
2624B096%%%%%q%%%%q%%%%%%q%%%%%%q%%%%%q%%%%%%q%%%%%q%%%%q%%%%%%q%%%%%%q%%%%%
2608B016%q%%%%%q%%%%%%q%%%%%%q%%%%%%%q%%%%%%q%%%%%q%%%%%%%q%%%%%%%q%%%%%%q%%
2593A936%%%qQq%%%%q%%%%%%%%q%%%%%%q%%%%%%q%%%%%%q%%%%%%q%%%%%%%q%%%%%%%q%%%%
2577A864%%q%%%%%%q%%%%%%%q%%%%%%%%q%%%%qQq%%%%%%%q%%%%%qQq%%%%%%%%%qqQqQ%qQq
2562A792%%%q%%%%%%%%q%%%%%%%%q%%%%%%%q%%%%%%%%q%%%%%q%%%%%%%%%qQq%%%%%qQq%%%
2546A728%%q%Qq%%%%%%q%%%%%%%q%%%%%%%q%%%%%%%%qQq%%%%%%q%%%%qQ%q%%%%%%%%%q%%%
2531A664%%%%%%q%%%%%%%%q%%%%%%%%q%%%%%%q%%%%%%%%%q%%%%%%%%%q%%%%%%%%%q%%%%%%
2515A608%q%%%%%%%q%%%%%%%qQ%q%%%%%%%%%q%%%%%%%%qQqQqQq%%%%q%%%%%%%%%q%%%%%%%
2500A552%q%%%%%%%%q%%%%%%%%%%%q%%%%%%%%%q%%%%%%qQ%q%%%%%%%%%%%%q%%%%%%q%%%%%
2484A496%%%%%%q%%%%%%%%%q%%%%%%%%%%q%%%%%%%%q%Qq%%%%%%%q%%%%%%%%%%q%%%%%%%%%
2468A448q%Qq%%%%%%%%%q%%%%%%%%%%%%q%%%%%%%%%%q%%%%%%%%%q%%%%%%%%%%%%%q%%%%%%
2453A400%%%qQq%%%%%%%qQq%%%QqqQ%q%qqQJ6J6l2%Q%qQqQq%Qq%%%%%%%%q%%%%%%%%%qQqQ
2438A360q%%%%%%q%%%%%%%%%%%%%%%q%%%%%%%%%%qQ%q%%%%%%%%%%q%%%%%%%%%%%%q%%%%%%
2422A312%%%%%q%%%%%%%%%%%%%q%%%%%%%%%%q%%%%%%%%%%%%%%%q%%%%%%%%%%qQq%%%%%%%%
2407A272%%%%%q%%%%%%%%%qQqQ%q%%%%%%%%%%qQq%%%%%%%%%%%q%%%%%%%%%%%%q%%%%%%%%%
2391A232%%%%%q%%%%%%%%%%%%%q%%Qq%%%%%%%%%%q%%%%%%%%%%%%%q%%%%%%%%%%%%qQq%%%%
2376A192%%%%%%%%%qQq%%%%%%%%%%%q%%%%%%%%%%%%%%%q%%%%%%%%%%%%%%%%q%%%%%%%%%%%
2360A160%%q%%%%%%%%%%%%%%%q%%%%%%%%%%%%%%%q%%%%%%%%%%%%%%%q%%%%%%%%%%%%%%%%%
2345A128q%%%%%%%%%%%%%q%%%%%%%%%%%%%%%qQqQ%q%%%%%%%%%%%%q%%%%%%%%%%%%qQ%%%%q
2329A088%%%%%%%%%%%%qQ%q%%%%%%%%%%%%%%qQq%%%%%%%%%%%%%q%%%%%%%%%%%%%%%%%%%q%
2313A056%%%%%%%%%%%%%%%%%q%%%%%%%%%%%%%%q%%%%%%%%%%%%%%%%%%%qQq%%%%%%%%%%%%%
2298A032q%Qq%%%%%%%%%%%%%%%qQ%q%%%%%%%%%%%%%%q%%%%%%%%%%%%%%%%%%qQqQ%q%%%%%%
2282A000%%%%%%%%q%%%%%%%%%%%%%%%%%%%%q%%%%%%%%%%%%%%%%%%q%Qq%%Qq%%%%%%%%%%%%
2267I76%%%q%%%%%%%%%%%%%%%%%%%q%%%%%%%%%%%%%%%%qQ%%qQq%%%%%%%%%%%%%%%%q%%%%%
2251I44%%%%%%%%%%%%%qQq%%%%%%%%%%%%%%%%%%%qQq%Qq%%%%%%%%%%%%%%%%%%qQq%%%%%%%
2235I20%%%%%%qQ%qQq%%%%%%%%%%%%%%%%%%%%%%qQ%qQq%%%%%%%%%%%%%%%qQqQq%%%%%%%%%
2219H96%%%%%%%%qQq%%%%%%%%%%%%%%%%%%%q%Q%q%QqqQQq%%%%%%%qQ%qQq%%%%%%%%%%%%%%
2204H72%%%%%%%%%%%qQq%%%%%%%%%%%%%%%%%q%%Qq%%%%%%%%%%%%%%%%%%%%%%qQqQq%%%%%%
2188H48%%%%%%%%%%%%%%qQq%%%%%%%%%%%%%%%%%%%%%q%%%%%%%%%%%%%%%%%%%%%%%%%%%%%%
2172H32q%%%%%%%%%%%%%%%qQ%%%%%q%%%%%%%%%%%%%%%%%%%%%qQ%qQ%q%%%%%%%%%%%%%%%%%
2156H08%%%%%q%Q%%q%%%%%%%%%%%%%%%%%%%qQ%%%q%%%%%%%%%%%%%%%%%%%%%%%%%%%%qQq%%
2140G84%%%%%%%%%%%%%%%%%%%q%Qq%%%%%%%%%%%%%%%%%%%%%%%q%Q%q%%%%%%%%%%%%%%%%%%
2125G68%qQ%q%%Qq%%%%%%%%%%%%%%%%%%%%%%%%%%%%qQq%%%%%%%%%%%%%%%%%%%%%%%%qQqQ%
2109G52%q%%%%%%%%%%%%%%%%%%%%%%%qQ%%%%%q%%%%%%%%%%%%%%%%%%%%%qQqQ%%q%%Qq%Qq%
2093G28%%%%%%%%%%%%%%%%%%%%q%%%%%%%%%%%%%%%%%%%%%%%%%%%%qQq%Qq%Qq%%%%%%%%%%%
2077G12%%%%%%%%%%%%%qQq%%%%%%%%%%%%%%%%%%%%%%%%%%%qQ%qQqQqQqQq%%%%%%%%%%%%%%
2061F96%%%%%%%%%%%%%%q%%%%%%%%%%%%%%%%%%%%%%%%%%%%%%%q%Q%q%%%%%%%%%%%%%%%%%%
2046F80%%%%%%%%%%%qQ%q%%%%%%%%%%%%%%%%%%%%%%%%%%qQq%QqQ%%q%%%%%%%%%%%%%%%%%%
2030F64%%%%%%%%%%qQ%q%Q%%q%%%%%%%%%%%%%%%%%%%%%%%%%%%%%%%%qQqQq%%%%Qq%%%%%%%
2014F48%%%%%%%%%%%%%%qQ%%q%%%%%%Qq%%%Qq%%%%%%%%%%%%%%%%qQqQ%%%q%%%Qq%%%%%%%%
1998F32%%%%%%%%%%%%%%%%%%%%%qQ%%%%q%%%%%%%%%%%%%%%%%%%%%%%%%%%%%%%%%%qQ%q%%%
1982F16Qq%Qq%%%%%%%%qQ%%%qQqJ6q%%q%Qq%%Qq%Q%%%q%%Q%qQq%%%%%%%%%%%%%%%%%%%%%%
1967F08%%%%%%%%%qQ%%%%%q%%Q%q%%%%%%%%%%%%%%%%%%%%%%%%%%%%%%%%%%%q%Qq%%%%%%%%
1951E92%%%%%%%%%%%%%%%%%%%%qQ%%q%%%%%%%%%%%%%%%%%%%%%%%%%%%%%%%%%%%%%%%%%%%%
1935E84q%%%%%%%%%%%%%%%%%%%%%%%%%%%%%%%%%%%%%%%qQ%q%Qq%%%%%%%%%%%%%%%%%%%%%%
1920E68%%%%%%%%%%%%qQ%%qQqQq%%%%%%%%%%%%%%%%%%%%%%%%%%%%%%%%%%%%%%%%%%%%%%qQ
1904E60%%%q%Qq%Qq%%%%%%%%%%%%%%%%%%%%%%%%%%%%%%%%%qQq%Qq%%%%%%%%%Qq%%%%%%%%%
1888E44%%%%%%%%%%%%%%%%%%%%%%%%%q%%Qq%%%%%%%%%%%%%%%%%%%%%%%%%%%%%%%%%%%%%%%
1872E36%%%qQ%qQq%%%%Qq%Qq%%%%%%%%%%%%%%%%%%%%%%%%%%%%%%%qQqQ%%%q%%%%%%%Q%qQq
1856E20Qq%%%%%%%%%%%%%%%%%%%%%%%%%%%%%%%%%%%%%%%qQ%q%%%%%%%%%%%%%%%%%%%%%%%%
1841E12%%%%%%%%%%%%%%%%%%q%%Q%%%%%q%Qq%%%%Qq%%%%%%%%%%%%%%%%%%%%%%%%%%%%%%%%
1825E04%%%%%qQ%%q%%%%%%%%%%%%%%%%%%%%%%%%%%%%%%%%%%%%%%%%%%%%%%%%%%%%qQ%%qQ%
1809D96%q%%%%%%%%%%%%%%%%%%%%%%%%%%qQQj6QqQ%%%%%%%%%%%%%%qQq%%%Q%q%Qq%Qq%%%%
1793D80%%%%%%%%%%%%%%%%%%%%%%%%%%%%%%%%%%%%%%%%%%%%%q%%%Qq%%%%%%%Qq%%%%%%%%%
1778D72%%%%%%%%%%%%%%%%%%%%%%%qQ%%%%%q%%%%%%%%%%%%%%%%%%%%%%%%%%%%%%%%%%%%%%
1762D64%%%%%%%%%%%%%%q%Q%%%%%%%%%%%%%%q%Q%q%Qq%%%%%%%%%%%%%%%%%%%%%%%%%%%%%%
1746D56%%%%%%%qQq%QqQ%%%%q%Qq%%Qq%%Qq%Qq%%%%%%%%%%%%Qq%%%%%%%%%%%%%%%%%%%%%%
1730D48%%%%%%%%%%%%%q%Qq%Qq%%Qq%Qq%%%%%%Qq%%%%%%%%%%%%%%%%%%%%%%%%%%%%%%%%%%
1714D40%%%%%%%%%qQ%%%%qQq%%%%%%%%%%%%%%%%%%%%%%%%%%%%%%%%%%%%%%%%%%%%%%%%%%%
1699D32%%%%%%qQq%Q%qQ%%%%qQq%%%%%%%%%%%%%%%%%%%%%%%%%%%%%%%%%%%%%%%%%%%%%%%%
1683D24%%%%%%%%%%%%%%%qQ%q%%%%%%Q%%%q%%%%%%%%%%%%%%%%%%%%%%%%%%%%%%%%%%%%%%%
1667D16%%%%%%%%%%%%%%qQqQqQ%%%q%%%%%%%%%%%%%%%%%%%%%%%%Qq%%%%%%%%%%%%%%%%%%%
1651D08%%%%%%%%%%%%%%%%%%%%%%q%%%%%%%%%%%%%%%%%%%%%%%%%%%%%%%%%%%%%%%%%%%%%%
1636D00%%%%%%%%%qQ%%%%%%%%%%%%qQ%%%qQqQqQq%QqQqQqQ%qQq%QqQq%%Qq%%%%%%%%%%%%%
1620C92%%%%%%%%%%%%%%%%%%%%qQ%%%%qQ%%%%%%%%qQ%%q%Q%%q%%QqQq%%Qq%%%%%%%%%%%%%
1604C84%%%%%%%%%%%%%%%%%%%%%%%%%%%%%%%%%%%%%%%%%%%%%%%%%%%%%%q%%%Q%q%%%Qq%%%
1588C76%%%%%%%%%%%%%%%%%%%%%%%%%%%%%%%%%%%%%%%%%%%%%%%%%%%%%%%%%%%%%%%%%%%%%
1572C76q%%%%%%%%%%%%%Qq%Qq%%%Qq%%%%%%%%%%%%%%%%%%%%%%%%%%%%%%%%%%%%%%%%%%%%%
1557C68%%%%%%%%%qQqQ%q%Q%%%%%%q%%QqQqQ%q%%%%%%%%%%%%%%%%%%%%%%%%%%%%%%%%%%%%
1541C60%%%%%%%%qQ%%%%%%%%%%%%%%%%%%%%%%%%%%%%%%qQ%%%%q%%Qq%QqQq%%%%%%%%%%%%%
1525C52%%%%%%%%%%%%%%%%%%%%%%%%%%%%%%%%%%%%%%%%%%%%%%%%%%%%%%%qQ%%%Qqq%q%J6k4
1509C28QQj6%K4qQqQ%%%q%%Qq%%Q%q%%%%Qq%%%%%qQ%%%%%%%%%%%%%%%%%%%%%%%%%%%%%%%%
1494C44%%%%%%%%%%%%%%%%%%%%%%%%%%qQ%%%qQ%qQqQ%q%%%%%%%%%%%%%%%%%%%%%%%Qq%%%%
1478C36%%%%%%%%%%%%%%%%%%%%%%%%%%%%%%%%%%%%%%%%%%%%%%qQ%%%%%%%%%q%Qq%Q%q%Q%%
1462C36%%%qQqQq%%%%%%%%%%%%%%%%%%%%%%%%%%%%%%%%%%%%%%%%%%%%%%%qQ%%%%%%%%%%%%
1447C28%%%%%%%%%%%%%%%%%%qQ%%%%%%%%%%%%%%%%q%Q%q%%%%%%%%Qq%%%%%%%%%%%%%%%%%%
1431C20%%%%%%%%%%%%%%%%%%%%%%%%%%%%%%%%%%%%%%%%%%%%%%%%%%%%%%%%%%%%%%%qQq%Qq
1415C12%%%%%%Qq%Qq%%%Qq%%%%%%%%%%%%%%%%%%%%%%%%%%%%%%%%%%%%%%%%%%%%%%%%%%%%%
1399C12%%%%%%%%%%%%%%%%%%%%%%%%qQqQ%%q%Q%%q%Q%qQ%q%QqQ%q%%%%%%%%%%%%%%%%%%%%
1384C04%%%%%%%%%%%%%%%%%%%%%%%%%%%%%%%%%%%%%%%%%%%%%%%%%%%%%%%%%%%%%%%%%%%%%
1368C04qQ%%%%%%%q%%Qq%%Q%q%Qq%QqQq%%Q%q%Qq%%%%%%%%%Qq%%%%%%Qq%%%Qq%%%%%%%%%%
1352B96%%%%%%%%%%%%%%%%%%%%%%%%%%%%%%%%%%%%%%%%%%%%%%%%%%%%%%%%%%%%%%%%%%%%%
1336B96%%%%qQq%%Q%qQ%q%Qq%%QqQq%%%%%%%%%%%%%%%%%%%%%%%%%%%%%%%%%%%%%%%%%%%%%
1320B88%%%%%%%%%%%%%%%%%%%%%%%%%%%%%%%%%%%%%%%%%%%%%q%Qq%%%%Qq%QqQ%%%%%%%q%%
1305B80Qq%%Qq%Q%q%%%%Qq%%%%%%%%%%%%%%%%%%%%%%%%%%%%%%%%%%%%%%%%%%%%%%%%%%%%%
1289B80%%%%%%%%%%%%%%%%%%%%%%%%%%%%%%%%%%%%qQ%%%qQq%%Q%%qQ%%%qQ%%%%q%Q%j6QQq
1273B72Qq%%%%%%%%%%%%%%%%%%%%Qq%%%%%%%%%%%%%%%%%%%%%%%%%%%%%%%%%%%%%%%%%%%%%
1257B72%%%%%%%%%%%%%%%%%%%%%%%%%%%%%%%%%%%%%%%%%%%%%%%%%%q%QqQ%qQ%%%qQq%%%%Q
1242B72q%%%%%%%%%%%%%%%%%%%%%%%%%%%%%%%%%%%%%%%%%%%%%%%%%%%%%%%%%%%%%%%%%%%%
1226B64%%%%%%%%%%%%%%%%%%%%%%%%%%%%%%%%%%%%%%%q%Q%%%%%qQ%%%%qQ%%%qQ%qQ%%%%%%
1210B64%%%%qQ%q%Q%qQq%%%%%%%%%%%%%%%%%%%%%%%%%%%%%%%%%%%%%%%%%%%%%%%%%%%%%%%
1194B56%%%%%%%%%%%%%%%%%%%%%%%%%%%%%%%%%%%%%%%%%%%%%%%%%%%%%%%%%%%%%%%%qQqQq
1178B48Q%q%Qq%Q%%%q%Qq%%Qq%%%%Q%q%%%%%%%%%%%%%%%%%%%%%%%%%%%%%%%%%%%%%%%%%%%
1163B48%%%%%%%%%%%%%%%%%%%%%%%Q%q%%%%%%%%%%%%%%%%%%%%%%%%%%%%%%%%%%%%%%%%%qQ
1147B48%%qQ%%%%%%%%%%%%%%qQ%qQ%%%%%%%qQ%qQ%qQq%%%%%%%%Q%qQ%q%%%%%%%%%%%%%%%%
1131B40%%%%%%%%%%%%%%%%%%%%%%%%%%%%%%%%%%%%%%%%%%%%%%%%%%%%%%%%%%%%%%%%%%%%%
1115B40%%%%%%%%%%%%%%%%%%%%%%%%%%%%qQ%%%%%%%%%%%%%%%%%%%%%%%%%%%%%%q%Q%%%q%%
1099B32QqQ%%q%Qq%%%Qq%%%%%%%%%Qq%%%%%%%%%%%%%%%%%%%%%%%%%%%%%%%%%%%%%%%%%%%%
1084B32%%%%%%%%%%%%%%%%%%%%%%%%%%%%%%%%%%%%%%%%%%%%%%%%%%%%%%%%%%%%q%Q%qQqQ%
1068B32%%%%%%%%%%%%%%%%%%%%%qQ%%%qQ%qQq%%%Q%q%%Q%qQ%%qQqQq%%%QqQ%qQ%q%%%%%%%
1052B24%%%%%%%%%%%%Qq%%%%%%%%%%%%%%%%Qq%%%%%%Qq%%%%%QqQj6J6%q%qQ%Q%q%%%%%%%%
1037B24%%%%%%%%%%%%%%%%%%%%%%%%%%%%%%%%%%%%%%%%%%%%%%%%%qQ%%%%%%%%%%%%%%%%%%
1021B24%qQ%qQqQ%%%%qQ%%qQ%%%%qQqQ%qQ%q%%%%%Qq%Qq%%%%QqQ%q%%%%%%%%%%%%%%%%%%%
1005B16%%%%%%%%%%%%%%%%%%%%%%%%%%%%%%%%%%%%%%%%%%%%%%%%%%%%%%%%%%%%%%%%%%%%%
989B16%%%%%%%%%%%%%%%%%%%%%%%%%%%%%qQ%%%%%%%%%%qQ%%%%%%%%%%%%%%%%%%%%%qQ%%%q
973B08Q%%%qQq%%%%Q%q%%%%%%%%%%Qq%Qq%QqQq%%%%%%%%%%%%%%%%%%%%%%%%%%%%%%%%%%%%
957B08%%%%%%%%%%%%%%%%%%%%%%%%%%%%%%%%%%%%%%%%%%%%%%%%%%%%%%%%%%%%%%%%%%%%%%
941B08%%%%%%%%%%%%%%%%%%%%%%%%%%%%%%%%%%%%%%%%%%%%%%%qQ%qQq%Q%%%%%q%%%Q%%%%%
925B08%q%Q%%%%%%qQ%%qQqQq%Qq%%%%%%%%%%%%%%%%%%%%%%QqQq%%%%%%%%%%%%%%%%%%%%%%
909B00%%%%%%%%%%%%%%%%%%%%%%%%%%%%%%%%%%%%%%%%%%%%%%%%%%%%%%%%%%%%%%%%%%%%%%
893B00%%%%%%%%%%%%%%%%%%%%%%%%%%%%%%%%%%%%%%%%%%%qQqQ%%qQqQqQ%%%qQ%%%%%%%%qQ
877B00qQ%qQ%%%%%qQqQqQq%%Q%q%%%Qq%Q%%%q%Qq%%Qq%%%%Q%qQ%%q%%Qq%%QqQq%%%Q%q%%Q
861B00q%%%%%%%%%%%%%%%%%%%%%%%%%Qq%%%%%%%%%%%%%%%%%%%%%%%Qq%%%%%%%%%%%%%%%%%
845A92%%%%%%%%%%%%%%%%%%%%%%%%%%%%%%%%%%%%%%%%%%%%%qQ%%%%%%%%%%%%%%%%%%%%%%%
829A92%%%%%%%qQ%%%%%%%q%Q%%%%%%%%%%%qQ%qQ%%qQ%qQ%%%qQq%%%%%%QqQq%QqQ%%%q%%%%
813A84%%%%%%%%%%Qq%%%%%%%%%QqQ%qQq%%%%%%qQQq%%Qq%%%%%%%%%%%%%%%%%%%%%%%%%%%%
797A84%%%%%%%%%%%%%%%%%%%%%%%%%%%%%%%%%%%%%%%%%%%%%%%%%%%%%%%%%%%%%%%%%%%%%%
781A84%%%%%%%%%%%%%%%%%%%%%%%%%%%%%%%%%%%%%%%%%%%%%%%%%%%%%%%%%%%%%%%%%%%%%%
765A84qQqQ%%%%%q%Q%qQqQqQ%q%%%QqQ%%%%%%q%%%Qq%%%Qq%%%%%%%%%%%%%%Qq%%%Qq%%%%%
749A76%%%%%Qq%Q%qQqQq%%%%%%%%%%%%%%%%%%%%%%%%%%%%%%%%%%%%%%%%%%%%%%%%%%%%%%%
733A76%%%%%%%%%%%%%%%%%%%%%%%%%%%%%%%%%%%%%%%%%%%%%%%%%%%%%%%%%%%%%%%%%%%%%%
717A76%%%%%%%%%%%%%%%%%%%%%%%%%%%%%%%%%%%%q%Q%%%qQ%%%%%%%%%%%qQqQ%%%%%%qQ%%%
701A76%%%%%%%%%q%%Q%%qQq%%%%%%%%Qq%%%%QqQ%q%%%%%%%%%%%%%%%%%J6q%%q%Q%q%%%%%%
685A68%%%%%%%%%%%%%%%%%%%%%%%%%%%%%%%%%%%%%%%%%%%%%%%Qq%%%%%%%%%%%%%%%%%%%%%
669A68%%%%%%%%%%%%%%%%%%%%%%%%%%%%%%%%%%%%%%%%%%%%%%%%%%%%%%%%%%%%%%%%%%%%%%
653A68%%%%%%%%%%%%%%%%%%%%%%%%%%%%%%%%%%%%%%%%%%%%%%%%%%%%%%%%%%%%qQ%%%qQ%%%
637A68%%q%%%Qq%Qq%%%%QqQ%%%%qQ%%qQ%q%QqQq%Qq%Qq%%%%%%Qq%%%%%%%%QqQq%%%%%%%%%
621A60%%%%%%%%%%%%%%%%%%%%%%%%%Qq%%%%%%%%%%%%%%%%%%%%%%%%%%%%%%%%%%%%%%%%%%%
605A60%%%%%%%%%%%%%%%%%%%qQ%%%%%%%%%%%%%%%%%%%%%%%%%%%%%%%%%%%%%%%%%%%%%%%%%
589A60%%%%%%%%%%%%%%%%%%%%%%%%%%%%%%%%%%%%%%%%%%%%%%%%%%%%%%%%%%%%%qQ%%%%%qQ
573A60%%%%%%qQQqj6Q%Q%%%qQ%%q%Qq%Q%%%%%qQ%%%%%%q%Qq%Qq%%%%%%%%%%%QqQq%%%%%%%
557A52Qq%%%%%Q%%qQ%qQqQ%%%%%q%%%%%%%%%%%%%%%%%%%%%%%%%%%%%%%%%%%%%%%%%%%%%%%
541A52%%%%%%%%%%%%%%%%%%%%%%%%%%%%%%%%%%%%%%%%%%%%%%%%%%%%%%%%%%%%%%%%%%%%%%
525A52%%%%%%%%%%%%%%%%%%%%%%%%%%%%%%%%%%%%%%%%%%%%%%%%%%%%%%%%%%%%%%%%%%%%%%
509A52%%%%%%%%%%%%%%%%%%%%%%%%%%%%%%%%%%%%%%%%%%%qQ%%%%%%%%%%%%%%%%%%%%%%%%%
493A52%%%%%%%%%%%%%%%%%%%%%%%%%%%%%%%%%%%%%%%%qQ%%%q%%Qq%%%%%%%%%%%%%%%%Qq%%
477A44%%Qq%Qq%%%%%%%%%%%%%%%%%%%%%%%%%%%%Qq%%%%%%%Qq%Qq%%%%%%%%%%%%%%%%%%%%%
461A44%%%%%%%%%%%%%%%%%%%%%%%%%%qQ%%%%%%%%%%Qq%%%%%%%%%%%%%%%%%%%%%%%%%%%%%%
445A44%%%%%%%%%%%%%%%%%%%%%%%%%%%%%%%%%%%%%%%%%%%%%%%%%%%%%%%%%%%%%%%%%%%%%%
429A44%%%%%%%%%%%%%%%%%%%%qQ%%%%%%%%%%%%%%%%%%%%%%%%q%Q%%%%%%%%%%%%%%%%%%%%%
413A44%%%%%%%%%%%qQ%%%%%qQ%%%%%%%%%%%%%%%%%%%q%%%Q%%q%Q%%%%%%%%qQ%%%%%qQ%%%%
397A44%qQ%%qQqQqQ%q%%QqQq%%Qq%%%%%%%%%%%%%%%%%%%%Q%q%%%%%%%%%%%%%%%%%%%%%%%%
381A36%%%%%%%%%%%%%%%%%%%%%%%%%%%%%%%%%%%%%%%%%%%%%%%%%%%%%%%%%%%%%%%Qq%%Q%q
365A36%%%%%%%%%%%%%%%%%%%%%%%%%%%%%%%%%%%%%%%%%%%%%%%%%%%%%%%%%%%%%%%%%%%%%%
349A36%%%%%%%%%%%%%%%%%%%%%%%%%%%%%%%%%%%%%%%%%%%%%%%qQ%%qJ6q%Qq%%%%%%%%%%%%
333A36%%%%%%%%%%%qQ%%%%%%%%%%%%%%%%%%qQ%%%%%%%%%%%%qQ%%%%%%%%%%%%%%%%%%qQ%%%
317A36%%%%%%%%%%%%qQ%%%%%%q%Q%%qQ%%qQ%%%qQq%Q%%q%%%%%QqQq%Q%%q%%QqQ%q%QqQqQq
301A28Q%%qQ%%q%QqQq%Qq%QqQ%%q%Qq%Qq%%%%%%%Qq%%%%%%Qq%%%%%%%%%%%%%%%%%%%%%%%%
285A28%%%%%%%%%%%%%%%%%%%%%%%%%%%%%%%%%%%%%%%%%%%%%%%%%%%%%%%%%%%%%%%%%%%%%%
269A28%%%%%%%%%%%%%%%%%%%%%%%%%%%%%%%%%%%%%%%%%%%%%%%%%%%%%%%%%%%%%%%%%%%%%%
253A28%%%%%%%%%%%%%%%%%%%%%%%%%%%%%%%%%%%%%%%%%%%%%%%%%%%%%%%%%%%%%%%%%%%%%%
237A28%%%%%%%%%%%%%%%%%%%%%%%%%%%qQ%%%%%%%%%%%%%%%%%%%%%%%%%%%%%%%%qQ%%qQq%Q
221A28%%%%qQ%%%qQ%%%q%Q%qQ%%%%%%%%%%%%%%%%%qQ%%%%%%%%%%%%%%%%%%qQ%%q%Q%q%Q%q
205A20QqQq%%Qq%%%%%Qq%Q%%%%%%%%%%%%qQ%qQ%q%Qq%%%Qq%Q%q%QqQ%qQ%%%qQq%Qq%%%QqQ
189A28q%%%%%%%%%%%%%%%Qq%Qq%%%%%%%%%%%%%%%%%%%%%%%%%%%%%%%%%%%%%%%%%%%%%%%%%
173A20%%%%%%%%%%%%%%%%%%%%%%%%%%%%%%%%%%%%%%%%%%%%%%%%%%%%%Qq%%%%%%%%%%Qq%%%
157A20%%%%%%%%%%%%%%%%%%%%%%%%%%%%%%%%%%%%%%%%%%%%%%%%%%%%%%%%%%%%%%%%%%%%%%
141A20%%%%%%%%%%%%%%%%%%%%%%%%%%%%%%%%%%%%%%%%%%%%%%%%%%%%%%%%%%%%%%%%%%%%%%
125A20%%%%%%%%%%%%%%%%%%%%%%%%%%%%%%%%%%%%%%%%%%%%%%qQ%%%%%%%%%%%%%%%%%%%%%%
109A20%%%qQ%%%%%%%%%%%q%Q%qQ%q%J6q%%q%QqQ%%q%Q%qQqQ%q%QqQ%%%qQqQ%qQqQq%Q%qQ%
93A20q%Q%qQ%%q%Qq%%Qq%%%%%QqQ%q%Qq%%%%Qq%%%QqQq%%%%%%%%Qq%%%Q%q%%%%%%%Qq%%Qq
77A12%%%%%%Qq%%%%QqQ%q%%%Qq%%%%%%%%Qq%%%%%%%%%%%%%%%%%%%%%%%%%%%%%%%%%%%%%%%
61A12%%%%%%%%Qq%%%%%%%%%%%%%%%%%%%%%%%%%%%%%%%%%%%%%%%%%%%%%%%%%%%%%%%%%%%%%
44A12%%%%%%%%%%%%%%%%%%%%%%%%%%%%%%%%%%%%%%%%%%%%%%%%%%%%%%%%%%%%%%%qQ%%%%%%
28A12%%%%%%%%%%%%%%%%%%%%%%%%%%%%%%%%%%%%%%%%%%%%%%%%%%%%%%%%%%%%%%%%%%%%%%%
12A12%%%%%%%%%%%%%%%%%%%%%%%%%%%%%%%%%%%%%%%%%%%%%%%%%%%%%qQ%%%%%%%%%%%%%%%%
-4A12%%%%%%%%%%%%%%%%q%Q%%%%%%%%%%%%%qQqQ%q%%QqQqQ%%%q%Q%q%%Qq%%Q%%qQ%%%%%%%
-21A12%%%%%%%%%%%%%%%%%%%%qQ%qQ%q%%QqQ%%%%%%qQq%QqQ%qQ%%qQ%%%%%%q%Q%q%%%QqQ%
-37A12qQ%%%q%%%%%%%%%%%%Qq%%%%Q%%q%%%%%Qq%%QqQq%Qq%%%Q%qQq%%QqQ%qQq%%Q%q%Qq%
-53A04%%%%%%%%%%%%%%%%%%%%%%%%%%%%%%%%%%%%%%%%%%%%%%%%%%%%%%%%%%%%%%%%%%%%%%
-69A04%%%%%%%%%%%%%%%%%Qq%%%%%%%%%%%%%%%%%%%%%%%%%%%%%%%%%%%%%%%%%%%%%%%%%%%
-85A04%%%%%%%%%%%%%%%%%%%%%%%%%%%%%%%%%%%%%%%%%%%%%%%%%%%%%%%%%%%%%%%%%%%%%%
-101A04%%%%%%%%%%%%%%%%%%%%%%%%%%%%%%%%%%%%%%%%%%%%%%%%%%%%%%%%%%%%%%%%%%%%%
-117A04%%%%%%%%%%%%%%%%%%%%%%%%%%%%%%%%%%%%%%%%%%%%%%%%%%%%%%%%%%%%%qQ%%%qQq
-132I6Q%%%%%%qQqQ%%%%%%%%%%%%%%%%qQ%qQ%%%%%%%%%%%%%%%%%%%%%%%%%%%qQ%%%%qQ%%%
-148A04%%%%%%%%%%%%%%%%%%%%%%%%%%%%qQ%%%%%%%%%%%%%%qQ%%%q%%%Qq%QqQ%%%%qQ%%%%
-164A04%%%%%%qQqQ%%%%%%%%%%qQ%q%Q%q%%Qq%Qq%QqQq%%%%%Q%qQqQ%qQ%q%%%%%Q%%%%q%Q
-180A04qQqQq%%%%Qq%Q%qQq%Qq%Qq%%%%Qq%Qq%Q%%%q%Qq%Qq%Q%%q%%%%%%%%Q%q%%%%%%%%%
-196I6%%%Qq%%%Q%q%%%%%%%%%%%%%%%%%%%%%%%%%%%%%%%%%%%%%%%%%%%%%%%%%%%%%%%%%%%
-212I6%%%%%%%%%%%%%%%%%%%%%%%%%%%%%%%%%%%%%%%%%%%%%%%%%%%%%%%%%%%%%%%%%%%%%%
-228I6%%%%%%%%%%%%%%%%%%%%%%%%%%%%%%%%%%%%%%%%%%%%%%%%%%%%%%%%%%%%%%%%%%%%%%
-244I6%%%%%%%%%%%%%%%%%%%%Qj6QqJ6q%%%%%%%%%%%%%%%%%%%%%%%%%%%%%%%%%%%%%%%%%%
-259I6%%%%%%%%%%%%%%%%%%%%%%%%%%%%%%%%%%%%%%%%%%%%%%%%%%%%%%%%%%%%%%%%%%%%%%
-275I6%%%%%%%%%%%%%%%qQ%%%%%%%%%%%%%%%%%%%%%%%%%%%%%%%%%%%%%%%%%%%%%%%%%%%%%
-291I6%%%%%%%q%Q%%%%%%%%%%%%%%%%%%%%%%%%%%%%%%%%%%%%%%%%%%%%%%%%%%%%%%%qQ%%%
-307I6%%%%%qQ%qQ%%%%q%Q%qQ%qQqQ%%qQq%%Q%%%%%%%%%%%qQ%%%%%%q%%Q%%%%%%q%Q%%qQq
-323H8Q%%qQ%%%%%%%%%%qQ%qQ%%%%%qQ%%%%%%%%%%%qQqQ%%qQ%q%Q%q%%Qq%%%Q%%%qQq%%%%
-340H8Q%q%%%%%%Q%q%Q%qQq%Qq%%Q%qQq%Qq%Q%%qQ%qQq%Qq%%%%%%%%Qq%Qq%%%Q%%q%%Qq%%
-356H8%%%%%%%%%%%%%%%Q%qQqQq%%%%QqQqq%J6qQQj6%QqJ6k4%%qQ%L2k4QqqK4j6%Q%qQqQ%
-370I6%qQqQ%q%qQ%%%%%%%%%%%%%%%%Qq%%%%Qq%%%%%%%%%%%%%%%%%%%%%%%%%%%%%%%%%%%%
-386H8%%%%%%%%%%%%%%%%%%%%%%%%%%%%%%%%%%%Qq%%%%%%%%%%%%%%%%%%%%%%%%%%%%%%%%%
-402H8%%%%%%%%%%%%%%%%%%%%%%%%%%%%%%%%%%%%%%%%%%%%%%%%%%%%%%%%%%%%%%%%%%%%%%
-418H8%%%%%%%%%%%%%%%%%%%%%%%%%%%%%%%%%%%%%%%%%%%%%%%%%%%%%%%%%%%%%%%%%%%%%%
-434H8%%%%%%%%%%%%%%%%%%%%%%%%%%%%%%%%%%%%%%%%%%%%%%%%%%%%%%%%%%%%%%%%%%%%%%
-450H8%%%%%%%%%%%%%%%%%%%%%%%%%%%%%%%%%%%%%%%%%%%%%%%%%%%%%%%%%%%%%%%%%%%%%%
-466H8%%%%%%%%%%%%%%%%%%%%%%%%%%%%%%%%%%%%%%%%%%%%%%%%%%%%%%%%%%%%%%%%%%%%%q
-482H0Q%%%%%%%%qQ%%qQ%qQ%%%%%qQ%%%%%q%Q%%qQ%q%%%%%Q%qQ%%%%%q%Q%%qQ%qQqQqQ%%q
-498H0QqQ%qQq%Q%%%%%%%%%%%%%%%%qQ%%%%%%q%Q%%%%%qQ%%%%%%qQ%%%%%%%%%%%%qQ%%%qQ
-514H8qQ%q%QqQ%%q%%Q%q%QqQ%qQq%QqQ%q%%Q%qQq%QqQ%%qQqQ%%%qQ%%qQqQqQq%Q%qQq%%Q
-530H8%%q%%%%%%%%%%%%%%%%%Q%q%%%QqQ%q%%%%%%%%%%%%%%%%%%%%%Qq%Qq%%%Qq%%%%Qq%%
-546H0%%Qq%%%%%%%%%%%%%Qq%%%%%%Qq%%%%%%%%%%%Qq%%%%%%Qq%%%%%%%%%%%%%%%%%%%%%%
-562H0%%%%%%%%%%%%%%%%%%%%%%%%%%%%%%%%%%Qq%%%%%Qq%%%%%%%%%%%%%%%%%%%%%%%%%%%
-578H0%%%%%%%%%%%%%%%%%%%%%%%%%%%%%%%%%%%%%%%%%%%%%%%%%%%%%%%%%%%%%%%%%%%%%%
-594H0%%%%%%%%%%%%%%%%%%%%%%%%%%Qj6J6%%q%%%%%%%%%%%%%%%%%%%%%%%%%%%%%%%%%%%%
-610H0%%%%%%%%%%%%%%%%%%%%%%%%%%%%%%%%%%%%%%%%%%%%%%%%%%%%%%%%%%%%%%%%%%%%%%
-626H0%%%%%%%%%%%%%%%%%%%%%%%%%%%%%%%%%%%%%%%%%%%%%%%%%%%%%%%%%%%%%%%%%%%%%%
-642H0%%%%%%%%%%%%%%%%%%%%%%%%%%%%%%%%%%%%%%%%%%%%%%%%%%%%%%%%%%%%%%%%%%%%%%
-658H0qQ%%%%%%%%%%%%%%%%%%%%%%%%%%%%%%%%%%%%%%qQ%%%%%%%%%%%%%%%%%%%%%%%%qQ%%
-674H0%%%%%%%%%%%%%%%%%%%%%%%%%%%%%%%%%%%%%%%%%%%%%%%%%%%%%%%%%%%%%%%%%%%q%Q
-690H0%%%%%%%%%%%%%%%%%%%%%%%%%%%%qQ%%%%%%%%%%q%%%%Qq%%%Qq%QqQ%%q%%%%QqQ%%%%
-706H0%%%%%%%%q%QqQ%%%%%%%%%qQ%%%%%q%%%Qq%Q%qQ%%qQ%q%QqQ%%%qQq%%%QqQ%%q%Q%%%
-722H0qQqQq%QqQ%%%qQ%%%%%%%%%%q%Q%q%QqQq%%%%%Q%q%Q%%%qQ%qQqQq%Qq%%%Qq%%%%%%%
-738G2%%%%%%%%%%%%Q%q%%%%%%%%%%%%%Q%q%%%%%%%%Qq%Qq%%%Q%%%q%%Qq%%%%%%%%%%%%%%
-754G2%%%%%%%%%%%%%%%%%%%%%%%%%%%%%%%%%%%Qq%%%%%%%%%%%%%%%%%%%%%%%%%%%%%%%%%
-770G2%%%%%%%%%%%%%%%%%%Qq%Qq%%%%%Qq%Qq%%%%%%%%%%%%%%%%%%%%%%%%%%%%%%%%%%%%%
-786G2%%%%%%%%%%%%%%%%%%%%%%%%%%%%%%%%%%%%%%%%%%%%%%%%%%%%%%%%%%%%%%%%%%%%%%
-802G2%%%%%%%%%%%%%%Qq%%Qq%%%Qq%%%%%%%%%%%%%%%%%%%%%%%%%%%%%%%%%%%%%%%%%%%%%
-818G2%%%%%%%%%%%%%%%%%%%%%%%%%%%%%%%%%%%%%%%%%%%%%%%%%%%%%%%%%%%%%%%%%%%%qQ
-834G2%qQ%Qq%%qQ%%%%%%%%%%%%%%%%%%%%%%%%%%%%%%%%%%%%%%%%%%%%%%%%%%%%%%%%%%%%
-850G2%%%%%%%%%%%%%%%%%%%%%%%%%%%%%%%%%%%%%%%%%%%%%%%%%%%%%%%%%%%%%%%%%%%%%%
-866G2%%%%%%%%%%%%%%%%%%%%%%%%%%%%%%%%%%%%%%%%%%%%%%%%%%%%%%%%%%%%%%%%%%%%%%
-882G2%%%%%%%%%%%%%%%%%%%%%%%%%%%%%%%%%%%%%%%%%%%%%%%qQ%%%%%%%%%%%%%%%%%%%%%
-898G2%%%%%%%%%%%%%%%%%%%%%%%%%%%%%%%%%%%%%%%%%%%%%%%%%%%%%%%%%%%%%%%%%%%%%%
-914G2%%%%%%%%%%%%%%%%%%%%%%%%%%%%%%%%%%%%qQ%%%%%qQ%%%%%%%%%%%%%%%%qQ%%%%%%%
-930G2%%%%%%%%%%%%%%%%%%%%%%%%%qQ%%%%%%%%%%%%qQqQ%%%%%%%%%%%%%%%%%%%%qQ%%%%%
-946G2%%%%%%%%%%%%%qQ%qQ%%%%qQ%qQ%%%qQ%qQ%%qQ%%%%%%%%%%%%%qQ%%%%%%%%%%%%%%%q
-962F4Q%qQ%%%%%%%%%qQ%%qQqQ%%%%%%%%qQ%%%qQ%%%%q%%Q%qQ%%%%qQ%%%%qQqQqQqQ%q%Qq
-978F4Q%%qQq%Q%q%%%Q%q%%Qq%Qq%QqQq%%Qq%%%%%Q%%%%%%%%%q%%Q%qQ%%q%%%%Q%q%%Q%%%
-994G2q%Q%qQ%qQqQq%%%%%Q%q%%%%%%%%Q%q%%%%%%%QqQq%%%%%%%%%%%%%%%%%%%%%%%%QqQ%
-1010G2q%%%%%%%%%%%QqQq%%%%%%%%%%%%%%%QqQqQq%Qq%%%%%%%%%QqQq%Qq%%%%%%%%%QqQq
-1026F4%%%%%%%%%%%%%%%%%%%%%%%%%%%%%%QqQq%%%%%%%%%%%%%%%%%%%%%%%%%%Qq%%%%%%%
-1042F4%%%%%%%%%%%%%%%%%%%%%%%%%%%%%%%%%%%%%%%%%%%%%%%%%%%%%%%%%%%%%%%%%%%%%
-1058F4%%%%%%%%%%%%%%%%%%Qq%%%%%%%%%%%%%%%%%%%%%%%%%%%%QqQq%%Qq%%%%%%%%%%%%%
-1073F4%%%%%%%%%%%%%%%%%%%%%%%%%%%%%%%%%%%%%%%%%%%%%%%%%%%%%%%%%%%%%%%%%%%%%
-1089F4%%%%%%%%%%%%%%%%%%%%%%%%%%%%%%%%%%%%%%%%%%%%%%%%%%%%%%%%%%%%%%%%%%%%%
-1105F4%%%%%%%%%%%%%%%%%%%%%%%%%%%%%%%%%%%%%%%%%%%%%%%%%%%%%%%%%%%%%%%%%%%%%
-1121F4%%%%%%%%%%%%%%%%%%%%%%%%%%%%%%%%%%%%%%%%%%%%%%%%%%%%%%%%%%%%%%%%%%%%%
-1136F4%%%%%%%%%%%%%%%%%%%%%%%%%%%%%%%%%%%%%%%%%%%%%%%%%%%%%%%%%%%%%%%%%%%%%
-1152F4%%%%%%%%%%%%%%%%%%%%%%%%%%%%%%%%%%%%%%%%%%%%%%%%%%%%%%%%%%%%%%%%%%%%%
-1168F4%%%%%%%%%%%%%%%%%%%%%%%%%%%%%%%%%%%%%%%%%%%%%%%%%%%%%%%%%%%%%%%%%%%%%
-1184F4%%%%qQqQ%%%%%%%qQ%qQ%%%qQ%%%%%%%%%%%%%%%%%%%%%%%%%%%%%%%%%%%%%%%%%%%q
-1200E6Q%%%%%%%%qQ%%%%%%%%%%%%%%%%%%%%%%%%%%%%%%%%qQ%%%%%%%%%%%%%%%%%%%%%%%%
-1215F4%%%%%qQ%%%%%%%%%%%%%%%%%%%%%%%qQ%%%%%%%%%%%%%qQ%q%Q%%%%%%%%%%%%%qQ%q%
-1231E6%Q%%%%%%%%%%%%%%%%%q%Q%%%qQ%%%%%%%%%%%%%%%%%%%%%%%%%%%%%%%%%%%qQqQ%%%
-1247F4%%%%qQ%%%%%%
-1250F4
##$OBSERVED MULTIPLETS=	(I, X, Y, Hs, Vs, An, H, C, N, (J))
$$ I: Multiplet Index
$$ X: Strt Coordinate
$$ Y: End Coordinate
$$ Hs: Horizontal Chemical Shift
$$ An: Normalised Integral Area
$$ H: Hydrogens
$$ C: Category
$$ N: Name
$$ (J): Coupling Constants
(1, 27.012083388509900317, 27.133276897996616128, 27.072680143253258223, 6, 6, s, 1&comma;2&comma;3&comma;4&comma;5&comma;6)
##$OBSERVED MULTIPLETS AREAS=	
(1, 7.2708109124546442814)
##$OBSERVED MULTIPLETS PEAKS=	(I, X, Y)
$$ I: Multiplet Peak Index
$$ X: Peak x Position
$$ Y: Peak Intensity
(1, 27.072680143253258223, 0.6994113922119140625)
##$PREDICTED PEAKS=	(X Y T A)
(27.069700932861877618,  , 3, <1>)
(27.069700932861877618,  , 3, <2>)
(27.069700932861877618,  , 3, <3>)
(27.069700932861877618,  , 3, <4>)
(27.069700932861877618,  , 3, <5>)
(27.069700932861877618,  , 3, <6>)
##$PREDICTEDCOUPLINGCONSTANTS=	J(A,B)	$$ (Hz)
124.61(1, 1)
124.61(2, 2)
124.61(3, 3)
124.61(4, 4)
124.61(5, 5)
124.61(6, 6)
##END=		$$ NMR SPECTRUM
##TITLE=	Predicted 13C NMR Spectrum
##JCAMP-DX=	6.0	$$ MestReNova 17.0.0-41178
##DATA TYPE=	NMR PEAK TABLE
##DATA CLASS=	PEAK TABLE
##BLOCK_ID=	4
##ORIGIN=	Mestrelab Research S.L.
##OWNER=	ctheodore
##CROSS REFERENCE=	NMR SPECTRUM: BLOCK_ID=3                                     
##.OBSERVE FREQUENCY=	125
##.OBSERVE NUCLEUS=	^13C
##NPOINTS=	1
##FIRSTX=	27.072680143253258223
##LASTX=	27.072680143253258223
##XFACTOR=	1
##YFACTOR=	1
##FIRSTY=	0.6994113922119140625
##XUNITS=	PPM
##YUNITS=	ARBITRARY UNITS
##PEAK TABLE=	(XYW..XYW)
27.072680143253258223,0.6994113922119140625,0.012119350948671869447
##$MNOVA/PEAK_DATA_TABLE=	(T,F,A,ST,SP,APT,APC)
$$ Complementary to PEAK TABLE
$$ T: Type
$$ F: Flags
$$ A: Annotation
$$ ST: Shape Type
$$ SP: Shape Parameter
$$ APT: Attached Peaks Type
$$ APC: Attached Peaks Count
Compound,None,,0,0,0,0
##END=		$$ NMR PEAK TABLE
##END=		$$ LINK
