##TITLE=	phenol 13c
##JCAMP-DX=	6.0	$$ MestReNova 17.0.0-41178
##DATA TYPE=	LINK
##BLOCKS=	4    
##ORIGIN=	Mestrelab Research S.L.
##OWNER=	ctheodore
##$MNOVA/METADATA=	(DOCUMENT,BASE64)
eyJuYW1lIjoiL1VzZXJzL2N0aGVvZG9yZS9Eb2N1bWVudHMvY2xhc3Nlcy9OTVIgZXhwZXJpbWVudC9
naXRodWIgZmlsZXMvcGhlbm9sL3BoZW5vbCAxM2MubW5vdmEiLCJwYWdlcyI6W3siaXRlbXMiOlsiMS
IsICAgICAgICAgICAgICAgICAgICAgICAgICAgICAgICAgICAgICIzIiAgICAgICAgICAgICAgICAgI
CAgICAgICAgICAgICAgICAgICBdfV19
##TITLE=	
##JCAMP-CS=	3.7	$$ MestReNova 17.0.0-41178
##BLOCK_ID=	1
##ORIGIN=	Mestrelab Research S.L.
##OWNER=	ctheodore
##$MNOVA/METADATA=	(ITEM,BASE64)
eyJhbmdsZSI6MC4wLCJwb2ludHMiOlt7IngiOjUzMjEuMCwieSI6NTgzNS4wfSx7IngiOjU1MjIuNTE
xODMxMTU3ODk3LCJ5Ijo1ODM1LjB9LHsieCI6NTUyMi41MTE4MzExNTc4OTcsInkiOjYxOTEuMTU0OD
k0NzE3Mzl9LHsieCI6NTMyMS4wLCJ5Ijo2MTkxLjE1NDg5NDcxNzM5fSx7IngiOjUzMjEuMCwieSI6N
TgzNS4wfV0sInoiOjEuMH0=
##NAMES=	
##ATOMLIST=	
$$ AN	AS	NH
	1	C	1
	2	C	1
	3	C	1
	4	C	1
	5	C	1
	6	C	 
	7	O	1
##BONDLIST=	
$$ AN1	AN2	BT
	1	2	D
	2	3	S
	3	4	D
	4	5	S
	5	6	D
	6	1	S
	6	7	S
##MAXRASTER=	32768
##XY_RASTER=	
$$ AN	X	Y	Z
	1	-18919	0	0
	2	-18919	21845	0
	3	0	32768	0
	4	18919	21845	0
	5	18919	0	0
	6	0	-10922	0
	7	0	-32768	0
##END=		$$ JCAMP-CS
##TITLE=	Predicted 13C NMR Spectrum
##JCAMP-DX=	6.0	$$ MestReNova 17.0.0-41178
##DATA TYPE=	NMR PEAK ASSIGNMENTS
##DATA CLASS=	ASSIGNMENTS
##BLOCK_ID=	2
##ORIGIN=	Mestrelab Research S.L.
##OWNER=	ctheodore
##CROSS REFERENCE=	STRUCTURE: BLOCK_ID=1                                     
NMR SPECTRUM: BLOCK_ID=3                                     
##.OBSERVE FREQUENCY=	125
##.OBSERVE NUCLEUS=	^13C
##NPOINTS=	6
##XUNITS=	PPM
##YUNITS=	ARBITRARY UNITS
##PEAKASSIGNMENTS=	(XYWA)
(115.83366455466352818, 0.15106952190399169922, 0.006059681223170798603, <1>)
(129.60837313198203447, 0.16513888537883758545, 0.0060596777425843129095, <2>)
(120.9282190962881316, 0.075534999370574951172, 0.0060596994962764938464, <3>)
(129.60837313198203447, 0.16513888537883758545, 0.0060596777425843129095, <4>)
(115.83366455466352818, 0.15106952190399169922, 0.006059681223170798603, <5>)
(155.59206629916792508, 0.048570252954959869385, 0.00605967745913460476, <6>)
##END=		$$ NMR PEAK ASSIGNMENTS
##TITLE=	Predicted 13C NMR Spectrum
##JCAMP-DX=	6.0	$$ MestReNova 17.0.0-41178
##DATA TYPE=	NMR SPECTRUM
##DATA CLASS=	XYDATA
##BLOCK_ID=	3
##ORIGIN=	Mestrelab Predictor
##OWNER=	ctheodore
##NUMDIM=	1
##$MNOVA/METADATA=	(ITEM,BASE64)
eyJhbmdsZSI6MC4wLCJheGVzIjp7IngiOnsibWF4IjoyMzAuMDI1MzAyNzgzMzA2MTYsIm1pbiI6LTk
uOTk5MjY4ODY0ODg3NjM4fSwieSI6eyJtYXgiOjAuMTgxNjUyODQwMjI2ODg4NjYsIm1pbiI6LTAuMD
E2NTEzOTAwNTIxOTU5MDAyfX0sInBvaW50cyI6W3sieCI6NTMyMS4wLCJ5Ijo1ODM1LjB9LHsieCI6O
DcyMi4wLCJ5Ijo1ODM1LjB9LHsieCI6ODcyMi4wLCJ5Ijo4MjA4LjB9LHsieCI6NTMyMS4wLCJ5Ijo4
MjA4LjB9LHsieCI6NTMyMS4wLCJ5Ijo1ODM1LjB9XSwieiI6MC4wfQ==
##.OBSERVE FREQUENCY=	125
##.OBSERVE NUCLEUS=	^13C
##.SOLVENT NAME=	DMSO-d6
##.PULSE SEQUENCE=	
##.ACQUISITIONMODE=	SIMULTANEOUS (DQD)
##$ORIGINAL FORMAT=	Predictor
##$MNOVA/SCALES_VERSION=	9
##$PARAMETER FILE=	(parameters, ASCII, , 0)
$$ <?xml version="1.0" encoding="utf-8"?>
$$ <PredictorParameters>
$$     <Title>Predicted 13C NMR Spectrum</Title>
$$     <Origin>Mnova: NMR Prediction</Origin>
$$     <Name>Mestrelab Predictor</Name>
$$     <Version>1.7</Version>
$$     <Nucleus>13C</Nucleus>
$$     <Solvent>DMSO-d6</Solvent>
$$     <From>-10</From>
$$     <To>230</To>
$$     <Frequency>125</Frequency>
$$     <LineWidth>1.5</LineWidth>
$$     <Size>131072</Size>
$$     <DEPT>0</DEPT>
$$     <ProtonatedCarbons>0</ProtonatedCarbons>
$$     <ExcludeLabile>false</ExcludeLabile>
$$     <FastPrediction>0</FastPrediction>
$$     <ProtonDecoupled>1</ProtonDecoupled>
$$     <Reference/>
$$     <Options>
$$         <Settings>
$$             <Predictor Name="Mestrelab Predictor">
$$                 <Settings>
$$                     <Model>/Applications/MestReNova.app/Contents/Resources/data/13C.mbst</Model>
$$                 </Settings>
$$             </Predictor>
$$         </Settings>
$$     </Options>
$$     <MoleculeID>{f716cc30-cf12-4b0d-9cb9-e4b622df1c60}</MoleculeID>
$$ </PredictorParameters>
$$ 
##XUNITS=	HZ
##YUNITS=	ARBITRARY UNITS
##FIRSTX=	28750
##LASTX=	-1249.7711181640625
##DELTAX=	-0.2288818359375
##XFACTOR=	1
##YFACTOR=	7.6898813741459130069E-11
##FIRSTY=	3.334114317965486407E-09
##MINY=	-5.2785527060450476711E-09
##MAXY=	0.16513894498348236084
##NPOINTS=	131072
##XYDATA=	(X++(Y..Y))
28750D3q%%%%%Qq%Qq%Q%%%%%%qQ%%%%q%%Q%q%%%%%Q%qQ%%q%Qq%%%QqQ%qQ%%%q%Q%q%%%Q%%
28734D3q%Q%%%%%%%%%%%%%%%%%%%%%%%%%%%%%%%%%q%%Qq%%Q%q%Q%%%qQqQ%%%%%%%%q%Q%%q
28718C5Q%%%q%Q%%%qQ%%q%Q%%%%%%%%%qQq%%Q%%q%Q%%%%qQQq%j6J6%qQ%%qQ%%%q%%Q%qQ%%
28703D3%qQ%qQqQ%%%%%%%%qQ%qQ%%%%%%%q%QqQq%%%%%%QqQq%%%%Qq%%%Qq%Qq%%Q%%qQ%%qQ
28687D3%q%%%%%%%%%%Qq%%Q%qQq%%%%Qq%Q%%%q%%Q%%qQ%qQ%%%%%%%%%%%%qQq%%%%%%%%%Q%
28671D3%%%%%%%%%%q%%%%%%%Q%%%%%%qQ%%%%%%%%%%%%qQq%%%%QqQq%%%Q%q%%%%%Qq%%Q%q%
28656C5Q%q%Qq%%%%%%%%%Q%qQ%%%%%qQqQ%%qQqQ%qQ%%%%%%%%%%%%%%%%q%QqQ%%%%qQqQqQ%
28640D3%q%%%%%%%%%%%Q%qQq%%%Qq%Q%%%%q%%QqQ%%%q%Qq%%%%%%Q%%%%%%%%%%%%%%%qQq%Q
28624D3%%%qQ%qQqQ%%%q%Q%qQq%%Q%%qQ%qQqQ%%%%%q%Q%qQ%%%qQ%qQ%q%Q%%%%%%%%%q%QqQ
28608D3%q%%%%Qq%QqQqQqQ%%%%%%%%%%qQ%%qQ%%%qQq%%%%%Q%%q%%Q%%%%%q%Q%%q%%QqQ%%q
28593C5Q%%%%%%%%%%%%%%%%%%%%%%%%%%%%%%%%%%%%%%%%%%%%%%%q%Q%%qQ%%%%%%%%%%%%%%
28577D3%%%%%%%q%Q%q%Q%%qQq%Q%%%%%%%qQ%%%%qQ%q%Q%%%%qQ%%%%%%qQqQ%qQ%q%Q%%%%q%
28561C5%%%%%Qq%%%Q%qQqQqQ%%%%%%%%%%%%%%%%%%%%%%%%%%%%%%qQ%qQ%%%qQ%%%%%%%%%%%
28545D3%%%%%qQ%qQq%Q%%qQ%%j6%qJ6qQQj6QQ%q%%%Q%qQ%%%%qQq%Qq%%Q%%%%%%qQ%%%%%q%
28530C5%%Q%%qQq%Q%%%q%Q%%qQ%q%%Q%%%%q%Q%%qQ%%%%%%q%%%Q%%qQ%%%%%%%%%%%%%%%%%%
28514D3%%%%qQ%%%%%%%%%Qq%%%%%%%%%%%%%%%%%%%%%q%Q%%%%qQ%qQ%%%%q%%Q%%%%%%%%%%%
28498D3%%%%%%%%qQ%qQ%%%q%%%%%%%Q%%%%q%Q%%%%%%%%%%%%%%%%%%%qQ%q%QqQ%%%%%%%%%q
28483C5Q%q%%%Q%%%%%%%%%%%%%%%%q%Q%%%%q%%%%%%Qq%Qq%Q%q%%Qq%%%%%%%%Q%q%Q%%qQ%q
28467C5Q%%%%%%%%%%%%qQ%qQ%%%%%%%%%%%%%q%Q%%%%%%qQ%q%%Qq%%%%%%Q%qQ%%qQ%%%%%qQ
28451D3%qQ%qQ%%%%%%%%%%%%%%%%%%%qQqQ%qQqQqQqQ%%%%%%%%%%%%qQ%qQq%Qq%QqQ%%%%%%
28435D3%qQ%%%%%q%%%%%%%%%%%%%Q%%%%%%%qQ%%%%%%%%%%%%%qQqQ%%%qQq%Q%q%Q%%%%qQqQ
28419D3%qQ%%q%QqQqQ%%%qQ%%%%%%%%%%%%%%q%Q%%%%%%%%%%%%qQ%qQ%%%%%%q%Qq%%%Q%qQq
28404C5%%%Q%qQ%q%%%QqQ%%%%%%%%%%%%%%%%qQ%%%%%%%%%%%%%%%%qQ%%%%%%%%%%%qQ%q%Q%
28388D3%qQj6%K4k4J6%%%%%%%%%%%%%%%qQ%%%%qQ%%%%%%%%%%%%%%%q%%Q%%qQ%%%%%%%%%%%
28373D3%%%%%%%%%%%%%%%%%%%%%%%%qQq%%Q%%%%%%%qQq%Q%qQ%%%%%%%qQ%%%%%%%%%%%%q%Q
28357D3%%%%%%%%%%%qQ%q%Q%qQq%Q%%%%%%%%%%%qQ%%%%%%%%%%%%%%%%qQ%q%%%%%%%QqQ%%q
28341C5Q%%%%%%%%%%%%%%%%%%%%%%%%%%%%%%%%%%%%%%%%qQqQ%%q%Q%%%%%%%%%%%q%Q%%%%%
28326D3%%%%%%qQ%%%qQ%%%%%%qQ%%%%%%%%%%%%%%%%%%%%%%%%%%%%%%%%%%%%%%%%%%%%qQ%%
28310D3%%%%%%%%%%%%Qq%q%%QqQ%%%qQ%%%%%%%%%%%%%qQqQ%%%%%%%%%qQ%%%%%%%qQ%%%%%%
28294D3%%qQ%qQ%%%%%%%%%%%%%qQq%Q%%%q%%%Q%q%Q%qQ%%qQ%%%%%%qQ%%%%%%%%%%%%%%%%%
28278D3%%%%%%%%%%q%Q%%%%%%%%%%%%%%%%%%%qQ%qQ%q%%%%Q%%%%%%%%%%%%%%%%%%%%%%%%%
28262D3%%%%%%%%%%%%%%%%%%%%%%%%%%%%%%%%q%Q%%%q%Q%%%%%%%q%%Q%%qQ%%%%%%%%%%qQ%
28247D3%%%%%%%%%%%%%%%%%q%%Qq%%%Q%q%qK4j6J6j6QqQ%%qQq%Q%%%%%%%%%%%%%%%qQqQqQ
28232D3q%Q%%%%%q%Q%%qQ%%%%%%%%%qQ%%%%q%Q%%%%%%%%%%%%%%%%%%%%%%%%%%%q%Q%%%%%%
28216D3%%%%%%%%%%%%%%%%%%%%%%%%q%QqQqQ%%%%%%%%%%%%%%%%%%%%%%%%%%%%qQ%%%%%%%%
28200D3%%%%%%%%%%%%%%%%%qQ%%%%%%%%%%%%%%%%qQ%%%%%%%%q%Q%Qj6%%Q%%%%%%%%%%%%%%
28185D3%%%%%%%%%%%%%%%Q%q%%%%%%%%%%%%%%%%%%%%%%%%%%%%%%%%%%%%%%%qQ%%%qQ%%%%%
28169D3%%%%%%%%%%%%qQ%%%%%%%%%%%%%%%%%%qQqQ%%%%%qQ%%%%qQ%qQ%%%%%%%%%%qQ%q%Qq
28153C5%Q%qJ6j6J6q%%%%%%%%%%q%Q%%%%%%%%%%%%%%%%%%%%%%%%qQqQ%%%%%%%%%%%%%%%%%
28138D3%%%%%qQ%%%%%%%%%%%%%%%%%%%%%%%%%%%%%%%%%q%Q%%qQ%%%%%%%%%%%q%Q%q%Qq%Q%
28122D3%qQ%%%%%%%qQqQ%%%q%%%Q%qQqQq%QqQ%%qQqQqQq%Q%qQqQ%%%qQ%qQ%%qQ%%%%qQ%%%
28106D3%%%%qQ%%%%%%%%%%%%qQ%%q%QqQ%qQ%%%%%%%%%qQqQ%%%qQ%%%%%%qQ%%%%%%%%%%%%%
28091D3%qQ%%%%%%qQ%%%%%qQ%%%%%%%%%%%%q%Q%%%%%q%Q%q%%%Q%%%%%qQq%Q%q%Q%%qQ%%q%
28075C5Q%%%%%%%%Qqq%L2l2qK4j6J6q%%%%%%%%%%%%%%%%%%%%%%%%%%%%%%%%%%%%%%%%q%Q%
28060D3qQ%%%q%Q%%%%%%%%qQ%%%%%%%%%%%%%%%%%%%%%%%%%%%%%%qQ%%%%%%%%%%%%%%%%%%%
28044D3%%%%%%%%%%%%%qQ%%%%%%%%%%%%%%%%%%q%QqQ%%qQ%%%%%%%%qQ%q%%%Q%%%qQqQqQqQ
28029D3%%%%%%%%%%%%%%qQqQq%%%%%%%%Qq%%Q%%%%%%%%%%%%%%%%%%%%%%%%%%%%%%%%%%Qq%
28013D3%%%%%Qq%%%%%%%%%%%%%%%%%%%%%%%%Qq%q%Q%%%qQ%%q%Q%qQ%%%%%%%%%%q%Q%qQ%qQ
27997D3%%%%%%%%%%%%%%%%%%%%%qQ%%%%%%%%%%%%%%%%%%%%qQ%%%%%%%%%%%%%%%%%%%%%%%%
27981D3%%%%%%%%%%%%%%%%%%qQ%%qQq%Q%%qQ%%%%%%%%qQ%%%%%%%%%%%%%%%%%%%%%%%%%%qQ
27965D3q%%Q%qQ%%%%%%%%%%%%%%%%%%%%%%%%%%%%qQ%%%%%qQ%%%%%q%Q%qQqQ%%%%%%%%qQ%%
27950D3%%%%qQ%%%q%QqQ%qQ%%%qQ%q%Q%%qQqQ%%%%%%%%%%%%%%%%%%%%%%%%%%%%%%%%%%%%%
27934D3%%%%%%%%%%%%%%%%%%%%%%%%qQqQq%Qq%Q%q%Q%%qQq%Q%%%%%%qQ%%%qQ%q%QqQ%%qJ6
27918E1q%j6J6%j6J6%q%Q%qQqQ%%%%qQqQ%%%%%%qQ%%%%%%%%%%%%%%%%qQ%%qQ%%%%%%%%%%q
27903C5QqQqQ%%%%%%%%%%%%%%%%q%Q%qQ%%%%%%%%%Qq%%%%%%%%%%%%%%%%%%%%%%Qq%%%%%%%
27888D3%%%%%%%%%%%%%%%%%%%%%%%%%%%%%%%%%%%%%%%%%%%%%%%%%%%%%%%%%%%%%%%%%%%%%
27872D3%%%%%%%%%%%%%%%%%%%%%%%qQ%%%%%%%%%%%%%%%%%%%qQ%%%%qQ%%%%%%%%%%%%%%%%%
27856D3qQ%%%%%%%%%%%%%%qQ%%%%%%%%%%%%qQ%%qQ%%%%%%qQ%%%%%%%%%%%%%%%%%%%%%%%%%
27840D3%%%%%%%%%%%%%%%QqqQ%%%qQ%%%%%%qQ%%%%%%qQ%%%%qQ%%%%%%%%%%%%%%%%%%%%%%%
27824D3%%%%%%%%qQ%%%qQ%%%%%%%%%%%%%%%%%%%%%%%%%%qQ%%%%%%%%%%%%%%%%%%%%%%%%%%
27809D3%%%%%%%qQ%%%%%%%%%%%%%%%%%%qQ%%qJ6j6Q%%%%%%%%%%%%%%%%%%%%%%%%%%%%%%%%
27793D3%%qQ%%%%%qQ%%%%%%%%%%%%%%%%%%%%%%%%%%%%%qQ%%%%%%%%%%%%%%%%%Q%%q%%%%%%
27777D3%%%%%%%%%%%%%%%%%%%%%%%%%%%Q%q%%%%%%%%%%%qQ%%%%%%%%%%%%%%%%%%%%%%%%%%
27762D3%%%%%%%%%%%%%%%%%%%%%%%%%%%%%%%qQ%q%Q%qQ%%%%%%%%%%%%%%%%%%%%%%%%%%%%%
27746D3%%%%%%%qQ%%%%qQqQ%%%%%%%%%%%%%%%%%%%%%%%%%%%%%%%%%%%%%%%%%%%%%%%%%%%%
27730D3%%%%%%%%%qQ%%%%%%%%%%%%%%%%%%%%%%%%%%%%%%%%qQ%Qj6Q%%%%%%%%%%%%%%%%%%%
27715D3%%%%%%%%%%%%%%%%%%%%%%%qQ%%qQ%%%%%%%%%%%%%%%%qQ%%%%%%%%%%%%%%%%%%%%%%
27699D3%%%%%%%%%%%%%%%%%%%%%%%%%%%%%%%%%Qq%%%%%%%%%%%%%%%%%%%%%%%%%%%%%%qJ6q
27683D3%%%%%%%%%%%%%%qQqQ%%%%%%%%%%%%%%%%%%%%%%%%%%%%%%%%%%%%%%%%%%%%%%%%%%%
27667D3%%%%%%%q%Q%%%%%%%%%%%%%%%q%Q%%%%%%%%%%%%%%%%qQq%QqQ%%q%%Q%q%Q%%%%%%%%
27652D3%%%%%%%%%%%%%%%%%%Qq%%%%%%%%%%%%%%%%%%%%%%%%%%%%%%%%%%%%%%%%%%%%%%%%%
27636D3%%%%%%%%%%%%%%%%%%%%%%%%%%%%%%%%%%%%%%%%%%%%%%%%%%%%%%%%%%%%%%%%%%%%%
27620D3%%%%%%%%%%%%%%%%%qQ%%%%qQ%%%%%%%%qQ%%%%%%qQ%%%%q%%Q%%%qQ%%%%%Qq%qJ6j6
27605C5QQqq%qK4J6l2M0k4qJ6k4Q%qQ%qJ6q%Qq%%%%%%%%%%%%qQ%q%Q%%%%%%%%%%%%%%%%%%
27591D3%%%%%%%%%%%%%%%%%%%%%%%%%%%%%%%%%%%%%%%%%%qQ%%%%%%%%%%%%%%%%%%%%%%%%%
27575D3%%%qQqQ%%%%%%%%%%%%%%%%%%%%%%%%%%QqQ%%q%Q%%qQq%%%%%%%%%%%%%%%%%%%%%%%
27559D3%%%%%%%%%%%%%%%%%%%%%%%qQ%%%%%%%%%%%%%%%%%%%%%%%%%%%%%%%%%%%%%%%qQqQ%
27543D3%%%%%%%%%%%%%%%%%%%%%%%qQqQ%%%qQ%%%%%%%%%%%%%%%%%%%%%%%%%%%%%%%%%%%%%
27528D3%%%%%%%%%%%%%%%%%%%%%%%%%%%%%%%%%%%%%%%%%%%%%%%%%%%%%%qQ%%%%%%%%%%%%%
27512D3%%%%%%%%qQ%%%%%%%%%%%qQ%%%%%%%%%%%%%%%%%%%%%%%%%%%%%%%%%%%%%%%%%%%Qq%
27496D3%%%%%%%%%%%%%%%%%%%%%%%%%%%Qq%%%%%%%%%%%%%%Qq%%%%%%%%%qQ%%%%%%%%%%%%%
27480D3%%%%%%%%%%%%%%%%%%%%%%%%%%%%%%%%%%%%%%%%%%%%%%%%%%%%%%%%%Q%q%%%%%%%%%
27464D3%%%%%%%%%%%%%%%%%%%%%%%%%%%%%%%%%%%QqQqQq%%%%%%%%qQ%%Qj6%J6%k4Q%qQJ6k4
27449B7K4qQJ6j6j6Q%q%Q%%qQ%QqqJ6q%%%%%qQ%%%%%%qQ%%%%%%qQ%%%%%%qQ%%%%%%%%%%%Q
27435E1q%%%%%%%%%%%%%%%%%%%%%%%%%%%%%%%%%%%%%%%%%%%%%%%%%%%%%%%%%%%%%%%%%%%%
27419D3%%%%%%%%%%%%%%%%%%%%%%%%%%%%%%%%%%%%%%%%%%%%%%%%%%%%%%%%%%%%%%%%%%%%%
27403D3%%%%%%%%%%%%%%%%%%%%%Qq%%%%%%%%%%%%%%%%%%%%%%%%%%%%%q%QqQqQ%%%%%%%%%%
27387D3%%%%%%%Qq%%%%%%%%%%%%%%%%%%%%%%%%%%%%%%%%%%%%%%%%%%QqQq%Qq%%%%%%%%qQ%
27372D3%%%%%%%%%%%%%%%qQ%%%%%%%%%%%%%%%%%%%%%QqQqQq%%%%%Qq%%%%%%%%%%%%%%%%%%
27356D3%%%%%%%%Qq%%%%%%%%%%%%%%%%%%%%%%%%%%%%%%%%%%%%%%%%%%%%%%%%%Qq%%Qq%%%%
27340D3%%%%qQ%%%%%%%%%%%%%%Qq%%%%%%%%%%%Q%q%%%%%%%%%%%%%%%%%%%%%%%%%%%%%%%%%
27324D3Qq%%%%%%%%%%%%%%%%%%%%%%%%%%%%%%%%%%%%%%%%%%%%%%%%%%%%%%%%%%%%%%%qQ%%
27309D3%%%%%%%%%%%%%%%%%%%%%Qq%Q%j6QQj6Q%%%%%%%%%%%%%%%%%%%%%%%%%%%%%%%%%%%%
27293D3%%%%%%%%%%%%%%%%%%%%%%%%%%%%%%%%%%%%%%%%%%%%%%%%%%%%%%%Qq%%%%%%%%%%%%
27277D3%%%%%%%%%%%%%%%%%%%%%%%%%%%%Qq%%%%Qq%%%%%%%%%Qq%%%%%%%%%%%%%%%%%%%%%%
27262D3%%%%%%%%%%%%%%%%%%Qq%%%%%%%%%%%%%Qq%Qq%%%%%%%%Qq%%%%Qq%%%%%%%%%%%%%%%
27246D3%%%%%%Qq%%%%%Qq%%%%%%Qq%%%%%%%%%%%%%%%%qQ%%%%%%%%%%%%%%%%%%%%%%%%%%%Q
27230E1q%%%%%%%%%%%%%%%%%%%%%%%%%%%%%%%%%%%%%%%%%%%%%Qq%%Qq%%%%Q%qQ%qqQ%Qq%%
27214D3Qq%%%%%%%%%%%%%%%%%%%%%%%%%%%%%%%%%%%%%%%%%%%%%%%%%%%%%%%%Qq%%%%%%%%%
27198D3%%%%%%%%%%%%%%%%%%%%%%%Qq%%%%%%%%%%%%%%%%%%%%%%%%%%%Qq%%%%%%%%%%%%%%%
27183D3%Qq%%%%%%%%%%%%%%%%%%%%%%%%%%%%Q%qQ%qQ%q%%%%%%%%%%%Qq%%%%%%%%%%%%%%%%
27167D3%%%%%%%%%%%%%%%%Qq%%%%%%%Qq%%%%%Q%q%%%%%%%%%qQ%%%%%%%%%%%%%%%%%%%Qq%%
27151D3%%%%%%%%%%%%%%%%%%%%%%%%Q%q%Q%q%%%%%%%%%%Qq%%Qq%%%%%%%QqQq%%Qq%%%%%%%
27135D3Q%qQ%qqQ%%%qQ%%%%%%%%%%%%%%Qq%Q%q%%%%%%%%%%%%%%%%%%%%Qq%%%%%%%%%%%%%%
27119D3%%%%%%%%%%%%%%%%%%%%%%%%%%%%%%%%%%%%%%%%%%%%%%%%%%%%%%%%%%%%%QqQ%%%q%
27104D3%%%%%%%%%%%%%%%%%%%%%Q%qQj6J6%q%%%%Qq%%%%%%%%%%Qq%%%%%%%%%%%%%Q%q%%%%
27088D3%%%%%%%%%%%%%%%%%%%%%%Qq%%%%%%%%%%%%%%%%%%%%%%%%%%%%%%%%%%%%%%%Qq%%%%
27073D3%%Qq%%%%%%%%%%%Q%%qQ%j6Q%%Qq%%%%%%%%%%%%%%%%%%%%%%%%%%%%Qq%%%%%%%%%%%
27057D3%%%%%%%Qq%QqQq%%Qq%%%%%%%%%%%%%%%Qq%%%%%%%%%%%%%%QqQ%q%%%%%%%%%%%%%%%
27041D3Qq%Q%q%%Q%%%%%q%%%%%%%Qq%%%%Q%%q%%%%%%%%%%Q%qQq%%%%%%%%%%%%%%%%%%%%Qq
27025D3%%%%%%%%%%%%%%Q%%qQ%qQq%%%%%%%%%%%%%%QqQq%%%%%%%%%%Q%q%Q%q%Q%%q%QqQq%
27010D3QqQq%%%%%%%%%%%%%Qq%%%%%%%%%%%%%%%%%%%%%%%%%Qq%%%%%%%%%%%Qq%%%Qq%%Q%%
26994E1q%%%%%%%%%%%%%%%%%%%%%%%q%Q%%%%%%%%%%Qq%QqQq%%%%%%%%%Qq%%%qK4qq%%Q%q%
26978D3Qq%%%%%%%%%%%%%%%%%%%%Qq%%%%%%%%%%%%%%QqQ%q%Qq%%%QqQq%%%%%%%%%%%%%%%%
26962D3%%%Qq%%%%%%%%Q%q%%qJ6qQq%%%%%%%%%%%%%Q%%%q%%%%%%%%%%%Q%%%q%QqQqQ%j6K4
26947E9q%%k4K4q%Qq%Qq%%%%%%%QqQ%q%%%%%%%%%%%%%%%%%%%%%%%%%%%%%Qq%%%Qq%%%%%%%
26932D3%Qq%%QqQqQ%%q%%%Qq%%%%%%%%%%%%Qq%Qq%%%%Q%q%%%%%%%%%%%%%%%%%%%%%%%%%%%
26916D3%%%%%%Qq%%%Qq%QqQq%%%Qq%%%Qq%%%%%%%%Q%q%%QqQq%%Qq%%Qq%%%%%%%%Q%q%Q%q%
26900D3%%Qj6Q%%%Q%q%Q%q%%%%%Qq%%%%%%%%%Qq%%%Qq%%%%%%%%%%Qq%%%%%%Qq%%%%%%%Qq%
26885D3%QqQq%Q%qQ%%q%%%%%%%%%%%Qq%%%%%%%%%%%%%%%%%%%%%%%%%%%%%%%%%%%%%%Qq%Q%
26869E1%%%%%%%qQ%q%Qq%Qq%%%%%Q%j6QQ%%q%Q%q%%%%%%%%%%%%%%%%%%%Q%%%%%q%Q%q%Qq%
26853D3%Qq%%%%%%%%%%%%%%%%%%%%%%%Q%qQq%%%%%Qq%%%%%%%%%%%%QqQq%%%Qq%Q%%q%Qq%Q
26838E1q%%%%QqQq%%%%%Q%q%Q%Qq%q%QqQ%%%%q%Q%qQq%%%%%%%%%Qq%%%%%%%Q%%%%%%%%%%%
26822E1%%%%%%%%q%Q%%%%%%%%q%QqQq%%%%%%%Qq%Qq%%%%%%%%%%%Qq%%%%%%%%%%%%%%%%%%%
26806D3%%%%%%Q%q%%%%%%%%%%%%%%%%%%%%Q%q%Q%%%%q%%Qq%Qq%%Qq%Qq%%%%%Q%q%%%%QqQ%
26790E1%qQ%%q%%%Qq%%%%%%%%%%%%%Q%q%%%%Q%%q%Q%%%q%%Q%q%%%%%%Qq%Q%%%%%q%%QqQ%q
26775D3%%%QqQq%%%%%%%%%%%%%%%Qq%Q%qQ%%%%%%qQ%q%%%QqQq%%%%%%%Q%%qQ%%%qQq%%Q%%
26759E1%%%%qQqQq%%%%%%%%%Qq%%%%%Qq%%%%%%%%%%%%%%%%%%%Qq%QqQj6%J6%q%%Qq%Qq%%Q
26743E1q%%QqQqQq%%%Qq%QqQqQq%%%%%%%%%%Qq%%%%%%%%%%%%Qq%%%%%%%%QqQq%%%%%%%%%%
26728D3%%%%%%%Q%%%%qQ%%%qQ%%%%%qQ%qQ%qQq%Qq%%%%Q%%%%q%%%%Q%q%%QqQ%qQq%Q%%%%q
26712D3%%%%%%%%%%%%Q%qQ%q%%%Q%qQq%Q%%%%%%%%%%%%%qQ%qQ%%%%%%%%%qQq%Q%q%%%%%%%
26696D3%%%%%QqQq%Qq%QqQ%q%%%%%%Q%%qQqQq%%%Qq%%%%%%%%%%QqQq%%%%Qq%%Q%q%%%Q%q%
26680D3QqQq%Qq%Q%%%qQ%q%%%%%%Q%qQ%qQqQ%%%%%%%q%%%QqQq%Q%q%%%%%QqQq%qQ%%%%%qQ
26664D3QqqQQq%%%%%%%%Qq%%Q%%q%%%%%Qq%%%%%%%%Qq%%%Q%q%%%Q%%%qQ%q%QqQq%%%Qq%Q%
26649E1%%qQ%%%%qQqQq%%Q%%qQ%%%%%qQ%%qQqQ%qQ%%%%%%%%%%%%%%q%QqQ%%%%qQ%%%%%%%%
26633E1%%q%%%%%Q%%q%Q%qQq%%Q%%q%Q%%%%%%%%qQ%%q%%%%%%%%%%QqQ%q%%Qq%%%Qq%%%QqQ
26617E1%%%%%%%%%%%%%%%%%q%QqQ%qQq%%%%%%%%%%%%%%%%Q%qQqQqQqQ%%%%%%%%q%Qq%%Q%%
26601E1%%%%%%qQqQ%%q%Qq%QqQ%%q%%Q%qQ%%%%%%%qQ%%q%Q%%%%%%qQ%%%%%%%%%%%%%%%qQ%
26585E1%%%qQ%%q%%%%%%%%%%%%%%QqQqQqQqQq%Q%%%qQqQ%q%%%Q%%%%qQq%%%%%%%%%%%Q%qQ
26570E1%%qQ%qQqQ%qQ%%%%%%qQ%%%qQ%%%qQ%%%%%%%%%%%%%%%q%Q%%%%%%qQ%%%%qQ%%%%qQ%
26554E1%%%%%%q%Q%%%q%Q%%%q%Qq%Q%qQq%%%%%%%%%%%%%%%Q%q%Q%q%%Qq%Q%q%%%%%%%%QqQ
26538E1%%%%qQq%%Qq%Q%%%%%%%q%Q%q%%%%%%%%%%Qq%Qq%%%%%Q%qQ%qQ%%%%%qQ%%%%%%%%%%
26522E1%qQq%%%%%Q%%%%%qQqQ%qQ%q%%Qq%%Qq%Q%qQqQ%QqQqJ6qj6qK4j6Qq%%Q%qQq%Q%qQq
26507D3%%QqQ%%qQ%%%qQ%%%%%%qQ%%qQ%q%QqQ%%q%%%%%Q%%qQq%%%%%Q%qQ%q%QqQ%qQ%%%%%
26492E1qQ%%%%%%%%q%QqQ%%%%%%%%%%%%%%%%%%qQq%Q%%qQq%Q%qQ%qQqQ%q%%%Q%qQ%%q%Qq%
26476D3%%Q%%qQqQ%qQ%%qQ%%qQqQq%QqQ%%%q%%%%QqQ%%%%%qQ%%%%%%%%q%%Qq%Q%%%%%qQqQ
26460E1%%%qQ%qQ%%%%%%%qQ%%%%%%%%%%%qQqQq%Qq%%%%%%QqQ%%%%%%%%%%%qQ%%%q%Qq%%%%
26444D3Q%%%%%%%%%%%%%%%%qQ%%%%%%qQ%%%%%%%%qQq%Q%qQ%qQ%qQ%q%Qq%QQq%%%%%q%%QqQ
26428E1qQ%%%%qQq%%%QqQq%Q%q%Q%%%%%qQ%qQq%%%%Qq%Q%%%%%%%%%%%%%qQ%%%%%%%%%%%%q
26413D3QqQq%%%%%%%%%Qq%%%Q%%%%%%%q%%%%%%%%%%%%%%%%Qq%Qq%%Qq%%Qq%%Q%q%Q%%q%Qq
26397D3%Q%%qQ%%qQqQ%q%%%%%%%Qq%%%%Q%%%%%%%%%%%%%q%Q%%%%%%%%%%%%%%%%%%%%%%%%%
26381E1%%%%%qQ%%%%%%%%%%%%%%%%qQ%%%%%%q%Qq%Qq%%QqQ%%%%%%%%%%q%Q%qQqQqQq%%%qJ6
26365E1j6Qq%J6qJ6j6QQqqQ%%%%qQqQq%Qq%QqQ%qQqQqQ%%%qQ%%%%q%Q%qQ%%%%%%qQqQ%q%Q
26350E1qQ%%%qQ%%%%%%%%%%%%%%%%%%%%%%%%%qQ%%qQ%%%%%%%q%%%Q%%%%%%%%%%%%%Qj6%Qq
26335D3%Q%%%%%qQqQ%%qQ%%%%%%%%%%qQ%%%%%%%%%%%%%%%%%%%%%%%%%%%%%%%%%%%q%%Q%qQ
26319E1%qQ%%%%%%%%%qQq%QqQ%qQ%Qq%%%%%%%%%%%%%%%%%%%%%%%%%%qQ%q%Q%%%%%%%%%%%q
26303D3%%%Q%%%%qQ%qQq%QqQ%%%%qQ%%qQ%%%%%%%%qQ%%%%%%qQ%qQ%%%%%%qQqQq%Q%%%%%%%
26287E1%%%%%%%%%%%%%qQ%%%%%%%qQ%%%%%%q%QqQ%%%%%%%%qQqQ%Qq%%%%%%%%%%%%%%%%%%%
26272E1%%%%%%qQ%%qQ%%%%%%qQ%%%%%%%%q%Q%%q%%%Q%qQ%%%%%%%%%%%%%%%%%%%%%%%%%%%%
26256E1%%qQ%%%%%%qQ%%%%%%qQ%%%%%%%%%%%%%%%%%%%qQ%%%%qQ%qQ%qQ%%%%%%%%%qQ%qQqQ
26240E1qQqQ%qQqQ%%q%%%QqQ%%%%%%%%%%%%%%%%%%%%%%%%%%%%%%%%%%%%%%%%%%%%%%%%%qQ
26224E1%%%%%%%%%%%%%%qQ%%%%%qQ%q%Q%%%%%%%qQ%%%q%Q%%%%%qQ%%%%%%%%qQ%qQ%%%%qQ%
26208E1%%q%QqQ%qQ%q%%Q%qQ%qQqQ%%qQ%%%%q%%Q%q%Q%%q%%QqQ%%q%qQ%Q%%%%%%%qQqQ%qQ
26193E1%%%qQqQ%%%%q%Q%%%%%%%%%%%%%%%%%%%%%%%%%%%%%%%%%%%qQ%%%%%%%%%%%%%%%%%q
26177D3%Q%%%%%%qQ%%%%%%%%%%%%%%q%Q%%%%%%%%%%%%%%%%%%qQ%qQqQ%%%%%%%%%qQ%%%%%%
26161E1%%q%Q%%%qQ%%%%%%%%%%%%%%%%%%%%%%%%%%%qQ%%%%%%%%%qQ%%%%%%%%%%%%%%%%%%%
26145E1%%%%%%%%%%%%%qQ%%%%%%%%%%%qQ%qQqQqQqQ%%%%%%%%%%%%%%%%%%%%%%Qq%%%%%%%%
26130E1%%%%%%%%%%%%%%%%%%%%%%%%%%%qQ%%%%%%%%%%%%%%%%%%%%%%%%%%%%%%%%%%%%%%%%
26114E1%%qQ%%%%qQ%%%%%%%%qQ%%%%qQ%%%%%%%%%%%%%%%%%%%%%%%%Qq%%%%%%%%%%%%%%%%%
26098E1%%%%%%%%%%%%%%%%qQ%%%%%%%%%%%%%%%%%%%%%%%%%%%%%%%%%%%%%%%%qQ%%%q%%Q%%
26082E1qQ%%%%qQ%%%%QqqQ%%%%%%%%%%%%%%%%%%%%%%%%%%%%%%%%%%%%%%%%%%%%%%%%%%%%%
26066E1%%%%%%%%%%%%%%%%%%%%%%%%%%%%%%%%%%%%%%%%q%Q%%%qQ%%%%%%%%%%%%%%%%%%q%Q
26051E1%qQ%%%%%%%%%%%%%%%%%%%%%%qQQq%qQQ%qQj6Q%Qj6Q%%%%%%%%%%%%%%%%qQ%%%%%%%
26035E1%%%%%%%%%%%%%%%qQ%%qQ%qQ%%%%%%%%%%%%%%%%%%%%%%%%%%%%%%%%%%%%%%%%%%%%Q
26019E9q%%%%%%%%%%%%%%%%%%%%%%%%qQqQ%%%%%%%%%%%%%%%%%%%%%%%%%%%%%%Qq%%%%%%%%
26004E1%%%%qQ%%%%%%%%%%%%%%%%%%%%%%%%%%%%%%%%%%%%%%%%%%%%%%%qQ%%%%%Qq%%%%%%Q
25988E9%q%%%%%%%%%%%%%%%%%%%%%%qQ%%%%%%%%%%%%%%%%%%%%%%%%%%%%%%%%%%%%%%%%%%%
25972E1%%%%%%%%%%%%%%%%%%%%%%%%%%%%%%%%%%%%%%%%%%%Q%j6Q%%%%%%%%%%%%%%%%%%%%%
25956E1%%%%%%%%%%%%%%%%%%Q%%qQqQq%%Q%q%%%Qq%%%%%%%%%%%%%%%%%%%%%%%%%%%%%%%%%
25941E1%%%%%%%%%%%%%%%%%%%%%%%%%%%%%%%%%%%%%%%%%%%%%%%%%%%%%%%%%%%%%%qQQq%%%
25925E1%%qQ%%%%%%%%%%%%%%%%%%%%%%%%%%%%%%%%%%%%%%%%%%%%%%%%%%%%%%%%%%%%%%%%%
25909E1%%%%%%%%%%%%%%%%%%%%%Qq%%%%%%%%%%%%%qQ%%%%%%%%%%%%%%%Qq%Qj6QJ6j6%%%%%
25894E1%%%%%%%qQ%%%%%%%Qq%%%%%%%%%%%%%%%%%%%%%%%%%%%%%%%%%%%%%%%%%%%%%%%%%%%
25878E1%%%%%%%%%%%%%%%%%%qQ%%%%%%%%%%%%%%%%%%%%%%q%QqQ%%%%%%%%%%%%%%%%%%%%%%
25862E1%%%%%%%%%%%%%%%%%%%%%%%%%%%%%%%%%%%%%%%%%%%%%%%%%%%%%%%%%%%%%%%%%%%%%
25847E1%%Q%q%Q%qQq%%%%%%%%%%%%%%%%%%%%%%%%%%Q%q%%%%%%%%%%%%qQ%%%%%%%%%%%%%%%
25831E1%%%%%%%%%%%%%%%%%%%%%%%%%%%%%%Qq%%Qq%%%%%%%%%Q%%%q%%%%%%%%%%%%Qq%%%%%
25815E1%%%%%%%%Qq%%Qq%%%%%%%%%%%Q%%q%QqqQ%%%%%%%%%%%%%%%%%%%%%%%%%%%%%%%%%%%
25799E1%%%%%%%%%%%%%%%%%%%%%%%%%%%%%%%%%%%%%%%%%%%%%%%%%%%%%%%%%%%%%%%%%%%%%
25783E1%%%%%%%%%%%%%%%%%%%%%%%%%%%%%%%%%%%%%%%%%%%Qq%%Qq%%Qq%%%%%%%%%%%%%%%%
25768E1%%%%%%%%%%%%%%%%%%%%%%%%%%%%%%%%%%%%%%%%%%%%%QqQq%%%%%%%%%%%%%%%%%%%%
25752E1%Qq%QqQq%%%%%%%%%%%%%%%%%%%Qq%%%%%%%%%%%%%%%QqQq%%%%Q%%%q%Qq%%QqQqQq%
25736E1%%%%%%Qq%%qQ%%Qq%%%%%%%%%%q%%QK4j6%%Qj6k4M8n6L2Qq%qJ6%%q%%%QQqq%%%%%%
25722E1Qq%qQ%%%%%Qq%Qq%%%%%%%%%Qq%%%%%%%%%%%%%%Qq%Q%q%%%%%%%%%%%%%%%%%%%%%%%
25706E1%%%%Qq%%%%%%%%%%%%%%%%%%%%Qq%%Qq%%QqQq%%%%%%%%%%Qq%%%%%%%%%%%%qQ%Qq%%
25691E1%%Qq%Qq%%%%%%%%%%%%%%%%%%%%%%%%%%%%%%%%%%Qq%%%%%Q%%%%qQq%%Qq%%QqQq%%%
25675E1%%%%%%%%%%%%%%%%%%%%%%%%%%%%%%%%%%%%%%%%%%%%%%%%%%%%Qq%%Qq%%%%%%%Q%%q
25659E1%Q%q%Q%q%%%%%%%%%%%Qq%%%%%%%%Qq%%%%%%%%%%%%%Q%%%%q%Qq%%%%%%%%%%%%%Qq%
25643E1%Q%q%%%%%%%%%%%%%%%%%%%%%%%%%%%%Qq%QqQqQ%%qQ%%%q%Qq%%Q%%q%%%%%%QqQq%%
25627E1%%QqQ%qQq%Qq%%QqQq%%Qq%Q%qQq%%%Qq%%%%%Qq%%%%%%Q%q%%QqQ%%%%%qQq%%%%%%%
25612E1%%%%%%Q%qQq%%%%%QqQ%qQ%%%q%%Q%%q%QqQ%%q%%%%%%%%%%%%%%%%%%%%%Qq%Q%%q%%
25596E1%%QqQq%%%%%Q%q%%%%Qq%%%%%%%%%%%Qq%%%%%%%%%%%%%%%%%%%Qq%Q%qQ%%%q%%Qq%%
25580E1Q%q%%%%%Qq%%%Q%q%q%J6q%Q%k4K4QqqQqQ%%%%%q%%%%%%%QqQqQq%%%%Q%%q%Q%qQq%
25565E1QqQ%%%%%q%Q%%%q%%%%%Q%qQq%%%%%%%%%%%%%%%%%%%%%%Qq%%Qq%Q%%q%%%%QqQ%%qQ
25549E9%%%%%%qQqQ%qQqQ%%%%%%%qQqQ%%q%%QqQq%Q%%%%%%qQq%%%%%%Q%%%%%%q%%%%%%%%%
25533E1Q%%%%%%%%%%q%Q%%%q%Qq%%%%%%%%%%%%%%%%%QqQq%%%%%Qq%%%%%Qq%%%%%%%Q%%qQ%
25518E9%%%%q%%Qq%Q%qQq%QqQ%qQ%%%%%%%%%%%%%%%%%q%%%%%%%Qq%%Q%qQq%%%%QqQqQqQq%
25502E1%%Q%q%QqQqQ%q%%Qq%%%%%%%%%%%%%%Q%q%%%%QqQ%%q%Q%q%%%%%%%Qq%%Qq%%%%%%Qq
25486E1Q%%q%Q%%%%%%%%%%%%%%%%%%%%q%Q%%%q%%%QqQ%qQqQ%%qQ%%q%%%%%%%%%%QqQqQ%%q
25470E1%%Qq%%%%%%%%%%%%%%Qq%%Q%%q%Q%%%qQ%%%%%%%%%qQ%%%%%%%%%%%%q%Qq%Qq%Qq%Qq
25454E1QqQ%q%%%QqQq%%%%%%%%%%Qq%%%%%%%%%Qq%%%%Qq%QqQqQ%qQ%%%qQ%%qQqQ%%%%%%%%
25439E9%%%qQ%qQq%%%QqQ%qQ%%%qQ%q%Qq%Qq%%%%Qq%%Q%qQ%%qQ%qQQj6Q%q%Qq%Qq%%%%%%%
25423E1Qq%%Qq%%%%%%%%%Qq%%%%%%%Q%%qQq%%%%%%%%%%Q%qQqQq%%Qq%%Qq%Q%%q%QqQ%%qQq
25407E1%Q%qQq%QqQqQq%%%%%%Q%%qQ%%qQ%q%%%Q%qQ%%%%qQ%%qQ%%%%q%%%%%%%Qq%Qq%%%%%
25391E1Q%q%Q%%%%%%qQ%%qQ%%%%%%qQ%qQ%%%%qQqQ%%%%%%%%qQq%%%%%%Q%q%Q%%%qQ%%qQ%%
25376E9%qQ%qQ%%%%%%%%%%%%%qQqQqQq%%%Q%%%q%%%%%%%%%%%%%%%%%%%%%%%%%%QqQ%%%%%%
25360E9%q%Q%%%%qQ%%%qQ%qQ%%qQ%%%%%%%%%%%%%%%%%%%%%%%q%%%Q%%%%%%%%%qQ%%%%%%%%
25344E9%q%Q%%%%%qQ%%qQ%%qQ%%qQqQ%%%q%Q%qQqQ%%%q%Q%%qQ%%%%qQ%%%%%%%%%%%%%%%%%
25328E9%%%%%%%%%%%%%%qQ%%%%%%%qQ%%%q%Q%%q%%%%%%Qq%%Qq%%%%QqQ%%%%%qQqQ%%%%%qQ
25312E9%%qQqQq%Qq%Q%q%Q%%%%%%%%%%%%%%%%%%q%%Qq%Q%%%%%%%qQ%%%%%%%%%%%%%%%%%%%
25297E9%q%Qq%%%Q%qQ%%%%%%%%%qQq%%%%%%%%%%%Q%%q%%QqQq%QqQ%q%%%%Q%q%%QqQ%%%%qQ
25281E9%%%%%%%%%%%%Qq%%%%%%%%%%%%qQ%%%%qQ%%%%%%%%%%%%%%%%%%%qQ%%%%%q%%%%Q%%q
25265E1%%%%%%%%%%%Q%qQ%qQqQq%QqQ%l2J6%Q%Qq%%Q%%%%qQqQ%q%%%%Q%q%%Qq%Q%%%%%%%%
25250E9%%%%%%qQqQqQ%%%%%%%%%%%qQ%%%%%%%%%qQqQqQ%%%%%%%%%%%%%%%%%qQqQ%%%%%%%%
25234E9%%%%%%%%%%%%%%%%%%%%%%%Qq%%%%%%%%%%%%%%%%%%%%%%%Qq%qQ%%%%%%%%%%%%%%qQ
25218E9%%%%%%%%%qQqQ%%%%%%%%%%%%%%%%%qQq%QqQ%%%%%%%%%%%%%%%%%%%%qQ%%%%%%%%%%
25202E9%%%%%%%%%%%%%qQ%%%%%%%%%%qQ%qQ%%%%%%q%Q%%q%Q%%%%%%%%%%%%%%%%%q%QqQqQ%
25187E9%%%%%%%%%%%%%%%%%%%%%%%%%%%%%%%%qQ%%%%%%%%%%%%%%%%%%%%%%%%%%%%%%%%%%q
25171E1Q%%%%%%%%%%%%%%%%%%%%%%%%%qQq%QqQ%%%%%%%%%%%%%%%%%%%%%%%%%%%%%qQqQ%%%
25155E9%%%%%%%%%%%%%%%%%%%%qQ%%%%%%%%%%%%%%%%%%%%%%%%%%%qQ%%%%%%q%Q%qQ%%%%%%
25139E9%%qQ%qQ%%%%%%%%%%%%qQ%%%%%%%%%%%%%%%%%%%%%%%%%%%%%%%%%%%%%%%%%%%%%%%%
25123E9%%%%%%%%%%%%%%qQ%%%%%%%%%qQ%%%%%%%%%%%%%%%%%%%%%%%%%%%%%%%%%%%%%%%%%q
25108E1Q%qQ%qQq%J6%qq%Q%qQ%%%%%q%Q%%%%%%%%%%%%%%%%%%%%%%%%%%%%%%%%%%%%%%%%%%
25092E9%%qQ%%%%%%%%%%%%%%%%%%%%%%%%%%%%%%%%%%%%%%%%%%%%%qQ%%%%%%%%%%%%%%%%%%
25076E9%%%Qq%%%%q%Q%%%Qj6%%QQj6Q%%%q%QqQ%%%%%%%%%%%%%%%%%%%%%%%%%%%%%%%%%%%%
25061E9%%%%%%%%%%%%%%%%%q%Q%%%%%%%%%%%%%%%%%%%%%%%%%%%%%%%%qQ%%%%%%%%%%%%%%%
25045E9%%%%%%%%%%%%%%%%%%%%%%%%%%%%%%%%%%%%%%%%%%%%%%%%%%%%%%%%%%%%%%%%%%%%%
25029E9%%%%%%%%%%%%%%qQ%%%q%%%Q%%%%%%%%%%%%%%%%%%%%%%%%%%%%%%%%%%%%%%%%%%%%%
25014E9%%%%%%%%%%%%%%%%%%%%%%%Qq%%%%%%%%%%%%%%%%%%%%%%%%%%%%%%%%%%%%%%%%%%%%
24998E9%%%%%%%%%%%%%%%%%%%%%%qQ%%%%qQ%%%%%%%%%%%%%%%%%%%%%%%%%%%%%%%%%%%%%%%
24982E9%%%%%%%%%%%%%%%%%%%%%%%%%%%%%%%%%%%%%%%%%%%%%%%%%%%%%%%%%%%%%%%%%%%%%
24966E9%%qQ%%%%%%%%%%%%%%%%qQ%%%%%%%%%%%Qj6Q%%%%%Qq%%%%%%%%%%%%%%%%%%%%%%%%%
24951E9%%%%%%%%%%%%%%%%%%%%%%%%%qQ%%%%%%%%%%%%%%%%%%%%%%%%%%%%%%%%%%%%%%%%%%
24935E9%%%%%%qQ%%%%%%%%%%Qq%%Qq%%%%%%%%%%%%QqQ%q%%%%%%%%%%%%%Qq%%%%%%%%%%%%%
24919E9%%%%%%%%%%%%%%%%%%%%%%%%%%%%%%%%%%%%%%%%%%%%%Qq%%QqQ%%q%Qq%%%Qq%%%%%%
24903E9%%%%%%%%%%%%%%%%%%%%%%%%%%%%Qq%%Qq%%%%%%%%%%%%%%Qq%%%%%%%%%%%%%%%%%%%
24887E9%%%%%%%Qq%%%%%%%%%%%%%%%%%%%%%%Qq%%%%%Q%q%%%%%%%%Qq%%%Qq%%%%Qq%%%%%%%
24872E9%%%qQ%%Qq%Qq%%%%%%%%%%%%%%%%%%%%%%%%%%%%%%%%%%%%%%%%%%%%%%%%%%%%%%%%%
24856E9%Qq%%%%%%%%%%%%%%%%%%%%%%%%%%%%%Qq%%%%Qq%%%%%%%%%%%%%%%%%%%%%%%%%%%%%
24840E9%%%%%%Q%q%QqQ%%q%%%%Q%%q%%%%%Q%qQ%%%qQ%q%%Qq%%%%%%%%%%Qq%Qq%%%%%%%%%%
24824E9%%Qq%%%%%%%%%%%%%%%Qq%%%%%%%%%%Qq%%%%%%%%%%%%%%%%Qq%%%%Qq%%%%%%%%%%%%
24808E9%%%%%%%%%%%%QqQqQqQ%q%Q%q%QqQq%Qq%%%%%%%%%%%Qq%%%%Qq%%%%Qq%%%%%%%%%qJ6
24793F7q%%%qQq%J6%%l2M8k4Qq%Q%qQ%%q%%%Qq%Qq%%%%%%%%%%%%%%%%%%%%%%%%%%%%%%%%%
24778E9Qq%Q%q%%%%%%%%Qq%%%%%%%%%%Qq%%%%%%%%%%%%%%%%%%%%%%%%%%%Qq%%%%%%%%%%Qq
24762E9%%%%%%Q%%q%%%%%%Q%q%Q%q%Qq%%%%Qq%QqQq%%%%%%%%%%%%%%%%%%%Qq%%%%%%%%%%%
24746E9%Qq%%%%%%%%%%%Qq%Q%q%Q%qQ%%%%q%%Qq%%%%%%%%%%%%QqQ%q%Q%q%%%%QqQ%%%%qQq
24730E9%Q%q%%%%%%Q%%q%%Qq%%%%Q%qQqQ%%%qQ%%qQq%%Q%%qQq%%%%%%%%%QqQq%Q%q%%%%Q%
24715F7q%%Q%q%Q%%qQ%%qQ%%q%Q%qQ%q%%Q%%%q%%%%QqQq%%%%QqQq%%%Q%qQqQq%%%%%%%%%%
24699E9%%%Q%%qQ%%%%%%qQqQqQ%%%qQqQq%QqQ%%%qQ%q%%%%%%%%Qq%%Q%%q%%Q%qQ%q%QqQq%
24683E9%%Qq%%Q%%qQqQ%q%%%%%%%%%%%%Qq%Qq%Q%q%%%%QqQqqJ6qQq%%%%%%Qq%Q%%%qQ%q%Q
24667F7q%QqQ%%%%%qQ%qQ%%%%q%Qq%%%%%%%%%%%Qq%%Qq%%%Qq%%Qq%Q%%%%%q%%%%%%%%%%%%
24652E9Qq%%%Q%%%%q%%%QqQ%%qQ%%q%Qq%Q%qQqQ%qQ%%%qQ%%qQq%Q%q%%%Q%%%q%Qq%QJ6j6%
24636F7%%q%QqQq%%Qq%Q%%%%%%q%Qq%%Qq%Q%qQ%%%%qQ%%qQq%%%%%%%Qq%%%%%%%%%%%%%%%%
24621E9%%Qq%%%QqQqQq%%Q%qQqQqQqQq%%%%%%%%Q%%qQ%%q%%%%%Q%qQ%%%q%QqQq%%Q%q%Qq%
24605E9Q%q%Qq%Q%%%%%%%%%%%%%%%q%Qq%%%%%%%%Qq%Qq%%%Qq%%%%Q%%%%%%%%%%%%%%%%qQ%
24589F7%%%%%%%%%qQ%%%%q%Q%q%%Q%%%%%qQ%%%%%%%%qQq%Q%%%qQ%%%%%%%%%%%%%%%%%%qQq
24573E9%%%%Qq%%%%%Qq%%QqQ%qQqQ%%%%%%qQ%%%%qQ%qQ%%%qQqQqQqQ%%%%qQq%%%%Q%%%%qQ
24557F7%%%q%QQj6QqQqQqQ%%%%%%%%%%%%qQ%q%%%%%Q%%q%Q%%%%%%qQ%%%%%%%%%%%qQ%%%%q
24542E9Q%%%%%%%%%%%%%%%%%%%%%%%%%q%%Q%%%%qQ%%%%%%%%%qQ%%%%q%QqQ%%%%%%%%%%%%q
24526E9Q%%qQ%q%%%Q%%%%%%%%%qQ%%%%q%%%%%%%Qq%Q%%%%%%%qQ%q%%Q%%%%qQ%%%%%%q%Q%%
24510F7%%%%%%%%%%%%%%%%%%%%%q%Q%qQ%%%%%q%Q%%%%%%%%%%%%%%%q%Q%%qQq%QqQ%%q%%%Q
24494F7%%%%qQq%Q%%%q%Qq%Qq%QqqQ%%Q%%%%qQq%%Q%q%Q%%%qQqQ%qQ%%qQ%%%qQ%%qQ%%q%Q
24479F7%%%%%%%%%%%%%%%%%%%qQ%%%qQ%%%%%%%%%%%%%%%%%%%%%%%qQ%q%Q%%qQ%qQ%%%%%%%
24463F7%%%q%Q%q%Q%q%Q%%%%%%qQ%%%%%%%%%%%%%%%%%%%%%%%%%%%%%%%%%%%%%%%%%%%%%%%
24447F7%qQ%%%%%qQ%%%%%%%%%%%%%%%%%%%%%%%%%%%%%%%%%%%%%%%qQ%%%%%%%%%%%%%%%%%%
24431F7%%%%qQ%%%%%%%%%%%%%%%%%%%%%%%%%%%%%%%%%%%%%%%%%%%%%%%%%%%%%%%%%%%%%%%
24415F7%%%%Q%q%%%%%%%%%%%%%%%%%%%qQ%%%qQ%%%%%%%%%%%%%%%%%%%%%qQ%qQQq%qJ6q%%%
24400F7%%%%%Qq%%%%%%%%%%%%%%%%%%qQ%qQ%%%%%%%%%%%%%%%%%%%%%%%%%%%%%%%%%%%%%%%
24384F7%%%%%%%%%%qQ%%%%%%%%%%%%%%Qq%%%%%%%%%%%%%%%%%%%%%q%Q%%%%%qQ%%%%%%%%%%
24368F7%%%%%%%%%%%%%%%%%qQ%%%%%%%%%%%%%%%%%%%%%%%%%%%%%%%%%%%%%%%%%%%%%%%%%%
24352F7%%%%%%%%%%%%%%%%%%%%%%%%%%%%%%%%%%%%%%%%%%%%Qq%%%%%%%%%%%%%%%%%%%%%%%
24337F7%%%qQ%%%%%%%%%%%%%%%%%%%%%%%%%%%%%%%%%%%%%%%%%%%%%qQ%%%%%%qQ%%%%Qj6J6
24321G5j6QQqqQ%%%%%qQ%%%%%%%%%%%%%%%%Qq%%%%%%%%%%%%%%%%%%%%%%%%%%%%%%%%Qq%%%
24306F7%%%%%%%%%%%%%%%%%%%%%%%%%%%%%Qq%%%%%%%%%%%%%%%%%%%%%%%%%Qq%%%%%%%%%%%
24290F7%%%%%%%%%%%%%%%%%qQQqqQ%QqQ%q%%%%%%%%%%Qq%%%%%%%%%%%%%%%%%%%%%%%%%%%%
24274F7%%%%%%%%%%%%%%%%%%%%%%Q%q%QqQqQ%%q%Qq%%%QqQq%%%%%%%%%%%Qq%%%%%%%%%%%%
24258F7%%%%Qq%%%Qq%%%Qq%%%%%qQ%%%%qQ%%%%%%%%%%%%%%%%%%%%%%%%%Qq%%%%%%%%%%%%%
24243F7%%%%%%%%%%%%%%Qq%%%%%%%%%%%%%%%%%%%%%%%%%%%%%%%%%%%%%%%%Q%qQqQq%%Qq%%
24227F7Q%q%%Qq%%%%%%%%%%%%%%%%%%%%%%%%%%%%%%%%%%%%%%%%%%%%%%%Q%q%%Q%%q%Qq%Qq
24211F7%%%%Qq%%%%%%%%%%%%%%%%%%%%%QqQq%Qq%%%%%%%%%%%%%%Qq%%%%%%%%%%%%%Qq%%%%
24195F7%%QqQqQqQq%%Q%q%%%%%%Q%%q%QqQq%%%%Qq%%%%%%%%%Qq%Q%%%qQq%%%%%%%%%%%%%%
24179F7%%%qQ%%%%%%%Qq%%%%%%%%%%%%%%%%%%%%%%%%Q%%q%%%%qQQqq%Q%Qq%%%Qq%%%%%%%%
24164F7Qq%%%%%Q%q%%%QqQqQq%%%%QqQqQq%Q%%%q%%Q%%q%%%%Qq%%Q%qQ%%%qQq%%%%%%%%%%
24148F7%%%%%%%%%%Qq%%%%%%%QqQ%%%%%q%%Q%qQq%%%%%%%%%%%%%%%%Qq%%Q%%qQ%qQ%%q%Q%
24132G5qQ%%%%q%%%%%%Qq%%%%%%%%%%%%%%%Q%qQ%%%%%%%%qQq%%QqQq%Q%%q%%%%%%%%%QqQ%
24116G5%%qQ%q%Qq%%%%%%%%%%%%%Qq%%%%%%%%Qq%%%%%%%%%%%%%%%%%%%%Q%%%qQq%%Q%q%%%
24100F7%%%%QqQ%q%%%%%QqQ%%%%q%%%%Q%q%%%%%%%%Qq%%%%Qq%%%Qq%QqQq%Q%%Q%j6QqQq%%
24085F7%%Qq%%%Qq%%%%Qq%%%%Qq%%Qq%Q%%%qQ%%%%%q%Q%qQq%%Qq%Q%%%%qQq%%%%Q%%%%%%%
24069G5q%%Q%%%q%QqQqQ%q%Qq%%%%%Q%qQ%%%%%q%%QqQqQ%%%q%%%Q%%q%%%%%%%%%Q%qQ%qQq
24053F7%%%%Q%%q%Q%qQ%q%%Qq%%%%%%Q%qQ%%%q%Qq%%%%%%QqQq%Q%%qQ%%%%%q%%Q%%qQ%q%Q
24038G5%%%%%%%%%%qQ%%q%%%%%%%%Q%qQqQ%%%q%%%Q%%q%%%Qq%%QqQq%%Qq%Q%%%%%%qQ%%%q
24022F7QqQ%%qQ%%%q%%%Q%q%%Q%%qQqQ%%q%%Q%qQ%%%%%%%%%%%%qQqQ%%%%%%%%q%Qq%%Q%%%
24006G5%%%%%%%%%%%%%%%%%%%%%%%%%%%%%%%%%Qq%%%%%%%%%%%%%%%%%%%%%%%%%qQ%%%%%%%
23990G5%%%%%%%%%%%%%qQ%q%%Q%%%%%%%%%%%%%%%%%%qQ%%%%%%qQ%%%%%qQ%%%%%%%%%%%%%%
23974G5%%%%%%%%%%%%%qQqQ%%qQ%%%q%%%%Qq%Q%%qQ%qQ%q%QqQ%%%q%QqQ%%%%qQ%%%%%qQ%q
23959F7%QqQ%%%%%%%%%%%%%%%%qQ%%%%%qQqQ%%%%%%%%%%%%%%%%%%%%%%%%%%%%%%%%%%%%%q
23943F7%Q%qQ%%%%%%%%%%%%%%%%%%%%%qQ%%%%qQ%%%q%Q%qQq%QqQ%q%%Q%qQ%%qQq%%Q%qQ%q
23927F7Q%%%%%%%%%%%%%%%%%%%%%%%%%%%%%%%%q%Q%%%%%%q%QqQqQ%%%%%q%Q%%%%%%%%%%%%
23911G5qQ%%%qQ%%%%q%Q%%%%%%%%%%%%%%%%%%%%%qQ%%%%%%%%%%%%%%%qQ%%%%%%%%%q%Q%%%
23895G5%%%%%%%%%%%%%%%%%%%%%%%%%%%%%%%%%%%%%%%%%%%%%%%%%%%%%%%%%%qQ%%%%%%%%%
23880G5%%%%%%%%qQ%%qQ%%%%%%%%%%%%%%%%%%%%%%%%%%%%qQqQqQ%%%%%%%%%%%%%qQ%%%%%%
23864G5%%%%%%%%%%%%QqQq%Qq%Qq%Qq%%%%%%%%%%QqqQ%qQ%qJ6qQk4M0j6qJ6qQk4J6q%%%Qq
23850G5QqqQ%Qq%%%%%%%%%%%%%%%%%%%%%%%%%%%%%Qq%%%%%%%%%%%%qQ%%%%%%%%%%%%%%%%%
23834G5%%%%%%%%%%%%%%%%%%%%%%%%%%%%%%%%%%%%QqQq%%%%Qq%%%%%%%%%%%%%%%%%%%%%%%
23818G5%%%%%%qQ%%%%%%%%%%%%%%%%%%%%%%%%%%%%%%%%%%%%%%%%%%%%%%%%%Qq%%%%%%%Qq%
23802G5%%%%%Qq%%%%%%%%%%%%%%%%%%%%%%%%%%%Qq%%%%%%Qq%Q%qQq%%%%%%%%%%%%%%%QqQq
23786G5%Qq%%Q%q%%%%%%%%%%%%%%%%%%%%%%%Qq%%%Qq%%%%%%%%%Qq%%%%%%%%%%%%%%%%%%%%
23771G5%%%%Q%q%%%%%%%%%%%%%%QqQq%%%%%%%%%%%%%%%%%%%%%%%%%%%%%%Qq%Qq%%%%Q%q%%
23755G5%%%%%Q%q%%Qq%%%%%Q%qQ%qQq%%%Qq%%%%%%%%%%%%%%%%%%%%%%%%%%%%%%%%%%%%%%%
23739G5%%%%%%%%qQ%%%%%%%Qq%%%%%%%%%%%%%%%%%%%%%%%%%%%%%%%%%%%%%%%%%%Qq%%%%%%
23723G5Qq%Qq%%%%%%%%%%%%%%%%%%%%%%%%Qq%%%%Q%q%%%%%%%%%%%%Qq%%%QqQq%%%%%%%Qq%
23708G5%%%%QqQq%%%%qQ%%J6qqqJ6%%qQ%qK4q%k4j6K4%j6L2L2k4%Qk4k4%J6Qq%%%%J6j6%Q
23695H3%%q%%qQq%QQq%%%%%%%%Qq%%QqQqQ%%qQq%%%%%%%%%%%%%%%Q%%%%%q%Q%qQq%%Q%qQ%
23679H3%q%%QqQ%%%Qj6QqQqQ%%%%%%%q%%%%%Qq%Qq%%%Q%%%%q%%%%%%QqQ%%%%%%%qQq%%%%%
23664G5%%%%Qq%Q%%%%%%%%%qQ%%q%Qq%QqQ%qQq%%%%%%QqQ%qQq%Qq%%%Q%qQq%%Qq%%QqQqQ%
23648H3q%Q%qQ%q%%%%%Qq%%%Qq%%%%%%%QqQq%%%Q%%%%%%%q%Qq%%Q%%%%%%%%%%%%qQ%qQ%%%
23632H3%q%%%QqQ%%%%%%%%%%%%%%%%%%%%%%%%%%%%%%%%qQq%Qq%QqQ%%qQqQ%%q%%QqQ%qQqQ
23616H3%q%%%QqQ%%qQ%qQqQ%%%%%qQ%%%%qQqQ%%%%%%%%%%%%%%%%%%%%%%%%%%%%%%q%%Q%%q
23601G5%Q%%%%%%%%qQ%%q%Qq%Q%%q%%Q%%%%qQ%%qQq%Q%%qQq%%QqQq%Qq%%%%%%QqQ%%%%%%%
23585H3%%%%qQqQ%q%Q%%%qQqQq%%%%%%%Qq%Q%%%%%%qQ%%%%%%%%%%%%qQqQq%%Q%%%%%%%%qQ
23569H3q%%Qq%%%%Q%q%%Qq%%%%%%%%QqQ%%%%%%%%%%%%%%%%%%%%%%%%%%%%%%%%%%%%%%qQ%q
23553G5Q%%%qQ%%%%q%%Q%%%%%%%%%%%%qQ%%qQ%q%Qq%QqQqQqQ%%qQq%Q%%%%%%%%%q%QqQ%q%
23537G5Q%q%%%%Qq%%%%%%%%QqQqQ%%%%%qQ%%%qQ%%%%%%%%%%%qQq%%QqQ%%%%%%qQq%Q%%%%%
23522H3%%%qQ%%%%%%%%%%qQ%%%%%qQ%%%%%%%%%%%%%%%%%%%%%qQ%%%%%%%%%%%%%%%%%%%%%%
23506H3%%%%%%%%%%%qQqQ%%%q%QqQ%%%qQ%%%%%%%%%%%%%%%%%%%%%%%%%q%%Q%%%%%%%%%%%%
23490H3%%%%%%%%%%%%%%%%%%%%%%%%%%%qQ%%%%%%%%%%%%%qQ%%%%%%%%%%%%%%%%%%%%%%%%%
23474H3%%%%%%%%%%%%%%%%%%%%%%%%%%%%%%%qQ%%%Qq%qQ%%%%%%%%%%%%%%%%%%%%%%%%%%%%
23458H3%%%%%%%%%%%%%%%%%%%%%%%%%%%%%%%%%%%%%%%%%%%%%%%%%%%%%%%%%%%%%%%%%%%%%
23443H3%%%%%%%%%%%%%%%%%%%%%%%%%%%%%%%%%%%%%%%%%%%%%%%%%%%%%%%%%%%%%%%%Q%q%%
23427H3Qq%%%%%%%%%%%%%%%%%%%%%%%%%%%%%%%%%%%%%%%%%%%%%%%%%%%%%%%%%%%%%%%%%%%
23411H3%%%%%%%%%%%%%%%%%%%Qq%%%%%%%%%%%%%%%%%%%%%%%%%%%%%%%%%%%%%%%%%%%%%%%%
23395H3%%%%%%%%%%%%%%%%%%%%%%%%%%%%%%%%%%%%%%%%Qq%%%%Q%k4QJ6qQqQq%%%%%%%%%Qq
23380H3%%%%%%%%%%%%%%%%%%%%%%%%Qq%%%Q%q%%%%%%%%%%%%%%%%%%%%%%%%%%%%%%%Qq%%%%
23364H3Qq%%%%%%%Qq%%%%%%%%%%%%%%%%%%%%%%%%%%%%Qq%Qq%%%%%%%%%%%%%%%%%%%%%Qq%%
23348H3%%%Qq%%%%%%%%%%%%%%Qq%Qq%%%%%%%%%%%%%%%%%%%%%%%%%%%%%%%%%%%%%%%%%Q%%%
23333I1q%Qq%%%%%QqQ%qQqQq%%%%%%%%%%%%%%%%%%%%%%%%%%%%%%%%%%QqQq%Qq%%%%%%%qJ6
23317I1%%%q%Qq%%%%%%%Q%%%qQ%%%%%qQ%qQq%%%%%%%%%Qq%Qq%%%%%%%%%Q%qQqQqQ%qQ%%%q
23301H3Q%%q%%QqQ%q%%%%%%%%Q%q%%%Qq%%%%Qq%%%%%%%%%%%%Qq%%%%%QqQ%q%%Q%%%%%%%%%
23285I1%%qQq%%%%%%%Qq%%Q%%%%%%qQq%Qq%%%Qq%%Q%%%%%%q%Q%q%Q%q%%%%%Qq%%%Q%%q%Q%
23270I1q%Q%q%QqQq%Qj6Q%%%Qq%%%%Q%%%q%%%%%%%Qq%%Qq%%%%QqQq%%Q%%%%%%q%%%%%Qq%%
23254H3%%Q%%q%%QqQ%q%%%%Qq%%QqQ%%%qQ%%%%%%%%%%%%%qQ%%%%%%%%%qQ%%%%qQ%%%%%%%%
23238I1qQq%Q%%%%%q%Q%%%qQq%QqQ%%%qQ%%%%Q%qq%Q%q%Qq%%%QqQ%%qQ%%%q%Q%%q%QqQqQ%
23223I1%%%%%%%%%%%%%%%%%%%%%%%%%%%%%%qQ%%%%%%%qQqQ%qQ%q%%QqQ%%%%%%%q%QqQ%%qQ
23207I1qQqQqQ%%%%%%%%%q%%%QqQ%qQ%%%%%Qq%%%%qQ%%%QqqJ6qqQ%%%%%%%%%%%qQ%%qQ%%%
23191I1%%%%%%%%%%%%%%%%%%%%%%%%%%%%%%%%%%%%%%%%%%%%qQ%qQ%%%qQqQ%%%%%%%qQ%qQq
23175H3%Qq%Q%%%%%%qQ%%%%%%%%%%%%qQ%%%%%%%%%%%%%%%%qQ%%%qQqQqQ%qQ%%%%%%%%%%%%
23160I1%%%%%%%%%%%%%%%%%%%%%%%%%%%%%%%%%%%%%qQ%%qQq%Q%qQqQ%qQ%%%%%%%%%%%%%%%
23144I1Qq%%%%%%%%%%%%%%%%%%%%%%%%%%%%%%%%%%%%%%%%%%%%%%%%%%%%%%%%%%%%%%%%%%%
23128I1%%%%%%%%%%%%%%%%%%%%%%%%%%%%%%%%%%Qq%%%%%%%%%%%%%%%%%%%%%%%%%%%%%%%%%
23112I1%%%%%%%%%%%%%%%%%%%%%%%%%%%%%%%%%%%%%%%%%%%%%%%%%%%%%%%%%%%%%%%%%%%%%
23096I1%%%%%%%%%%%%%%qQ%%%%%%%%Qq%%%%%%%%%%%%%%%%%%%%%%%%%%Qq%%qQ%Qq%%%%%%%%
23081I1%%%%%%%%%%%%%%%%%%%%%%%%%%%%%%%%%%%%%%%%%%%%%%%%%%%%%%%%%%%%%%%%%%%%%
23065I1%%%%%%%%%%%%Qq%%%%%%%%%%%%%%%%%%%%%%%%Qq%%%%%%%%%%%%%%%%QqQq%Qq%%%%%%
23049I1%%%%%%%%%%%%%%%%%%%%%%%%%%%%%%%%%%%%%%%%%QqQ%q%%%%Q%%qQqQqQqQqQq%Qq%%
23033I1%%%%%%%%%QqQ%q%%%Q%q%%%%%%Qq%%Q%%qQ%%%%q%Q%qQq%%%%%%%%%%%Q%q%%Q%q%Q%q
23017I1%%%%%%%%%%%%Q%%%%%%%%%%q%%%%%%%%%%%%%%%%%%%%%%%%%%%%%%%Qq%%%%%%%%%%%%
23002I1%%%%%%%%Qq%Q%q%Q%%%qQ%q%Qq%Q%q%%Q%qQ%%qQqQ%%%%%%%%%%%%%%qQq%Qq%%%%%%%
22986I1%%%QqQ%%%%%%%%%%%qQ%%%q%%%Q%%%qQ%%%%%qQ%%%%%%%qQ%%%%q%%%Q%%qQ%%%%%%%%
22970I9%%%%%%%%qQ%qQ%q%Qq%%%%Qq%Qq%%%QqQ%%%%qQ%qQ%%%%%%qQ%%%qQ%qQ%%%%%%%%%%%
22954I9%q%%%%%QqQq%Qq%%%Q%q%%%Q%%%%%%%%%%%%%%%%%%%%%%%%%%%%%%%%%%%%q%%%QqQ%%
22938I9q%Q%%%qQ%%q%Q%%q%QqQ%%%qQ%q%%%%%Q%%%%%%%%%%%qQqQ%qQ%qQ%q%Q%%%%q%Q%qQq
22923I1Q%%%qQ%%%%%%%%%%qQq%Q%%qQq%%QqQQ%j6QqJ6q%%%%%%%%%%%%%%%%%%%%%%%%%%%%%
22907I9%%%%%%%%%%%%%%%%%%%%%%%%%%%%%q%Q%qQ%%%%%%%%%%%%%%%%%%%%%%%%q%Q%%%%%%q
22892I1Q%%%%%%%%%%%%%%%%%%%%%%%%%%%%%%%%%%%%qQ%%%%%%%%%%qQ%%Qq%%%%Q%q%%%%%%%
22876I9%%%%%%%%%%qQ%%%%%q%Q%%%%%%%%%%%%%%%%%%%%%%%%%%%%%%%%%%%%%%%%%%%%%%%%%
22860I9%%%%%%%%%%%%%%%%%%%%%%%%%%%%%%%%qQ%%%%%%%%%%%%qQq%QqQ%%qQ%%%%%%%qQ%%%
22844I9%%%%%%%%%qQ%%%%%%%%%%%%%%%%%%%%%%%%%qQ%%%%%%%%%%%%%%%%%%%%%%%%%%%%%%%
22828I9%%%%%%%%%%%%%%%%%%%%%%%%%%%%%%%%%Q%q%%%Qq%%%%%%%%%%%%%%%%%%%%%%%%%%%%
22813I9%%%%%%%%%%%Qq%%%%%%%%%%%%%%%%%%%%%%%%%%%%%%%%qQ%%%%%%%%%%%%Qq%%%%Qq%%
22797I9%%%%%%%%%%%%%%%%%%%%%%%%%%%%Qq%%%%%%%%%%%%%%%%%%%%%%%%%%%%%QqQqQq%%%%
22781I9%%%%%%%%%%Qq%%%%%%%%%%%%%%%%%%%%%Qq%%%%%%%%%%%%%%%%%%%%%%%%%%%%%QqQqq
22765I1Q%%QqQq%Qq%%qJ6%qQ%q%%J6qq%%%QqQq%%%Qq%%%%%%Qq%%Qq%%%%%%%%%%%%%%%%%%%
22750I9%%%Q%q%%Qq%%%%%Qq%%%%%%%%%%%%Q%qQq%Q%q%QqQ%qQ%qQ%qQ%%%%%%%qQq%Qq%Q%qQ
22734A07%%%%%%%%q%QqQq%Q%%%%%qQ%qQ%%qQqQ%%%%%%%%%%%qQ%%%%%%%%qQqQ%%qQ%%qQ%%%
22719A07%%%q%Q%qQ%%qQq%%Q%%qQqQqQ%qQ%%%qQ%%%%%%%%%qQq%%%QqQq%%%%%%QqQqQqQ%%%
22703A07%%qQ%qQqQ%%%%qQq%%Q%q%%%Q%%%%%%%%%%%%%%%%%%%%%%%%%%%%%%qQ%%%qQ%%%%%%
22687A07%%%%%%%%%%%%%%qQqQqQq%%Q%%qJ6k4J6qQ%%q%%%%%%Q%%%%%%%%%qQ%%%%%%q%Q%%%
22673A07%%%%%%%%%%%%%%%%%%%%q%Q%%%%%%%%%%%%%%%%%%%%%%%%%%%%%%%%%%%%%%%%%%%%%
22657A07%%%%%%%%%%%%%%%%%%%%%%%%%%%%%%%%%%%%%%%%%%%%%%%qQQq%%%%%%%%%%%%%qQ%%
22641A07%%%%%%%%%%%%%%%%%%%%%%%%%%%%%%%%%%%%%%%%%%%%%%%%%%%%%%%%%%%%%%%%%%%%
22626A07%%%%%%%%%qQ%%%%Qq%%%%%%%%qQ%%%%%%%%%%%%%j6K4%%qj6QQK4j6K4m0%QJ6j6qQ%
22612A07%%%qQqQ%%%%Qq%%%%Qq%%%%%%%%%%%%%%%%%%%%%%%%%%%%qQ%%%%%%%%%%%%%%%%%%%
22597A07%%%%%%%%%%%%%%%%%%%Qq%%%%%%%%%%%%%%%%%%%%%%%%%%%%%%%%%%%%%%%%%%%%%Qq
22581A07%Q%q%%%%%%Qq%Qq%%Qq%%%%%%%%%%%%%Qq%%%%%%%QqQq%Q%qQq%Q%%%q%%%%%%%%%%%
22566A07%%%%%QqQqqJ6q%Qq%%%%%%%%%%%%%%%%%%%%%Qq%%%%%%%%Qq%%Qq%%QqQ%%q%%%%%Qq
22550A07%%%%%%%Q%q%%%%%%%%%%%%Qq%%%%%%%%%%%%%%%%%%%%%%%Q%q%%%%Qq%Qq%%Q%%%q%%
22535A07%%Qq%%%%%%%%%%%%%%%%%%%%%%%%Qq%Q%qQ%qQq%Qq%Q%q%QqQq%Q%%q%%Qq%%%%%%%%
22519A07%Q%%qQqQ%q%%%Qq%%%Q%q%%Q%q%%%Q%%q%%%%Q%%q%%%%QqQq%%%%%Qq%%%Q%qQ%%qQ%
22504A15%qQqQqQ%%%%%%%%%%%%%%%%qQ%%q%%%Qq%%%%QqQ%%qQqQ%qQ%%%q%Q%%%%%%%%%%%%%
22488A15%%%%%%%%qQ%%%%%%%%%%%%%%%%%%%%%%%%%%%%%%%%%%%%%%%%%%%qQ%%%%%%%%%%%%%
22472A15%qQ%%%%%%%%%%%%%q%Q%%%%%%%%%qQ%%%%%%%%%%%%%%%%%%%%%qQ%%%%%%%%%%%%%%%
22457A15%%%%%%%%%%%%%%%%%%%%%%%%%%%%%%%%%%QqqJ6qQq%%%Qj6Qj6K4q%%%%%%%%%%%%%%
22442A15%%%%%%%%%qQ%%%%%%%%%%%%%%%%%%%%%%%%%%%%%%%%%%%%%%%%%%%%%%%%%%%%%%%%%
22427A15%%%%%%%%%%%%%%%%%%%%%%%%%%%%%%%%%%%%%%%%%%qQqQ%q%Q%q%Q%%%%%%%%qQ%%%%
22411A15%%Qq%%%%%%%%%%%%%%%%%%%%%%%%%%%%%%%%%%%%%%%%%%%%%%%%%%%%%%Qq%%%%%%%%
22396A15%%%%%%%%%%%%%%%%%%%%%%%%Qq%%%%%%%%%%%%%%%%%%%%%%%%%%%%%%%%%%%QqQ%%%q
22380A15QqQqQq%%%%%Qq%%%QqQq%%%%%%%%%%%Qq%Qq%%%%Qq%%%%%%%%Q%%q%%Qq%%%%%%%%%%
22364A15%%%%%%%%%%Q%%%%qQq%%%%Qq%%Q%%%qQqQ%q%%%%%Qq%%%%%%Qq%QqQ%%qQ%q%%%QqQ%
22349A23%%q%%%%%%Qq%%%%%Qq%%%%Qq%%Q%%%%%%%%qQqQq%%%Q%qQ%q%Qq%%%%%%%%%%%%%%%%
22333A15%Qq%%%%%%Qq%Q%qQ%%Qj6Qq%Q%%qQq%%%%QqQ%%%%qQ%%%%q%Q%qQ%%%%%%%%%%%%%%q
22318A15Q%%%%%%qQ%%q%%Qq%%Q%qQq%%Q%%%%%q%QqQq%%%%%%%Q%qQq%Qq%%%%%%Q%%%%q%QqQ
22302A23%%%%%%%%qQ%%%%%%%%%%%%%%%%%%%qQ%%qQ%%Qj6QQ%j6QqQ%%%qQ%qQ%%%qQqQ%%%%%
22287A23%%qQ%qQ%%%%%%%%qQ%%%%%%%%%%qQ%qQ%%%%%%%%%qQ%%%%%%%%%%%%%%%%%%%%%%%%%
22272A23%%%%%%%%%%%%%%%%%%%%%%%%%%%%%%%%%%%%%%Qq%%%%%%%%%Q%%%qQq%%%%%%%%%%%%
22256A23%Qq%%%%%%%%%%%%%%Qq%%Qq%%%%%%%%%%%%%%%%%%%%%%%%%%%%%%%%%%%%%%%%qQ%%%
22241A23%%%%%%%%%%%%%%%%%%%%%%%%%%%%%%%%%%%Q%%%qQqQ%%qQqQ%%qQ%%q%%QqQ%q%%%%%
22225A23%%%%%%%%%%%%%%%%%%%Q%q%%%%%%%%%%%%%%%%%Q%qQ%q%%%%Q%%q%%Q%q%qJ6%q%%%%
22210A23%%%%Qq%%Qq%%%%Qq%%%Q%q%%Q%%%%qQ%q%Qq%%%%%%Qq%%%%%%%%%%QqQ%%%%%%%q%%%
22194A23Qq%%%%Q%q%Q%%%%q%Q%%qQq%Q%%%q%%%%%%%%%%%%Q%%%%q%%%QqQ%%qQ%%%qQ%%q%Q%
22179A31qQq%Q%qQq%Q%%qQ%%q%QqQ%qQ%%%%%%%%%%%%%qQ%%%%%%%%%qQq%Q%qQ%%%qQqQqQ%%
22163A31%%%%%%qQ%qQ%%%%%%%%%%%%%%%%%%%%%%%%%%%qQq%QqQqQ%qQ%%%qQ%qQ%qQqQ%%%%%
22147A31%%%%%%%%qQ%%qQ%qQ%%%%%%qQ%%%%%%%%%%%%%%%%%%%%%%%%%%%%%%%%%%%%%%%%%%%
22132A31%%%%%%%%%%%%%%%%%%%%%%%%%%qQ%%%%%%%%%%%%%%%%%%Qq%Qq%%%%%%%%%qQ%qQ%%q
22116A23Q%%%qQ%%%%%%%%%%%%%%%%%%%%%%%%%%%%%%%%%%%%%%%%%%%%%%%%%%Qq%%%QqQ%q%%
22101A31%%%%%%%%%%Qq%%%%%%%%%q%Q%q%Q%%%%%%%%%%%%%%%%%%%%%%%%%%%%%%%%%%%%%%%%
22085A31%%%%%%%%%%%%%%%%%%%%%%%%Q%q%%%%%%%%%%%%%%%%%%%%Q%q%%%%%%%%%%%%%%%%%%
22070A31%%%%%%%%%%%%%%%%%%%%%Qq%%%%%%%%%%%%%%%%%%%Q%%q%J6j6%Qq%Q%qQq%Qq%%%%%
22055A31Qq%%%%%%%%%%%QqQ%%qQ%%%%%%%%%%%%%%%%%qQq%%%Qq%%Qq%%%%%%%%%%%Q%%qQqQ%
22039A39%%q%%%Q%%%%%%%%%%%%%qQ%%%qQqQqQ%qQ%%%%%%%%%qQqQ%%qQ%%qQ%qQ%%%%q%%Q%%
22023A39%%%%%%%qQ%%%%q%%Qq%%%%%Q%%%%%%%%%%%%%%%%%%%%%%%%%%%%%%%q%Q%qQqQqQqQq
22008A31Qq%%Q%%%%%%%%%%%qQ%%%%%%%%%%%%%%q%Q%%%%%%%%%%%%%%%%%%qQq%Q%%%%%%%%%%
21992A39%%%%%%%%%%%%%%%%%%%%%%%%%q%%%Q%%%%%qQ%%qQ%%Qq%%QqQqQqJ6j6%j6L2J6j6qN6
21978B03n6k4O4k4qj6j6%%K4q%Q%q%%Qj6Q%qQ%Q%q%QqQq%q%Q%%%%%%%%Qq%%%%Qq%%%%%%%%
21964A39%%%%%%%%%%%Qq%%%Q%%q%%%%%%Qq%%%%%%%%%%Q%%qQq%Qq%%%%%%%%%%%%%%%Q%%%qQ
21949A47%%%%q%Qq%QqQ%%%qQ%%qQqQq%%%%%Q%qQqQq%QqQq%%%%%%Qq%Qq%Qq%%%%%%%%%%%%%
21933A39Q%q%%%%%%%%%%%%%%%%%%%%%%%Qq%Qq%%%%%%%%%%Q%q%%Qq%Q%%qQ%%%%%qQ%%%%%%%
21918A47%%q%Q%q%%%%QqQq%%%%%%%QqQq%%Q%%q%%%Q%%%%qQ%%%%%%%%%q%%Q%%%%%%%%%%%%%
21902A47%%%%%%%%%qQ%%%%%%%%%%%%%%%%%%%%%%%%%%%%%%%%%%%%%%%%%%%%%%%%%%%%%%%%%
21887A47%%%%%%%%%%%%%qQqQ%%%%%%%%%%%%%%%%%%%%%%%%%%%%%%%qQ%%%%%%%%%%%%%%%%%%
21871A47%%%%%%%%%%%%%%%%%%%%%%%%%%%%%%%%%%%%Qq%Qq%Q%qQ%q%%%%%%%%%%%%%%%%%%%%
21855A47Qq%%%%%%%%%%%%%%%%%%%%%%QqQq%%%%%%%%%%%%%Qq%Qq%%%%Qq%%%%%%%Q%q%%%%%%
21840A47%%%%%%Q%%q%%%%Qq%%%Qq%Q%%%q%%%%%%%%Qq%%Qq%%Q%%qQq%%Q%%qQq%QqqK4qj6J6
21825A55J6j6%j6QJ6q%j6J6q%%Qq%%%Qq%%%%%%QqQq%%QqQ%%%%%%%%%qQ%%q%%%%%Qq%%%%Q%
21811A55qQ%q%%Qq%Q%%%%%%%%%q%%%Qq%%%Q%%%%%%qQ%%q%%Q%%%%qQ%%%%%%%q%%%%Qq%Q%qQ
21795A55%%%%%%%%%%%%%%%%%%%%%qQ%%%%%%%%%%%%%%%%%%%%%%%%%%%%%%%%%%qQ%%%%%%qQ%
21780A55%%%%%%%%%%%%%%%%%%qQ%%%%%%%%%%%%%%%%%%%%q%Q%%%%%%%%%%%qQqQ%%%%%%q%Q%
21764A55%%%%%%%%%%%%Qq%%%%%%%%%qQ%%%%%%%%%%%%%%%%%%%%%%%%%%%%%%%%%%Qq%%%%%%%
21749A55%%%%%%%%%%Qq%%%%%%%%%%%j6J6QqQq%%%QqQq%%%QqQq%%%%%%%%%%%%%Qq%%%%%%%%
21733A55%%Qq%%%%%%%%%%%%%%%%%%%%%%Qq%%%Q%q%%%%%%%QqQqQ%%%%%qQq%Q%%%%%%%qQqQq
21718A55%%%Qq%%%%%%QqQq%Q%q%%Qq%%%QqQ%qQ%%%%%%qQ%%%qQ%q%QqQ%%%%%%%%%%%%%qQ%%
21702A63%%%%qQ%q%Q%%q%Q%qQ%%%%%%%%%%%qQ%q%Q%%%%%%%%%%%qQ%%%qQ%%%%%%%%%%%%%%%
21687A63q%Q%qQ%%%qQ%%%%%%%%%%%%%%%%%%%%%%%%qQ%QqQ%Qq%q%Qq%%%%%%%%%qQ%%qQ%%%%
21671A63%%%%%%%%%%%%%%%qQ%%%%%%%%%%%%%%%%%%%%%%%%%%%%%%%%%%%%%%%%%%%%%qQ%%%%
21656A63Qq%%%%%%%%%%%%%%%%Qq%%%%%Qq%%%%%%%%%%%%%%%%%%%%%%%%%%%%%%%Q%qQ%%q%%%
21640A63%%%%%%%%%%%%%%%%%Q%q%Q%%%%%qQ%%qQq%Qq%%%%%%%%%%%%Q%qQ%qQ%%q%%Qq%Q%%q
21624A63%%%Qq%%Q%%%qQ%%qQqQqQ%%%qQ%%%%%qQ%qQq%Q%q%QqQq%QqQq%%%QqQ%%%%%%%%%%%
21609A71%%%%%%%%%%%%%%%%%%%%%%%%%%%%%%%%%%%%%%%%%%%%%%qQ%%%%q%Q%%%%%%%%%%%%%
21593A71%%%%%%%%%%%qQQq%qQ%%%%%%%%%%%%%%%%%%%%%%%%%%%%%%%%%%%%%%%%%%%%%%%%%%
21578A71%%%%%%%%%%%%%%%%%%%%%%%%%%%%%%%%%%%%%%%%qQ%%%%%%%%%%%%%%%%%%%%%%%%%%
21562A71%%%Qq%%Qq%%%Q%qQq%%%%%%Qq%%%%%%%%Qq%Q%q%Q%q%%%%%%%%%%%%%%%%%%%%%%%%%
21547A71Qq%%%%%Qq%%%%%%%Q%%%qQ%%%%%%%%%%q%%%%%%%%QqQ%%%%%%%qQqQ%%%%%%%%%%qQq
21531A71Q%%%%q%Q%%%%%qQ%%qQq%QqQqQ%%%%qQ%%%%%%%%%%%%%%%%%%%%%%%%%%%%%%%%%%%%
21516A79%%%%%%%%%%%%%%Qq%%QqQ%q%Q%%q%qK4j6%%%qQ%%%%%%%%%%%%%%%%%%%%%Qj6Q%%%%
21501A79%%%%%%%%%%%%%%%%%%%Qq%%%%%%%%%%%%%%%%%%%%%%%%%%%%%%%%QqQ%q%Qq%Q%%%qQ
21485A87qQ%%%q%%%%%%%%%%%%%%Qq%%%%%%Qq%Qq%Q%%q%Q%%%%%%q%Q%%%qQ%%qQ%qQ%qQqQqQ
21469A87%%%qQ%%%%%%qQ%%%%%%qQqQ%%%%%%%%%%%%%%%qQ%qQ%%q%%%Qq%Q%q%%%%%Qq%Qq%%Q
21454A87%%qQqQqQ%%qQ%q%%Q%%%%%%%%%%%%%%%%%%%%%%qQ%qQq%Q%%%%%%%%%%qQ%%%%%%%%%
21438A87%%%%%%%%%%%%%%%%%%%%%%%%%%%%%%%%%%%%%%%%%%%%%%%%%%%%%%%%%%%%%%%%%%%%
21423A87%%%%%%%%%%%%%%%%%%%%%%%%%%%%Qq%%QqQq%%QqQq%%%%%%%%QqQq%Qq%Qq%QqQqQ%q
21407A87Qq%%%%%%%Qq%%Qq%%%Q%%qQ%%%%%%%%%%%%%%%qQqQ%qQ%%%%%%qQqQ%%%qQ%qQ%%%%q
21392A87Q%%%%qQ%%%%%qQq%Q%%%%%%%%%%%%qQqQ%q%QqQqQ%%q%Q%%%qQ%%qQ%%q%%Q%%%%%%%
21376A95%%%%%%%%%%%%%%%%%%%%%%%%%%%%%%%%%%%%%%%%%%Qq%%%%%%%%%%%%%%%%%%%%%%%%
21361A95%%%Qq%%%%%%%Q%q%%%Qj6QQ%j6Q%%%Q%%%%qQq%%Q%q%%%%Q%q%%%Qq%Q%%%%qQqQqQq
21345A95%%%%%%%%%%%%%Qq%%Q%q%Q%qQq%%%%%%QqQ%%%%%%qQ%%%%%%%%%%qQqQ%q%Qq%%Q%%q
21330A95Q%%qQ%%%%%%qQ%qQqQq%Q%%%%%%%%%%%qQqQ%%q%%Q%%%%%%%%%%%%%%%%%%%%%%%%%%
21314B03%%%%%%%%%%%%%%%%%%%%%%%%%%%%%%%%Qq%%%%%%%%Qq%%%%%%%%%%%%%%%%%%%%%%%%
21299B03%QqQqQ%%qQq%QqQq%Qq%%%%%%%Qq%Qq%%%%%%%%%%%%%Qq%%%%%%QqQqQ%%%%%%%%%%%
21283B11%%%qQ%%%%%%%%%%%%%%qQqQqQ%q%%%%QqQq%QqQ%qQ%q%Q%%%%%%%%%%%%%%%%%%%%%%
21268B11%%%qQ%%%%%%%%%%%%%%%%%%%%%%%%%%%%%%%%%%%%%%%%%%%%%%%%%%%%%%%%%%%%%%%
21252B11%%%%%%%%%%%Qq%Qq%%%%%%%%%%%%Q%q%%%%%%%%%%%%%%%%%%%%Qq%%QqQ%q%Q%q%%Qq
21236B11%Qq%Q%%%%%q%%QqQ%q%%%%%%Q%%%%q%Q%q%%%%%%Q%qQ%%qQ%%q%%%QqQ%%%%%%%%%%%
21221B19%%%%%%%%%%%%%%%%%%%%%%%%%%%%%%%%%%%%%%%%%%%%%%%%qQ%%Qq%%%%%%%%%%%%%%
21205B19qQ%%%%%%%%%%%%%%%%%qQ%%%%%%%%%%%%%%%%%%%%%%%%%%%%Qq%%%%%%%%%%%%%%%%%
21190B19QqQ%%%%%%%%%qQ%qQ%q%Q%%%%%%q%Q%qQ%%qQq%%Q%qQqQqQ%%qQ%%%%%%%%%%qQ%%%%
21174B27%%%%%%%qQ%%%%%%%%%%%%%%%%%%%%%%%%%%%%%%%%%%%%%%%%%%%%%%%%%%%%%%%%%%Q
21159B35%q%%%Qq%Qq%%%%%%%%%%%%%%%%%%%%%%%%%%%%%%%%%%%%%%%%%Qq%%Qq%QqQ%%q%%%Q
21143B35q%%%Q%%%%%%%%q%%Q%qQqQqQ%qQ%%%%%%%%%%%%%q%QqQ%%%qQ%%%%%%%qQ%%%%%%%%%
21128B35%%%%qQ%%qQqQ%qQqQ%%%Qq%%%q%Q%j6K4qq%%Q%%qQ%%%%%%%%%%%%%%%%%%%%%%%%%%
21112B35%%%%%%%%%%%%%QqQqQq%%%Q%%q%%Q%%q%%%%Qq%%%%%%%%%%%%%%%%%Qq%Q%qQq%Q%q%
21097B35%%%%QqQq%Qq%Qq%%%%Q%%%q%Q%%%%%qQ%qQ%%%qQq%Q%qQ%qQqQ%%q%%Qq%%QqQ%q%%%
21081B35Qq%Q%%%%%%%%%%%%Qq%%%%%%%%%%%%%%%%%%%%%%%%%%%%%%%%%%%%%%%%%%%%%%%%%%
21066B43%%%%%%%%%%%%Q%%%%%%%qQ%%%q%%%%QqQq%Q%q%%%%QqQq%QqQq%%%%%%QqQqQ%%%%%%
21050B51%%%%%%%%%%%%%%%%%%%%%%%%%%q%Q%qQq%Qq%Q%q%J6j6K4qj6QqQ%%%%%%%%%%qQ%%%
21036B51%%%%%%%%%%qQ%%%%%%%%%%%%Qq%%%%%%%%%%%Qq%%%%%%Q%qQ%q%%%%%%%%%%%%%%%%%
21020B51%%Qq%Qq%QqQq%Q%%%qQ%%qQ%%%%qQ%%%%%q%%%Qq%Q%%qQ%%%%%%%%%%%%Qq%%Qq%%%%
21004B59%qQ%Qq%%%%%%%%%%%%%%%%%%%%%%%%%%%%%%%%%%%%%%%%%%%%%%%%%%%%%%%%%%%Qq%
20989B59%Qq%%%%%%%%%%%%%%%%Qq%%%%%%%%%%%QqQ%%q%Qq%%%%%Qq%%%%%%Q%%%%%qQ%%qQ%%
20973B67%%%qQ%%%%%%qQ%%%%%%%%%%%%%%%%%%%%%%%%%%%%%%%%%%%%%%%%%%%%%%%%%%%%%%%
20958B67%%%%%%%Q%qQq%%%%%%%%%%QqQ%q%%%%Q%q%%%%%Q%%%q%Q%%qQq%%%%%QqQ%qQ%%%%%%
20942B75%%qQ%%%%%%%%%%%%%%%qQ%%%%%%%%%%%%%%%%%%%%%%%%%%%%%%%%%%%%%%%%%%%%%%%
20927B75%%%%%%%%Qq%QqQ%q%%%%QqQ%q%Qq%%Qq%%%%%%%%%%%Qq%%%Qq%Q%%%%%%%%%%%qQ%qQ
20911B83%%%%%%%%%%%q%%%%Q%%%%%%%%%%%%%%%%%%%%%%%%%%%%%%%%%%%%%%%%%%%%%%%%%%%
20895B83%%%%Qq%%%%%%%%%%%%Qq%%Q%%qQ%qQ%%%j6Qj6QK4q%qQ%%qQ%%%%%%%%%%%%%%qQ%%q
20881B83Qq%%%%Q%%%%%%%%%%%%%%%%%%%%%%%%%%%%%%qQ%%%%%%%%%%%%%%%%%%%%%Q%q%%%%%
20865B91%%%%Qq%%%%%%%%%QqQq%%%%%%%%%%%Qq%Q%q%QqQ%%%%%%%%%%%%%%%%qQqQ%qQ%%%%%
20849B99%%%%%%%%%%%%%%%%%%%%%%%%%%%%%%%%%%%%%%%%%%%%%%%%%%%%%%%%%%%%%QqQq%%%
20834B99%%%%%%%Q%q%%Qq%%%%%%%%%Q%qQqQq%%QqQ%%%%%%qQ%%%%%%%%%%%%%%%%%%%%%%%%%
20818C07%%%%%%%%%%%%%%%%%%%%%%%%%%%%%Qq%%Qq%%%%%%%Qq%Q%%%q%%%QqqQqJ6q%%Qq%%%
20803C07%Q%q%Q%qQ%%%%%%%%%%%%%%%%%%%%%%qQ%%%qQ%%%%%%%%%%%%%%%%%%%%%%%%%%%%%%
20787C15%%%%%%%%%%%%%%%%Q%%%%%%%%qQq%Q%%%%%q%Q%qQqQ%qQq%QqQ%%%%qQ%%%qQ%q%Q%%
20772C23%%%%%%%%%%%%%qQ%%%%%%%%%%%%%Qq%%%%QqQq%Q%qQ%%%%qQ%%%%%%%%%%%%%%%%%%%
20756C31%%qQ%%%%%%%%%%%%%%%%%%%%qQq%%%%QqQ%%%%%%qQqQ%%%%%%%%%%%%%%%%%%%%%%qQ
20741C31%QqqK4k4QQq%Q%%qQ%q%%%%%%Q%qQq%Q%qQ%%%%%%%%%%%%%%%%%%%%%%%qQ%%%%%%%%
20726C39%%%%%%%%%%%%%%%%%%%%%%%%%%%%%%Qq%%%%%%%%%%%%Q%%%%%%%%%%%%%q%Q%%qQ%%q
20710C39Q%%%%%%%%%%%%%%%%%%%%%%%%%%%%%%%%%%%%%%%%%%%%%%%%%%%%%%QqQ%%qQq%Qq%%
20695C47%Qq%%%Qq%%QqQqQ%%q%Q%q%Q%%QqqQ%%%%%%%%%%%%%%%%%%%Qq%%Q%%%%q%Q%%q%Qq%
20679C55Q%q%Q%qQ%%%%%%%%%%%%%%qQ%%%%%%%%%%qQ%%%%%%%%%qQ%qQ%%%%%%%%%%%%%%%%%%
20663C63%%%%%%%%%%%%%%%Qq%Q%%qQqQ%q%Q%qQqQ%%%%%%%%%%%%%qQ%%%Qq%%Qq%%%%%%%%%%
20648C71%%%%%%%%%%%%%%%%%%%%Qq%%%Q%%%%%%%%%%qQ%%%%%%%qQ%%%%%qQ%%%%%%%%%%%%%%
20632C79%%%%%%%qQ%qQ%%%%%%%%QqQqQ%%%%%q%%Q%%qQqQ%%%%%%%%%%%%%%%%%%%%%%%%%%%%
20617C87%%%%%%%%%%%%%%%%%%%%%%%%%%%%%%%%Qq%QqQ%%%qQ%%%qQq%%QqQ%qQ%%%%%%%%%%%
20601C95%%%%%%%%%%%%%%%%%%%%%%%%%%%%%%%%Q%qQ%%%%%%qQ%qQqQ%qQ%%%qQ%%%%%%%%%%%
20586D03%%%%%%%%%%%%%%%%%Q%%%q%Qq%Qq%%Qq%%%%%%Q%%%%%q%Qq%%%Q%QqqQ%%%J6l2J6Qq
20571D11%Q%%q%qQ%%%%%%%%%%%%%%%%%%%%%Q%q%%%%Qq%%Q%%%%%%%%%%%%%%%q%Q%%%%%%%%%
20555D19%%%%%%%%%%%%%%%%%%%%%%%%%%%%%%%%%Qq%%%%%%%%%%%%QqQ%%%qQ%%%qQ%%%%%%%%
20540D27%%%%%%%%%Q%%%q%Qq%Qq%%%QqQ%%qQ%%%%%%%%%%%%%%%%%%%%%%%%%%%%%%%%%%%%%%
20524D35%%%Qq%%%%%%%%%Q%%%%%%%%%%%%%%%%%%%%%%%%%%%%%%%%%%%%Qq%%%%%%%Qq%%%%%%
20508D43Q%qQ%%q%QqQ%%%%%%%%%%%%%%%%%%%%%%%%%Qq%Q%q%%QqQqQ%%%%%%%%%%%%%%%%%%%
20493D59%%%%%%%%%%%%%%%%%%%%%%%Qq%%Q%%%%%%%%%%%%%qQqQ%%%%%%%%%%%%qQ%%%%%qQ%%
20477D67qQqQqQ%Qq%Qq%%QqQqQ%%qQq%Q%%%%%%%%%%%%%%%%%%%%%%Q%q%%%%%Qq%%Qq%Q%%q%
20462D75Q%%%%q%%%%%Q%%qQ%%%%%%%%%%%%%%qQ%%Q%qQ%%%%%qQ%%%%%%qQ%%%%%%%%%%qQ%%%
20446D91%%%%%%%%%%%%Qq%%%%QqQ%q%Q%%%q%Q%%%%%%%%%%%%%%%%%%%%%%%%%%%%%%%%Qq%%%
20431D99%%Qq%%Q%q%Q%%%%%%%%%%%%%%%%%%%%%Qq%Q%q%Qq%Qq%%Q%q%QqJ6j6%QQq%%%qQ%Qq
20415E15%%%%%Q%%%q%Q%%%%qQ%%qQ%qQq%Q%qQ%%%%%%%%%%%%%%%%%%%%%%Qq%%Q%qQ%%%%%%%
20400E31qQ%%%%%%%%%%%%%%%Q%q%%%%%%%%%Q%%q%Qq%Q%%%%%%%%%%%%%%Qq%%%%%%Qq%Qq%%%
20384E39%%%%Qq%%QqQ%%%%%%%%%%%%%%%%%%%%Qq%QqQ%qQq%Qq%Q%%%%%qQ%%%%%%%%%%%%%Qq
20369E55%Q%%qQ%%q%QqQ%%%%%%%%%%%%%Qq%%%%%%%%%%%%%%%%%Q%%%%%%%%%%%%%%%%%%%%%%
20353E71%%%%Qq%%%Q%%%%%%%%%%%%%%%%%%%%%%%%Q%%q%Q%%%%qQ%%%%%%qQ%%%%%%%%%%%%%%
20338E87QqQqQqQqQ%%qQqQq%QqQ%%%%%%%%%%Qq%Q%q%%Q%%%%%%%%%%%%%%%%%%%%%%%%%%%%%
20322F03%%%%%%%%%%%Q%%%%%%%%%%%%%%%%Qq%%%%QqQ%q%%QqQ%%%%%%%%%%%%%%%%%%%%%%Q%
20307F27%%%%%%qQ%%%%%%%%%%%%Q%qQ%%%%%%%%%%%%%qQ%q%Q%%%%%%%%%%%%%Q%qQqQ%%%%%%
20291F43%%%%%%%%%%%%%%%%%%%%%%Q%%%%%%%%%%%%%%%%%%%%%%QqQqQ%%%%%%%%%%%%%%%%%%
20275F59%%Q%qQ%qQ%%%%%%%%%%qQ%qQ%Qq%%%%%%%QqQ%%%%%%%%%%%%%%%%%%QqQ%%%%%%%%%%
20260F83%%%%%%%%%%%%%%%%%Q%%%%%%%%%%%%%%%%%%%%%%%%Q%qQ%qQ%%%%%%%%%Q%%%%%%qQ%
20244G07qQ%%qQ%%%%%%%%%%%%%%%%%QqQ%%%%%%%%%%%%%%Q%q%Q%qQ%%%%%%%%%%%%%%%%%%%%
20229G23Q%%%%%%%%%%Qq%QqQ%%%%%%%%%%%%%qQ%%%qQqQ%QqQq%Q%%%%%%%%%%%%%%%%%Q%%%%
20213G55%%%%%%%%%%%%%%Qq%%%%QqQ%%%%%%%%%Qq%%%%%Q%%%%%%%%%%%%QqQ%%q%%Q%%%%%%%
20198G79%%%%%%Qq%Q%%%%%%%%%%%%%%%%%%%%Q%%q%Q%%%%%%%%Qq%Q%%%%%%%%qQQq%%Qq%%%Q
20182H11qQ%%%%%%%%%%%%%QqQqQq%Q%%%%%%%%%%Qq%Q%%%%%%%%%%%%%%%%%%%%%%Q%qQ%%%%%
20166H35%%%Q%%qQ%%%%%%%%%%%%%Q%q%Q%%%%%%%%%%%%%%%%Q%%%%%%%%Q%%qQ%qQ%%%%%%%%%
20151H67%%%%Qq%%Q%%%%%%%%%%Q%%%%%%%%%%%%%%%%%%%%Q%%%%%%%%%%%Qq%Q%%%%%%%%%Qq%
20135H99Q%%%%%%%%%%%%%%%Qq%Q%%qQ%%%%%%%%Q%%%%%%%%%%%%Q%%%qQ%%%%%%%Q%%%qQqQ%%
20120I39%%%%%%QqQ%%%%%%%%%%%%%Q%%%%%%%%%%%%%Q%qQ%%qQ%%%%%%%QqQ%%%%%%%QqQ%%qQ
20104I79Q%%j6L2l2Q%L2k4Qq%j6J6%%%qQ%%%Q%q%%QqQ%%%%%%%Q%%%%%%%Q%q%Q%%qQ%%%%%%
20090A011%Q%q%Q%%qQ%%%%%Q%%%%%%%%%%QqQqQ%qQ%%%%Qq%%Q%%%%%%%%%%%%QqQ%%%%%%%%Q
20075A059%%%%%%%%%%%Q%%%%%%%%%Q%%%%%%%%%%Q%q%Q%%%%Q%q%%Q%%%%%%%%Q%%%%%%%Qq%Q
20060A107%qQ%%%%%%%%%Q%%%%%%%Q%%%%%%%%%%%%Q%qQ%%%%%%%Qq%Q%%%%Qq%Q%%%%Qq%Q%%%
20044A155%%%%%%QqQ%%%%%Q%%%%%%Q%%%q%Q%qQ%%%%%Q%%%%%%%%Q%%%%%%%%Qq%%Q%%%%%%%Q
20029A211%%%%%%%%Q%%%%%%%%Q%%%%%%%Q%qQ%%%%%%%Q%%%%%%%QqQ%%%%%%%Q%%%%%%%%Q%%%
20014A267%%%%%%Q%%%%%Q%%%%%%%%Q%%%Qq%%%%%Q%%%%%%%Q%%%%%%QqQ%%%%%%%QqQ%%%%QqQ
19998A331%%%%Qq%Q%%%%Q%%%%%Q%%%%%%%%Q%%%%%%%%%%Q%%%%%Q%%%%Q%q%Q%%%%%%Q%%%%%Q
19983A403q%Q%%%Q%%%%%%%Q%%%%%QqQ%%%%QqQ%%%%Q%%%%%%%%%%Q%%%%Q%%%%%%%%Q%%%%Q%%
19968A475%%%%Qq%Q%%%%Q%%%%Q%%%%%%%Q%%QqQqQ%%%Q%%%%%%Q%%%%%%%%Q%%Q%%%%Q%%%qJ6
19952A563q%Q%%%%j6L2j6j6J6QK4qj6%Qk4J6%Q%Q%%%Q%%%%qQ%Q%%%%%Q%%%Q%%%%Qq%Q%%%%
19939A627Q%%%%%QqQ%Q%%%%%%%Q%Q%%%%%%%%Q%%%%Q%%%Q%%%%%%Q%%%%%QqQQqQ%%Q%%%%%Q%
19924A731%%%%%Q%%%Q%%%%Q%%%%%Q%%%%Q%%%Q%%%%%Q%%%Q%%%%%Q%%QqQ%%%%%Q%%%%Q%%Q%%
19909A835%%Q%%%%Q%%%Q%%%%Q%%%Q%%%Qq%Q%%%Q%%%Q%%%Q%%%%Q%%%Q%QqQ%%%QqQ%%%Q%%%Q
19893A955%%%Q%%Q%%%%Q%%%Q%%%Q%%%%%Q%%Q%%%Q%%%%%Q%%Q%%%Q%%Q%%%%Q%Q%%%%%Q%%Q%%
19878B083Q%%%%Q%%%Q%%Q%%%%%Q%Q%%%Q%%%Q%%%%Q%%%Q%Q%%%%Q%%Q%%Q%%%QqQ%Q%%%Q%Q%%
19863B227%Q%QqQQ%%%Q%%%%%Q%%Q%%Q%Q%%Q%%%%Q%%Q%%Q%%%Q%%Q%%Q%%Q%%Q%%%Q%%Q%%Q%%
19847B387Q%%%Q%Q%Q%%%%Q%Q%%%Q%Q%%%Q%Q%%Q%%%Q%%QQqQ%%Q%Q%%Q%Q%%%Q%QqQ%Q%Q%%J6
19832B579%%%%%Q%%Q%Q%%%Q%%Q%Q%%Q%Q%%Q%Q%%%QQ%%Q%%Q%%Q%Q%Q%%Q%%Q%%Q%Q%%Q%Q%%Q
19817B771%Q%Q%%Q%Q%Q%Q%Q%Q%Q%%%Q%Q%%Q%%Q%QQ%%Q%Q%Q%%Q%Q%Q%Q%%Q%Q%Q%%%QQ%QQ%%
19801C003%Q%QQ%%Q%%Q%QQ%Q%Q%%Q%Q%Q%%Q%Q%QQ%%Q%Q%QQ%Q%%Q%QQ%%Q%QQ%Q%%J6%%Q%Q%
19786C259Q%Q%Q%Q%QQ%QQ%%Q%Q%Q%%J6%Q%%QQ%%QQ%QQ%Q%Q%Q%QQ%Q%QQ%Q%%QQ%QQ%QQ%Q%Q
19771C555Q%QQ%Q%Q%QQQ%Q%Q%QQ%Q%Q%QQQ%QQ%Q%QQ%QQ%QQ%QQ%QQ%QQ%QQQ%QQ%QQ%Q%QQ%Q
19756C899QQ%QQ%QQQ%QQQ%QQ%QQ%%J6qK4%QQ%QQQ%QQ%QQQ%QQQQ%QQ%QQ%QQ%QJ6%QQQ%J6%Q
19741D275Q%J6%QQQQ%QQQQ%J6%QQQ%QQQQ%QQQQQQ%QQQQQQQ%QQQQQQQ%QQQQQQQQQQ%QQQQQQ
19727D723QQQQQQQ%J6Q%J6%QQQQQQQQQQQQQQQQQQQQQQQQQQQQQQQJ6%J6%J6%J6J6%QQJ6%QQ
19713E195QQQQJ6QQQQQQQQQJ6QQQQJ6QQQQJ6QQQQQQJ6QQQQQQQJ6QQQJ6QQQQJ6%J6QQJ6QQQ
19700E723QJ6QJ6QQQJ6QQQJ6QJ6%J6QQJ6QJ6QQQJ6J6QJ6QQQJ6QQJ6QQJ6QJ6QQJ6QJ6J6%J6
19689F243QJ6QJ6QJ6QQJ6J6QQJ6QJ6J6QJ6QJ6J6QQJ6QJ6QJ6J6QJ6QJ6J6QJ6QJ6QJ6J6QJ6Q
19679F779J6J6J6QJ6QJ6J6J6QJ6QJ6J6QJ6J6J6J6QJ6QJ6J6J6J6QJ6J6J6QJ6J6J6J6QJ6J6J6
19670G323QJ6J6J6J6J6J6J6QJ6J6J6J6J6J6J6J6J6QJ6J6J6J6J6J6J6J6J6J6J6J6J6J6J6J6
19662G859J6K4QJ6K4J6J6J6J6J6J6J6J6K4J6J6J6K4QK4J6J6J6K4QK4K4J6QK4J6J6J6K4J6K4
19654H491J6J6J6K4J6J6K4J6J6K4J6K4J6J6K4J6K4J6J6K4K4J6K4J6K4K4J6J6K4J6K4J6K4J6
19646I147K4J6K4K4J6K4K4J6K4J6K4K4J6K4K4K4J6J6L2J6K4K4K4J6K4K4L2J6K4J6K4K4K4K4
19638I891K4K4K4K4K4K4K4K4K4K4K4K4K4K4K4K4J6L2QM8J6L2J6L2K4L2J6L2K4K4L2K4K4K4
19630A0731L2K4K4L2K4K4L2K4K4L2K4L2K4L2K4L2K4L2K4L2K4L2K4L2L2L2K4L2K4L2L2K4L2
19623A1659L2L2K4L2L2L2K4L2L2L2L2L2L2L2L2L2L2L2L2L2L2L2L2L2L2L2L2M0L2L2M0L2L2
19615A2715L2L2M0L2L2L2M0L2M0L2M0L2M0L2M0L2L2M0M0L2M0L2M0L2M0M0M0L2M0M0M0M0M0
19608A3915M0M0L2M0M0M0M0M0M0M0M8M0M0M0M8L2M8M0M0M8M0M8M0M0M8M0M8M0M8M0M8M0M8
19600A5299M8M8M0M8M0N6M0M8N6M0M8M0N6M0N6M8M8M8M8M8N6M8M8M8M8N6M8M8N6M8N6M8N6
19593A6907M8N6N6M8N6N6N6M8N6N6N6N6N6N6N6N6N6N6O4N6N6N6N6O4N6O4N6N6O4N6O4O4N6
19585A8779O4O4O4N6O4O4O4O4O4O4O4P2O4O4O4O4P2P2O4O4P2P2O4P2P2O4P2P2P2P2P2P2P2
19578B0995P2Q0O4Q0Q0P2P2P2Q0Q0Q0P2Q0P2Q0Q0Q0Q8P2Q8Q0Q0Q0Q0Q8Q0Q8Q0Q8Q0Q8Q8Q8
19570B3627Q8Q0Q8R6Q8Q8Q8Q8Q8J04Q8R6Q8J04Q8R6R6R6R6R6R6J04R6J04R6J04J04R6J04J04
19563B6475J04J04J04J04J12J04J12J04J12J04J12J12J12J12J12J12J20J12J12J20J20J20
19558B8915J20J12J20J20J20J28J20J28J20J28J20J28J28J28J28J36J28J28J36J36J36J36
19553C1699J36J36J36J44J36J36J44J44J44J52J36J52J44J52J44J52J52J52J52J60J52J60
19548C4915J52J60J60J60J60J68J60J68J68J60J68J76J68J76J76J68J76J84J76J76J84J84
19543C8643J84J84J84J92J84J92J92J92J92K00J92K08K00K00K00K08K08K08K08K16K08K16
19538D3011K16K16K24K16K24K24K24K32K32K32K32K32K32K40K40K40K48K48K48K48K48K56
19533D8163K56K64K56K64K64K72K64K72K72K72K80K80K88K80K88K88K96K96K88L04L04L04
19528E4315L04L12L12L12L20L20L28L28L20L36L36L36L44L36L44L52L52L60L60L68L60L68
19523F1723L76L68L84L76L92L92L92L92M08M00M08M16M08M24M24M32M24M40M40M40M56M48
19518G0763M64M56M72M64M80M80M80M96M96M96N04N12N12N20N28N28N36N44N52N52N60N60
19513H1955N68N84N76N92N92O00O08O16O24O32O32O40O48O56O64O72O72O88O96O96P12P12
19508I6035P28P28P44P52P52P68P76P92P92Q00Q16Q24Q32Q40Q56Q64Q72Q80Q96R04R12R36
19503A14099R36R52R60R76R84J000J016J024J040J048J064J080J096J104J120J136J152J168
19499A32955J184J200J216J224J256J264J280J296J320J336J352J376J392J408J440J448J480
19495A55427J488J520J544J560J592J600J640J648J688J704J736J760J784J816J840J872J904
19491A84123J928J960J992K024K056K088K128K152K192K232K272K304K352K376K424K464K512
19487B21579K552K592K640K688K736K784K832K880K944K984L040L104L160L216L280L336L400
19483B71747L480L536L600L672L752L824L888L976M056M136M240M280M424M488M584M680M784
19479C41147M888M984N096N224N320N448N568N696N824N952O096O240O384O536O696O848P016
19475D40963P192P368P552P744P936Q144Q344Q560Q792R024R264R512R768J0032J0312J0600
19472E81107J0896J1208J1528J1864J2216J2568J2944J3336J3736J4168J4600J5056J5544
19469G50771J6032J6552J7096J7664J8256J8872J9512K0192K0896K1640K2416K3224K4080
19466A007203K4984K5920K6896K7952K9040L0184L1400L2672L4032L5456L6960L8544M0224
19463A421467M2016M3904M5896M8040N0288N2696N5264N7992O0904O4008O7336P0896P4712
19460B155419P8808Q3200Q7928R3024R8520J04456J10888J17840J25392J33600J42544J52304
19457C483923J62976J74656J87480K01600K17152K34353K53415K74593K98192L24559L54129
19454F167028L87383M24928M67456N15824N71072O34480P07544P92232Q90888J006528J142889
19452A3708252J304840J498601J732264K016559K365776K799240L343487M035535M927832
19450C7732386O096167P651981R762615J2684210J6815694K2785406L1577857M4663759O3877858
19448B53647933Q9957750J16575869J17619063N3811897n3811897j17619063j16575869q9957775
19446B53647908o3877833m4663759l1577845k2785436j6815676j2684210r762615p651981
19444D3828553o096167m927832m035544l343478k799232k365776k016567j732264j498593
19442A5013100j304848j142889j006520q90888p92240p07544o34472n71072n15832m67456
19440F979339m24920l87383l54137l24559k98192k74593k53415k34353k17152k01592j87488
19437C821555j74656j62976j52296j42544j33608j25392j17840j10880j04456r8520r3032
19435B405355q7928q3200p8808p4712p0896o7336o4008o0904n7992n5256n2704n0288m8032
19432A553291m5912m3896m2016m0224l8552l6952l5448l4032l2672l1408l0184k9040k7944
19429A085011k6912k5912k4976k4080k3232k2416k1632k0904k0192j9512j8872j8256j7656
19426H00459j7096j6560j6032j5536j5056j4600j4168j3736j3336j2944j2568j2216j1856
19423F14755j1536j1208j0896j0600j0312j0040r768r512r256r024q792q560q352q136p936
19419D70827p744p552p368p192p016o856o688o536o384o240o096n960n824n688n576n440n328
19416C61339n208n104m992m880m784m688m584m488m400m312m224m136m056l976l896l816l752
19412B86043l672l600l544l464l400l344l280l216l160l096l048k992k936k880k832k784k736
19408B32059k688k640k592k552k512k464k424k376k352k296k280k224k192k160k120k096k056
19404A92035k016k000j960j928j904j872j840j816j784j760j736j704j680j664j632j608j584
19400A61547j560j536j528j488j472j456j432j416j392j368j360j336j320j296j280j264j248
19396A37795j232j216j200j176j176j144j136j128j104j096j072j072j048j032j032j008j000
19392A18923r92r76r60r52r36r28r20r04q96q80q72q64q48q40q40q16q16q00p92p92p76p68
19387I9755p52p52p44p28p28p12p12o96o96o88o72o72o64o56o48o48o24o32o16o16o08o08
19382H4883n92n92n84n76n68n68n60n44n52n44n36n28n28n20n12n12n04n04m88m96m88m80
19377G3107m72m72m64m64m56m48m56m40m40m40m32m24m24m24m16m08m08m08m00l92l92l92
19372F3635l84l84l84l68l76l68l68l60l60l60l52l44l52l44l44l36l36l28l28l28l20l20
19367E5891l20l12l12l12l04l04l04l04k96k88k96k88k88k80k96k72k72k80k72k64k72k72
19362D9483k64k56k64k64k48k56k56k48k48k48k40k40k48k32k40k32k32k32k32k32k24k24
19357D4123k24k16k24k16k16k16k08k08k16k08k08k00k00k08k00k00j92k00j92k00j84j92
19352C9595j92j84j92j84j84j76j84j76j84j76j76j76j68j76j68j76j68j60j76j60j60j68
19347C5731j60j60j68j52j60j52j60j52j52j52j52j52j52j44j52j44j44j44j44j44j44j36
19342C2411j44j36j36j36j36j36j36j36j28j36j28j36j28j28j28j20j36j20j20j28j20j28
19337B9531j20j20j12j28j20j12j20j20j12j12j20j12j20j04j04j04j28j12j04j04j12j04
19332B7027j04j04j12j04j04j04r6j04j04j04r6r6j04r6r6j04q8r6r6j04q8r6r6r6q8q8r6
19326B4363q8q8r6q8q8q8q8q8q8q0r6q0q8q0q8q0q8q0q0q8q0q0q0q0q0p2q0q0q0p2q0q0p2
19318B1619q0p2q0p2p2p2q0p2p2p2p2p2p2p2p2o4p2o4p2p2o4p2o4o4p2o4p2o4n6p2o4o4o4
19310A9315o4o4o4o4n6o4o4o4n6o4o4o4n6n6o4n6o4n6n6n6o4n6n6n6o4m8n6n6n6n6n6n6m8
19303A7371n6n6n6n6m8n6n6m8n6m8m8n6n6m8m8n6m8m8m8m8n6m8m8m8m8m8m8n6m0m8m8m8m8
19295A5699m0n6m0m8m8m0m8m8m0m8m8m0m0m8m8m0m0m8m0m0m0m8m0m8m0m0m0m0m8m0m0m0m0
19288A4267m0m0m0m0m0m0m0m0m0m0l2m0m0m0l2m0l2m0m0m0l2m0m0l2m0l2l2m0l2m0m0l2l2
19280A3027m0l2m0l2l2m0l2l2l2m0l2l2l2m0l2k4l2l2m0l2l2l2l2l2l2l2l2l2l2l2k4l2l2
19273A1939l2l2l2k4l2l2l2k4l2l2l2k4l2l2k4l2k4l2k4l2l2k4l2k4l2k4k4l2k4l2k4l2k4
19265A0987k4l2k4l2k4k4l2k4k4l2k4k4k4l2k4k4k4k4l2k4k4k4k4k4k4k4k4k4k4k4k4k4k4
19258A0147k4k4k4k4k4k4k4j6l2k4j6k4k4k4k4j6l2j6k4j6l2k4j6k4k4j6k4k4k4j6k4k4j6
19250I403k4k4j6k4j6k4k4j6k4j6k4k4j6j6k4j6k4k4j6k4qk4k4j6k4j6k4j6k4j6k4j6j6j6
19242H723k4k4j6j6j6k4j6j6k4j6j6k4j6j6k4j6j6j6j6k4j6j6j6j6k4j6j6j6j6k4j6j6j6j6
19234H107j6j6j6j6j6k4qk4j6j6j6j6j6j6j6j6j6j6j6j6j6j6j6j6j6j6j6j6j6qk4qj6j6j6
19226G547j6j6qk4j6qj6j6qk4j6qj6j6j6j6qj6j6qk4qj6j6qk4qj6qj6j6j6qj6j6qj6j6qj6
19217F979j6j6j6j6qqj6j6qj6qj6j6j6qj6qj6j6qqj6j6qj6qj6qj6qj6j6qj6qj6qj6qqj6j6
19208F443qqj6qj6qqj6j6qj6qj6qqj6qqj6j6%j6j6qqj6qj6qqj6qqqj6qj6qj6qqqj6qqqj6q
19197E915qj6qqqj6qqqj6qj6qqqj6qqqqj6qqqj6qqqj6qqqqqqqj6%j6qj6%j6qqqqj6%j6qqq
19185E403qqj6%j6qqqqqqqqqj6q%j6qqqqqqqqqqqqqqqj6qqqqq%j6%qj6q%j6qqq%qj6q%j6q
19172D923%qqj6%qqqqqqqq%j6qq%j6%qj6%j6qj6j6K4q%l2Qqqqqq%j6%qqqq%qqqqqqq%qqqq
19158D515qqq%qqqqqq%qqqq%qqqq%qqq%qqqq%j6%qq%qqqq%qqqq%qq%qqqq%q%qqq%j6%qq%q
19144D107q%qqq%qqq%qq%qq%qq%qq%qq%qqq%qqq%qq%q%qq%qqq%%qq%qqq%qq%q%qqqQj6%qq
19128C747%qq%%q%qq%qq%qq%q%qq%q%qq%qq%%q%j6%%qq%q%qq%q%q%qq%q%q%q%qq%qq%%q%q
19113C443%qq%q%q%q%q%q%q%q%q%qq%q%q%q%qq%q%%q%q%q%q%qq%q%%qq%%q%q%q%q%qQqq%q
19098C171%q%q%q%q%q%q%q%%q%q%q%q%q%q%q%q%%q%q%q%%q%q%%q%q%%q%q%q%q%%q%q%q%%q
19083B931%q%q%%q%q%%q%q%%q%%qqQq%q%q%q%q%%q%%q%%q%q%q%%q%%q%%q%q%%q%q%%q%%q%
19067B723%q%%q%%q%q%%qq%%q%%q%%%q%%q%%q%q%%q%q%%q%%%q%q%%q%%q%%%q%%%q%%q%q%%
19052B539%q%q%%%q%q%%%q%q%%%j6Q%q%%q%%q%%%q%%q%%q%%%q%%q%%%q%%%q%q%%q%%%q%%%
19037B379q%%%q%q%%%q%%q%%q%%q%%q%%%q%%%%q%%q%%%q%%%%q%%%q%%q%%%%q%q%%%q%q%%%
19022B227%q%%q%%%%q%%%q%%q%%%%q%%qQqqQq%%q%%qQ%q%j6J6Q%j6q%%q%q%J6qq%%q%%%%q
19007B099%%%%q%%q%%%%q%q%%%%%%q%%%q%%%q%%%qQq%%%q%%%q%%%q%%%%qQq%%%q%%%q%%q%
18992A979%%%qQq%q%Qj6Q%q%%%%q%%%%%q%%%q%%%qQq%%%qQq%%q%%%qQ%q%%%qQq%q%Qq%%%q
18977A875%%%q%%%%%q%%%%q%%%%q%%%%%%q%q%Qq%%q%%%%%%q%%%%%%q%%%q%%%%%q%%%q%%%%
18961A779%%%%%q%%%q%%%%q%%%q%%%%%%%q%%%q%%%qQq%%%%qQq%Qq%%%q%%%%%%q%%%qQq%%%
18946A691%%%%q%%%%%q%%%%%%q%%%%%q%%%%qQq%%%%%q%%%%q%%%%%%%q%%%%%q%%%%%%%q%%q
18931A603%Q%q%Qq%qQ%q%%%%q%%%%%q%%%%%%%q%%%%%%%%q%%%%qQ%q%%%%%%%q%%%%%q%%%%%
18915A539%%%q%%%%%%%q%%%%q%Qq%%%q%%Qq%%%%%q%%%%%q%%%%%%%%%q%%%%%%%%%%q%qQ%qQ
18900A475q%%%%%%%%q%%%%%%%q%%Qq%%%%qQ%%q%%%%q%%%%%%%q%%%%%%q%Qq%%qQ%q%%%%%%%
18885A411%%%q%%%%%%%%q%%%%%%%%q%%%%%%qQ%q%%%%%%%q%%%%%q%%%%%%qQq%Qq%%%%%qQ%q
18869A347%Q%q%%%%Qqq%Q%j6%Q%QqQk4%J6qqQ%%%%q%%%%%qQ%%%q%%%%%%%q%%%%%%%%qQqQq
18855A299%%%%%%%%q%%%%%%%%%%%%q%%%%%%qQq%%%%%%%%%%%%%%%q%%%%%%%%%q%%%%%%%%%q
18839A251Qq%%%%%%%%%qQ%%%q%%qQ%%q%%%Qq%%%%%%%%%q%%%%%%%%q%Qq%Qq%%%%%%q%%%%%%
18824A211%%%%%%%q%%%%%%%%%%%%q%%%%%%%%q%%%%%%%%%%%%%%%%q%Qq%%%%%%%%%%%q%%%%%
18809A171%%%%%q%QqQq%%qQ%%%%%%%q%%%%%%%%%%%%q%%%%%%%%q%Q%qQq%%%%%%%%%%%%q%%%
18793A131%%%%%%%%%%q%%%%%%%%%%%%q%%%%%%%%%%%%%%qQ%%%q%%%%%%%%%%%qQq%Q%q%%QqQ
18778A107j6%J6j6Qq%%%%%%%%%%%%%%%%%%%%q%%%%%%%%%q%%Qq%%%%%%%%%%%%%%%%q%%%%%%
18763A067%Qq%%%%%%%%%%q%%%%%%%%%%%%%%q%%%%%%%%%%%%%%%%%%%%q%Qq%%%%%%%q%%%%Qq
18748A035%%%%%Qq%%%%%%%%%%%q%%%%%%%%%%%q%%%Qq%%%%%%%%%%%%%%%%%q%%%%%%%%%%%%%
18733A011%%%%%%q%%%%%%%%%%%%%%%%%q%%%%%%%%%%%%%%%%%%%%%q%%%Q%q%%%%%%%qQ%%%%%
18717I87qQ%q%%%%%%%%%%%%%%%%%%%%q%%%%%%%%%%%%%%%%%%qQ%%%q%Qq%%%%%%%%%%%%%%qQ
18702I63%%%%q%%%%%%%%%%%%qQ%Qqq%Qj6QQqQqQ%q%%%%%%%%%%q%Q%q%%%%Q%q%%%%%%%%%%%
18687I39%%%qQ%%q%%Qq%%%%%%%%%%%%%%%q%%%%Qq%%%%%%%%%%%%%%%%%%%%%%%%%q%%Qq%%%%
18671I15%%%%%%%qQ%q%%%Qq%%%Qq%%Qq%%%%%%%%%%%qQ%%%%%%qQ%qQ%%qQ%q%%%%q%Qq%QqQ%
18655H99%q%%%%Qq%%Q%%qQ%q%%%%%%%%%%%%%%q%%%%%QqQq%%%%%%%%%%%%%%%%%%%%%%%q%%%
18640H75%%%%%%qQ%q%Q%%%%%%%%%%%%%%%%%%q%%Q%qQq%QqQqQj6Q%%%%%%%%%%%%%%%%qQqQq
18624H59Q%q%%Q%%%%qQq%%%%%%%%%%%%qQ%%qQqQ%q%%%%%%%%%%%%%%%%%%%%qQqQqQ%q%%Qq%
18609H43%%%%%%%%%%%%%%%%%%%%%%%%%%%%%qQ%q%%%%%Qq%%%%%%%%%%%%%%%%%%%%%%%%%%%%
18593H35%%%%%%qQ%q%%%%%%%%%%%%%%%%%%%qQ%qQ%%%%%%%%q%%Q%%%qQ%%q%%%%%Qq%%%%%%%
18578H19%%%qQq%%Q%%%q%Qq%%%%%%%%%%%%%%%%%%%%%%%%%%%%%%%%%%%%qQ%qQ%qQq%Q%qQqQ
18562H11q%%Qq%%%%%%%%%%%%%%Qq%%%%%%%%%%%%q%%%%%%%%%%%%%QqQq%%%%%%%%%%%%%%%%%
18547G95%%%%qQqQq%J6j6Q%qqK4%j6%Q%q%QqQ%%q%Q%q%%%%%%%%%%%%%%%%%%%%%%%%%%%%%%
18532G87%%%%%q%Q%q%%%%%%%%%%%%%%%%%%%%%%%%%%%%%%%%%%%%%%%qQq%%%%%%%%%%%%%Qq%
18516G71%%Q%qQq%%Qq%%Qq%%%%%%%qQ%%%%qQ%%%%%q%%Q%%q%Q%q%Q%%%%%q%Qq%Q%%%qQqQq%
18501G63%%%%%%%%%%%%%%%%%%%%%%%%%%%%qQ%qQ%%%%%%%%%%q%%%Q%%q%%Qq%%%%%%%%%%%%%
18485G55%%%%%%%qQ%%%%%%%%%%%%%qQ%%%%q%%%%%Q%q%%Q%%%%q%%%%%%%%%%%%%%%%%%%%%%%
18470G47%%%%%%%%%%%%%%%%%%%%%%%qQQq%%qQqQj6J6q%%Q%%%%%%%%%%%%%%%q%Q%%q%%%%%%
18455G39%%%%%%%%%%%%%%%%%%%%Qq%%%%%%%qQ%%%%%%%%%%%%%%%q%%%Qq%Q%q%%%%Q%q%Q%%q
18439G31%%%%%%%%%%%%%QqQq%%%%%%%%%%%%%%%%%%%%%%%%%%%%%%%%%%qQ%%%%%%qQ%%qQq%%
18424G23Q%qQ%%qQ%q%Qq%%%%Qq%%%%%%%%%%%Qq%%%%%%%%%%%%%%%%%%%%%%%%%%%%%%%%%%%%
18408G23%%%%%%%%%%%%%%%%%%%qQ%%%%%%%%%%%%%%%%%%%%%%%%%%%%%%qQ%q%%%Q%%%%q%%%%
18392G15%%%%%QqQqQq%Q%%q%%%%%%%%%%%%%%%%%%%%%%%%%%%%%%%%%%%%%%%%%%%%%%%%%%%%
18377G15%%%%%%%%%%%%%%%%%%%%%%%%%q%Q%qQq%QqQ%qQq%%qJ6q%Qq%%%%%%%%%%%%%%%%%%%
18362G07%%%%%%%%%%%%%%%%%%%%%%%%%%%%qQ%%%%%%%qQ%%%%%%%%%%%%%%%%%%%%%%%%%%%%q
18346F99QqJ6q%%qQ%%%%%%%%qQ%%%%%%%%%%%%%%%%%%q%%Qq%Q%qQqQ%q%%%%%Q%%%%%%%%%qQ
18331G07qQq%Qq%%%%%%%%%%%%%%%%Qq%%%%%%%Qq%%%%%%Qq%%%%%%%%%%%%%%%%%%%%%%%%%%%
18315F99%%%%%%%%%%%%%%Qq%%%%%%%%%Q%q%%qQ%%%%%%%%%%%%%%%%%%%%%%%%%%%%%%%%qQ%%
18299F99%%%%%%%%%%%%%%%%%%%%%%%%%%%%%%%%%%%%%%%%%%%%%%%%%%qQqQ%%qQ%qQ%q%%QqQ
18284F99qQqQ%q%Q%%%%%%%%qQ%%qQq%Q%%%%%%%%%%%%qQ%qQ%%%qQq%%QqQq%%%%%%%%%QqQ%%
18268F99%%%%%%%%%qQ%%%%%q%Q%q%%Q%%q%%%%%%%%Qq%Q%q%QqQ%%%%%q%%Qq%Q%%%%%%%%%%q
18253F91%%%%%%%%%%qJ6%qQq%%%QqQq%%%%Q%%q%%Qq%%%%Q%%q%Q%%%%%q%%%Qq%%Qq%Q%qQqQ
18237F99%q%%%%%%%%%%qQ%Qq%%%%%%%%%%%%QqQj6QQqj6J6Qj6qq%L2l2K4J6j6Qq%%%Q%q%%J6
18224G07j6QqQq%Q%%q%%%qQ%%%%%%%%%%%%%%%%%%%%%%%%%%%%%%%%Qq%%%%%%%%%%%%%%%%%%
18209F91%Qq%Qq%%%%%%%%%%%%%%%%%%%%%%%%%%%%%%%%%%%%%%%%%%%%%%%%%%%%%%%%%%%%Qq
18193F91%%%%QqQ%q%Q%%qQ%q%%%QqQ%qQ%%%%qQq%%%%%%%%Q%%qQq%%Qq%Qq%%%%Qq%%%%%%%%
18177F91Q%qQ%%%%%q%Qq%%Qq%%%%%%%%%%Qq%%QqQ%qQ%%q%Q%qQ%%%qQ%%%%%qQ%qQq%%%%Qq%
18162F91%%Q%q%%%%%%Qq%%%Qq%%%%%%%%%%%%%%%%%%%QqQqQ%%q%%QqQqQ%qQ%%%%%%%%%%%%%
18146F99%%%%%%%%%%%qQqQ%qQ%q%Q%%%qQq%QqQ%q%%Q%q%Q%%%%%%%%%%%%%%%%%qQ%qQ%%%%%
18131F99%%%%%%%%%%%%%%%%%%%%%%%%%%%%%%%%%%%%%%%%%%%%%%%%%%%%%%%%%%%%%%%%%%%Q
18115G07%qQ%%q%Qq%Qq%%%%%%%Q%qQq%%%%%%%%%%Qq%%%%%%%Qq%%%%QqQ%%%q%%%QqQ%%%q%Q
18100G07%%%%%qQq%Qq%%%Qq%%Q%%%%%%%qQqQq%Q%%%%%%%%%%%%%%qQ%%qQq%%Q%%%%%%%%%%%
18084G07%%%%%%%%%%%%%qQ%%qQ%%%%%%%Qq%%%%%%%Q%qj6K4k4j6M0qQqJ6k4QqQ%qQ%%%qJ6q
18070G07%%%%%Q%q%%%Q%qQqQq%%%Qq%%%%%%%%%%%%%Qq%%Qq%Q%%qQ%%qQqQq%Q%q%%%%%%%%%
18055G07%%%%%Qq%%Qq%QqQqQ%%%%%%%%%%%%%%qQqQ%%%%%%%%%%%%%%qQ%%%%%%%%qQ%%qQ%%%
18039G15%%%%%%%%%%%%%%%%%%%%%%%%%%%%%%%%%%%%%%%%%%%%%%%%%%%%%%%%%%Qq%%Qq%%%%
18024G15%%%Q%qQq%Qq%%QqQqQ%%q%Q%%%%%%%%%%%%q%QqQq%QqQ%q%%Q%qQ%%%%%%%%%%%%%%%
18008G23%%%%%%%%%%%%%%%%%%%%%%%%%%%%%%%%%%%%%%%%%%%%%%%%%%%%%%%%%Qq%Qq%%%%Qq
17993G23%QqQqQqQ%%%q%%%%%%%Qq%%%%%%Qq%%%QqQ%q%%%%Qq%%Q%%%%%%%qQ%%%%%%%%%%%%%
17977G31%%%%%%%%%%%%%%%%%%%%Q%q%%%%%%%%%%%%%%%%%%%%%%Qq%%QqQ%%%%%%%%%%%%%qQ%
17961G39%%%%%%qQ%%%%qQ%%%%%%%%qQ%%%%qQ%%%%%%%%%%%%%%%%%%%%%%%Q%qQq%%%%%%%%%%
17946G39QqQ%%q%Qq%%%%%%%Qq%Q%%%%%%qQqQ%q%QqQ%%%q%Q%%%%%%%%%%%%%%%%%%%%%%%%%%
17930G47%%%%%%%%QqQq%%%%%Qq%%%%Qq%%%QqQqQ%%%q%%%%%Qq%%%%%Q%qQ%qQqQqQ%%%%%%%%
17915G55%%%%qQqQ%%%%%%%%%%%%%%%%%%%%%%%%%%%%%Qq%%%%%%%%%%%%%%%%%%%%%%%%%%%%%
17899G55%Q%%%%%%%%%%q%%Q%%qQ%%%%%%%%%%%%%%%%%%%%%%%%%%%%%%%%%Qq%%%%%%%%Qq%%%
17884G63Q%q%Qq%Q%%%%qQ%%%%%%qQ%%%%%%q%QqQq%Q%%%%%%%%%%%%%%Qq%%%%%%Qq%%%Qq%%%
17868G71%%%%%%%%%%%%%Qq%Qq%Q%%q%%QqQqQ%%%%%%%%%%%%%%%%%%%%%%%%%%%%%%%%%%%%%%
17852G79%%%%%%%%%%%%%%%%%%%%%Qq%Qq%%%%%%%%%%%QqQ%%%%%%%%%%QqQj6QqQ%%%%%%%%%%
17837G87Qq%%%%%%%%%%%%%%%%%%%%%Q%%%%%%%%%%%%%%%%%%%%%%%%%%%%qQ%%%%%%%%%%%%%%
17822G95%%%%%%%%%%%%Q%%q%Q%%qQ%qQ%%qQ%qQ%%%%q%Q%%%%%%%%%Qq%%%%%%%%%%Qq%%%%%%
17806H03%%%%Qq%Q%%%qQqQ%%%%qQqQ%%q%%%Q%%qQqQ%qQ%%%%%%%%%%%%%%%%%%%%%%%%%%%%%
17790H11%%%%%%Q%%qQ%%%%%%qQ%qQqQqQ%%%%%%%%%%%%%%%%%%%%%%%%%%%%%%%%%%%%%%%%Q%
17775H27q%%%%Q%q%Q%%%%%q%QqQq%%Q%%%%%%%%%%%%%%%%%%%%%%%%%QqQq%%QqQqQ%%%%j6J6
17760H35qJ6j6QJ6j6qQ%%%%%%%%%%%%qQ%%%%%%%%%%%%%%%%qQ%%%%%QqQqQ%qQ%%qQqQ%%%%%
17745H43%%qQ%%%%%%%%%%%%%%%%%%%%%%%%%Qq%Q%q%%%Qq%%%Q%%%qQ%%%%qQqQ%%qQ%%%%qQ%
17730H51%%%%%%%%%%%%%%%%%%%QqQ%%%%qQq%Q%%%%%%%%%%%%%%%%%%%%%%%%%%Q%q%%Qq%%Qq
17714H59%%%%%%%Qq%%%Q%%%%%%%%%%%%%%%%%%%%%%%%%%%%%%%%%%%%%QqQ%%qQq%%Q%%%%%%%
17698H75%%%%%%%%%%%%%%%%%%%%%%%%%qQ%%%%qQ%%%%%%%QqQq%%Qq%Q%%%%%%%%%%%%%%%%%%
17683H83%%%%%%%%%%%%%%%Qq%%Q%%qQq%Q%%%%%%%%%%%%%%%%%%%%%%Qq%Qq%Qq%%%%%%%Q%%%
17667H99%qQ%%%%%%%%%%%%%%%%%%%%%%%%%%%%%%%%Qq%Qq%%Q%qQ%%q%Q%%%%%%%%%%%%%%%%%
17652I07%%%%%%%%%%%%%%Q%qQqQ%q%Q%%%%qQqQ%%%%%%%%%%%%qQ%%%Qq%%Q%%%%%%%%%%%%%%
17636I23%%%%%Q%qQq%%%%%%%%%%%%%%%%%Qq%%%Q%qQ%%%%%%%%%%%%%%%%%Qq%%%%%Q%%qQ%qQ
17621I39qQ%%%%%%%%%%%%%%%%%%%%%%%%%%%%%QqQ%%%%qQ%%%%%%%%%%%%%%%%%%%%%Q%%q%%%
17605I47%%qJ6%qQ%%%%%q%%QqQ%%qQ%%%%%%%%%%%%%%%%%%%%%%%%Qq%%%%%%Q%%%%%%%%%%%%
17590I63%%%%%%%%%%%%%%%%%%%%%%%%%%Qq%%%%%%%Q%%%%%%%%%%%%QqQ%%%%%%%%%%%%%qQ%%
17574I79%%%%%%%%QqQq%Q%qQ%%%%qQ%%%%%%%%%%%%%%%%%%%%%%%%%%Q%%qQ%%%%%%%%%%%%%%
17559I95%%%%%%%%%%%%%%%%%%%%%%%%%Q%%qQ%qQ%%qQ%%%%%%%%%%%%%%%Q%qQqQ%%%%%%%%%%
17543A011%%%%%%%%%%%%%%%Q%qQ%%%%%%%%%%%%%%%%%%%%%%%%%%%%Q%qQqQ%%%%%%%%%%%%%%
17528A027%Qq%%QqQqQ%%%qQj6J6%%qQ%%%%%%%%%%%%%%%Qq%%%%%Qq%Q%%%%%%%%%%%%%%%%%%
17513A043%QqQqQq%%%%%%Q%qQ%%%%%%%%%%%%%%%%%%%%Q%%%%%%%%%%%%%%%%%%%%%%%%%%Q%q
17497A059QqQ%q%%%%Q%%%%%%%%%%%%%%%%%%%%%%%%Q%%q%Q%%qQqQ%%%%%%%%%QqQ%%%%%%%%%
17482A083%%q%%Q%%%%%%%%%%%%%%%%QqQ%%%%%%%%%%qQ%%%%%%%%%%%%%Q%qQq%Q%%%%%%%%%%
17467A099%%%%%%%Qq%Qq%%Q%%qQ%%%%%%%%%%%%Qq%%%%%Qq%QqQqQ%%qQ%%%qQ%%%%%QqQq%Qq
17451A115%%Q%%%%%%%%%%%%%%%%%%%%QqQ%%q%Q%q%Q%%%%%%%%%%%Q%qQqQ%%%%%%%%%%%%%%%
17436A139%%%%%%%%%%%%%%%%Q%%%%%%%%%%%Q%%q%%%Q%%qQ%%%%%%%%%%%%%%%%%%Qq%%Q%%%%
17421A163%%%%%%%%%%%%%Q%%%%%%%%%%%%%%%%%%%%%%%%%%%Q%%%qQ%%%%%%%%%%%%%%%%%%Q%
17405A187%%qQ%%%%%%%%%%%%%Qq%%%%Qq%Q%%%%%%%%%QqQqQ%%qQ%%qQ%%%%%%%%%%%%%%%%%%
17390A203%%%%Q%%%%%%%%%%%%%%%%%%%%%%Q%%%%%%Qq%%Q%%%qQ%%%%%%q%Q%qQ%%%%%%%%%%%
17375A227%%%Q%%%%%%%%%Qq%%Qq%%%%Q%%%%%%%%%%%%QqQq%Q%%q%Q%%%%%%%%%%%%%Qq%%Q%%
17359A259%%%%%%%%%%%%%QqQqQ%%%%%%%%%%%%%%%Q%qQ%%%%%%%%Q%q%%%%%%Q%%%%%%%%%%%%
17344A283%%%%%QqQ%%%%qQ%%%%%%%%%%%%%%%QqQ%%%%%%%%%%%%%%%%%%%%Q%qQ%%%%%%%%%%%
17329A307%%%%%%Q%%q%Q%%%%%%%%%Q%%%%%%%%%%%%%%%%%%Qq%Q%%%%%%%%%%%%%%%%Q%%%%%%
17313A339%%%%%%Q%q%%Q%%%%%%%%%%%%%%Qq%Q%%%%%%%%%%%Qq%Qq%%Q%%%%%%%%%%%%%%%%Q%
17298A371%%%%%%%%%%%%%QqQ%qQ%qQ%%%QqqQQq%J6qQqQ%j6%Q%%%%%Q%q%Q%qQ%%%%%%%Qq%Q
17283A403%%qQ%%%qQqQ%%%%%%Q%qQ%%%%%%%%%%%%%%%QqQ%%%%%%%%%%%%Qq%Q%%qQ%%%%%%%%
17268A427%Q%%%%%%%%%%%%Qq%%Q%%%%%%%%%%%QqQqQqQ%%%%%%%%%%Q%%q%Q%qQ%%%qJ6qQ%qQ
17253A467qQ%%%%%%Qq%Q%%%%%%%%%%%%%%QqQ%%%q%Q%%%%%%%%%%%Q%%%%%%%%%%%%Q%qQ%%%%
17237A499%%%%%%%%%Q%%%%%%%%%%%%%Q%qQ%%%%%%%%Q%%%%%%%%%%%Qq%%Q%%%%%qQqQ%%QqQq
17222A531Q%%%%%%%%%%%%QqQ%%%%%%%%%%Qq%%Q%%%%%%%%%Qq%Q%%%%%%%%%%QqQ%%qQ%%%%%%
17207A571%%QqQ%%%%%%%%%Q%qQ%%%%%%%%%%%%Q%%%%%%%%%%%Q%%qQ%%%%%%%%%%Q%%%%%%%%%
17191A611%Q%%%%%%%%%%%%%%Q%%%%%%%Q%%%%%%%%%%%%%%%Q%%%%%%%%%%%%Q%qQ%%qQ%%%%%Q
17176A659qQ%%%%%%%%QqQq%J6q%%%%%%Q%%%%%%%%%Q%q%%Q%%%%%%%%%QqQ%%%%%%%%%Q%%%%%
17161A699%%%%%%%QqQ%%%%%%%%Qq%Q%%%%%%%%%Q%%%%%%%%%%%%%Q%%%%%%%QqQ%%%%%%%%Q%%
17146A747%%%%%QqQ%%%%%%%%%%%%Q%%%%%%%%%%QqQqQj6K4J6l2QQ%%%qQ%%Qq%%%%Q%%%%%%%
17131A787%%%Q%%%%%%Q%%%%%%%%%Q%%%%%%%%%%%%Q%%%%%%%%QqQ%%%%%%%%%%%QqQ%%%%%%%%
17116A835Q%%%%Qq%QqQ%%%%%%%%%Q%%%%Q%%%%%%%%%%%qQ%%%Q%%%%Q%q%Q%%qQ%%%%%Q%%%%%
17101A891%%%Q%%%%%%%%%QqQ%%%%%%%%Q%%%%%%%Q%%%%Q%%%%%%%%%%QqQ%%%%%%%%%Q%%%Qq%
17085A947%%%%Q%%%%%%%%Q%%%%Q%%%%%%%%%qQ%QqQqQqQ%%%%%Q%%%%%%Q%%%%%%Q%qQ%%%%%%
17070B003%%QqQ%%%%QqQ%%%%Q%%%%%%%%%Q%%%%%%%%Q%%%%%QqQ%qQ%%%%%QqQ%qQ%%qQ%%QQq
17055B067%%%QqQ%%%%%%Q%%%%%%%%QqQ%%%%%Q%%Q%qQ%%%%%%%%%%Q%%%%%%%Q%%%%%QqQ%%%%
17039B131%%Q%%%%%%Q%%%%%%%%QqQ%%%%%%Q%%%Qq%Q%%%Qq%Q%%%%%%%%Q%%%%%%%%Q%%%%%%Q
17024B203%%%%%QqQ%%%%%QqQqQ%%%%%%Q%%%%Q%%%%%%%Q%%%%%Q%%%%%%Q%qQ%%%Q%%%%%%Q%%
17009B275%%%%Q%%%%%Q%%%%%%%%Q%%%%%Q%qQ%%%%%Q%%%%%%Q%%%%Q%%%Qq%Q%%%%%%%%Q%%%Q
16993B355q%Q%%%%Q%%%%%%Q%j6QK4q%%%qQ%Qq%Q%%%%%%Q%%%%Q%%%%%%%Q%%%%%Q%%%%%Q%%%
16978B427%%%%Q%%%%Q%%%%%%%Q%%%%Q%%%%%%Q%%%%QqQ%%%%Q%%%%Q%%%%QqQ%%%%%Q%%%%QqQ
16963B515%%%%QqQ%%%Q%%%%Q%%%%%%Q%%%%%QqQ%%Q%%%%QqQ%%%%Q%%%%Q%%%%%%Q%%%%%Q%%%
16948B603%%%%%Q%%%Q%%%%Q%%%%%Q%%%Q%%%%QqQ%%%%QqQ%%Q%qQ%Q%%%%%%%Q%%QqQ%%%Q%%%
16932B699Q%qQ%%Q%%%%%%%Q%%%%Q%%%%Q%%%Q%%%%%%Q%%Q%%%%%%Q%%%%%Q%%%%Q%%%%Q%%%Q%
16917B803%%%Q%%%%%%Q%%%%Q%%Q%%%%%Q%%%Q%%QqQ%%QqQ%%%Q%%%%%QqQ%%%%Q%%%%%%QQ%Qq
16902B907%Q%%%%%Q%%%Q%%Q%%%Q%%%Q%%%%%%Q%%%Q%%%Q%%%Q%%%%Q%%%%Q%%%%Q%%Q%%%Q%%%
16886C027%QqQ%%Q%%%Q%%%%Q%%%%Q%%%Q%%Q%%%%%Q%%%%Q%%Q%%%Q%%%%%%Q%QqQ%%%Q%QqQ%%
16871C147%Q%%%%Q%QqQ%Q%%%%Q%%%QqQ%QqQ%%%Q%%%Q%%%Q%%Q%%%Q%%%Q%%Q%%%%Q%%%%Q%%Q
16856C283%%%Q%%Q%%%%Q%%Q%%%%Q%%Q%%Q%%%Q%%%Q%%%Q%%%Q%%%%Q%%Q%%%%Q%%Q%%Q%%Q%%Q
16840C427%%%Q%%Q%%%Q%%%Q%%Q%%%Q%%Q%%%%Q%%Q%%%%Q%Q%%%Q%%Q%%%%Q%%Q%%Q%%Q%QqQ%Q
16825C579%%%Q%%Q%%Q%%%%qK4j6QQ%%Q%Q%%%Q%%Q%%%Q%QqQ%Q%%%Q%Q%%%Q%%Q%%%Q%Q%%%%Q
16810C731QqQ%Q%%Q%%Q%%Q%%%Q%%Q%%Q%%Q%%Q%%%Q%%%Q%Q%Q%Q%%%Q%%Q%%Q%%Q%%Q%%%Q%Q%
16795C907%Q%%Q%%Q%%Q%%%Q%%Q%Q%%Q%Q%%Q%%QQ%%%Q%%Q%QqQQ%QqQ%Q%%%Q%Q%%Q%Q%%%Q%Q
16779D099%%Q%Q%%%Q%Q%Q%%Q%Q%%Q%%Q%%Q%%Q%Q%%Q%%Q%Q%%Q%Q%%%Q%Q%Q%%%Q%Q%Q%%Q%Q%
16764D299%Q%QqQQ%Q%Q%%Q%Q%%Q%%QQ%%Q%Q%%Q%Q%%Q%%Q%Q%Q%QqQQ%%Q%%Q%Q%Q%Q%Q%Q%Q%
16749D523%Q%Q%Q%Q%%%Q%Q%Q%Q%Q%%QQ%%Q%Q%Q%%Q%Q%Q%Q%Q%%Q%Q%Q%Q%Q%%Q%Q%Q%Q%%Q%Q
16733D763%Q%Q%%Q%Q%QQ%%Q%Q%Q%Q%Q%Q%%Q%QQ%%Q%Q%QQ%Q%Q%%QQ%%Q%Q%Q%%QQ%Q%Q%Q%QQ
16718E027%%QQ%Q%Q%Q%Q%%QQ%Q%Q%Q%Q%QQ%%QQ%Q%Q%Q%Q%Q%QQ%QQ%%Q%QQ%%QQ%Q%Q%QQ%%%
16703E299QQ%Q%QQ%Q%Q%QQQ%%Q%QQQqJ6%%QQ%Q%QQ%QQ%Q%Q%QQ%%QQ%Q%QQ%QQ%Q%QQ%Q%QQ%
16688E611Q%QQ%Q%QQ%QQ%%QQQ%QQ%Q%QQ%QQ%QQ%Q%QQ%QQ%QQ%QQ%QQ%Q%QQQ%QQ%Q%QQ%QQQ%
16672E955QQ%Q%J6%Q%QQ%Q%J6QqJ6%QJ6qQ%%J6%QQ%QQ%QQQ%QQQ%Q%QQQ%QQQQ%QQ%QQ%QQ%Q
16658F299QQ%QQQ%QQQQ%QQ%QQQ%QQQ%QQQ%QQ%J6%QQ%QQQQQ%QQ%QQQQ%QQ%QQQQQQ%QQQ%QQQ
16643F707QQQQ%QQ%QQQQ%QQQQQ%J6%QQQQ%QQQQQQ%QQ%QJ6%QQQQQQQ%QQQQQQQ%QQQQQ%J6Q%
16628G139QQQQQQ%QQQQQQQQQQ%J6%QQQQQQQ%QJ6%QQQQQQQQQQQ%J6Q%QQJ6%J6QQ%QQQQQQQQ
16614G603J6%QQQJ6%QQQQQQQQQQQQQQQJ6%J6%J6%J6Q%QQQQJ6QQQQQQQQQQQQJ6%J6QQQQQQQ
16601H083QJ6QQQQQQQQQQQQJ6QQQQQQQJ6QQQQQQJ6QQQQQJ6QQQQQQJ6QQQQJ6QQQQQQQJ6QQJ6
16587H627J6%QQQQQJ6QQQQJ6QQQJ6QQQJ6QQQJ6QQQJ6QJ6QQQQJ6%J6J6QQJ6QQQJ6QQJ6QQJ6
16576I147QQQJ6QQJ6QQJ6QJ6%J6J6QQJ6QQJ6QQJ6QJ6QQJ6QJ6%J6J6QQJ6QJ6QQJ6QJ6QJ6QQ
16565I667J6QJ6QJ6QJ6QJ6QJ6J6QQJ6QQJ6QJ6QJ6QJ6QJ6QJ6J6QQJ6J6QJ6QJ6QJ6QJ6QJ6J6
16554A0203QJ6J6QQJ6J6J6QQJ6QJ6QK4QQK4%K4QJ6QJ6J6QJ6QJ6J6QJ6J6J6QJ6QJ6QJ6J6J6
16545A0747J6QJ6QJ6J6QJ6J6J6QJ6J6J6QJ6J6J6QJ6J6J6QJ6J6J6J6QJ6J6J6QK4QJ6J6J6J6
16536A1283J6J6QJ6J6J6QJ6J6J6J6J6J6J6QK4QJ6J6J6J6J6J6QJ6J6J6J6J6J6J6J6J6QK4QK4
16528A1843QJ6K4J6J6J6QJ6K4J6J6J6J6J6J6J6J6J6J6J6J6K4QJ6K4QK4J6J6J6J6J6J6J6J6
16520A2411J6K4J6J6J6J6J6J6K4J6J6J6K4J6J6J6J6K4J6J6J6J6K4QJ6K4J6K4J6J6J6J6K4J6
16512A3011J6J6K4J6K4J6J6K4J6J6K4J6K4QK4J6K4J6J6K4J6K4J6K4J6J6K4J6J6K4J6K4J6J6
16504A3651K4J6K4J6K4J6K4K4J6K4J6K4J6K4J6K4J6K4J6K4K4J6K4J6K4J6K4J6K4K4K4J6K4
16497A4331J6K4K4K4J6K4K4J6K4K4J6K4K4K4J6K4K4J6K4K4K4K4K4K4J6K4K4K4J6L2J6K4K4
16489A5059K4K4K4J6K4K4K4K4K4K4K4K4K4J6L2J6L2K4J6L2J6K4K4K4L2J6K4L2K4K4K4K4K4
16481A5843K4K4K4K4K4K4L2K4K4K4K4L2K4K4K4K4L2K4K4K4L2K4L2K4K4K4L2K4K4L2K4K4L2
16474A6699K4K4L2K4L2K4K4L2K4L2K4L2K4K4L2K4K4M0K4L2K4K4L2K4L2K4L2L2K4L2L2K4L2
16466A7619K4L2L2L2K4L2L2K4L2L2K4L2L2K4L2L2L2L2L2L2L2L2L2K4M0K4L2L2L2L2L2L2K4
16459A8619M0L2L2L2L2K4M0L2L2L2L2L2L2L2M0L2L2L2L2L2M0L2L2L2M0L2L2M0L2L2L2M0L2
16451A9723L2M0L2L2M0L2M0L2M0L2L2M0L2M0L2M0M0L2L2M0L2M0M0L2M0M0L2M0M0L2M0M0M0
16444B0923L2M8L2M0M0M0L2M0M0M0M0M0M0M0L2M0M0M0M8L2M0M0M0M0M8L2M8M0M0M8M0M0M0
16436B2235M0M8M0M8M0M0M0M0M0N6K4N6M0M0M8M0M8M8M0M8M0M8M0M8M8M0M8M8M0M8M8M8M0
16429B3683M8M8M8M8M0M8M8M8M8M8M0M8M8M8M8M8N6M0N6M8M8M8M8M8N6M8M8M8M8N6M8M8N6
16421B5283M8M8N6M8N6M8M8N6N6M8N6M8N6N6M8N6N6M8N6N6M8N6N6N6N6N6N6N6N6N6N6N6N6
16413B7051N6N6N6N6N6N6O4N6O4N6N6O4M8O4O4N6N6N6O4O4N6O4N6O4N6O4O4O4N6O4O4O4O4
16406B9019O4N6O4O4O4N6P2O4O4O4P2O4O4O4P2O4O4P2O4O4P2O4P2O4P2O4P2O4P2P2O4P2P2
16398C1211O4P2P2P2P2P2P2P2P2P2P2P2P2Q0P2P2Q0P2P2Q0P2Q0P2Q0P2Q0P2Q0Q0Q0P2Q0Q0
16391C3667Q0P2Q0Q0Q0Q8Q0Q0Q0Q0Q8Q0Q0Q0Q8Q0Q8Q0Q8Q0Q8Q0Q8Q8Q8Q0Q8Q8Q8Q8Q8Q8Q8
16383C6427Q8R6Q8Q8Q8R6Q8Q8R6R6Q8R6Q8R6R6R6R6Q8R6R6R6R6R6R6J04R6R6R6J04R6J04R6
16376C9451J04R6J04R6J12R6J04J12R6J04J04J12J04J04J04J12J04J04J12J04J12J12J04J12
16370D1979J12J12J12J12J12J12J20J12J12J12J12J20J20J12J12J20J20J20J20J12J28J20
16365D4523J20J20J20J28J20J20J28J20J28J28J28J20J36J20J28J36J20J36J28J36J28J36
16360D7307J28J36J28J36J36J36J36J36J44J28J44J36J44J36J44J44J36J44J52J28J52J44
16355E0355J52J44J52J44J44J52J60J52J44J36J76J60J68J20J60J52J68J44J60J60J52J60
16350E3715J68J68J52J68J68J60J68J60J68J68J76J68J68J76J68J76J68J76J76J76J68J76
16345E7435J84J84J76J84J76J84J76J92J84J84J84J92J92J84J92J92J92J92J92K00K00J92
16340F1563K00K00K00K00K00K00K08K08K00K16K00K16K08K08K08K16K16K16K16K16K16K16
16335F6147K24K24K24K24K24K24K32K24K32K32K32K32K40K32K40K40K40K40K40K40K48K48
16330G1283K48K48K48K48K56K48K56K64K56K56K64K56K72K64K64K72K64K72K80K64K80K80
16325G7043K80K72K80K88K80K88K88K88K96K88K96K88L04K96L04K96L12L04L04L04L20L04
16320H3523L20L12L20L20L20L28L20L28L28L36L28L36L44L36L36L44L44L44L60L44L52L60
16315I0883L60L52L68L60L68L68L68L68L76L76L84L76L84L92L84L92L92M00M00M00M00M08
16310I9259M08M08M16M16M24M16M24M24M32M32M32M40M40M40M48M48M48M56M56M64M64M64
16305A08859M72M72M72M80M88M80M88M96M96M96M96N04N12N04N20N20N20N28N28N28N44N36
16300A19939N44N44N52N52N60N68N60N68N76N76N84N92N84O00O00O00O08O08O24O16O24O32
16295A32811O40O32O40O48O64O48O56O72O80O72O80O88O88O96P04P12P12P12P28P28P36P36
16290A47883P44P52P60P60P68P76P84P84P92Q00Q00Q16Q16Q24Q32Q40Q40Q48Q64Q64Q72Q72
16285A65691Q88Q88R04R04R12R28R28R36R44R52R60R68R76R92R92J000J016J008J032J024
16280A84843J048J056J064J072J080J080J104J104J128J128J128J152J160J168J176J192J200
16276B03883J208J224J232J240J256J264J280J288J304J312J320J344J352J360J376J384J400
16273B26027J416J432J432J456J472J480J496J512J528J544J552J568J592J600J616J632J648
16269B52003J664J688J696J712J736J752J768J792J800J824J840J864J888J896J928J936J960
16265B82747J984K000K024K048K064K088K112K136K152K184K208K224K256K280K304K328K360
16261C19499K376K408K440K464K496K512K552K576K616K632K672K704K728K760K808K832K856
16257C63931K904K928K968L008L040L080L112L160L192L232L272L312L360L400L440L480L528
16253D18347L576L624L664L720L768L808L864L920L968M016M080M128M184M240M296M368M416
16249D85987M480M544M608M672M736M800M872M944N016N088N152N240N304N392N472N544N640
16245E71491N720N808N888N984O080O168O264O360O464O560O672O768O880O992P112P216P344
16241F81771P456P584P704P840P968Q104Q240Q384Q528Q672Q824Q976R144R296R464R632R800
16237H27387R984J0168J0344J0544J0744J0944J1136J1360J1568J1800J2024J2256J2488J2744
16234I85491J2992J3248J3520J3784J4072J4352J4664J4952J5264J5600J5920J6264J6600
16231A176723J6976J7336J7720J8112J8520J8928J9360J9808K0256K0720K1208K1712K2216
16228A429595K2752K3312K3856K4456K5048K5672K6328K6984K7672K8384K9120K9888L0672
16225A773739L1488L2336L3216L4120L5064L6040L7056L8104L9200M0336M1520M2736M4008
16222B258963M5344M6720M8144M9648N1200N2832N4520N6280N8128O0048O2064O4160O6352
16219B974403O8648P1056P3569P6216P8976Q1872Q4928Q8119R1473R5015R8729J02639J06760
16216D092403J11113J15695J20536J25649J31056J36784J42840J49264J56072J63311J71000
16214E615723J79185J87879J97160K07072K17632K28952K41048K54016K67936K82880K98968
16211H178451L16288L34976L55152L76992M00656M26336M54256M84656N17832N54104N93834
16209A2993533O37438O85425P38320P96808Q61608R33615J013848J103513J204039J317129
16207B2285276J444737J589343J753816J941655K157214K405674K693584L029031L422170
16205D2722500L885830M436467N095225N889695O856311Q043633R517409J1367858J3720809
16202A11535737J6754655K0726958K6016722L3192885M3126302N7173333P7470497J07364667
16201D93361756J51856754K17184771L05856380L96358012L99904796J82960403j82960403
16199A964522469l99904796l96358012l05856477k17184674j51856754j07364667p7470497
16197C08526592n7173333m3126278l3192897k6016734k0726946j6754655j3720821j1367858
16196H6447070r517391q043651o856305n889695n095225m436458l885839l422161l029031
16194C6271314k693593k405680k157189j941680j753808j589329j444744j317119j204049
16191A9764123j103511j013848r33608q61617p96800p38319o85424o37441n93832n54096n17840
16189A1327787m84656m54248m26336m00656l76984l55160l34968l16288k98976k82872k67936
16186G328707k54016k41056k28944k17640k07063j97169j87880j79176j71000j63312j56072
16184E125379j49264j42840j36775j31057j25648j20536j15695j11112j06761j02640r8728
16181C784323r5007r1481q8120q4927q1864p8976p6216p3569p1056o8648o6352o4160o2064
16178B781883o0040n8136n6280n4520n2816n1216m9640m8152m6720m5328m4016m2736m1512
16175B130771m0344l9200l8104l7048l6048l5064l4120l3208l2336l1488l0672k9888k9120
16172A684131k8384k7672k6984k6320k5672k5056k4448k3864k3296k2760k2216k1704k1208
16170A364547k0728k0256j9792j9368j8936j8512j8112j7720j7336j6968j6608j6264j5920
16167A128027j5584j5272j4960j4656j4352j4072j3784j3520j3248j2992j2736j2496j2256
16164I48099j2016j1792j1576j1352j1144j0936j0744j0544j0352j0160r984r808r632r464
16160G98595r296r136q976q824q672q528q384q240q104p968p832p712p584p456p336p224p104
16156F60219o984o888o768o672o560o464o360o256o176o072n984n896n800n720n632n544n472
16153E54971n392n312n232n160n088n008m944m872m800m736m672m608m536m488m416m360m296
16149D73051m240m184m136m072m016l968l920l856l816l760l720l664l616l584l528l480l440
16145D08051l400l360l312l272l232l192l152l120l080l040l000k968k936k896k864k824k808
16141C55595k760k728k696k672k640k608k576k552k512k496k464k432k408k384k352k328k304
16137C12683k280k256k232k200k184k152k136k112k088k064k048k024k000j976j960j936j928
16133B77107j896j880j864j840j824j808j784j768j752j736j712j696j680j664j656j632j616
16129B47299j600j584j568j560j536j528j512j496j480j464j456j440j432j416j392j384j384
16125B22067j352j352j336j328j312j296j296j272j264j256j240j232j224j208j192j192j176
16121B00539j168j160j144j144j120j120j112j096j088j072j080j064j048j048j024j040j008
16118A82003j016r92r92r92r76r60r68r44r44r36r28r20r20r04q96q96q88q72q72q64q56q48
16113A61619q48q32q32q24q16q16q00q00p92p84p84p76p60p60p60p52p44p44p36p20p28p12
16107A44499p12p12o96o96o96o80o80o80o72o64o64o56o48o48o40o40o32o32o24o24o08o16
16102A29979o08o00o00n92n92n84n84n76n76n68n60n68n52n60n52n44n44n36n36n36n20n28
16097A17563n20n20n12n12n04n04n04m96m88m96m88m80m88m72m80m72m64m64m64m64m56m56
16092A06859m48m48m48m40m40m40m32m32m24m32m16m24m16m16m16m08m08m00m08m00m00l92
16087I7571l92l92l84l84l84l84l76l76l76l76l68l68l60l68l60l52l60l52l52l52l52l44
16082H9459l44l36l44l44l28l36l36l28l28l28l20l28l20l20l20l12l12l12l12l04l12l04
16077H2331l04l04k96k96l04k88k96k88k96k88k88k80k88k80k80k80k72k80k72k80k72k64
16072G6035k72k64k64k64k64k64k56k64k56k56k56k48k56k48k48k48k48k48k40k40k48k40
16067G0443k40k32k40k40k32k32k32k24k32k32k24k24k24k24k24k24k16k24k16k16k16k16
16062F5459k16k16k08k08k08k08k08k08k00k00k08k08j92k08k00j92k00k00j92k00j92j92
16057F0995j92j92j84j92j92j84j84j84j84j84j84j84j76j84j76j84j76j76j76j76j68j76
16052E6987j68j76j68j68j76j68j68j60j68j68j68j60j68j60j68j60j60j60j60j52j60j52
16047E3371j60j52j52j60j52j52j52j52j44j52j52j52j44j44j52j44j44j44j44j44j44j44
16042E0091j44j36j36j44j44j36j36j36j36j36j36j36j28j36j36j36j28j28j28j36j28j28
16037D7123j36j20j28j28j28j28j28j20j28j20j28j20j20j28j20j20j20j20j20j20j12j20
16032D4411j20j20j12j12j20j12j20j12j12j12j12j12j12j12j12j04j12j12j12j04j12j04
16027D1939j12j04j04j12j04j04j04j04j04j04j04j04r6j12j04q8j04j04r6r6j04r6j04r6
16021C9475r6r6r6r6r6r6r6r6r6r6q8r6q8j04q8q8r6r6q8q8q8r6q8q8q8r6q0r6q8q0q8q8q8
16014C6443q8q0q8q8q0q8q0q8q0q8q0q0q0q8q0q0q0q0q8q0q0q0p2q0q0q0q0p2q0q0p2q0q0
16006C3763p2q0p2p2q0p2q0p2p2q0p2p2p2p2p2q0p2o4p2q0o4p2o4q0o4q0o4o4p2p2o4p2o4
15999C1387p2o4o4p2p2o4o4o4p2o4o4o4o4p2o4n6p2o4n6o4p2n6o4o4n6p2n6o4o4o4n6o4o4
15991B9259n6o4o4n6n6o4o4n6n6o4n6n6n6o4o4n6n6n6n6n6n6n6n6n6n6n6n6n6n6n6n6n6n6
15984B7355m8n6n6m8n6n6n6m8n6m8n6n6m8n6m8n6m8n6m8n6m8m8n6m8m8n6m8m8n6m8m8m8m8
15976B5651m8n6m8m8m8m8m8m8m8m8m8m8m8m8m8m0m8m8m8m0m8m8m0n6m0m8m8m0m8m0m8m8m0
15969B4107m0m8m8m0m8m0m8m0m8m8l2m8m0m0m0m8m0m0m8m0m0m0m0m8l2m8m0l2m8m0m0m0m0
15961B2715m0m0m0m0m0m0m0m0m0m0m0m0m0l2m0m0m0m0l2m0m0m0l2m0m0l2m0m0l2m0m0m0l2
15953B1443l2m0m0l2m0l2m0l2m0l2m0l2m0l2l2l2m0l2l2m0l2l2m0l2l2m0l2l2l2m0l2l2l2
15946B0291l2m0l2l2l2l2l2m0k4m0l2l2k4l2m0k4l2l2l2l2l2l2l2l2l2l2l2l2k4l2l2l2l2
15938A9235k4l2l2l2k4l2l2l2k4l2l2k4m0k4k4l2k4l2l2l2l2k4l2k4k4m0k4k4l2k4l2k4l2
15931A8275k4l2k4l2k4k4l2k4l2k4l2k4k4l2k4k4k4l2k4k4l2k4k4k4l2k4k4l2k4k4k4k4k4
15923A7403l2k4k4k4l2k4l2j6l2j6k4l2k4k4k4k4k4k4k4l2k4j6l2j6l2j6k4k4k4k4k4k4k4
15916A6587k4k4k4k4k4k4k4j6k4k4j6k4l2j6k4k4k4k4k4k4k4j6k4k4j6k4k4k4j6l2j6k4j6
15908A5843k4k4j6k4k4j6l2j6k4j6k4j6k4k4j6k4j6k4j6k4k4j6k4j6k4j6k4k4j6k4j6j6k4
15901A5155j6k4j6k4j6k4k4j6j6k4j6k4j6j6k4j6k4j6k4j6j6k4j6j6k4j6j6k4j6j6k4j6j6
15893A4523k4j6j6j6k4j6j6k4j6j6k4j6j6j6j6j6k4j6j6k4j6j6j6j6j6k4j6j6j6j6j6j6j6
15885A3939l2j6qj6j6l2%k4%l2k4qqk4j6j6j6j6k4qk4j6qk4j6j6j6j6j6j6j6j6j6j6j6j6q
15877A3331j6j6k4j6qj6k4qj6j6j6j6j6j6j6j6j6qk4qj6j6j6j6qj6j6j6j6j6qj6j6j6j6j6
15869A2779qj6j6qj6j6j6j6qj6j6j6j6qj6j6j6j6qj6j6j6qj6j6qj6qj6j6j6qj6j6qj6j6qj6
15860A2243j6qj6j6qj6qj6j6qj6j6qj6qj6j6j6qj6qqj6qj6j6qj6qj6j6qj6qqj6qk4qqj6qj6
15850A1699qj6j6qj6qj6qj6%k4%k4qqj6qj6qqj6j6qj6qqj6qqj6j6qqj6qqj6qqj6qj6qj6qj6
15839A1163qqj6qqqj6qj6qqj6qqqj6qqqj6j6qqqj6qqj6qqqj6qqqj6qqqj6%j6qqj6qqqj6qq
15828A0643qj6qqqj6qqqj6%j6qqqj6qqqqqqj6qqqqqj6qqqqqqqj6qqj6%qqj6qq%j6qqqj6%j6
15815A0139qqqqqqqqqqqqj6qq%j6qqqqqqqqqj6qq%j6%j6qq%qj6%qqqj6%qqqqqqqqqqqqqqq
15802I659qqqqqqqqqqqqqqqq%qqqqqqqqqq%qqqqqqqqqq%j6%qqqqqq%qqqqqqqq%qqqqq%qqq
15787I179q%j6%qqq%j6%qq%qqqqqq%qqq%qqqq%qqqq%qqqq%qqq%qqq%qqq%qqq%qqqq%qq%qq
15772H771q%qqq%q%j6%qqq%q%qqj6Qqq%j6%q%qq%qq%qqq%q%qq%qq%qq%qq%qq%qq%qq%q%qq
15757H419%qq%qq%q%qq%q%qqq%q%q%qqq%q%qq%q%qq%q%qq%%qq%q%qq%%qq%qq%q%q%q%q%q%
15742H107q%qq%%q%qqq%q%q%q%qq%%qq%q%q%%q%q%qq%q%q%q%q%q%q%j6Q%%j6%Qj6%%j6%%%
15728G851qq%q%q%q%q%q%%q%q%q%q%%q%q%q%%q%qq%%q%q%%q%q%%q%q%%q%q%%q%q%q%%q%q%
15712G611%q%q%q%%q%%q%q%%q%q%%%q%%q%q%%q%%q%%q%q%%q%%%q%%qq%q%%q%%q%%%q%q%Qq
15697G419qQqj6Qq%%%q%%qqQ%q%%q%q%%%q%%q%%q%q%%%q%%%q%%%%q%q%%%%q%%q%%%q%%q%%
15682G259q%%%q%%q%%%q%%%q%%%q%%%qQq%q%%%q%%%%q%%%%q%%q%%%q%%%%%q%%%%q%%q%%%%
15666G131q%%%q%%%%%%q%%q%%%%%%%q%%%%q%%%%%%q%%%%q%qQq%%%%q%%%q%%%%%%q%%%%%%%
15651G035q%%q%%QqQqq%Qq%%%%qQq%%%%%%%q%%%%qQ%%q%%qQ%q%%%%%%qQ%q%%%%%%%qQ%q%%
15636F963q%%%Qq%%%%%%%%%%%q%%%%%%%%%%%q%%%%%%%%%%%%%%%%%%%qQq%%%%%%%%%%%%%%q
15620F923Q%q%%%%%%%%%%%%%%%%qQ%%qQq%Q%q%%Qq%%Q%q%%%%%%%%%%%%%%%%%%%%%%%%%%%%
15605F915%%%%%%%%%%%%%%%%Q%%%%%%%%%%%qQ%%%%%%%%Qq%%%%%%%%%Q%%%%%%%%%Q%%%%%%%
15590F939%%%%%%%%%%QqQqQ%%%%%%QqQ%%%j6J6%Qq%Qq%%Q%%%%%QqQ%%%%%%%%Q%%%%Q%q%Q%
15575F987%%%%%%Q%%%%%Q%%%%%%Q%qQ%%%%%Q%%%%%Q%%%%Q%%%%%%%QqQ%%Q%%%%%Q%%%%Q%%%
15560G067Q%%%%%Q%%%Q%%%%Qq%Q%%qQQ%%%%Q%%%%Q%%Q%%%%%Q%%%Q%%%%Q%%Q%%%%Q%%%%Q%%
15544G179%Q%%Q%%%Q%%%Q%%%%Q%%Q%%%Q%%%Q%%Q%%Q%%%Q%%Q%%%%Q%%%QQ%%%Q%Q%%Q%%%%Q%
15529G331Q%%%Q%%Q%%%Q%Q%%QqQ%Q%%Q%%Q%Q%%Q%%Q%Q%%Q%%Q%%Q%Q%%Q%Q%%Q%Q%%Q%%Q%%%
15514G515Q%Q%Q%Q%%Q%%QQ%%Q%%Q%Q%Q%%Q%%Q%Q%Q%Q%%Q%QQ%%Q%Q%%Q%Q%Q%%Q%Q%Q%Q%Q%%
15498G747Q%Q%Q%QQ%qJ6%Q%QQ%%QQ%Q%Q%%Q%Q%Q%Q%Q%Q%QQ%Q%%QQQ%%Q%QQ%Q%Q%QQ%Q%QQ%
15483H027Q%Q%Q%QQ%Q%QQ%Q%QQ%Q%QQ%QQ%%QQ%QQQ%Q%Q%Q%QQQ%QQ%%QQQ%QQ%QQ%QQQ%QQ%Q
15468H363%QQ%QQ%QQQ%QQQ%Q%QQQ%QQQ%QQ%QQQQ%Q%QQQ%QQQ%QQQQ%QQ%QQQQ%QQQQ%QQQ%QQ
15452H755QQQ%QQQQQ%QQQQ%QQQQ%QQQQQ%QQJ6%QQQQ%QQQQQQQQQQQQQ%QQQQ%QQQQQQQQQJ6%
15438I211QQQQQQQQ%QJ6Q%QQQQQQQQJ6%J6%QQQQQQQQQQJ6%J6%J6QQQQQQQQQQQQQQQJ6QQQQ
15424I699QQQJ6QQQQQQQQJ6QQQQJ6QQQQJ6%J6QJ6%J6QQ%J6QQK4Qj6L2%J6QQ%K4%J6QJ6QQQ
15412A0187QJ6QQJ6QQQJ6QQQJ6QQJ6%J6J6QQQJ6J6%QJ6J6QQJ6QQJ6QQJ6QJ6QQJ6QQJ6QJ6J6
15401A0707QQJ6%J6J6J6QQJ6QJ6QJ6QJ6QQJ6QJ6J6QQJ6QJ6QJ6QJ6J6QQJ6J6QJ6QJ6QJ6J6Q
15391A1227J6J6QJ6QJ6J6QJ6QJ6J6J6QJ6J6QJ6QJ6QJ6J6J6J6QJ6J6J6QJ6J6QJ6J6J6J6QJ6
15382A1755J6QJ6J6J6QJ6J6J6J6J6%L2QJ6QJ6K4QJ6J6J6J6J6J6QK4QK4J6QJ6J6J6J6J6J6J6
15373A2323J6J6J6J6J6J6J6QK4J6J6K4QJ6J6K4J6QJ6K4J6J6J6J6J6J6J6J6J6J6K4J6J6J6J6
15365A2899J6K4J6J6J6K4QK4J6J6J6J6K4J6J6K4J6J6J6K4J6J6K4J6K4J6J6K4J6J6K4J6J6K4
15357A3523J6J6K4K4QK4J6K4J6K4J6K4K4J6K4J6K4J6K4J6J6K4K4J6K4J6K4K4K4J6J6K4K4J6
15350A4203K4J6K4J6K4K4K4J6K4K4K4J6K4K4K4K4J6K4K4K4K4K4J6K4K4K4K4K4K4K4K4J6K4
15342A4939K4K4K4K4K4K4K4K4K4K4K4K4K4K4K4K4K4K4K4L2K4K4K4K4K4K4L2K4K4K4K4L2K4
15335A5755K4K4K4L2K4K4K4L2K4K4K4L2K4L2K4K4L2K4K4L2K4L2K4L2K4L2L2K4L2K4L2K4L2
15327A6651L2K4L2L2K4L2L2L2L2K4L2L2K4L2L2L2K4L2L2L2L2K4M0L2K4L2L2L2K4M8K4L2L2
15319A7659L2L2L2L2L2L2M0L2L2L2M0L2L2L2L2L2L2M0L2L2M0L2L2L2M0L2M0L2L2M0L2M0L2
15312A8779M0L2M0M0L2M0L2M0M0L2M0M0M0L2M0L2M0M0M0M0M0M0M0L2M0M0M0M0M0M0M0M0M0
15304B0043M0M0M0M0M8M0M0M0M0M8M0M0M8M0M8M0M0M0M8M0M8M0M8M0M8M0M0N6M0M8M0M8M8
15297B1467M0M8M8M8M8M0M8M8M8M8M8M8M8M8N6M0M8N6M8M8M8M8N6M8M8M8M8N6M8M8N6N6M8
15289B3075N6M8N6M8N6N6M8N6N6N6M8N6N6N6N6N6N6N6N6N6M8O4N6N6N6N6N6O4N6N6O4N6O4
15282B4915N6N6N6O4O4O4N6O4N6O4O4O4N6P2N6O4O4O4O4O4O4P2O4O4O4O4O4P2O4P2O4P2O4
15274B7011O4P2P2O4P2P2P2O4P2P2P2P2P2P2Q0O4P2Q0P2P2P2Q0P2Q0Q0P2Q0P2Q0Q0P2Q0Q0
15267B9435P2Q8Q0P2Q0Q0Q8Q8P2Q0Q8Q0Q0Q8Q0Q0Q8Q8Q8R6R6O4Q8Q0J04Q0R6R6Q8Q8Q8R6Q8
15259C2243R6Q8R6R6Q8R6R6Q8R6R6R6R6J04R6R6J04R6R6J04J04J04R6J04J04J04J04J04J04
15253C4995J04J04J04J12J04J04J12J12J12J04J12J12J12J12J12J20J12J12J12J20J20J20
15248C7443J12J20J20J20J20J20J20J28J20J28J20J28J20J28J28J28J28J28J28J28J36J28
15243D0179J36J36J28J36J36J36J36J36J36J44J36J44J44J36J44J44J44J44J44J52J44J44
15238D3259J60J44J52J52J52J52J52J60J52J60J52J60J60J60J68J52J68J60J68J68J68J68
15232D6747J68J68J68J76J68J76J76J76J76J76J84J76J84J84J84J84J84J92J84J92J84J92
15227E0699J92K00J92K00J92K00K00K00K00K08K00K08K08K08K08K16K08K16K16K16K16K24
15222E5227K16K24K24K24K24K32K32K32K24K32K40K40K32K40K48K40K48K40K48K48K56K48
15217F0419K56K56K64K56K64K64K64K64K72K72K72K72K72K80K88K72K88K88K88K88K88K96
15212F6443K96K96L04L04L04L04L12L12L12L12L20L20L20L28L28L28L36L28L36L44L36L44
15207G3467L44L52L52L52L60L60L60L68L68L68L76L76L76L84L84L84L92M00L84M08M08M00
15202H1723M16M08M16M24M24M24M32M32M32M40M40M56M48M56M56M64M64M64M80M72M80M88
15197I1539M88M96M96N04N04N12N20N12N20N28N36N36N36N44N52N60N60N60N68N76N84N84
15192A03315N84O00O00O08O08O16O24O24O40O40O40O56O56O64O72O72O80O88O96P04P04P12
15187A17603P20P36P36P36P52P60P60P76P76P84Q00P92Q16Q16Q24Q40Q40Q48Q56Q72Q72Q88
15182A35203Q96R04R12R20R36R28R68R60R76R76R92J000J016J024J032J048J048J072J080
15178A53891J088J104J120J128J136J152J168J176J200J208J208J240J248J256J280J288J304
15174A74195J320J336J352J360J392J400J416J432J448J464J488J504J520J544J552J584J600
15170A98907J616J640J656J680J696J728J736J768J792J808J840J856J880J912J936J952J992
15166B29395K008K032K072K088K128K152K176K216K240K272K304K336K368K408K432K480K504
15162B67611K544K576K624K656K696K736K776K816K856K904K952K992L040L088L128L184L232
15158C16411L288L328L392L440L496L552L616L672L728L792L856L920L984M056M120M192M264
15154C80107M336M416M488M568M648M736M816M904M992N088N176N280N368N472N568N680N792
15151D65435N896O008O136O248O368O496O624O760O896P032P184P328P480P640P792P960Q136
15147E83419Q304Q488Q672Q856R064R256R464R688R904J0128J0368J0600J0856J1112J1376
15143G29555J1648J1936J2224J2528J2840J3160J3496J3840J4192J4560J4944J5336J5744
15140I06003J6176J6608J7064J7528J8024J8528J9056J9600K0168K0760K1368K2008K2672
15137A155563K3360K4080K4824K5600K6416K7256K8144K9064L0032L1032L2080L3176L4328
15134A524955L5528L6784L8112L9488M0936M2464M4064M5736M7504M9368N1320N3392N5552
15131B105203N7848O0272O2824O5528O8392P1424P4632P8040Q1656Q5504Q9584R3944R8584
15128C093435J03536J08824J14473J20528J27015J33961J41448J49479J58145J67488J77583
15126D595915J88497K00328K13167K27128K42336K58912K77056K96912L18720L42712L69176
15123G530859L98392M30808M66808N06928N51760O02024O58560P22368P94680Q76905R70840
15121A4510932J078592J202847J346794J514518J711080J942920K218231K547624K944848
15119C1018386L428161M021817M758702N683937O860402Q377327J0363492J3008348J6596455
15117A04117027K1563139K8586679L8735248N3682346P5928376J08592362J52928238J98179007
15115G82312422J99952397R1480105r1480202j99952397j98178910j52928238j08592362p5928376
15113B46684439n3682346l8735224k8586667k1563151j6596430j3008349j0363497q377328
15111E5771447o860404n683920m758705m021807l428162k944853k547600k218232j942920
15109B1364844j711081j514511j346800j202831j078601r70833q76904p94664p22368o58560
15107A0487691o02016n51760n06920m66808m30800l98400l69160l42704l18720k96919k77048
15104E926436k58912k42328k27121k13167k00328j88497j77575j67489j58136j49487j41432
15102C801964j33968j27009j20520j14471j08816j03537r8576r3944q9584q5496q1656p8040
15099B566347p4624p1416o8392o5528o2816o0272n7840n5552n3384n1320m9360m7504m5736
15096A802603m4056m2464m0936l9480l8104l6792l5520l4320l3176l2080l1024l0024k9064
15093A335563k8136k7264k6408k5600k4816k4080k3352k2672k2000k1368k0752k0168j9600
15090A029347j9048j8528j8016j7528j7064j6600j6168j5744j5336j4936j4560j4192j3832
15087H17795j3488j3160j2832j2528j2216j1936j1648j1368j1112j0856j0600j0360j0128
15084F65563r896r680r464r256r056q856q664q488q296q136p960p792p632p472p328p176p032
15080E23379o888o760o624o496o360o248o120o008n904n776n680n568n472n360n272n176n080
15076D22587m992m896m816m728m648m568m480m416m336m256m192m120m048l976l920l856l784
15072C48555l728l672l608l544l496l440l384l328l280l224l192l120l080l040k992k944k896
15069B92587k856k816k776k728k696k656k608k584k536k504k472k432k400k368k328k304k264
15065B49259k240k208k176k152k120k088k064k032k008j984j952j928j912j872j856j832j808
15061B15027j784j760j736j720j696j680j656j632j616j592j576j552j536j520j496j488j464
15057A87523j440j432j416j392j376j368j344j336j320j296j288j272j256j240j232j216j200
15053A65099j192j176j160j152j136j120j112j104j088j080j064j048j040j032j024j008r92
15049A46571r92r84r60r60r52r36r28r12r12r04q88q80q72q64q56q48q40q32q24q08q08q00
15044A27011p84p84p76p68p60p52p44p44p28p28p12p12p04o96o88o88o80o72o64o64o48o48
15039A11267o40o40o32o24o16o16o08o00o00n92n84n76n84n68n68n60n52n52n44n44n44n28
15034I8395n28n28n12n20n04n12m96n04m88m96m80m88m72m72m72m64m64m56m56m48m48m40
15029H7747m40m40m24m40m16m32m16m16m16m00m08m00m00m00l92l84l92l84l84l76l76l68
15024G8843l76l68l60l60l60l60l44l52l52l44l44l36l36l36l36l28l28l28l20l20l20l20
15019G1315l12l04l20l04l04l04k96l04k96k88k96k88k88k88k80k88k80k80k72k72k72k72
15014F4907k72k64k64k64k56k64k56k56k48k56k48k48k48k48k40k48k40k40k32k32k40k32
15009E9411k32k32k24k24k24k24k24k24k16k24k08k16k16k16k08k08k08k16k00k08k00k00
15004E4659k00k08j92k00j92j92k00j92j84j92j92j84j84j92j76j84j84j76j84j76j76j76
14999E0523j76j76j68j76j76j68j68j68j60j68j68j60j60j68j60j60j52j60j60j60j44j60
14994D6907j52j52j52j52j52j52j44j52j44j44j44j44j44j44j36j36j44j44j36j36j36j36
14989D3731j36j36j36j28j36j28j36j28j28j28j28j28j20j28j28j20j20j28j20j20j28j20
14984D0923j12j20j20j20j20j12j20j12j12j20j12j12j12j12j12j12j04j12j04j12j12j04
14979C8435j04j04j04j04j04j04j04j04j04j04r6r6j04r6j04r6r6r6r6r6r6r6r6r6r6q8r6
14972C5755r6q8q8r6q8q8q8q8q8q8q8q8q8q8q0q8q8q8q0q8q0q0q8q0q0q0q8q0q0q0q0q0p2
14965C2947q0q0p2q0q0p2q0p2p2q0p2p2p2q0p2p2p2p2p2p2o4p2p2p2p2o4p2o4p2o4p2o4p2
14957C0555o4o4o4o4p2o4o4o4o4o4o4o4o4n6o4o4o4n6o4n6o4o4n6o4n6n6o4n6n6o4n6n6n6
14950B8523n6n6n6o4m8n6n6n6m8o4n6n6m0o4m8o4m8m8n6n6m8m8m8n6m8n6m8m8m8n6m8m8m8
14942B6779n6m8m8m8m8m0m8m8m8m8m8m8m8m8m0m8m0m8m8m0m8m8m0m0m8m0m8m0m0m8m0m0m8
14935B5275m0m0m8m0m0m0m0m0m0m0m0m0m0m0m0m0m0m0m0m0l2m0m0l2m0m0m0l2m0m0l2m0l2
14927B3987m0l2m0l2m0l2l2m0l2m0l2m0l2l2l2m0l2l2l2l2m0l2l2l2l2l2l2l2l2l2l2l2l2
14920B2867k4l2l2l2l2l2k4l2l2l2l2l2k4l2k4l2k4l2l2k4l2k4l2k4k4l2l2k4k4l2k4l2l2
14912B1907k4k4k4l2k4k4k4l2j6l2k4l2k4k4k4k4l2j6k4k4l2j6l2k4j6k4k4k4k4k4k4k4k4
14904B1091k4k4k4j6k4k4k4k4k4j6k4k4j6k4k4k4j6k4k4j6k4k4j6k4j6k4k4j6j6k4j6k4j6
14897B0387k4j6k4j6j6j6k4j6j6k4j6k4j6j6j6k4j6j6j6k4j6j6j6j6k4j6j6j6j6k4j6j6j6
14889A9787j6j6j6j6j6j6qk4j6j6j6j6j6qk4j6j6qj6j6j6j6j6qk4qj6j6qj6j6j6j6qj6j6q
14881A9235j6j6qj6j6qj6j6qj6qj6j6qj6qj6qj6qj6qqj6qj6qj6qqj6qj6qj6qqj6qqj6qqqj6
14871A8699qqj6qqqj6qqqj6qqqqqqqqqj6q%j6qqqqqqqqj6q%qqqqqqqqqqqqq%qqqqq%qqqqq
14857A8203%qqq%qqq%qq%qq%qq%qq%qq%q%qq%q%q%q%q%qq%q%q%%q%q%%q%%q%q%q%%%q%q%%
14842A7923qQq%%q%%%q%%%q%%%qQq%%q%Qq%%%%q%%%%%%%%%%%%%%%%%%%%Qq%%%Q%%%%%QqQ%
14827A7883%%Qq%Q%%Q%%%%Q%%%Q%%%Q%%%Q%%Q%Q%%Q%%Q%Q%Q%%%QQ%%Q%Q%Q%QQ%%QQ%Q%Q%Q
14812A8075%QQQ%Q%QQ%QQQ%Q%QQQ%QQQ%Q%QQQ%QQQ%QQQQQ%J6Q%QQQQQ%J6QQQ%QQQQQQQQQQ
14797A8483QJ6Q%J6QQQQQJ6%QQQQQL2j6QK4QQQQQQQQJ6QJ6%J6QQJ6QQJ6QQJ6QQQQJ6QJ6QJ6
14785A8987QQJ6QJ6QJ6QJ6QJ6QQJ6QQJ6J6QJ6QJ6J6QJ6QJ6QJ6J6QJ6QJ6J6QJ6J6QJ6J6QJ6
14775A9515J6J6QJ6J6J6QJ6J6J6J6J6J6QJ6QK4QJ6J6J6J6J6J6QK4J6J6QJ6J6J6K4J6QJ6J6
14767B0067J6J6J6J6J6K4QK4J6J6J6J6J6J6K4J6J6J6QL2QK4J6J6J6K4J6J6J6K4J6J6J6J6K4
14759B0675J6K4J6J6K4J6K4J6J6K4J6J6K4J6K4J6K4J6K4K4J6J6K4K4J6K4J6K4J6K4K4J6K4
14751B1331J6K4J6K4K4K4J6K4J6L2J6K4K4K4J6K4K4K4K4J6K4K4K4K4K4J6K4K4K4K4K4K4K4
14744B2067K4K4K4K4K4K4K4L2J6K4K4K4L2K4K4K4K4K4L2K4K4K4L2K4K4K4K4L2K4K4L2K4K4
14736B2899L2K4K4L2K4K4L2K4L2K4L2K4L2L2K4K4L2K4L2K4L2L2K4L2K4L2L2L2K4L2L2K4L2
14728B3835L2L2L2L2K4L2L2L2L2L2K4L2L2L2L2L2L2L2L2L2L2L2L2L2M0L2L2L2L2L2L2L2M0
14721B4891L2L2M0K4M0L2M0L2L2M0L2L2M0L2L2M0L2M0L2M0L2M0L2M0M0M0L2M0L2M0L2M0M0
14713B6067M0M0M0L2M8K4M0M0M0M0M0L2M0M8L2M0M0M0M0M8M0L2M8M0M0M0M0M0M0M8M0M0M8
14706B7387M0M0M0M8M0M0M8M0M8M8M0M8M0M8M0M8M0M8M8M8M8M0M8M8M0M8M8M8M0M8M8M8M8
14698B8867M8M8M8M8M8M0N6M8M8M8M8M8N6M0N6M8N6M8M8N6M8M8N6M8N6M8N6M8N6N6M8M8N6
14691C0523N6N6N6M8N6N6M8O4N6M8N6N6N6N6N6N6O4M8N6O4N6N6N6N6O4N6O4N6N6O4N6N6O4
14683C2395N6P2N6O4N6O4N6O4O4O4O4N6O4O4O4N6P2O4O4O4O4O4O4O4P2O4O4O4P2O4P2O4Q0
14676C4515N6O4P2P2O4P2P2P2O4P2P2P2P2P2O4P2P2P2P2Q0P2P2P2P2Q0P2P2Q0P2Q0P2Q0P2
14668C6883Q0P2Q0Q0Q0P2Q0Q0Q8P2Q0Q0Q0Q8Q0Q0Q0Q0Q8Q0Q0Q8Q0Q8Q0Q8Q0Q8Q8Q8Q0Q8Q8
14660C9587Q8Q8Q8Q8Q8Q8R6Q0R6R6Q8Q8R6Q8R6R6Q8R6Q8R6R6R6R6R6R6R6R6R6J04R6R6R6J04
14653D2667R6R6J04J04J04R6J04J04J04J04J04J04J04J12J04J04J04J12J04J04J12J12J04
14648D5067J12J04J20J12J04J12J12J12J20J20J04J20J12J20J12J20J20J12J20J20J20J20
14643D7595J20J20J20J28J20J20J28J20J28J28J20J28J28J28J28J28J28J36J28J28J36J28
14638E0371J36J28J36J36J36J36J36J36J36J36J44J36J36J44J36J44J44J44J44J44J44J44
14633E3427J52J44J52J44J52J44J52J52J52J52J60J52J52J52J60J60J52J60J60J60J60J60
14628E6811J60J68J60J68J60J68J68J68J68J68J68J68J76J68J68J76J76J76J76J76J84J76
14622F0555J76J84J76J84J84J84J92J84J84J92J92J84J92J92J92J92J92J92K00K00K00K00
14617F4723K00K00K00K08K00K08K00K08K08K16K08K08K16K16K16K16K16K16K16K24K24K24
14612F9371K24K24K24K32K24K32K32K24K40K32K40K32K40K40K40K40K48K40K48K48K48K56
14607G4579K48K48K56K56K56K64K56K64K64K64K64K64K64K72K72K72K80K72K80K80K80K80
14602H0435K80K88K88K88K88K88K96K96K96K96L04K96L04L04L04L12L12L12L12L20L20L12
14597H7051L28L20L28L20L36L36L20L36L36L44L36L44L44L52L36L52L60L52L52L60L68L60
14592I4571L68L68L68L76L76L76L76L84L84L84L92L92L92M00L92M00M08M08M08M08M16M16
14587A03163M16M24M24M24M32M24M40M32M40M48M48M48M56M56M56M64M64M64M72M72M80M72
14582A13019M88M88M88M88M96M96N04N12N04N12N20N20N20N28N28N36N36N44N44N44N60N52
14577A24427N60N68N68N68N76N84N84N84N92O00O00O00O16O08O24O24O24O32O32O48O40O56
14572A37715O56O64O56O72O80O72O88O88O96P04P04P04P20P20P28P36P36P44P52P52P60P68
14567A53315P68P84P76P92Q00Q00Q08Q24Q16Q32Q32Q48Q48Q56Q64Q64Q80Q80Q88Q96R04R20
14562A71795R20R20R44R36R52R52R68R76R84R92J000J008J024J016J032J040J048J072J064
14558A90643J080J088J088J112J112J128J136J144J160J168J176J184J200J208J216J232J240
14554B10315J256J264J272J288J304J312J320J336J344J360J376J384J400J408J432J432J456
14550B33259J464J480J496J512J520J536J560J568J584J592J624J632J648J664J672J704J712
14546B60227J728J752J768J784J800J832J832J864J880J896J928J928J960J984K000K016K048
14542B92227K064K088K112K128K160K176K208K224K256K272K304K328K352K384K408K432K464
14538C30587K488K520K544K576K608K640K672K688K736K760K792K832K864K896K936K960L008
14534C77107L032L080L112L152L192L232L272L312L352L400L440L480L528L576L616L672L712
14530D34267L760L816L864L904L968M024M072M120M192M240M296M360M416M480M544M600M672
14527E05595M736M800M872M936N008N088N160N232N312N384N472N544N632N720N800N896N976
14523E96163O072O168O264O360O464O560O664O776O880O984P112P216P336P456P584P704P840
14519G13603P968Q096Q240Q384Q520Q672Q824Q976R136R296R464R632R800R984J0168J0344
14515H59107J0544J0736J0936J1152J1352J1568J1792J2024J2248J2496J2736J2992J3248
14512A012931J3512J3792J4064J4360J4648J4952J5272J5592J5920J6256J6608J6968J7336
14509A212211J7720J8112J8520J8928J9352J9800K0256K0728K1200K1712K2216K2752K3296
14506A476803K3864K4448K5056K5672K6320K6984K7672K8384K9120K9880L0672L1488L2336
14503A838699L3208L4120L5064L6040L7056L8104L9200M0328M1512M2736M4016M5336M6720
14500B352139M8144M9648N1200N2824N4520N6280N8128O0048O2056O4152O6352O8648P1056
14497C115195P3569P6207P8976Q1881Q4919Q8113R1479R5009R8727J02641J06760J11111J15689
14494D320276J20536J25655J31056J36777J42832J49264J56080J63303J71001J79176J87888
14492E983844J97159K07064K17632K28952K41048K54016K67928K82888K98960L16280L34984
14489H830755L55144L77000M00648M26336M54248M84664N17824N54104N93825O37448O85416
14487A4317412P38320P96808Q61600R33616J013840J103521J204039J317119J444744J589336
14484B5320355J753816J941665K157189K405680K693593L029031L422161L885833M436468
14482E1045791N095206N889713O856311Q043633R517391J1367858J3720803J6754679K0726922
14480A49018307K6016746L3192897M3126278N7173358P7470423J07364765J51856753K17184723
14479H62404250L05856380L96358012L99904795J82960210j82960210l99904892l96358012
14477A168260533l05856380k17184675j51856753j07364716p7470423n7173383m3126301l3192885
14475A75035017k6016722k0726958j6754655j3720816j1367851r517410q043632o856312n889707
14473E6140954n095212m436467l885840l422170l029031k693592k405680k157193j941671
14471B7074098j753814j589336j444753j317110j204058j103511j013848r33615q61610p96798
14469A5055645p38329o85424o37448n93825n54104n17832m84656m54256m26336m00656l76992
14466I185787l55160l34976l16288k98968k82880k67936k54016k41056k28944k17640k07071
14464F180852j97161j87888j79176j70999j63313j56079j49265j42840j36776j31056j25655
14461D440644j20536j15689j11111j06768j02641r8735r5009r1479q8120q4929q1872p8975
14458C264780p6217p3568p1056o8656o6352o4160o2064o0048n8128n6280n4528n2824n1208
14455B449691m9640m8152m6720m5336m4016m2736m1520m0336l9200l8104l7056l6048l5056
14452A905771l4128l3208l2336l1496l0672k9888k9120k8384k7672k6992k6320k5672k5056
14449A524827k4448k3872k3296k2760k2216k1712k1208k0728k0256j9800j9360j8928j8520
14446A247723j8120j7720j7336j6976j6608j6264j5920j5592j5272j4952j4656j4360j4072
14444A039875j3792j3512j3248j3000j2736j2496j2256j2016j1792j1584j1352j1152j0944
14441H79995j0736j0544j0352j0168r976r808r640r464r296r136q976q824q672q536q384q240
14437G29243q104p968p840p704p584p464p336p224p104o992o880o776o672o560o464o360o264
14433F07947o176o072n984n896n800n720n640n552n472n384n312n240n160n088n016m936m872
14429E14627m808m736m672m608m544m480m424m360m296m248m184m128m080m024l960l920l864
14425D41291l816l760l720l672l616l576l536l480l440l400l360l312l272l232l200l152l112
14421C82635l088l040l000k976k936k896k864k824k808k760k736k696k672k640k608k576k552
14417C34963k520k496k464k432k416k384k352k328k312k272k256k232k208k184k152k136k112
14414B95707k088k072k048k024k008j976j952j952j912j912j880j864j840j824j808j784j768
14410B62995j752j736j720j696j688j664j648j632j624j592j592j568j560j544j520j512j496
14406B35451j488j472j456j440j424j416j408j384j368j368j352j336j328j312j296j288j280
14402B12035j272j256j240j232j224j216j200j184j184j168j152j152j136j128j128j104j096
14398A91963j096j080j072j064j048j048j032j024j024j008j000r92r84r84r68r60r52r44
14394A73683r36r36r20r20r04r04q88q88q80q72q64q56q48q48q32q32q32q24q00q08q00p92
14389A54699p84p84p76p68p60p60p52p44p44p36p28p28p20p12p04p04o96o96o88o80o80o72
14384A38683o72o56o64o48o48o48o32o40o24o32o16o16o16o08o00o00o00n84n92n84n76n76
14379A25051n68n68n60n60n52n60n44n44n36n44n28n28n28n20n20n20n04n12n04n04m96m96
14374A13355m96m88m80m88m72m80m72m72m64m72m56m56m56m48m56m40m48m40m40m32m32m32
14369A03235m32m16m24m24m08m16m16m08m08m00m00m00l92l92l92l92l92l84l76l84l76l76
14364I4427l76l68l68l68l60l68l52l60l60l52l52l52l44l44l44l44l36l36l36l36l28l28
14359H6715l36l20l28l20l20l20l12l20l12l12l04l12l04l04l04l04k96k96k96l04k88k88
14354G9915k88k88k88k80k88k80k80k80k80k72k72k72k72k72k64k72k64k64k64k56k64k56
14349G3899k56k56k56k48k56k48k56k40k48k48k48k40k40k40k40k40k32k40k32k32k32k32
14343F8539k32k24k24k32k24k24k24k16k24k24k16k16k16k08k16k16k08k16k08k08k00k08
14338F3755k08k08k00k00k00k08j92k00k00k00j92j92k00j92j92j92j84j92j84j92j84j84
14333E9459j92j76j84j84j84j76j76j84j76j76j76j84j68j68j76j76j68j76j60j76j68j60
14328E5595j76j68j68j60j60j68j52j60j60j60j60j76j52j52j52j84j68q0k00j36j68j52j36
14323E1947j68j36j52j52j44j52j52j36j44j44j52j36j44j44j44j36j44j36j36j36j44j36
14318D8779j36j28j44j28j36j28j36j36j36j28j28j36j28j28j28j20j28j36j28j20j28j28
14313D5907j20j28j28j20j20j20j20j20j28j20j20j12j20j20j12j20j20j12j20j12j12j12
14308D3291j20j12j12j12j12j12j12j12j04j12j12j04j12j12j04j04j12r6j12j04j04j12j04
14303D0779r6j04j04j04j04j04j04r6r6j04j04r6r6j04r6r6j04r6r6r6r6r6q8j04q8r6r6r6
14296C8019r6q8r6q8r6q8q8r6q8q8r6q0r6q8q8q8q8q8q0q8q8q8q8q8q8q0q0q8q0q8q0q8q0
14289C5123q0q8q0q0q0q0q0q8q0q0q0p2q8q0p2q0q0p2q0q0p2q0q0p2q0p2p2q0p2p2q0p2p2
14281C2547p2p2q0p2p2p2p2p2o4q0o4p2p2o4q0o4p2o4p2p2o4p2p2o4o4p2o4p2o4o4p2o4o4
14274C0251o4o4p2o4o4o4o4o4o4o4o4o4o4n6o4o4o4o4o4n6o4n6o4o4n6o4n6n6o4n6o4n6o4
14266B8195o4n6n6o4n6n6o4m8n6o4n6n6n6n6n6n6n6n6n6n6m8o4m8n6n6n6n6n6m8n6m8n6n6
14259B6347m8n6n6m8n6m8n6n6m8m8n6m8m8n6n6m8m8m8n6m8m8m8m8m8n6m8m8m8n6m8m8m8m8
14251B4675m8m8m8m0m8m8m8m8m8m0m8m8m8m8m8m0m8m8m0m8m0m8m8m8m0m8m0m8m8m0m0m8l2
14243B3179o4l2m8m0m0m8m0m0m8m0m0m0m0m8m0m0m0m8m0m0m0m0m0m8m0l2m0m8m0l2m0m8l2
14236B1803m0m0m0m0m0m0m0m0l2m0m0m0m0l2m0m0m0m0l2m0m0l2m0m0m0l2m0l2m0l2m0l2m0
14228B0547l2m0l2m0l2m0l2l2m0m0l2l2m0l2l2m0l2m0l2l2l2l2m0l2l2m0l2l2l2l2l2l2l2
14221A9411m0l2l2l2l2l2l2l2l2m0l2l2k4m0l2k4l2l2l2l2l2l2l2l2k4m0k4l2l2l2l2k4l2
14213A8363l2m0k4k4l2l2l2k4l2l2l2k4l2l2k4l2l2k4l2k4l2l2k4k4l2m0j6l2k4l2k4l2l2
14206A7395k4k4l2k4l2k4k4l2l2k4l2k4k4l2k4k4l2k4k4l2k4k4l2k4k4l2k4l2k4k4k4k4k4
14198A6515l2k4k4k4k4l2k4k4k4k4k4l2k4k4k4k4k4k4k4k4k4k4k4l2j6k4k4k4k4k4k4k4k4
14191A5699k4l2j6k4k4k4k4k4k4k4k4j6l2j6k4k4k4k4j6l2k4j6k4k4k4k4j6k4k4k4k4j6k4
14183A4939k4j6k4k4j6k4k4k4j6k4k4k4j6k4k4j6k4j6j6l2j6k4k4j6j6l2j6k4j6j6k4k4j6
14175A4243k4j6k4k4j6k4j6j6l2j6j6j6k4k4j6k4j6j6k4k4j6j6k4j6k4j6j6k4j6k4j6k4j6
14168A3587j6j6k4j6k4j6k4j6j6k4j6j6k4j6j6k4j6j6k4j6j6j6k4j6j6j6j6j6k4j6j6j6j6
14160A2987k4j6j6j6j6k4j6j6j6j6j6j6j6k4j6j6k4j6qk4j6j6j6j6j6j6k4qk4j6j6j6j6j6
14153A2403j6j6j6j6j6k4j6j6j6j6j6j6j6j6j6j6j6qj6k4j6qj6j6j6j6j6j6j6j6j6j6j6j6
14145A1859j6qj6j6j6j6j6j6j6j6j6j6j6j6qj6j6j6j6j6qj6j6j6j6qj6j6j6j6j6qj6j6j6q
14137A1331j6j6j6j6j6qj6j6j6qj6qj6j6j6j6qj6j6j6qj6qj6j6j6qj6j6qj6j6j6qj6qj6j6
14128A0803j6qj6j6j6%k4j6%j6j6j6j6qqj6j6qj6j6qj6qj6qj6j6qj6qj6j6qj6qj6j6qj6qq
14118A0283k4qqj6j6qj6qqj6qj6j6qqj6qj6j6qj6qqj6qj6qj6qj6%j6j6qj6qqj6qj6qqj6qq
14108I755j6qj6qj6qj6qqj6qj6qqj6qj6qj6qqqj6qqj6qqj6qqj6qqj6qqj6qqj6qqqj6qj6qq
14097I219j6qqqj6qqqj6qqqj6qqqj6qqqj6qqqj6qqj6Qj6j6j6qqqqqqj6qqj6qqqqj6qqqqqq
14085H699j6qqqqj6qqqqqj6%j6qqqqj6qqqqqqj6%j6qqqqqqqj6qqqqqj6qq%j6qqqqqj6%qqq
14072H195qqj6qqqqqqqqj6qqq%qj6qqqqqqqqqqqqqqqqqqqqqqqqqqqqqqqqqqqqqqqqqqqqqq
14057G667q%j6%qqj6%qqqqqqqqqqqqq%j6qq%j6%qj6%qqqqq%j6%qqqqqqqqqq%j6%qqqqqq%q
14044G227qqqq%qqqqq%j6%qqqqqqq%qqqqq%qqqqqq%qqq%qqqqqq%j6%qqq%j6%qq%j6%q%j6%
14029F811qqqq%qqqq%qq%qqqq%qqqqq%qqq%qqq%q%qqqq%qqq%qqqq%qqq%qqq%qqq%qqqq%qq
14014F395%q%j6%q%qq%q%j6%qq%j6%j6Qj6Qj6%q%%j6qq%qq%%j6%qq%qq%qqq%qq%q%q%qqqq
14001F067%qq%qqq%q%qq%qq%qq%q%qqq%q%qq%qqq%q%qq%q%qq%qq%q%qq%q%qq%qq%q%qq%q%
13985E731qq%q%qq%q%q%qq%qq%q%q%qqq%%qqq%q%q%qq%q%q%qq%q%q%qq%%j6%%%qq%qq%q%q
13970E419%q%q%qq%q%q%q%qq%%qq%q%q%q%qq%qq%%qq%q%q%q%q%%qq%q%q%qq%q%%qq%q%%qq
13955E131%q%q%q%q%q%qq%q%%q%%qq%qq%%q%q%q%q%q%q%q%qq%q%q%%%qqq%%q%q%q%%q%q%q
13940D867%q%%qq%%q%q%q%q%%q%q%q%q%q%q%%qq%%q%q%q%%qq%%q%q%%qq%%q%q%q%%q%q%q%
13924D627q%%q%%q%q%%qq%%q%%q%q%%q%q%q%%q%q%%q%%qq%q%q%q%%q%q%q%%q%%q%q%%q%%q
13909D403%q%%q%q%%q%%qq%%q%q%%%q%%q%q%q%%qq%%%%q%%qq%q%%q%q%%q%%q%q%%%q%q%q%
13894D195%%qqQq%qq%%q%%%%qq%%%q%q%%q%q%%q%q%q%%q%%%qQqq%%%q%q%qQq%q%%q%%%q%q
13878D003%q%q%%%q%q%%%%q%q%%q%%q%%q%%%q%%q%q%%q%%q%%q%%%q%q%%q%%q%%%q%%q%q%%
13863C827q%%q%%%%q%%q%%q%%q%%%%%j6%%q%qqQ%%qQqq%%q%%%q%%q%%q%%q%%%q%q%%%q%%q
13848C659%%%q%%q%%q%%q%%%%%q%q%%q%%q%%%%q%%q%%q%%q%%%q%%%q%%q%%q%%%q%%q%%q%%
13832C507%q%%q%%%%q%%q%%%%q%%q%%%j6Q%q%%q%%q%%%%%q%%q%j6Q%%%%%qq%%%%q%%%q%%%
13818C371q%%%q%%qQq%%q%%%q%%q%%q%%%%q%%%q%%%%q%q%%%%q%%q%%%%q%%%q%%%%q%q%%%%
13802C235q%%%q%%q%%%%q%%%q%%%q%%%%q%%%%q%%%q%%q%%%%q%%%q%%%q%%%q%%%%q%%%q%%%
13787C107%q%%%%q%%%q%%%q%%%q%%%q%%%%q%%%%q%%qQq%%%%%q%%%q%qQqq%Q%qq%%Qq%qQq%
13772B987%%q%%q%%%%%%q%%q%%%%q%%%q%%%%q%%%%q%%%%q%%%q%%%qQ%q%%%q%%q%%%%%%q%%
13756B875%q%%%%q%%%%q%%%qQq%%%q%%%%q%%%%q%%%%%%q%%%qQqq%Qq%q%%%%%q%%%%%q%%%%
13741B771%qQq%%%%j6Q%%qQq%q%%%%%%q%%%q%%%%q%%%%q%%%%%q%%q%%%%%%q%%%%q%%%%%q%
13726B667%%%%%q%%%q%%%%%q%%%%%%%q%%%%%q%%%%q%%%%q%%%%%qQq%qQq%%%%%q%%%%%qQq%
13710B579%q%%%%%q%Qq%%%q%%%%%q%%%%%q%%%q%%%%q%%%%%%%q%%%%q%%%%%q%%%%%q%%%%%q
13695B483%%%%%%q%%%%%q%%%%%qQq%%%qQq%%%qQ%q%%%%q%%%q%%%%%%%%%q%%%q%%%qQqQ%%q
13680B403%%%qQq%%%%%q%%%%%q%%%%%%q%%%%qQ%%q%%%q%%%%%%%%q%%%%%%q%%%%q%%%%%q%%
13664B323%%%%%q%%%%%%q%%%%%q%%%%q%QqqQ%q%Qq%%%%%q%%%%%%%q%%%%%%q%%%%%%q%%%%q
13649B243%%%%%%%%q%%%%%%%q%%%%%q%%%%%qQ%q%%%%%q%QqQq%%%%q%%%%%%%%qQq%%%q%%%%
13634B179%%%q%%%%%%%q%%%%%%%q%%%%q%%%%%%%%q%%%%qQq%%%%%%%%q%q%Q%q%%%%%%%%q%%
13618B107%%%%%%q%%%%%%%q%%%%%%%%%q%%%%%q%%%%%%qQq%%%%%%%q%%%%%%%%%qQq%%%q%%%
13603B043%%%%q%%%%%%%%qQq%%Qq%%%%%qQq%%%%%%q%%%%%q%%%qQqQq%%%%%%%%qQ%%%q%%%%
13588A987qQq%%%%%%q%%%%qQ%%q%%%%%%%%%q%%%%%%%%q%%%%%%%q%Qq%%%%%%%%q%%%%qQq%%
13572A923%%%%%%%%q%%qQ%%q%%%%%%%%%%qQ%q%%%%%%%q%%%%%%%q%%%%%%%q%%%%%%%%%%%%%
13557A875%q%%%%%%q%%%%%%%q%Qq%%%%%q%%%%%%%%%qQq%%qQ%%q%Q%q%%%%%%%%%q%%%%%%q%
13542A811Qq%%%%qJ6k4Q%Q%q%Qq%%%%%%q%%%%%%%%%%%%q%%%%%qQq%%%%%%%%%q%%%%%%%q%Q
13527A771q%%%%%qQq%%%%%%%%%%%%%q%%%%%%%%q%%%%%%%%%%%%%q%%%%%%%%%%%%q%%%%%%%%
13512A723qQq%%%q%%%%%%%%%%%%%%%%q%%%%%%QqqQ%qQq%%%q%Q%%%q%%%%%%%%%q%%%%%%%%%
13496A675qQq%%%%%%%%%%q%%%%%%%%%%%%%q%Qq%%%%q%%%%%%%%%%qQ%q%Qq%%%%%%%%%%qqQ%
13481A627%%qQq%%%%%%%%%%%%q%%%%%%%%%%%%qQq%%%%%%%%%%%%%%q%%%%%%qQ%%%qQq%%%%q
13465A579Qq%%%%%%%%%%%%%q%%%%%%%%%%%%%%qQq%%%%%%%%%%qQq%%%%%%%qQq%%%%%%%%%%q
13450A539%%%%%%%%%%%%%%qQ%qQqQq%%%%%%%%q%%%%%%%%%%%q%%%%%%%%%%%q%%%%%%%%%%%%
13435A507%%%%q%%%%%%%%%%%%%%%%%q%%%%%%%%qQq%%%%%%%%%%%%%%q%%%%%%q%Qq%%%%%Qq%
13419A467%%%%%q%%Qq%%%%%%%%%%%%%%q%%%%%%%qQq%%%%Qq%%%%%%%%q%%%%%%%%%%%%%%%%q
13404A427Qq%%%%%%%%%%%%%qQqQq%%%%%%%%%%%qQqQq%%%%%%%%%qQ%%q%%%%%%%%%%%%%qQ%q
13389A395%%%q%%q%Q%J6q%q%Qq%qQqQ%q%%Qq%Qq%%qQ%%%%%%%qQ%q%%%%%%%%%%%qQ%q%%%%%
13374A363%%%%%%%%%%%%%q%%%%%%%%%%%%q%Qq%%%%%%%%%%%qJ6j6%Qq%%%%%%%q%%QqQqQq%Q
13359A339%q%%%%Qq%%%%q%QqQq%%%%%q%%%%Q%q%%%%%%%%%%%%%qQ%qQq%%%%%%%%%%%%%q%%%
13344A299%%%%%%%%%%q%%%%%%%%%%%%%%%%%%%%%%%%%%%qQq%%%%%%%%%%%qQq%%%%%%%%q%%%
13328A267%Qq%%%%%%%%%%%%%%%%qQq%%%%%%%%%%%%%qQ%%%qQqQq%%%%%%%%%%%q%%%%%%%%%%
13313A243%%%%%%%%qQ%q%%%%%%%%%q%%%Qq%%%%%Qq%%%%%%qQqQ%q%%%%%%%%%%%%%%%%%%%%%
13298A219qQq%%Qq%%%%%%%%q%Q%q%%%%%%%%%%%%%%%%%%qQ%q%%%%%%%%%%%%%%%%%%%%%%q%%
13282A187%%%%%%%%qQ%%qQqQ%q%%%%%%%%%%%%%q%%%%%%%%%%%%%%%%%%%%%qQqQ%%%%%q%%%%
13267A163%%%%%%%%%%%%%qQ%q%%%%%%%%%%%%%%q%%%%%%%%%%%%%%%q%Q%%%%%qQqQq%%%%%%%
13251A139qQ%q%Q%q%%Qq%%%%%%%%%%%%%%%q%Q%%q%Qq%%%%%%Qq%%Qj6Qj6%K4j6j6L2j6%Q%%
13238A123q%%%%qQ%qQ%qQ%%q%%%Qq%%%%%%%%%%%%%%qQ%q%%%%%%%%%%%%%%%%%%%%%%%%q%%%
13222A091%%%%%%%%qQ%%%%%%qQ%qQq%Qq%%%%%%%%%%%%%%%q%QqQq%%%Qq%%%%%%%%%%%qQ%qQ
13207A075q%%%%%%%%%%%%%%%%%q%Q%q%%%%%%%%%%%%%%%%%%%%qQ%q%%%%%%%%%%%%%%%%%%%%
13192A051%%%%%%q%%%%%%%%qQ%%%qQ%%%%%%q%Qq%%%%%%%%%%%%%%%%%%%%%%qQ%%q%Qq%%%%%
13176A027%%%%%%qQ%%%%%qQq%Q%q%%%%%Qq%%%%%%%%%q%Q%q%%%%%%%%%%%%%%%%%%%%%%%%%%
13161A011%%%%%q%Qq%%%%%%%%%%%%%%%%qQ%q%%%QqQqQq%%%%%%%%%%%%%%qQqQqQ%qQ%q%%%%
13146I87%%%%%%%%%%%%%%%%%%qQ%q%%%%%%%%%%%%qQ%%%%%%%qQ%q%%%%%%%%%%%%%%%%%%%q%
13130I63Q%q%%%%%qQ%%%%%%%%%%%%%%%%%%%%q%QqQq%%%%%%%%%%%qQ%%%%%%%%q%%Q%qQq%Qq
13115I47%%%%%%%%q%Q%%%%%%%%%%%%q%%Qq%Qq%%%%%%%%%%%%%%%%%%%%%%%%%%%%q%Qq%%%%%
13099I31%%%%qQ%%%qQ%%%qQq%Qq%%%%Qq%%%qQ%%%%%%%%qQqQ%%%%%%q%%%%%%Qq%%%%%%%%%%
13083I15%%%%q%%%%%%%%%%%%%%%%%%%%%%%%%%%%%%%q%Q%%%qQ%q%%QqQj6Q%%%Qqq%Q%%%%%%
13068H99%%%%%%qQ%%%%qQq%%%Qq%%%%%%%%%%%%%%qQ%%qQ%q%%%%%%%%%%%%%%%%%%%%%%%%%%
13053H83q%Q%%%%qQq%%%%%%%%%%%%%%%%%%%%qQ%q%%Q%qQ%q%QqQ%q%%%%%%%%%%%%%%%%%%%%
13037H67%%q%%QqQ%q%%%%Qq%%%%%%%%%%%%%q%Q%%%%%%q%Qq%%%%%%%%%%%%%%%%%%%%%%%%%%
13021H51%qQqQ%q%%Qq%%%%%%%%%%%%%%%%%%%%%%%qQ%qQ%q%%%%Q%q%%%%%qQ%%%%%%%%%%%%%
13006H35%q%%%Qq%%%%%Q%q%%%%%%%%%%%%%%%%%%%%%%%%%%%q%%%QqQq%Qq%%%%%%%%%%%%%%%
12990H19%%%%%%%%%q%%Qq%%%Q%q%%Qq%%%%%qQ%%%%%%%%%%%%%%%%%%%%%%q%Q%q%%%%Qq%%%%
12975H03%%%%%%%%%%%%%%%%%q%Q%qQ%%qQqQq%%%%%Qq%%%%%%%%%%%%%%%%%%%%%%qQ%%q%%%%
12959G87%%%%%%%%%%%%%%%%%%%qQ%qQqQqQ%%%%%%%q%%%%%%%%%%%%%%%%%%%%qQ%q%Q%%%%%%
12944G79%%%%qQ%qQq%%Qq%%%%%%%%%%%%%%%%%%%%%%%%%%%%%%%qQ%qQq%%%%%%%%%%%%%%%%%
12928G63%%%%%%%%%%%%q%%%Q%%%qQqQq%%Q%qQqQq%%Qq%QqQj6QqJ6%q%%%Qq%%%%%%%%%q%%%
12913G47%%%%%%%%%%%%%%%%%%%%%%%%%%%%%%%%%%%%%%qQ%%q%%%%%%%%%%%%%%%%%%%%%%%%%
12897G39%%%%%%%%%qQ%qQ%%qQ%%q%%%%%%%%%%%%%qQ%%%%qQqQ%qQ%%%%%%q%Q%qQ%qQ%%%%%%
12882G31q%%%%%%%%%%%%%%%%%%%%%%%%%%%%%%%%%%%%%%%qQ%q%%%%%%%%%%%%%%%%%%%%%%%%
12866G15%%%%%%qQ%%%%qQ%%%%%%q%%%%%%%%%%%%%%%%%%%qQ%%%%q%Q%q%Qq%%%%%%Q%q%%%%%
12851F99QqQ%q%%%%%%%%%%%%%%%%%%%%%qQ%q%%QqQ%qQ%%q%%%%%%QqQq%%%%Q%qQj6K4j6%Qq
12836F91%%%%%%%%%qQ%%%%%%%q%Q%%q%%%%%%%%%%%%%%%%%%%%%%%%%%%%%%%%%%%%%%%%q%Q%
12820F83q%Q%%%qQqQ%%qQqQ%q%%%%%%%%%%%%%%%%%%%%%%%%%%%%%%%%%%%%qQ%%%q%Qq%%%%%
12805F67%%%%%%%%%%%%QqQqqQ%%qQ%qQ%%%%%%%qQ%%qQ%%%%%%%q%%%%%Q%q%%%%%%Qq%%%%%%
12789F59%%%%%%%%%%%%%%%%%%%q%%QqQqQq%Q%%%%q%Q%%%q%%QqQq%%%%%%%%%%%%%%%%%%%%%
12774F51%qQ%%q%Q%q%qJ6q%QqQq%Qq%%%%%%%Qq%%%%%%%%%%%%%%%qQ%%%%%q%%%%Qq%%%Q%%%
12758F43qQ%%%%q%%%%%%%%%Q%q%%Qq%%%%%%%%%%%%%%%%%%%%%%%%%qQqQ%q%QqQqQ%%qQq%%%
12743F27QqQq%%%%%%%%%%%%%%%%%%%%%%%%%%%%%%qQ%%%%q%%%Q%q%Q%%qQ%%%%%%%%qQq%Qq%
12727F19%%%%%%%%%%%%%%%%%%%%%%%%%%%%%%qQ%%%%qQ%%%%%%%q%%%%%%%%%%%%%%%%%%Q%q%
12712F11%%%%%%%%%%qQqQ%q%%%%Qq%QqQqQq%%%%%Q%qQq%%%%%%%%%%Qq%%%%%%%%%%%%%%%%%
12696F03%%%qQqQqQqQqQ%%%%%%%%qJ6q%qQq%Q%q%%%%%%Qq%%Qq%QqQq%%QqQ%%q%%qQqQ%%%%
12681E95%%%%%%qQqQq%%Qq%Q%q%%Qq%QqQ%%%q%%%%%%%%%%%%%%%%%%%%%%%%%%%%%%%%%%%%%
12665E87%%%%%%%qQ%%%q%%%%Qq%%%%%%Qq%%%%%%%%%Qq%Q%q%%%%Qq%%%%%%%%%%%%%%%%qQ%q
12650E71%Q%%%qQ%q%%Qq%Qq%%%%%%%%%%%%%%%%%%%%%Qq%%%%%%%%%%%%%%%%%%%%%%%%%%%%%
12634E71%%%%%qQ%%%qQqQq%%Qq%%Q%q%%%Qq%Qq%%Qq%%%qQ%%%%%%%%%%%%%%%%%%%qQ%qQqQ%
12618E63qQq%Qq%%%%%Q%q%%%%%%%%%%%%%%%%%%%%%%%%%%%%%%%%%%%%%%%qJ6q%q%%Q%Qk4%Q
12603E47j6L2Qql2J6%%%Q%q%%%%%%%Q%q%%%%%%%%%%%QqQq%%%qQ%%%%%%%%%%%%%%%%%%%%%%
12589E47%%%%%%%%%%%%%%%%%%%%%%%%%%%qQqQqQq%%%%%%%%%%%%%%%%%%%%%%%%%%%%%%%%%%
12573E39%%%%%%%%%%%%%%%%%%%%%%%%%%%%%%%qQ%qQ%%q%%%%%Q%q%%Qq%%%%%%%%%%%%%%%%%
12558E31%%%%%%%%%%%%%%%%%%%%%%%%%%q%Q%%%%%q%Qq%Q%%%q%%Qq%%%Qq%Qq%Qq%%%%%%%%%
12542E23%%%%qQqQq%Q%%%%%%%%%%%q%Q%qQq%%%Qq%Q%q%Qq%QqQq%Qq%QqQq%%%%%%%%%%%%%%
12526E15%%%%%%%%%%%%%%%%%%%%%%qQqQqQq%%%%Qq%%Qq%%%%%%%%%%%%%Qq%Q%%%%%%q%Qq%%
12511E07%%%%%%Q%qQqQ%q%%%%%%Qq%%%%%%%%%%%%%%%%%%%%%%%%%%qQ%%%%q%%Qq%%QqQqQ%q
12495D99%%%%%%%%%Qq%Qq%%%Qq%%%%%%%%%%%%%%%%%%%%%%q%Q%%%%%%%%%%%%%%%%%%%%%q%%
12480D91Qq%Qq%Qq%%%%%Q%q%%%QqQ%q%%%%%%%%%%Qq%%%%%Qq%%%%%%%%%%%%Qq%%%%%%%%%%%
12464D91%%%%q%Q%q%%%%%%%Q%%%%%q%%%Qq%QqQq%%%QqQ%%%%qQqQ%qQk4L2q%%qQqqJ6%qQQ%
12449D99j6j6K4%q%QqqQ%%%%%q%Q%%%%Qj6Q%%%qQq%%%Q%qQ%%%%%%%%%%%%%%%%q%Qq%Q%%q%
12435D75Q%q%%%%%%%%%%%%%%%%%%%%%%%%%%%Qq%%%%%%%%%%%%%%%%%%%%%%%%%%%%%%%%%%%%
12419D75%%qQq%Q%%%%%%qQ%qQqQq%%Q%q%%%%%%%%%%%%%%%%%%%%%%%%%%%%%%%%%%%%%%%%%%
12403D67%%%%%qQ%%qQ%%%%%%%%%%%%%%q%%Q%%q%Qq%%%%%%%Q%q%%%%%%Q%%%q%Qq%%%%%%%%%
12388D59%%%%%%%%%%%%%%%%%%%%%%%%%%%%%%%%q%Q%%%%%%%%q%%Q%qQq%Q%qQ%%%%qQ%%%q%%
12372D51QqQ%q%%%%%%QqQqQ%qQQq%%%q%%Qq%%%%Qq%%%%%%%%%%Qq%%qQ%%%%%%%%%%%%%%%%%
12357D51%%%%%%%%%%%%%q%Q%qQ%q%%%%%%%%%%%%%%%%%%Qq%%Qq%%%%%%%%%%%%%%%%%%%%%%%
12341D43%%%%%%%%%%%%%%%%%%%%%%%%%%qQ%%%%%%%%%%q%Q%%%%%%%%qQqQ%q%Q%q%%Qq%%%%%
12326D35%%%%%%%%%%Qq%%Qq%%%%%%%%Qq%%%%%%%%%%%%%%%%%%%%%%%%%%%%%qQ%%%%%%%%%%%
12310D35qQ%%%%qQqQ%%q%Q%qQ%%%%qQ%q%%%%%%%qJ6qq%Q%%%%%%%Qq%%%%%%%%Qq%%%%%%%%%
12295D27%%%%%%%%%%%%%%%%%%%%%%%%%%%%%%%%%%%%%%%%%%%%%%qQq%%%%%%Qq%%%Qq%Q%%qQ
12279D27%%%%qQq%%%%%%%%%%%Q%q%%%%QqQq%%%%%%%%%%%%%%%%%%%%%%%%%%%%%%%%%%%%%%%
12264D19%%%%%%%%%%%%qQ%%%%%%%%q%Qq%%%%%%Qq%%%%%Qq%%%%%%%Qq%%Q%qQ%q%Qq%%%%%%%
12248D11%Qq%%%%%%%%%%%%%%%%%%%%Qq%%%%%%%%%%%%%%%%%qQ%%%%%%qQ%%%%%%q%Q%qQ%%q%
12233D03QqQq%Q%%%qQ%%%q%QqQ%qQ%%qQqQq%%QqQ%%%q%%%%%%%%%%%%%%%%%%%%%%%%%%%%%%
12217D03%%%%%%QqQ%%q%%%%%%%%%%%%%qQ%%%%%%%%%%%%%%%%%%qQ%%%%%%%%%%%%q%%Q%qQq%
12201C95Q%%%%%q%%%QqQ%qQ%%%%%%%%%%q%%%QqQq%%%%%%%%%%%%%%%%%%%%%%%%%%%%%%%%%%
12186C95%Qq%%%%%%%%%%%%%%%%%%%%%%%%%%qQq%%Q%q%%%%%%%Qq%Q%%%%%%qQ%%%%%%qQqQqQ
12170C95%%%%%q%Qq%%%%%Qq%%%%%%%%%%%%%%%%%%%Qq%%%%%%%%%%qQ%%%%%%%%%qQ%%%%%%qQ
12155C87%qQ%%%%%%%%%%%%%%%%%%%qQ%%qQ%%%%%%%%%%q%Q%q%%Q%qQ%q%Q%q%%%%%%%%%Q%q%
12139C79Qq%%%%%%%%%%Qq%%%%Qq%%J6k4J6%%q%%%%%%%%%%%%%%%%%%%%%%%%%%%qQ%%%%%%%%
12124C79qQqQ%%%%%%%%%%%%%%%%%%%%%%%%%%%%%qQ%%%%%%%%%%%%%%%%%qQq%Qq%%%Q%qQ%%q
12109C71Qq%%%%%%%%%%%%%%%%%%%%%%%%%%%%%%%%%%%%%%%%%qQ%%%QqqQ%%%%%%%%%%%%%%%%
12093C71%%%%%%%%q%QqQqQ%%%%qQqQ%%qQq%%%%QqQ%%%%%%%%%%qQ%qQq%Qq%QqQq%%%%%%%%%
12078C63%%%%QqQ%%%%qQq%%%%QqQq%Qq%%%%%%%%%%%%%%%qQ%%%%%%%%%%%%%%%%%%%%%%%%%%
12062C63%%%%%%%%%%%%%%%%%%%%%%%%%%%%%%qQ%%%%%%q%%%%%%%%%Qq%Q%%%%%%%%%q%%Qq%%
12046C55%%%%%%%%%%%%%%%%%%%%%%%%%%%%qQ%%%%%%%%%%%%%%%%%%%%%%%%%%%%%%%%%%%%%%
12031C55%%%%%%%%%qQ%%%%%%%%%%%%%%%%%%%%%%%%%%%qQq%%%%%%%%%%%%Qq%%Q%%q%%%Qq%%
12015C47%%%%%%Qq%%Qq%%%%%%%%%%%%%%%%%%%%%%%%%%%%%%%%%%%%%%%%%%%%%%%%%%%%%%%%
12000C47%%qQ%%%%%%%%%%q%Q%%%qQqQ%%%%%%%%%%%%qQ%%%%%%%%%%%%%%q%%Qq%Qq%%Qq%%Qq
11984C39Qq%%Q%%qQ%qQ%Qqj6Q%%QqQqQq%%QqQq%Qq%%%%%%%%%%%%%%%%%%%%%%%%%%%%%%%%%
11969C39%%%%%%%%%%%%%%%%%%%%%%%%%%%%%%%%%%%%%%qQ%%q%%%Q%%%%%q%%%%%%Qq%Qq%QqQ
11953C39q%%QqQ%qQ%%q%Q%%%%%%qQ%QqqQqQqQqQqqQ%%Qq%%%%%%%%Qq%%%%%%%%%%%%%%%%%%
11938C31%%Qq%%%%%%%%%%%%%%%%%%%%%%%%%%%%%%%%%%%%%%%%%%%%%%%%%%%%%%%%%%%%%%%%
11922C31%q%%QqQ%%%%%%%%%%%%%%%%%%%%%q%Q%%q%%QqQq%%%%Qq%%Q%q%%%Q%q%%%Q%q%Q%qQ
11907C31q%Qq%%%QqQq%%%%%%%%%%%%%%%%%%qJ6q%%%%%%%%%%%%%%%%qQ%%%%qQ%%%qQ%%%%%%
11891C23%%%%%%%qQ%%qQ%%qQq%Q%%%%%%%%%%%%%qQ%%%qQ%q%%%%%%QqQ%q%%Q%qQ%q%%Q%%%%
11876C23%%%%%%%%qQqQ%q%Q%%q%Q%qQ%%%%q%Q%%qQ%%%%q%%QqQ%q%%%%%%QqqQ%%%%%%%%%%%
11860C15%%%%%%%%%%%%%%%%%%%%%%%%%%%%%%%%%%%%%%%%%%%%%%%%%%%%%qQ%%%%qQqQ%qQ%%
11845C15%%%%%%qQq%QqQqQ%qQ%qQq%Q%%qQqQ%%qQq%%Q%%qQ%%qQqQqQ%q%%Q%qQ%q%%Qq%%%Q
11829C15q%%%%%%%%Q%q%%%%%%%%%%%%%%%%%%%%%%%%%%%%%Qq%%%%%%%%%%%%%%%%%%%%%%%%%
11813C07%%%%%%%%%%%%%%%%%%%%%%%%%%%%%%%%%%qQ%qQq%%Q%%%%%qQqQqQ%%%qQ%%%qQ%q%Q
11798C07q%%Q%%%%%%q%Q%%%%%qQ%%%%qQ%%%%%%qQ%%%qQq%%%%%%%Q%q%%%Qq%Q%%q%%%%%%%%
11782B99qQ%%Qq%%%%%%%%Qq%%%%%%%%%%%%%%%%%%%%%%%%%%%%%%%%%%%%%%%%%%%%%%%%%%%%
11767B99%%%%%%%%%%%%%%%%%%%%%%%%%%%%%%%%%%%%%%%%%%%%%%%%%%%%%%%%%%qQ%%%%%%qQ
11751B99%%%%%%q%%Q%q%Q%%%%%q%%Qj6J6%qQq%%%%QqQ%%q%%Q%%qQ%q%Q%%q%%%%%%%Qq%Qq%
11736B91%%%%%%%%%%%%%%%%%%%%%%%%%%%%%%%%%%%%%%%%%%%%%%%%%%%%%%%%%%%%%%%%%%%%
11721B91%%%%%%%%%%%%%%%%qQq%Q%%%%%%%%%qQ%%%qQq%%%QqQ%qQ%q%%%%%QqQq%%%%%Q%qQq
11705B83%%%%%Qq%QqQq%Qq%%%%%%%%Q%%%%q%Q%q%%%Qq%%%%Qq%Qq%%%%%Qq%%%%%%%%%%%%%%
11689B83%%%Qq%%%Qq%%%%%%%%%Qq%%%%%%%%%%%%%%%%%%%%%%%%%%%%%%%%qQ%%q%Q%qQ%%%%%
11674B83%%%%%%%%%%%%%%%%%%%%%%%qQqQ%%%qJ6qqQ%%%Qj6%Q%j6Q%%Q%%%%qQq%%%%%%QqQq
11659B75%Q%%%%%%q%Qq%Qq%%%%%%%%Qq%%%%%%%Qq%%QqQqQ%%%%%q%%%%%%%%%%%%%%%%Q%q%%
11643B75%Q%%qQq%%%%%%Qq%%%Qq%%%%%%%%%QqQq%%%%%%%%%%%%%%%%%%%%%%%%%%%%%Qq%%%%
11628B75%%%%%%%%%%%%%%%%%%%%%%%%%%%%%%%%%%%%%%%%%%%%%%%%%%%%%%%%%%%qQ%%%%%%q
11612B67Q%%%%%%%%%%%%%%%%qQ%%%%%%%%%qQ%%qQ%q%%%%Qq%%%%Q%qQ%q%QqQj6QQq%%%Qq%%
11597B67%%%%%%%%%%%%%%%%%%Qq%%%%%%%%%%%%%%Qq%%%%%%%%%%%%%%%%%%%%%%%%%%%%%%%%
11581B67%%%%%%%%%%%%%%%%%%%qQ%%%%%%%%%%%%%%%%%%%%%%%qQ%%%%qQ%%%%%%%%%%%%%q%Q
11566B67q%QqQqQ%q%%Qq%%Qq%Q%%%%%%%%%%%%%%%%%%%%%%%%%qQ%%%%%%%%%%%%%%%%%%%%%%
11550B67%%%%%%%%%q%%%%QqQq%Qq%Qq%Q%%%%qQ%qQ%qQq%Qq%%%%%%%Qq%%%%%%%%%%%%%%%%%
11535B59%%%%%%%%%%%%%%%%%%%%%%%%%%%%%%%%%%%%%%%%%%%%%%%%%%%%%%%%%%%%%%%%%%%%
11519B59%%%%%%%%%%%%%%%%q%%%QqQqQ%%%qq%M0k4%%%%%qQ%%%%q%%Q%%qQqQqQ%%%%%%qQqQ
11504B59%q%%Qq%%%%Q%%%q%%%%%%%%%%%Q%%%%qQ%%q%%%Q%%qQq%Q%%%qQq%%%Qq%%QqQq%Qq%
11488B51%%%%Qq%Qq%%%%%%%%%%%%%%%%%%%%%%%%%%%%%%%%%%%%%%%%%%%%Qq%%%%%%%%%%%%%
11473B51%%%%%%%%%%%%%%%%%%%%%%%%%%%%%%%%%%%%%%%%%%%%%%%%%%%%%%qQ%%qQ%%%%%%%%
11457B51%%%%%%%%%%%%%%%%qQ%%%%%%%%%%%%%%%%%%qQqQ%%%qQ%%%%%%qQ%%q%Q%%qQ%%%%%%
11442B51%qQ%qQ%%%%qQqQ%%%%%%%%%%%%%%%qQ%q%QqQqQqQqQqQ%%qJ6q%%qQq%%%%%Qq%%%%%
11426B43%Q%%%%qQq%QqQ%q%%%Qq%%%%%%%%%%%%%%%%%%%%%%%%%%%%%%%%%%%%%%%%%%%%%%%%
11411B43%%%%%%%%%%%%%%%%%%%%%%%%%%%q%%Q%q%%%Q%%%%%%%%%%%%%%%qQ%%qQ%%%%%%%%%%
11395B43%%%qQ%%%%%%%%%%%%%%%%%%%%%%%%%%qQ%%%%%%%qQ%%%%%%%%q%%%Q%qQqQ%%%%%%%q
11380B35Q%%qQ%%q%%%%%%%%%%%%%%QqQq%%%%QqQqQq%%Qq%%%%%%%%%%%%%%%%Qq%q%%QQ%%k4
11364B19QQ%%%Qj6Q%%%%%qQ%qQ%%%%%%%qQ%%%%%%%%%%%%%%%%%%%%%%%%%%%%%%%%%%%%%%%%
11349B35%%%%%%%%%%%%%%%%%%%%%%%%%%%Qq%%%%%%%%%%%%%%%%%%%%%%%%%%Qq%%Qq%%%%%%%
11333B35%%%%%%%%%%%%%%%%%%%%q%Q%q%%Q%qQqQqQ%qQqQ%%%%%%%%qQ%%%%q%%%Q%%%%qQ%%%
11318B35%%qQ%%%qQ%%%q%%%QqQq%QqQ%qQ%%%q%%%%%%%%%%%%%Qq%QqQqQ%%%%%%qQ%%%%%%%%
11302B35%%%qQqQq%%QqQq%%QqQqQq%%%%%%%%%Q%%%q%Qq%%%%Qq%Qq%Qq%%Q%%%q%%%%%%%%%%
11287B27%%%%%%%%%%%%%%Qq%%%%%%%%%%%%%%%%%%%%%%q%QQqqQ%qQ%%%%%%%%%%%%%%%%%%%%
11271B27%%%%%%%%%%%%%%%%%%%%%%%%q%%%%%Q%%%%%%%%%%%%%%%%%%%%%%%%%%%%%%%%q%%%%
11256B19%%%%Qq%Q%%%%%%%%%%%qQ%qQ%%%%%%%%qQ%qQ%%%%%qQ%%qQqQ%qQq%Q%q%%%Q%%qQq%
11240B19%Q%%q%%%Qq%%Qq%%%%%%%%%%%%%%%%%%%%%%%%%%%%%%%%%%%%%%%%%%%%%%%%%%%%%%
11225B19%%%%%%%%%%%%%%%%Qq%Qq%Qq%%%%%%%%%%%%%%%%%%%%%%%%%%%%%%%%%%%%%%%%%%%%
11209B19%%%%%%%%%%%%%%%%%%%%%%%qQqQ%%%%%%%%%%%%%%%%%%%%qQ%%%%j6QK4j6%%%q%Q%%
11194B19%%%%%%%%%%%%%%%%%%qQ%%%%qQ%%%qQ%%%q%Q%%%%%%%%%%%qQ%%%%qQ%%qQ%q%Q%q%%
11179B11%%%%%%%%Q%%%%qQ%%qQq%%%Q%q%Q%%q%%%%%Qq%%%%Qq%%%%QqQq%%Q%q%Qq%%%%%%Qq
11163B11%%QqQ%q%%%%%Q%q%%QqQ%q%%%%%%%%%%%%%%%%%%%%%Q%q%%%%%%%%%%%%%%%%%%%%%%
11147B11%%%%%%q%Q%%%%%%%%%%%%%%%%%%%%%%%%%%%qQ%%%%%%%%%%%%%%%%%%%Qq%%%%%%%%%
11132B11qQ%qQ%%%%%%%%%%%%%%%%%%%%%%%%%%%%%%%%%%%qQ%q%Q%%%%%%%%%%%%%%%%%%%%%%
11116B11%%%%%%%%%%%%%%%%%%%%%q%%Qq%Qq%QqQ%%%%%%%%%%%%%%%q%Q%%%qQ%%%%%%%%%%%%
11101B11qQ%%%%%%qQqQ%qQ%qQq%Q%q%Q%qQ%q%Qq%%Q%q%Q%%%%%%qQqQq%%%%QqQ%qQq%%%%%%
11085B03%%%%%%%%%%%Qq%%%%%Qq%%%%%%%%%%%%%%%%%Qq%%Qq%%%%%%%%%%%%%%%%%%%%%%%%%
11070B03%%%%%%%%%%%%%QqQq%%%%%%%%%%%%%%%%%%%%%%%%%%%%%%%%%QqQq%%%%%%%%%%%%%%
11054B03%%%%%%%%%%%%%%%%%%qQ%%%%%%%%qQ%%%%qQ%%%%%%%%%qQj6J6q%Q%%%%%%%%%Qq%%%
11039B03%%%%%%%%%%%%%qQ%q%%QqQqQ%%%%%%%%%%%%%%%%%%%%%%%%%%%%%%%%%%%%%%qQ%%qQ
11023B03%qQ%%q%QqQ%%%%q%%%%%%%%%Q%q%%Qq%%%QqQqQ%%%%%%qQ%%%%q%%Q%q%Qq%%Q%%q%Q
11008B03%q%%%QqQ%q%Q%q%Qq%%%%%%%%%%%%%%%%%Q%qQ%%%q%Q%q%Q%qQq%%%%%%%%%%%%%%%%
10992A95%%%Q%%%%q%%%QqQqQq%%%%%%%%%%%%%%QqQq%%%%%%%%%%%%%%%%%%%%%%%%%%%%%%%%
10977A95%%%%%%%%%%%%%%%%%%%%%%%%%%%%%%%%%%%%%%%%%%%%%%%%%%%%%%%%%%Q%%q%%%%%q
10961A87Q%%%%%%%%%%%%%%%%%%%%%%%%%%%%%%%%%%%%%%%%%%%%%%%%qQ%%%%%qQqQ%%%%%%qQ
10946A95%q%%%%%%%%%%%Q%%%%%%%%%%%%q%%%Q%q%%%%Q%q%%Q%%qQqQq%%Q%qQ%%qQ%%qQ%%qQ
10930A95qQ%q%%%%QqQq%Q%q%QqQ%%q%%%%%Q%qQqQ%%q%%Qq%%Q%q%Qq%%Q%q%QqQ%qQq%%%%%%
10914A87%QqQqQ%%q%%%%%%%%Qq%%%%%%%%%%%%%QqQ%%%%qQq%Qq%%Q%%q%%%%%%%%%%%%%%%%%
10899A87%%%%%%QqQq%Q%%%q%QqQ%q%%%%%QqQq%%%%%%%%%%%%%%%%%%%%%%%%Qq%%%%%%%%%%%
10883A87%%%%%%%%%%%%%%%%%%%%%%%%%%%%%%%%%%%%%%%%%%qQ%%%%%%%qQ%%%%%%%%%%%%q%Q
10868A87%%qQ%%%%%%%%%%%%%qQ%%%%%%%%%%%%%%%qQ%%%%%%%%%%%%%%%%%%%%%qQ%%%%%%%%%
10852A87%%%%%%%%%%qQ%%%%%%qQq%Q%qQ%q%%Q%%%%qQqQqQ%qQ%qQ%%%%%%%%%%%%%%%%q%Qq%
10837A79%%%%%Qq%%%%%Qq%%%%%%%%%%Qq%%%%%%%%%%%%%%%Q%%qQ%%q%%%QqQ%qQqQqQ%%qQq%
10821A79Q%qQqQqQ%%%%%qQ%q%Q%q%%%%Qq%%%%%%%%%%Q%q%%%%%Qq%%Q%%%%%qQ%%%%q%%Qq%Q
10805A87%q%%Q%%q%%%%%%%%%%%%%%%%%%%%%%Qq%%%%%%%%%%%%%%%%%%%%%%%%%%%%%%%%%%%%
10790A79%%%%%%%%QqqQ%%%%%%%%%%%%%%%%%%%%%%%%%%%%%%%%%QqQq%%%%%%%%%%%%%qQ%%%%
10774A79%%%%%%%%%%%%%%%%%%%%%%%%%%%%%%%%%%%%%%%%%%%%%%%%%%%q%%%%Qq%QqQ%%%%%%
10759A79%%%qQ%q%Qq%%QqQq%%%%%%%%Q%qQqQqQ%%%%%%qQ%%%%qQ%%%%%%%%%%%%%%%%qQ%%%%
10743A79%%%%q%%QqQq%%%%%%Qq%%%%Q%q%QqQ%q%Qq%%QqQq%%%%QqQ%%%%%q%Q%%q%QQq%qJ6%
10728A87k4%K4k4J6j6K4j6QqQq%QqQj6Q%%Qq%%%Q%%qQ%%q%QqQq%%Q%qQqQ%q%Q%q%%%%%%%%
10714A71%%%%%%Qq%%%%%%%%Q%qQq%Q%q%%%%%Q%qQ%q%%%%%%%%%%%%%%%%%%%%%%%%Qq%%%%%%
10699A71Qq%%Q%%%qQq%%%%Qq%%%%Qq%%%Qq%%%qQQq%%%%%%%%%%%%%%%Qq%%Qq%%%%%%%%%%%%
10683A71%%%%%%%%%%%%%%%%%%%%%%%%%%%%%%%%%%%%%%%%%%%%%%%%%%%%%%%%%%%%%%%qQ%%%
10667A71%%%%%%%%%%%%%%%%%%%%%%%%%%%%%%qQ%%qQ%qQ%qQ%%%%%%%%%%%%%%qQ%%%%%%%%%%
10652A71%%%%%%%%%%%%%%%%%%%%%%%%%%%%%%%%%%%%%%%%%%%%%%%%%%%%%qQ%%%%%%%%%%%%%
10636A71%%%%%%%%%%%qQQq%qQ%%%%%%%%%qQ%%q%Qq%%%%%%%%%%%%%%%%Qq%%Q%%%%%%%qQ%%%
10621A71%%%%%q%Qq%%Qq%Q%q%%%%Q%%%%%%%%%%%%%%%%q%QqQq%Qq%%Q%%qQ%%%%%%%qQqQq%%
10605A63%%%%%Q%%%%q%%Qq%%%%%Qq%QqQqQq%%%%%%%%%%%%%%%%%Qq%%Q%%%qQq%%%%%%%%%Q%
10590A71q%QqQq%%%%%%%%%%%%%%%Qq%QqQ%q%Qq%%%%%%%%%Qq%%%%Q%q%%%%%Q%%q%%qQ%%J6j6
10574A63%qQQq%Qq%%Qq%%%%%%%QqQq%%%%%%Qq%%%%%%%%%%%%%%%%%%%%%%%%%%%%%%%%%%%%%
10559A63%q%Q%%%%%%%%%%%%%%%%%%%%%%%%%%%%%%%%%%%%%%%%%%%%%%%q%Q%%%%%%%qQ%%%%%
10543A63%%%%%%%%%%%%%%%%%%%%%%%%%%%%%%%%%%%%%%%%%%%%%%%%%%%%%%%%%%%%%qQ%%%%%
10528A63%%%%%%%%%%%%%%%%%%%%%%%%%%qQ%%%%qQ%q%Qq%Q%%%%%%%%%%qQ%%%%q%%%%%%%%%Q
10512A63%qQ%q%Qq%%%Q%qQ%%%%%%%q%%Q%%%qQ%%%%%%%%%%%%%%q%%%%%Q%%%q%Qq%%%%%Qq%Q
10496A63%%%%q%Q%qQ%%%j6J6q%Qq%Q%%%q%Qq%%%%%%%%%%%%Qq%%Q%q%%%%%%%%Qq%Q%qQqQq%
10481A55%%Qq%%%%%%%%%%%%%%%%%%%%%%%%%%%%%%%%%%%%%%%%%%%%%%%%%Qq%%%%%%%%%%%%Q
10466A63qQqQqQ%qQq%Q%%%qQq%%%%%%%Qq%%%%%%%%%Q%q%%%%%%%%%%%Qq%%Q%qQq%%%%QqQq%
10450A55%%%%%%%%%%%%%%%%%%%%%%%%%%%%%%%%%%%%%%%%Qq%%%%%%%%%%%%%%%%%%%%%%%%%%
10435A55%%%%%%%%%%Qq%Qq%%%%%%%%%%%%%%qQqQ%j6J6qQ%%%%%%%%%%%%%%%%%%%%Qq%%%%%%
10420A55%%%%%%%%%%%%%%%%%%%%%%%%%%%%%%%%%%%%%%%%%%%%%%%%%%%%%%%%%%%%%%%%%%%%
10404A55%%%%%%%%qQ%%%%qQq%QqQ%%%%q%Q%%%%%%%%%%%%%%%%%%%%%%%%%qQq%Q%%%%%%%%%%
10388A55%%%qQ%%%%%%%%%%%qQ%%%%%qQ%%%q%%Q%%%q%%%%%%%QqQqQ%%%%%qQ%%%%%%%%qQ%%%
10373A55%%%%%%%%%%q%Q%qQ%%%qQ%%q%%%%%%%QqQq%Qq%Q%%%q%QqQq%%Qq%Q%qQ%%%q%%%Qq%
10357A47%%Qq%%%%%%%%Q%%qQqQq%%QqQ%%%%%%%%%%%%%%%q%%Q%q%%Qq%%%%%%%%%%%%Qq%%%%
10342A47%%%Qq%%%Q%q%Qq%%QqQq%Qq%%%%%%%%%%%%%%%Qq%%%%Qq%Qq%%%Q%q%%%%%%%%%Qq%%
10326A47%%%%%%%%%%%%%%%%%%%%%%%%%%%%%%Qq%%%%%%%%%%%%%%%%%%%Qq%%%Q%qQq%%%%%Qq
10311A47%%%%%%%%%%%%%%%%%%%%%%%%%%%%%%%%%%%%%%%%%%%%%%%%%%%%%%%%%%%%%%%%%%%%
10295A47%%%%%%%%%%%%%%%%%%%%%%%%%%%%%%qQ%%%%%%%%%%%%%%%%%%%q%Q%qQ%%qQ%%%%%%%
10279A47%%%%%%%%%%%%%%%%%%%%%%%%%%%%%%%%%%%%%%%%%%%%%%%%%%%%%%%%%%%%%%%%%%%%
10264A47%%%%%%%%%%%%qQ%%Qj6Qq%%%qJ6QqqQ%qQ%%%qQ%%%%q%Q%%%%%%%q%QqQ%%%%%%%%%%
10249A47qQ%q%%%%%QqQ%%%q%%Qq%%Q%qQqQ%qQ%%%%%%%%qQ%q%%%Q%%qQq%%%Q%q%%Qq%%Qq%%
10233A39Qq%%Q%%%q%%%%%%Q%q%Q%%qQ%%%%q%%%%Qq%%Q%qQq%Q%qQq%%Q%q%%%Q%%%%qQqQqQq
10218A39%%QqQ%%%q%Q%%qQ%%qQq%Qq%%%QqQ%q%Q%%%%%%qQq%%QqQqQq%%%Qq%%Qq%QqQ%%%%q
10202A39Q%q%Q%q%%%%%%%%%%%%%%%%%%%%%%%%%%%%%%Qq%%%%%%%%Qq%%%Q%q%%%%%%%%%%%Qq
10187A39%Qq%%%%%%%%Q%%qQ%%qQq%%%%%%%%%%%%%%%%Qq%%%%Qq%%%%%%%%%%%%%%%%%%%%%%%
10171A39%%%%%%%%%%%%%%%%%%%%%%%%%%%%%%%%%%%Qq%%%%%%%%%%%%%%%%%%%%%%%%%%%%%%%
10155A39%%%%%%%%%%%%%%%%%%%%%%%%%%%%%Qq%%%%Qq%%%%%%Qq%%%%%%%%%%%%%%Qq%%%%Qq%
10140A39%%%%%%%%%%%%%%%%%%%%qQ%%%%qQq%%Q%%%%%qQ%%%%%%%%%%%%%%%%%%%%%%%%%q%%Q
10124A39%q%Q%%%%%qQ%qQqQ%q%Q%%%%qQ%%%%%qQ%%%%%%%%%qQqQ%%qQ%%%%%%q%Q%%%%%%%%q
10109A31Q%%%%%%qQqQ%%%Qk4J6%%%%qJ6qqQqQ%%%%%%%%%%%%%qQ%%%%%%%%%%%%%%%%%%%%q%
10094A31%%QqQqQq%QqQ%%q%%QqQ%%%%%%%%%%%q%QqQq%%Q%q%%%%%%%%%QqQ%%qQq%QqQqQq%%
10078A31%%%Qq%%%%%%QqQq%%%Q%%%%q%qJ6%%%qQq%%%%%%%%%%%%%%%%%%Qq%%%%Q%%%qQ%%%q
10063A31Q%qQ%q%%%%%%%%%%%%%%%%%%%%%%%%Qq%%%%%%%%%%%%Q%q%Q%q%QqQ%qQ%q%%%Qq%%Q
10047A39qQ%qQ%qQq%%Qq%QqQ%%qQ%%%%%q%%%%%%Qq%%%%%%%%%%%Q%%qQq%%%%%%%%%%%%%%%%
10032A31%%Qq%%%%%%%Qq%%%%Qq%%Q%%%qQ%q%%%qQqQ%%%%%%%%%%%%%%%%%%Q%qQ%qQqQq%%%%
10016A31%%%%%%%%%%%%%%%%%%%%%Qq%%%%%%%%%%%%%%%%Qq%%%%%%%%%%%%%%%%%%%%%%%%%%%
10001A31%%%%%qQ%%%%%%%%%%%%%%%%%%%%%%%%%%%%%%%%%%%%%%%%%%%qJ6%j6Q%%%%%%%%%%%
9986A31%%%%%%%%%%%%%%%%%%%%%%%%%%%%%%%%%%%%%%%%%%%%%%%%%%%%%%%%%%%%%%%%%%%%%
9970A31%%%%%%%%%%%%%%%%%%%%%%%%%%%%%%%%%%%%%%%%%%%Qj6%Q%%qQ%qQ%%%%%%%%%%q%Q%
9954A31%%%qQ%%q%Q%%%%%%%%%%%%%%%%%%%%%%%%%%%%%%%qQ%%%%%%%%%%%%%%%%%%%%%%%%%%
9938A31%%%%%qQ%%%%%%q%Q%%qQqQ%qQ%%%qQ%%%%q%%Qq%Q%%%qQ%%%%%%%%%%%%%%%%%%%%%%q
9923A23Q%%%%%%%%%%%%%%%%%qQ%%%%%%%%%%Qq%%%%%%%%%%%%%%%%%%%%qQ%q%%%QqQq%%qJ6q
9907A23%%%%%QqQq%%%%%%%Q%qQ%qQ%%%%%%%%%q%%%%Qq%%Qq%%%%%%%%%%%%%%%%%QqQq%%%%Q
9891A31q%%%%%%QqQqQ%%q%%%%Qq%%Q%%%q%Qq%%%%%%%%%%%%%%%Q%%q%Qq%%QqQqQ%%q%%QqQq
9875A23%%%%%%Qq%Qq%%%%%%Q%%qQ%qQq%%%%%%%Qq%%%%%%Qq%QqQq%%%%Q%q%%%%%%%%%%%%%%
9860A23%%%%%%%%%%%%%%%%%%%%%%%%%%%%%%%%%%%%%%%%Q%q%%%%%%%Qq%Q%qQ%%qQ%qQ%%q%%
9844A23%QqQq%%%%Qq%%%%%%%%%%%%%%%%%%%%%%%%%%%%%%%%%%%%%%%%%%%%%%%%%%%%%%%%%%
9828A23%%Qq%Qq%%%%%%%%%%%Qq%%%%%%%Q%q%%%%Qq%%%%%%%%%%%%%%%%%%%%%%%%%%%%qQ%%q
9812A15%Q%%%%%%%%%%%%%%%%%%%%%%%%%%%%%%%%%%%%%%%%%%%%%%%%%%%%%%%%%%%%%%%%q%Q
9797A23%%%%%%%%Qq%%QqQq%Qq%%%%qJ6qqK4l2K4q%Qq%Qq%%%%%%%%%%%%%%%%qQ%%%%%%%%%%
9782A23%%%%%%%%%%%%qQ%%%%%%%%%%%%%%%%%%%%%%%%%qQ%%%%%%%%%%%%%%%%%%%%%%%%%%%%
9766A23%%%%%%%%%%%%%%%%%%qQ%qQ%%%%%%%%%%%%%%%%%%%%%qQ%%%%%Qq%%%qQqQ%%%%qQ%%q
9750A15Q%%%%%%%%%%%%%%%%%%%qQ%q%%%QqQ%%q%QqQqQ%q%QqQ%%q%Q%%q%Q%%%qQ%%%%qQ%%%
9734A23%%%%%%%%%%qQ%%q%Q%%%%%%%%%%%%%%%%qQ%%%%%%q%%QqQqQ%%%%%%%%%%%%qQ%%%%%%
9718A23%%%%%q%%%%%%%%%%%%Qq%%%%Q%q%Q%%%%%%%%%%%%%%%%%%%%%%%%%%%%%q%Q%qQ%%%%%
9703A23%%%%%q%%%%%%%%Qq%%%%%Q%qQ%%%%%%q%Q%qQqQ%%%q%Qq%%%Qq%%%%%%%%Qq%Q%%%%%%
9687A23%%%qQ%%%%%%qQqQq%%%%Qq%%%%%%%%%%%QqQq%%%%%%%%%%%%%%%%%Qq%Qq%%Qq%%%Q%q
9671A15Q%qQqQ%%%%q%%%%QqQqQqQ%%%qQqQ%%%q%%%%%%%%%Qq%%%Qq%%%%%%%%%%%%%%%%%%%%
9655A15%%%%%%%%%%%%%%%%Qq%%Qq%%Qq%%%%%%%%%%Qq%Qq%%%%Qq%%%%Qq%%%%%%%%%%%%%%%Q
9640A23j6Q%%%%Qq%j6QqJ6qJ6j6K4qq%%%%Qq%%%%%%%%%%%%%%Qq%%%%%%%%%%%%%%%%%%%%%%
9625A15%%%%%%%%%%%%%%Qq%%%%%%%%%%%%%%%%%%%%%%%%Qq%QqQqQq%Qq%%%%%%%%%%%%%%%%%
9609A15%%%%%%%%%%%qQ%%%%%%%%%%%qQqQ%%%%%%%%%%%%%%%%%%%%%%%%%%%%%%%%%%%%%%%%%
9594A15%%%%%%%%%%%%%%%%%%%%%%%%%%%%%%%%%%%%%%%%%%%%%%%%%%%%%%%%%%%%%%%%%%%Qq
9578A15%%%%%%%%%%%qQ%%%%%%%%%%%%%%%%%%%%%%%%%%%%%%%%%%%%%%%%%%%%%%%%%%%%%%%%
9562A15%%%%%%%%%%%%%%%%%%%%%%%Q%q%Qq%%%%%%%%%%%%%%%%%%%qQ%%%%%%%%%%%%%%%%%qQ
9546A15qQ%%%%%%qQ%%%%%%qQ%%%%%%%%%%%%%%q%QqQ%%%qQ%%%%%%qQ%%%%%%%%%%%%%%%%%%%
9530A15%%%%%%%%%%%q%Q%%%qQq%Q%q%Q%qQ%%%%%%%%%%qQq%Q%qQ%%%%%%%%%%qQ%%%%%%%%%%
9515A15%qQqQ%%%%%%%%%%%%%%%%%%%%%%%%%%%%%qQ%q%Q%qQ%q%%%%%%%%Qq%%%QqQ%%%qQ%%%
9499A15%%%%%%%%%qQ%%%%%%%%%%%%%q%Q%%%%%%%%qQj6Q%%%Qq%%%Qq%Q%qQ%qQq%%%%%%%%Q%
9483A15q%%QqQqQq%%Qq%%%%%%%Qq%%%%%%%%%%%%%%Q%q%%%%%%%%%QqQ%qQ%%%qQ%qQq%Q%%%%
9467A15%qQ%qQq%%Qq%%%%%%%Qq%%%%%%Qq%%%%%Q%%%%qQ%%%%%q%Qq%Qq%Q%%%%%%%%q%%%Q%q
9452A07%%%Qq%%Qq%%%Q%%%%q%%%%%Qq%Qq%%%%%%%Qq%%%%%%%%%Qq%%%%%%%Q%%q%%%Q%q%%%%
9436A07%%%%%%%%%%%%%%Qq%%QqQqQqQ%%q%%Qq%%Q%%qQq%%%%%%%%%%%%%%%%%%%%%%%%%%%%%
9420A07%%%%%%%%%%%%Q%q%Qq%%%%%Qq%%%%%%%%%%%%%%%%%%%%%Qq%%%%%%Qq%%%%%%%%%QqQq
9404A07%%%qJ6%q%%q%Q%%%%%%%%%%%%%%%%%%%%%%%%%%%%%Qq%%%%%%%%%%%%%%%%%%%%%%%%%
9389A07%%%%%%%%%%%%%%%%%%%%%%%%%%%%%%%%%%%%%%%%%%%%%%%%%%%%%%%%%%%%%%%%%%%%%
9373A07%%%%%%%%%%%%%%%%%%%%%%QqQq%%%%%%%%%%%%%%%%%%%%%%%%%%%%%%%%%%%%%%%%%%%
9357A07%%%%%%%%%%%%%%%%%%%%%%%%%%%%%%%%%%%%%%%%%%%%%%%%%%%%qQ%%%%%%%%%%%%%%%
9341A07%%%%%%%%%%%%%%%%%%%%%%%%%%%%%%%%%%%%%%%%%qQ%%%%%%%%%%%qQ%qQq%Q%%%qQ%%
9325A07qQqQ%%qQ%%%%%qQqQqQqQ%%%%%%%%qQqQ%%qQ%%%%qQ%%%%%%%%%%%%%%%%%%%%%%%%%%
9310A07%%%%%%%%%%%%%%%%%%%%%%%%%%%qQ%%%%%%%%%%%%%q%QqQq%Q%%%%%%%%%%qQ%q%%%Qq
9294I9%%Q%qQ%q%QqQqQqQ%%%%qQ%%%%%%%%%%%%%q%Q%%%%q%Q%%%%%%%qQ%%%%%%qQ%%%%%%%%
9278A07%%%%%%%%%%%%%%%%%%q%Qq%%%Qq%Q%qQ%%%%%%%%%%%%%%%%%%%%%%%%%%%%%qQ%%%%%%
9262A07%%q%Q%%q%%%Q%%q%Q%qQq%%Q%%qQ%%%q%Q%%%qQqQ%%%%qQ%q%%%%%%%Q%%%q%Q%%qQq%
9246I9%%%%%%Qq%%%%%%Q%%%%%%%%%%%%%qQ%%qQq%%%%%%Q%%%q%%QqQ%%%%%qQqQq%Q%qQ%%%%
9230A07%%%%%%%qQq%%%Q%q%%%%QqQ%q%%Qq%%%%%%%%%%%%%%%%%%%%%%%%%%%%%%%%%%Qq%Q%%
9214A07%%%%%%qQqQ%qQqQ%%q%%%Q%%%q%Qq%%QqQ%qQ%q%Q%%q%Q%%qQq%%%Qq%%%Qq%%%%Qq%%
9199I9%%%Qq%%Qq%%%%Qq%%Qq%%%Q%qQq%%%%QqQ%qQq%%%Qq%%%%%%%%%%%%%%%%%%%%%%QqQq%
9183I9Q%qQqQq%%%%%%%%%%%%%%QqQqQq%%%%%%%%%%%%%%%%%%QqQqQqQq%Q%q%%%%%%%QQq%q%
9167I9%%%%Qq%Qq%Qq%%%%%%%%%%%%%%%%%%%Q%%q%%%%%%%%%%%%%%%%%%%%%%%%%%%QqQq%%%%
9151I9%%%%%%%%%%%%%%%%%%%Qj6J6j6%Q%%%%%%Qq%Q%%%%%q%%%%%%%%%%%%%%%%%%%%%%%%%%
9135I9%%%%%%%%%%qQ%%%%%%%%%%%%%%%%%%%%%%%%%%%%%%%%%%%%qQ%%%%%%%%%%%%%%%%%%%%
9119I9%%%%%%%%%%%Qq%%%%%%%%%%%%%%%%%%%%%%%%%%%%%%%%%%%%%%%%%%%%%%%%%%%%%%%%%
9103I9%%%%%%%%%%%%%%%%%%%%%%%Qq%%%%%%%%%%%%%%%%%%%%%%%%%%%%%%%%%%%%%%%%%%%Qq
9087I9Q%qQq%Qq%%%%Qq%%%%%%%%%%%%%%%%%%%%%%%%%%%%%%%%%%%%%%%%%%%%qQqQq%Q%%%qQ
9071I9%q%%%Q%%%%qQ%%%%qQ%%%%%%%%%%%%%%%%%%%%%%qQ%%%%%%%%%%%%%%%%qQ%%%%%%%%%%
9055I9%%%%%%%%%%%%%%qQ%%qQ%%%qQ%%%%%q%%Qq%QqQ%qQ%%%%%%%%%%%%%%%%%%%%%%%%%%%q
9039I1Q%%%%%%%%%%%%%%%%%%%%%%%%q%Qq%%Q%%%%%%%qQ%%%%q%Q%%%%%%%%%%%%%%%qQ%%%%%
9023I9%%qQQq%%%%q%Q%%qQ%%%%%%%%%%%%%%%%%%%%%%%%%%%%%%%%%%qQ%%%q%Qq%%%%%%%%%Q
9007I9qQqQ%%q%%Q%%%%%q%Q%qQq%Q%qQqQ%%%q%Q%%qQ%%%%%%%%%%%%%%%%%%%qQqQqQq%%%%%
8991I1%%%%%Qq%%%%%Q%q%Q%%%%%%%%%%%%%%%%qQq%%%%%%%Qq%Q%q%Q%q%Qq%%%Q%%%%%%%qQ%
8975I9q%Q%%%%%%%%%%%%%%%%%%%QqqQ%%%qQq%%Qq%%%%Q%%%%%qQq%Qq%Q%%%%%%%%%%%%%%%%
8959I9qQ%%%%%%%qQ%%%q%%Q%%%%%%%%%%%%qQ%qQ%%%q%%%%Q%qQ%%q%Qq%%%%%Qq%%%%%%Qq%Q
8943I9%%q%%Q%qQq%%Q%%%q%Q%qQqQq%%Qq%Q%q%%Q%%%qQqQqQ%%qQq%%%%%%%%%%%%Qq%%%Qq%
8927I1%%%%%%%%%%%%%%%%%%%Qq%%%%Q%%%%%%%qQ%%q%%%QqQq%Q%%qQqQqQ%qQqQ%q%%%QqQq%
8911I1%%%%%%Q%%qQq%%%%%%%%%%%%%%%%%%%%%Q%qQq%%%%%%%Q%%q%%%%%%%%%%%%%%%%Qq%Qq
8895I1%%%%%%%Qq%%%%%%%%%Qq%%%Qq%%%%%%Qq%%%%%%%%%Qq%Qq%%%%%%%Qq%%%%%%%%%%%%%%
8879I1Qq%%%%Qq%%%%%%%qQ%%%%Qq%%%%%%%%%%%%%%%%%%%%%%%%%%%%%%%%%Qq%%%%%%%%%%%%
8863I1Qq%Q%%q%%%%%Qq%%%Q%%%qQq%%%%%%%%%%%%Q%j6J6%k4K4j6qK4Qj6qJ6%q%Q%%qQ%qQq
8849I1%%%%%%Qq%%QqQq%Qq%%%%%%%%%QqQ%q%%%QqQq%%Qq%%%%%%Qq%%Qq%Qq%%%%%%%%%%%%%
8833I1%Qq%Qq%%%%%%%Qq%%%%Q%%q%%%%%%%%%%%%%%%%Qq%%%%%%%%%%%%Qq%%%%%%%%%%%qQ%%
8817I1%%%%%%%%%%Qq%%%%%%%%%%%%%%%%%%%%%%%%%%%%%%%%%%%%%%%%%%%%%%%%%%%%%%%%%%
8801I1%%%%%%%%%%%%%%%%%%%%%%%%%%%%%%%%%%%%%%%%%%%%%%%%%%%%%%%%qQ%%%%%%%%%%%%
8785I1%%%%%%%%%%%%%%%%%%%%%%%%%%%%%%%%%%%%%%%%%%%%%%%%%%%%%%%%%%%%%%%%%%%%%%
8769I1%%%%%%%%%%%%%%%%%%Qq%%%%%%%%%%%%QqQq%%%%%%%qQ%qQ%qQ%%%%qQ%%%%%%%%%q%Qq
8753H3%Qq%Q%%%%qQ%%%%%%%qQ%%%%%%%%%%%%%%%%%%%%%%%%%%%%%%%%qQ%qQ%qQ%%%%%%%%%%
8737I1%%%qQ%%qQ%%qQ%%%%%%%%%%%%%%%%%%qQ%%%%%%qQ%%%qQ%%q%Q%qQ%%%%%%%%%%%%%%%%
8721I1%qQ%%qQ%%%%%qQ%%%qQ%%%%qQ%%qQ%%%%%qQ%%%%%%%%%%%%%%Qq%qQ%qQ%%%%%qQ%%qQ%
8705I1q%Qq%QQqqQqQqQqj6QL2k4J6l2K4L2ql2J6k4%%K4q%j6J6%q%%Q%%q%J6qq%%J6q%qQ%%
8692I1%qQq%Q%%q%%QqQ%%%q%Q%%%%%%%%%%%%%%%%%%%%%qQ%q%Q%%%%%%%q%Q%qQqQ%qQ%%q%Q
8676I1qQ%qQ%%%qQ%%%%%%%%%%%%%%%%%%%%qQq%%%Qq%Q%%%%%qQ%%%%%%%qQ%%%%%%%%%%%%%%
8660I1%%%%q%QqQq%Qq%%%%QqQq%Q%%%%%%qQ%%%%%%%%%%%%%%%%%%%%%q%Q%%qQ%%%qQq%%%Qq
8644H3Q%qQ%qQqQ%q%%%Q%qQqQ%q%QqQ%%%%%%%%%%%%%%%%%%%q%Qq%%%%%%%%Q%%qQqQ%%%%qQ
8628I1%%%%%%%%%%qQqQ%%q%Q%%%qQ%%%qQ%%%%%qQ%%%Qq%j6J6%%%%%%%qQq%%%%Q%%q%%%%Qq
8612H3Q%q%%%%%%%%%%%%%%%%%Q%q%%%%%%%Qq%%%%QqQq%Qq%%%%%%%%%%%%Qq%Q%%%%q%QqQq%
8596H3%QqQq%%%%%%%%QqQq%Qq%%%%%%%%Qq%%%%%%Qq%%%Qq%%Qq%Q%q%Q%q%QqQq%QqQq%Qq%Q
8580I1q%Q%%q%Qq%%%%%%Q%q%%Q%%%%%q%QqQq%%%%%%%%%%%%%%%%%%%Qq%%%%%%Q%q%%%%%%%%
8564H3%%%Qq%%Q%q%%%%%%Q%%%q%%Qq%%Qq%%%%%%%%%%%%%%%Q%%%q%%%J6qq%Qq%Qq%Q%q%%%Q
8548I1%q%%%%%%%%Q%qQ%%%qQ%%%%%%%%%%%%%%q%%%%%%%%%%%Qq%%%%%%%%%%%%%%%%%%%%%%%
8532H3%%Q%qQq%%%%Qq%%%%%%%%%%%%%%%%%%%%%%%Qq%%%%%Qq%%%%QqQq%%%Qq%%%%%%%%%%%Q
8516I1%q%%%%%Qq%%%%%%%%%Qq%%%Qq%%%%%%%QqQqQq%%%%Qq%%%%Qq%%%%%%%%%%%%%%%%%QqQ
8500I1%q%%%Qq%%%%%%%%%%%Q%q%%%%%%%qQ%Q%%qQq%%%%%%%%%%%%%%%%%%%%%%%%%%%%%%%%%
8484H3%%%%%%%%%%%%%%%%%%%%%%%%%%%%%%%%%%%%%%%%%%%%Qq%%%%%%Qq%%%%%%%%%%%%%%%%
8468H3%%%%%%%%%qQ%qQQ%qqQQq%%%%%%%%%%%%%%%%%%%%%%%%%Qq%%%%%%%%%%%%%%%%%%%%%%
8452H3%%%%%%%%%%%%%%%%%%%Qq%%%%%%%%%%%Qq%%%%%%%%%%%%%Qq%%%%%%%%%%%%%%%%%%%%%
8436H3%%%%%%%%%%%%%%%%qQ%%%%%%%%%%%%%%%%%%%%%%%%%%%%%%%%%%%%%%%%%%%%%%%%%%%%
8420H3%%%%%%%%%%%%%%%%%%%%%%%%%%%%%%%%%Qq%%%%%%%%%%%%%%%%%%%%%%%%%%%%%Qq%%%%
8404H3%%%%%%%%%%%%%%%%%%%%%%%%%%%%%%%%%%%%%%%%%%%%%%%%%%%%%%%%%%%%%%%%%%%%%%
8388H3%%%%%%%Qq%qQ%QqqqK4k4Q%Q%q%%Q%%%%%%%%%%%%%%%%%%%%%%%%%%%%%%%%%%%%%%%%q
8373G5QqQ%%%%%%%%%%%%%%%%%%%%%%%%%%%%%%%%%%%%%%%%%%%%%%%%%%%%%%%%%%%%%%%qQ%%
8357H3%%%%%%qQq%%Qq%Q%qQ%%qQ%%qQ%%%%q%QqQq%%%%%Q%%%%%%%%%%%%%%%%%%%%%%%%%%%%
8341H3%%%%%%%qQ%%%%%%%%%%%%%%%%%%%%%qQq%Q%%%%%%%%%%%%%%%%%%%%%%%%%%%%%qQq%Q%
8325H3%%%%%%%%%%%%%%%%%%%%%%%qQ%%qQ%%Qq%%%q%%%Q%q%%Qq%%%%Qq%Q%%%%%%qQ%%%%%%%
8309H3%%%%%%%%%%%qQ%%qQ%%%%%%%%%%%%%%q%%Q%%%%%%q%Q%%%%%q%Q%%%qQ%%%%%%%%%%qQ%
8293H3%%%%%%q%Q%%qQ%%%qQ%%%%%%%%q%QqQ%%%qQ%q%Q%%qQq%%%Qq%%Q%qQ%q%QqQq%%%%%%%
8277G5%%%QqQ%%qQ%%%%%%qQ%%%%q%%%%%Q%%%qQ%%%qQqQ%%Qj6Qq%QqQ%%qQ%%qQ%q%%%%%%%%
8261G5%%Qq%%%%Q%%%%%%%%%%%%%%%qQ%%%%%%qQqQ%%%%%%%%q%%%%%%%%%%%%%%%%%Qq%%%%Qq
8245G5QqQ%%%%%qQ%%%%%%%%%%%%%%q%Q%%q%%QqQqQq%%%Qq%QqQqQ%q%%%%%Qj6Q%Qq%%%%Q%%
8229H3%%%%%%%%%%%%%%%%%q%%Qq%Qq%QqQq%%%%%%%%%%Qq%%%%Q%%%%%qQ%%%%%%qQ%%%%%%%%
8213H3%%%%%%q%Qq%%%Qq%%Q%%%q%%%Q%%qQ%%%%%%qQqQ%%%%%%qQqQq%%Qq%Q%q%%Q%qQq%%Q%
8197H3qQq%%QqQ%%%%%%%%qQqQ%q%%%%%Q%q%Qq%%%%%%%%%%%Q%%q%%Qq%%%%%%Qq%QqQ%q%Qq%
8181G5%%%Qq%%%Q%qQ%q%%%%%%%%%%%%%%%Q%qQqQ%%%%qQ%%%%%%%%%%%%%qQ%%%%qQ%qQ%%%%q
8165G5Q%q%%%%%%%%%%%%%%%%%%Q%%%%%%qQq%QqQ%%qQ%%qQ%%%qQq%Qq%%%%%%%%%Qq%Q%%j6Q
8149G5Q%q%Qq%Q%q%%%%%%%%%%%%Q%q%Qq%Q%qQ%qQqQ%%q%%%%Qq%%%%%%%%%%%%%%%%%%%%%%%
8133G5%%%%%%%%%%%Q%qQqQq%%%%%%%Q%%%%%q%%Qq%Q%%%%%qQq%Q%qQqQ%%%%%q%%%%%%%%%%%
8117G5%%%%%%%%%Qq%Q%%q%%%%%%%%%%%Qq%%%%%Qq%%%%%%%%%%Q%q%%%%%%%%%%%%%%%%%Qq%%
8101G5Q%qQ%%%%%%q%Q%q%Q%qQ%qQ%q%%%%%%%%%%Q%q%%%%%QqQqQq%%%%%Q%q%%%%%%%%%%%%%
8085G5%%%Qq%%%%%%%QqQ%q%%Q%q%%%%%%%%%%%%%%%%%%%%%%%%%%%%%%%%%%%%%%%%%%%%%%%%
8069G5%%%QqQqQqQ%%q%%%%%%%%%%%%%%%%%qQ%qQ%%%%%%%%%%%%%%%%%%%%%%%%%Qq%%%%%%%%
8053G5%%%%%%%%%%%%%%%%%%%Q%q%%%%%%%%%%%%%%%%%%%%%%%%%QqQq%%%%%%%%%Qq%%QqQqQq
8037G5QqQq%%%%%%%Qq%%%Q%%%q%%%%%%%%Qq%%%%%%%%%%%%%%%%%%%%%%%%%%%%%%%%%%%%%%%
8021G5%%%%%%%%%%%%%%%%%%%%%%%%%%%%%%%%%%%%%%%%%%%%Qq%%%%%%%%%%%%%%%%%%%%%%%Q
8005H3q%%%%%%%%%%%%Qq%%%%%%%%%%%%%%%%%%%%%%%qQQq%%%qQ%%%%%%%%%%%%%%%%%%%%%%%
7989G5%%%%%%%%%%%%%Q%%%q%%%%%%%%%Qq%%%%QqQq%%%%%%%%%%%%%%%%%%%%%%%%%%%%%Qq%%
7973G5%%%%%%%%%%%%%%%%%%%%%%%%%%Q%q%%%%%%%%%%%%%%%%%%%%%%%%%%%%%%%%%%%%%%%%%
7957G5%%%%%%%%%%%%%%%%%%%%%%%%%%%%%%%%%%%%%%%%%%%%%%%%%%%%%%%%%%%%%%%%%%%%%%
7941G5%%%%%%%%%%qQ%qQ%%%%%%%%%%%%%%%%%%%%%%%%%%%%%%%%%%%%%%%%%%%%%%%%%%%%%%%
7925G5%%%%%%%%%%%%%%%qQ%%%%%%%%%%%%qQ%%%%%%QqQl2L2q%qQq%Q%%%%%%q%Q%%%%%%%%%%
7909G5%%%%%%%%%%qQ%%%%qQ%%%%%qQ%%%%qQ%%%%qQ%%%%%%%%%%%%%%%%%%%%%%%%%%%%%%%%%
7893G5%%%%%%%%%%%%%%%%%%%%%%%%qQ%%%%qQ%%%%%qQ%%%%%%%%%%%%%%%%%%%%%%%%Qq%%%%%
7877G5%qQ%%%%%%%%%%%%%%%%%%%%%%%qQqQq%%Qq%Q%%%%%%%%%%%%%%%%%%%%%%%%%%%%%%%%%
7861G5%%%%qQ%qQ%qQqQqQqQ%qQ%%%%%%%%%%%%%%%%%%%%%%%%%%%qQ%q%Q%%q%Q%%%%%%%%qQq
7845F7QqQ%%q%%%Q%%qQq%%%%QqQqQ%qQ%%%%%%%%%%%%%%qQ%%qQ%%%%%%%%%%%%%%qQ%%%%qQ%
7829G5qQ%qQqQ%qQ%%qQ%q%Q%%%%%%%%%%%%%%%q%Q%%%%q%%Q%%%%%%%%%%%%%q%%%Q%%%%%%%%
7813G5%%%%%%%%%%%%%%%qQ%%%%%%%%%%%qQ%%%%q%%%%%%%%QqQ%%qQ%%%%%%%%%%%%%qQ%%%qQ
7797G5qQ%%%%%%%%qQ%%%%%q%%%Q%qQqQ%qQqQqQ%%qQqQ%q%Q%qQ%%%q%Qq%Q%%qQ%qQ%%%%qQ%
7781G5qQ%%%%%%%%%%%%%%%%%%%%q%%%%Q%%%%%%%%%%%qQ%%%%%%%%%%%qQ%%q%Q%%qQq%%Q%qQ
7765G5q%QqQqQ%q%%%J6%qk4K4%qQq%%%%Qq%Q%%%%%%q%QqQ%qQqQq%%Q%%qQ%%%%%%%%%qQq%%
7750F7%%%%%QqQq%%%%%%%%%%%%%%Q%%qQ%%%%%%%%%%q%QqQ%%%%%qQqQ%qQqQ%%%%%%qQ%%%%%
7734G5%%%%qQQj6Q%%%qQ%%qQ%%qQqQq%QqQ%q%%%%%Qq%%Qq%%%%%%%%%QqQ%q%%%%%%%%%%%Q%
7718G5%qQ%q%%Q%q%Q%qQqQq%Q%%qQ%%%qQ%q%%Q%q%Qq%%%%%%%Q%%qQqQ%q%%Qq%%%Qq%%%%%%
7702F7%%Qq%%Q%q%%Q%q%%%%Q%%%qQ%%%%%q%%%Qq%Qq%%%%Q%qQq%%%%%%QqQqQq%Q%%%%q%%%%
7686F7%Q%q%Qq%Qq%%%%%%%Q%qQ%qqQ%%%Q%q%%%%%%%%%%%Qq%Q%%%%%qQ%q%Q%qQqQq%%%%%%Q
7670G5q%%%%%%%%%%%%Qq%%%%%%%%%%%%%%%%%%%%%%QqQq%%%Qq%%%%Qq%Q%qQqQqQ%q%%%%%%Q
7654G5qQqQ%%q%Q%qQ%%qQq%Q%%q%Qq%%%%%%Q%%q%%%Q%%%qQ%qQq%%Q%qQ%%q%Qq%%%%%%%%%%
7638F7%%%%%%%%%%%%%Qq%%%%%%%%%%%%%%%Q%q%%%%%%%%%%%%%%%%%%%%%%%%%%%%Qq%QqQq%Q
7622G5%%q%%%%Q%%qQqQqQ%j6QqQQ%q%%Q%J6k4%QQj6q%Q%QqQqQqQ%%q%%%%%%%%%%%qQ%%%%%
7607F7%%%%%%%%%%%%%Qq%Qq%%%%%%QqQq%Qq%%%%Qq%%%%%%%%%Qq%Q%%%%%%%qQqQ%q%%%%%%%
7591F7%%%%%%%%Qq%%Q%qQqQ%q%QqQqQq%%%%%%%%%%%%%%Q%%%%q%Qq%%%%%%%%%%%%%%%%%%%%
7575F7%%%%%%%%%%%%%%%%%%%%%%%%Qq%%%%%%%Qq%%%%%%%Qq%%Qq%%Qq%Qq%%%%%%%%%%%%%%%
7559F7%%%%%%%%%%%%%%%%Qq%%%%%%%%%%%%%%%%%%%%%%%%%%%%%%%%%%%%%%%%%%%%%%%%%%%%
7542F7%%%%%%%%%Qq%Q%q%%%%%%%%%%%%%%%%%%%%%Qq%%%%%%%%%%%%%%%%Qq%%%%%%Qq%%q%J6
7527G5qQq%%%%%%%%%%%%%%%%%%%%%%%%%%%%%%%%%%%%%%%%%%%%%%%%%%%%%%%%%%%%%%%%%%%
7511F7%%%%%%%%%%%%%%%Qq%%%%%%%%Qq%%%%%%%%%%%%%%%%%%%%%%%%%%%qQ%%%%%%%%%%%%%%
7495F7%qQ%%%%%%%%%%%%%%%%%%%%%%%%%%Qq%%Qq%%%%%%Q%q%%%%%%%%%%%%%%%%%%%%%%%%%%
7479F7%%%%%%%%%%%%%%%%%%%%%%%%%%%%%%%%%qQ%%%%%%%%%%%%%%%%%%%%%%%%%%%%%%%%%%%
7463F7%%%%%%%%%%%%%%%%%%%%%%%%%%%%%%%%%%%%%%%%%%%%%%%%%%%%%%%%%%%%%%%%%%%%%%
7447F7j6QL2k4%Qq%%%%%%%%%%%%%%%%%Q%q%%%%Q%q%%%%%%%%Qq%%%%%%%%%%%%%%%%%%%%%%%
7431F7%%%%%%%%%%%%%%%%%%%%%%%%%%%%%%%%%%%%%%%%%%%%%%%%%%%%%%%%%%%%qQ%%%%%%%%
7415F7%%%%%Qq%%%%%%%%%%%%%qQ%%%%%%%%%%%%%%%%%%%%%%%%%%%%%%%%%%%%%%%%%%%%%%%%
7399F7%%%%%%%%%%%%%%%%%%%%%%%%%%%%%%%%%%%%%%%%%%%%%%%qQq%Q%%%%%%%%%%%%%%qQ%%
7383F7%%%%%%%%qQ%%q%Q%%%%%%%%%%%%%%%%%%%%%%%%%%%%%%%%%%%%%%%%%%%%%%%%%%%%%%%
7367F7%%%%%%%%%%%%%%%%%%%%%%%%%%%%%%%%%%%%%%qQ%%%%%%%%%%%%%%%%%%%%%%%%%%qQ%%
7351F7%qQqQ%%qQ%%%%%%%%%%%%%%%%%%%%q%Q%%%%%qQqQ%%%%%%%%%%%%%%%%%%qQ%%%%%%%%%
7335F7%qQ%%%%%%%%%%%%%%%%%qQ%qQq%%Q%%%%%%qQ%%%%%%%%%%%%%%%%%%%%%q%%Q%%%%%%%%
7319F7%%%%%%%%%%%%%%%%%%%%%%%%%%%%%%%%%%q%Q%%%%%%%%%%%%%%%%%%%%%%%%%%%%%%%%%
7303F7%%%%%%%%%%%%%%%%%%%qQ%%%%%%%%%%%%%%%%%%%%QqqJ6qQq%%q%Q%%%q%QqQqQ%%%qQ%
7287F7%%%%%%%%%%%%%%%%%%qQ%%q%Q%%%%%%%qQ%qQ%qQ%%%%%%%%%%%%%%%q%%Qq%%Q%%%qQ%%
7271F7%%%q%QqQ%qQ%qQqQ%%%%%%%%%%%%%%%%qQ%%%%%%%%%%%%%%qQ%%%%%Qq%%%%%q%Q%%%qQ
7255F7qQqQqQ%qQ%%%%%%%qQ%%%%%%%%%%%%%%%%%%q%Q%%%%%q%%Q%%%%%%%%%%%%%%qQ%qQ%%q
7239E9Q%%%%%%%%%%%%%%%%%%%%%qQ%%%%%%%%%%%%%%%%%%%%qQq%Q%%%%%%%%%%qQq%Q%qQq%%
7223E9Qq%%%%Q%qQ%%%%%%%%%%%%%%%%%%%%%%%%%%%%%%%%%%%%q%Qq%Q%%%%qQ%%%%%%%%%%%q
7207E9Q%%%%q%%Q%%%%%qQ%%%%%%%%%%%%%%%%%%%%%%%%%%qQ%%qQq%%%Q%%%%%%qQqQq%Q%%%%
7191F7%%%%%qQ%%%%%%%%%%%%%%%qQq%%%%Qq%%QqQ%%%%%%%%%%%%%qQ%%%%%%q%QqQ%%%%%%%q
7175E9QqQ%%%%%%%%%%qQ%%%%qQ%%%%%%%%%%%%%%%%%qQ%%%%%%%%%%%%%%%%%%%%%q%%Qq%%%Q
7159F7%%%%%%%qQ%%%%%%qQ%%%%qQ%%qQ%%%%%qQqQq%%Q%q%%Qq%%%Qq%%%%%Qq%%Qq%%Q%%%qQ
7143F7q%%Q%%qQ%%%%%%qQqQ%qQ%%%%qQ%%q%Q%%%qQq%%%%%Qq%%%%%Q%q%%Q%%q%Q%%%%%%%qQ
7127F7%%%%%%%%%%%qQqQ%%%%%%%%%%%%%%%%%%qQq%Q%%qQqQ%%%%%qQq%%Qq%%Q%q%Q%qQ%%%%
7111F7%%%%%%qQq%Q%%%%qQ%%%%%q%Q%qQq%%QqQq%%Q%%%q%Q%%%%%%%%%%qQ%qQ%%%q%%%%%%%
7095E9%QqQqQ%%%%q%%%%%%%%%%%%%%%%Qq%%%%%%%%%%%QqQq%QqQqQ%q%%Qq%%%%%%%%%QqQq%
7079E9QqQqQ%q%Q%%qQq%%Q%qQq%Q%%%%qQ%%%%%%%%%%%%%%%qQq%QqQqQ%%%q%Q%qQ%%%qQq%%
7063E9%%%%%%Qq%%Qq%QqQqQq%J6j6%%%%Qq%Q%%qQ%%qQ%%q%%Q%%%%%q%%%Qq%Q%%%qQ%qQ%qQ
7047F7%%q%%%%%Q%q%%%%%%QqQqQqQq%Q%q%Q%%qQq%%Qq%Q%q%%%Qq%%%%Qq%%Qq%%%%%%%Qq%Q
7031F7q%Qq%Q%%q%%%%Qq%%%%%%%Q%%%%%%qQq%%%%Q%%%q%%%%%%%%%%%%%QqQq%%%%Q%%%%%%%
7015F7%%%%%%%q%Q%q%%%%%%QqQ%%q%Q%q%%%%%%%%%Qq%%Qq%%%%%%%%%%%%%%Qq%Qq%QqQ%%%q
6999E9Qq%%Q%q%%%QqQ%q%%%%%%%%%%%%%%Q%q%%Q%q%%%%%%%%%%%%%QqQq%%%%Qq%%%%%%%Qq%
6983E9Qq%%%%%%%%%%%qQ%QQk4qJ6%QK4m8Qk4M8Q%%k4J6qqqQ%%%qQ%%Qq%%%qQ%Qq%%Q%q%%%
6969E9%%%%%%%%%Q%q%Qq%Qq%Qq%%Q%q%%QqQq%Qq%%%%%%QqQq%%%%%%%Q%%%q%%Qq%%%%%%%%%
6953E9%%%%%%%Qq%%Qq%%%%%%Q%q%%%%%%%%%%%%%%%%%%%QqQq%Q%qQ%q%QqQ%q%QqQq%Qq%Qq%
6937E9%%%%%%%%%%%Q%qQq%%%%%%Qq%%%%%%%%%%QqQqQ%%%q%Qq%Qq%%%%%%%%%%%%%%%Qq%%%Q
6921F7%qQq%%QqQq%%%%%%Qq%%%%%Qq%%%%%%%%%%%%%%%%%Qj6Q%%%%%%%%%%%%%Qq%Qq%%%%%%
6905E9%%%%%%%%%%%%%%%%%%%%%%%%%%%%%%%%%QqQq%%%%%%%%%%%%%%%%%%%%%%%%%%%%%%%%%
6889E9%%Q%q%Qq%%%Qq%%Qq%%%%%%QqQ%%q%%%%%%%%%%%%%%%%%%%%%%%%%%%%%%%%%%%%%QqQq
6873E9Q%q%%%%%%%%%%%%%%%%%%%%%QqQ%q%Q%q%%%%%%%%%%%%Qq%%%%%%%%%Q%qQq%Qq%QqQq%
6857E9%%%%Q%qQ%%qQqQq%%%%Qq%%%%%%%%%%%%%%%%%%%%%%%%%%%%%%%%%%%%%%%%%%%%%%%%%
6841E9%%%%%%%%%%%%QqQq%%%%%%%%%%Qq%%%%%%%%%%%%%%%%%%%%Qj6QQq%Qq%%%QqQq%qJ6qQ
6826F7Qj6qQQj6J6Qq%q%Q%q%%%QqQq%%%%%%%%%%%Q%q%%%%%%%%%%%%%%%%%%%%%%%%%%%%%%%
6810E9%%Qq%%%%%%%%%%%%%%%%%%%%%%%%%%%%%%qQ%%%%%%%%%%%%%%%%%%%%%%%%Qq%%Qq%%%%
6794E9%%Qq%%%%%%%%%%%%Qq%%%%%%%%%%Q%qQ%q%%%%%%%%%%%%%%%%%%%%%%%%%%%%%%%%%%%%
6778E9%%%%%%%%%%%%%%%%%%Qq%%%%%%%%%%%%%%%%%%%%%%%%%%%%%%%%qQ%%q%Q%%%%%%%%%%%
6762E9%%%%%%%%%%%%%%%%%%%qQ%%%%%%%%%%%%%%%%%%%%%%%%%%%%%%%%%%%%%%%%%%%%%%%%%
6746E9%%%%%%%%%q%QqQ%Q%q%%%%%%%qQ%%q%%Q%%%qQ%%%qQQq%%%%%%%%%%%%%%%%%%%%%%%%%
6730E9%qQ%%%%%%%%%%%%%%%%%%%%%%%%%%%%%%%%%%%%%%%%%%%%%%%%%%%%%%%%%%%%%%%%Qq%
6714E9Qq%%%%%%%%%%%%%%%%%%%%%%%qQ%%%%Qq%%%%%%%%%%%%%%%%%%%%%%%%%%%%%%%%%%%%q
6698E1Q%%%%%%%%%%%%%%%%%%%%%%%%%%%%%%%%%%%%%%%%%%%%%%%%%%Q%%q%%Qq%%%%%%%%%%%
6682E9%%%%%%%%%qQ%%%qQ%%%qJ6%j6J6%q%%%%%%QqQq%%%%%%%%%%%%%%%%%%%%%%%%%%%%%%%
6667E9qQqQ%%%%%%%%%%%%%%%%%%%%%%%%%%%%%%%%%%%%%%%%%%%%%%%%%%%%%%%%%%%%%%%%%%
6651E9%%Qq%%%%%%%%%%%%%%%%%%%%%%%%%%%%%%%%%%%%%%%%%%%%%%%%%%%%%%%%%%%%%%%%%%
6635E9%%%%%%%%%%%%%%%%%%%%%%%%%%%qQqQ%%qQ%%%%qQ%qQ%%%qQ%%qQ%%%%%%%%%%%%%%%%%
6619E9%%%%%%%%%%%%%%%%%%%%%%%%%%%%qQqQ%qQ%%%%%%%%%%%%%%%%%%%%%%%%%%%%%%%%%%%
6603E9%%%%%%%%%qQ%%%%%%%%%%%%qQ%%%%%%%%qQ%q%%QqQq%Qq%%QqQ%%%%%qQ%%Qq%%%%%%%%
6587E9%%qQ%qQ%%%%%%%%%%%%%%%%%%%%%%%%%%%%%%%%%%%%%%%%%%%%%%%%%%%%%%%%%%%%%%%
6571E9%%%%%%%%%%qQ%q%Q%%%%%%%%%%%%%%%%%%q%Q%%%%%%%%%%%%%%%%%%%%%%%%%qQ%%%q%%
6555E1%Q%q%Q%%qQqQqQ%%%%%%%q%Q%%%%%%%%%%%%%%%%%%%%%%%%%%%%%%%%%%%%%%%%%%%%%q
6539E1Q%%%%%%%%%%%%%%%%%%%%%%%%%%%qQ%%%%%qQ%%qQq%%Q%qQ%%qQ%%%%%%%%%%%%%%%%%%
6523E9%%%%%%%%%%%%%%%%%%%%%%%%%qQ%%%%%%%%qQ%%%%%%%%%%%%%%%qqJ6%%qK4k4J6qqJ6q
6508E9Qj6%Q%%%%%%%%%%%%qQ%%%qQ%%%q%%%QqQ%qQq%QqQq%Q%%%%%%%%%%%%%%%%%%%%%%%%%
6492E9%%qQ%q%%Q%qQ%%%%%%%%qQqQ%%%%%%%%%%%%%%%%%%%%%%%%%%%%%%%%%%%%%%%%%%%%%%
6476E9%%%%%%%%%%%%%%qQ%%%%%%%%%%qQqQ%%qQ%%qQ%%%%%%q%Q%%q%Q%%%%%%q%%%%%%%%Q%q
6460E1%Q%%%%qQ%%%qQqQ%%%%%%%%%%%%%%%%%%%%%%%%%%qQ%%%%%%%%%%%%%%%%%%%qQ%%%%%%
6444E9qQ%%%%%%%%%q%Qq%Q%qQ%qQ%%%%%%%qQ%%%%%%%qQ%q%%Q%qQq%Q%qQq%Qq%%Q%qQq%Q%%
6428E9%%%%%%%%%%%%%%%%%%%%%%qQqQ%q%%QqQ%qQqQ%%%qQ%%qQ%%%%%%qQqQ%%q%Qq%%Q%%%%
6412E9%%%%%%%%qQq%QqQ%%%%%%qQqQ%q%Q%%qQqQ%qQ%%%%%%%%%%%%qQ%%%%%%%%%%%%%%%%%%
6396E9%%%%%qQq%%%Q%%%%%%qQqQqQqQ%%%%%%%%%%%%%%%%%%q%%QqQq%Q%qQ%%%%%%%%%%%%%%
6380E9%%%%%%%%%%q%%%%%%Qq%%%Qq%%%Q%%q%Qq%Q%%qQ%%%%%%%q%%%%%Q%%%%%%%%qQ%q%Qq%
6364E1%%Q%%%%qQ%%%%%q%%%%%%%%%%Q%%%q%Q%%qJ6j6Q%q%J6j6Q%%qQ%%qQ%%%%%%%%%%%%qQ
6349E9%qQ%%qQ%%%%%%%qQq%%Q%%qQ%q%Q%%qQ%qQq%%%Q%q%%%Q%%qQ%%qQ%%%%%q%Q%qQ%qQ%%
6333E9%%qQ%qQqQqQq%Qq%%Q%%%qQqQ%%%%%q%%%%%Q%%%%qQ%qQ%%%%qQ%%%%%%%%%%%%%%%%%%
6317E9%qQqQ%%%%%%%qQ%%%%%%%%%%%%%%%%%%%%%%%%%%%%%%%%qQ%%qQ%%q%%%%%%%%Q%%%%%q
6301E1Q%qQ%%%%%%%%%%%%Qq%%%%%%qQ%%%%%%%%qQq%%%%%%%%%%%%Qq%Qq%%%%%%%%%%%%%%%%
6285E1%Q%%qQ%q%%Q%%%qQ%%%%%%%%%%%%%q%%%%%%%Q%q%Q%qQq%Qq%Qq%Q%%qQ%q%%%Qq%%%%%
6269E1Q%%%q%%QqQ%%%%qQ%%%%%%%%%%%%%%%%%%q%%QqQ%%%%%%%%%qQ%qQ%qQ%qQ%%%%%%qQ%%
6253E9%%q%%%%%%%%%%Qq%%%%%%Qq%%%%%QqQ%%%%%q%%%%%%%%%Q%qQqQ%q%%%%%Qq%Qq%Qq%Qq
6236E1%%%%%%%%%%Q%qQ%q%Q%qQ%%%%%%qQqQq%%%%%%%%%%%%%%%%%%%Qq%%%Qq%%Q%qQqQqQqQ
6220E9%%%%%%qQqQq%%%%Qq%%%%%%%%%%Qq%%%%%%%%%%%%%%Q%q%Qq%Q%%%qQq%%%Qq%%%%%%Qq
6204E1%%%%Q%%%%%qQ%qQ%%%q%QqQqQq%Qq%%%%%%%%%Q%%qQ%%qQ%%%%%q%%%QqQq%Q%%%%%%%%
6188E9%qQ%q%%Q%q%%%%%QqQ%q%%%%%%%%%%%%%%%%Qq%%QqQq%%Q%%q%%%%%%%%%%%%Qq%%%%Qq
6172E1%%%%%%%%Qq%%%%%%%%%%%%%%%%%%%%%%%%%%%%%%%%%%%Qq%%%%%%%%%%%%Q%%q%%Qq%%%
6156E1%Qq%%%%%%%%%%%%%%%%%%Qq%%Q%q%Q%%qQ%%qQ%q%%Q%q%Q%%%q%%QqQq%%%%Q%%%qQq%Q
6140E9q%%%%%%Qq%%%%Q%%qQ%%%q%%Qq%Q%q%%%Q%%%qQ%%%qQqQ%q%%%%%%%Q%q%%%%%%%%Q%%q
6124E1%%%%%%Qj6J6%%%%q%%%%%Qq%%%%%%%%%%QqQ%q%%%%%%%%Q%q%%Q%%%qQq%%%Qq%Q%q%Qq
6109E1%%%%Qq%%%%%Q%%%qQq%%%%%%%%%%%%Qq%%Qq%%%%%Q%qQq%%%%%%Qq%%Q%qQ%q%%%%%%%Q
6093E9q%%Q%q%QqQq%%Qq%%%%%%%%%%%Qq%Qq%%%%%%Qq%%%%%%%%%%%%%%%%%%%%%%%%%%Q%%%%
6077E9%%%%q%%%Q%q%%Qq%Q%%q%%%%%%%%%%Q%q%QqQqQ%qQq%QqQq%%%%%%%%%%%%Qq%%%%%%%%
6061E1%%%%%%%%%%Qq%%%%%%%%%%%%%%%%%%%QqQq%%Qq%%Q%%%%qQqQ%q%%%%%%%%%%%%%%%%%%
6045E1%Q%qQqQq%%%%%J6j6%QqK4j6j6Q%QqQ%%%q%Qq%%Qq%%%%%%%%%%%%%%%%%%%%%%%%%%%%
6030E1%%%%%Qq%%%%%%%%%%%%%%%%%%%%%%%%%%Qq%QqQ%qQq%%%%%%%%%%%%%%%%%%%%%%%%%%Q
6014E9q%%%%%%%%Q%qQ%qQq%QqQqQqQq%%%%%%%%%%QqQq%%%qQ%%%%Q%q%%%%%%QqQq%Qq%%%%%
5998E1%%%%%%%%%%%%%%%%%%Qq%%%%%%%%%%%%%%%%%%%%%%%%%%%%%%%%%Q%q%%%%%%%%Qq%QqQ
5982E9q%%Q%qQq%%%%%%%%%%%%%%%%%%%%Qq%QqQ%j6Q%qQ%%%%%%%%%%%%%%%%%%%%%%%%%%%%%
5966E1%%%%%%%%%%%%%%%%Qq%%%%%%%%%%%%%%%%%%%%%%%%%%%%%%%%%%%%%%%%%Qq%%%%%%%%%
5950E1%%%%%%%%%%%%%%%%%%%%%%%%%%%%%%%%%%%%%%Qq%%%%%%%%%%%%%%Q%q%Q%q%%%%%QqQq
5934E1%%%%%Qq%%%%%%%%%%%%%%%%%%%%%%%%QqQqQq%%%%%%%%%Qq%%%%%%%%%%%%%%%%Qq%%%%
5918E1%Qq%%%%%%%%%%%%%%%%%%%%%%%%%%%%%%%%%%%%%%%%%%%%%%%%%%%%%%%%%%%%Qq%%%%%
5902E1%%%%Qq%%%%%%%%%%%%%%%%%%%%%%%%%%%%%%%Qq%%%Qq%%%Qq%%%%%%%qQ%q%Q%qJ6Qq%%
5886E9qqQqJ6q%Qq%%%%%%%%%Qq%%%%%%%%%%%%%%%%%%%%%%%%%%%%%%%%%%%%%%%Qq%%%%%%%%
5870E1%%%%%%%%%%%%%%%%%%%%Qq%Qq%%%%%%%%%%%%%%%%%%Qq%Qq%%%%%%Qq%%%%%%%%%%%%%%
5854E1%%q%Q%qQ%%%%%%%%%%%%%%%%%%%%%%%%%%%%%%%%%%%%%%%%%%%%%%%%%%%%%%%%%%%%Qq
5838E1%Qq%%%%%%%%%%%%%%%%%%%%%%%%%%%%%%%%%%%%%%%%%Qq%%%%%%%%%%%%%%%%%%%%%%%%
5822E1%%%%%%%%%%%%%qQ%%%%%%%%%%%%%%%%%%%%%%%%%%%%%%%%%%%%%%%%%%%%%%%%%%%%%qQ
5806E1%qQ%QqqQ%%%%%%%%%%%%%%%%%%%%%%%%%Qq%%qQ%%%%%%%%%%%%%%%%%Qq%%%%%%%%%%%%
5790E1%%%%%%%%%%%%%%%%%%%%%%%%%Qq%Qq%%%%%%%%%%%%%%%%%%%%%%%%%%%%%Qq%%%%%%%%%
5774E1%%%%%%%%%%%%%%%Qq%%%%%%qQ%%%%%%%%%%%%%%%%%%%%%%%%%%%%%%%Qq%%%%%%%%%%%%
5758E1%%%%%%%%%%%%%%%%%%%%%%%%%%%%%%%%%%%%%%%%%%%%%qQ%qQ%%%%%%%%%%%%%%%%%%%%
5742E1%q%%J6j6J6j6%QQk4QQ%qQ%%qQ%%%%%%Qq%%%%%%%%%%%%%%%%%%%%%%%%%%%%%%%%%%%%
5727E1%%%%%%%%%%%%%%%%%%%%%%%%%%%%%%%%%%%%%%%%%%%%%%%%%%%%%%%%%%%%%%%%%%%%%%
5711E1%%%%%%qQ%%%%%%%%%%%%%%%%%%%%%%%%%%%%Qq%%%%%%%%%%%%%%%%%%%%%%%%qQ%%qQ%%
5695E1%%%%%%%%%%%%%%%%%%%%%%%%%qQ%qQ%qQ%%%%%%%%%%%%%%%%%%%%%%%%%%Qq%%%%%%%%%
5679E1%%%%%%%%%%%%%%%%%%%%%%%%%%%%%%%%%%%%%%%%%%%%%%%%%%%%%%%%%%%%%%%%%%%%%%
5663E1%%%%%%%%%%%%qQ%%%%%%%%%%%%%%%%qQ%qQ%%%%%%%Qq%qQ%%%%qQ%%%%%%%Qq%%%%%%%%
5647E1%%%%%%%%q%Q%%%%%%%%%%%%%%%%%%%%%%%%%%%%%%%%%%%%%%%%%qQ%%%%%%%%%%%%%%%%
5631E1QqqJ6q%%%%%%%%%%%%%%%%%%%%%%%%%%%%%qQ%%%%q%Q%%%%qQ%qQ%%%%%%%%%%%%%%%%q
5615D3QqQ%%%%%%%%%%%%%%%%%%%%%%qQ%%%%%qQ%%%%%%%%%%%%%%%%%%%%%%%%%%%%Qq%%%%%%
5599E1%%%%%%%%%%%%%%%%%%%%%%%%%%%%%%%%%qQ%%%%%%%%%%%%%%%%%%%%%%%%%%%%%%%%%%%
5583E1%%%%%%%%%%%%%%%%%%%%%%%%%%%%%%%%%%%%%%%%%q%%Qq%QQj6QqQQq%%%%%%%%%%qQ%%
5567E1%%%%%%%%%%%%Qq%%%%%%%%%%%%%%%%%%%%%%%%%%%%%%%%%qQ%%%%%%%%%%%qQ%%%%%%%%
5551E1%%%%%%%%%%%%%%%%%%%%%%%%%%%%%%%%%%%%%%%%%%q%Q%%%%%q%%QqQ%qQqQ%%%%q%QqQ
5535E1qQ%qQ%%%%%%%%%%%%%%%%%%%%%%%%%%%%%%%%%%%%%%%%%%%%qQ%q%Q%%%%%%%%%%%%%%%
5519E1%%%%%%%%%%%%%%%%%%%%%%%qQ%%%%%%%%%%%%%%%%%%%%%%%%%%q%Q%qQq%Q%%%%%%%%qQ
5503E1%%%qQ%qQ%%%%%%%%%%qQ%%%%%%%%%%%%%%%%%%%%%%%%qQ%%%%%%%%%%%%%%%%%%%qQ%%%
5487E1%%%%%%%%%%%%%%%qQ%%qQ%%%%%%%%%%%%%%%%%%%%%%%%qQ%%%%%%%%%%%%%%%%%%%%qQ%
5471E1%%%%%%%%%%%%%%%%%%%%%%q%Q%%%%%%%%%%%%%%%%%%%%%%%%%%%%%%%%%%%qQ%%%%%%qQ
5455E1qQq%QqJ6j6%Q%%%qQ%%%%%%%%qQ%%%%%%%%%%%qQ%qQ%%%%%%q%Qq%Q%%%%%%qQ%qQ%%%q
5440D3QqQ%%%%%%%%%%%%qQ%%%%%qQ%%%%%%%%qQ%%%%%%%%%%%%%%%%%qQqQ%%qQ%%%qQ%q%Q%q
5424D3Q%qQ%%%qQ%%%%%%%%q%%Q%%qQ%%qQ%QqqQ%%%%%%%qQ%%q%%Q%%%%qQ%%%%%%%%%%%%q%%
5408D3%%QqQq%Q%%%%%%%%%%%%%qQ%%%%%%%%%%%%%%%%%%%%%%%%%%%%%%%%%%%%%%%%%%%%%%q
5392D3%Q%%%%%%%%%Qq%q%Q%%%%%%%%%%%%%%%Q%q%%%%%%%qQ%%%%%%%%%%%%%%%%q%Q%%%q%%Q
5376E1q%Q%q%%%%%%Qq%Q%%%qQ%%%%%%%%%%%%%%%%%%%qQ%%%%%%%%%%%%%%%%%%%%%%qQ%%%qQ
5360E1%%%%%%%%%%qQ%%%%%%%%%q%Q%%qQ%%%%%%%%%%%%%%%%%%%%%%%%%%%%qQ%%%%%qQ%%%%%
5344E1%%%%%q%Q%%%qQ%%qQ%%qQ%%%%Qj6qJ6%%qQq%Qq%QqQqQq%%%%Q%%%%%%%%%%%q%QqQq%Q
5328E1%%%%%%%%%q%%%QqQqQqQq%%%QqQ%qQ%%q%%%%%%%%%%%QqQ%q%%Q%%%%%q%%%Qq%%%Qq%Q
5312E1q%Q%%%%%%%%%%qQ%%qQ%%qQ%%q%%QqQ%%%%q%%%Qq%%%%Qq%qJ6%%%qQq%Q%%%%%%%%%%q
5296D3%%Q%q%Q%qQ%%%q%%%Q%q%%%Q%%%%%%%%%%%%%%%%%%q%Q%q%Q%%qQ%%%qQ%%q%%Q%%%%%%
5280E1%%%qQ%%%qQqQqQ%qQ%q%%Q%%%q%Q%%%q%%Q%%%%qJ6j6%Q%%%qQ%%%%q%Q%q%Q%q%QqQ%%
5265E1qQ%q%%%%%%Qq%QqQ%%qQq%%%%%%%Q%%qQ%%q%Q%%%%%%%%%%%%%%%%%qQ%%%%%%%qQ%%%%
5249E1%q%Q%%%%%%%qQ%qQ%%%%qQ%%qQ%q%%%Q%q%%Qq%Q%%q%QqQ%%%%qQ%qQ%%%%%%%%q%Q%q%
5233D3%%%%%%%%%%QqQq%Q%%%%%%%%qQ%%%q%Q%%%%%%%qQ%%%%%%%%%%q%Q%%q%Q%%qQ%q%Q%%q
5217D3%Q%%%qQ%qQ%%%%%%%%%%qQ%%qQ%qQq%%%Qq%%Q%%%%%%qQ%%qQ%qQ%qQq%%%%Q%%%%%%%%
5201E1%%%%qQqQq%%%Q%%%%%%%%%%%qQ%q%%%%%%%%%%%%Qq%%%Qq%%%QqQq%%%%%%%%%%%%%%%Q
5185E1qQqQ%%q%%Q%qQ%qQ%%%%%%%%%%%%%%q%Qq%QqQ%%%qQ%qQq%Q%qQ%%qQ%%%%%%%%q%%%Qq
5169D3%%QqQ%qQq%%%%Qq%%%%Q%%%qQ%qQ%qQ%%%%q%Q%%%%q%%Q%%qQ%%%%%%%q%%%Q%%%%%qQ%
5153E1%%%%qQ%%%q%Q%q%Qq%Qq%Q%qQqQqQ%%%%%%%%%qQq%%QqQ%%%%%qQq%%Q%%q%Qq%%%%%%Q
5136E1qQ%q%%%%%QqQqQqQqQ%q%%%%QqQ%q%%QqQ%%%%%%%qQ%%q%%%Q%%%%%%%qQq%%%Qq%%%%Q
5120E1%qQqQ%%%%qQ%%%%%%%%%qQq%QqQq%%%Q%qQ%%qQqQqQ%q%Q%%q%%Qq%Q%%%%%qQ%%%%Qq%
5104E1%%Q%j6J6Q%j6qQQj6J6j6%%%%%Qq%%Qq%Q%qQ%%%%qQ%%q%Q%q%Qq%Qq%QqQ%q%%%%%%%Q
5090E1q%%%Q%q%%%%%%%%%%%%%%%%%QqQ%%%%%%%%%qQ%%qQqQq%Q%qQqQ%q%%QqQ%%%qQq%Q%%%
5074E1q%Q%q%%Qq%%%%%%Q%%%qQ%%qQ%qQqQqQ%%qQqQqQ%%%%%%%q%Q%qQ%%%%qQ%qQqQq%%Q%%
5058E1%%%%%%%%%%%%qQ%q%%Qq%Qq%%%Qq%Qq%%%%%%%%Q%%%%%%%qQ%%%%%%%%qQ%%%%%qQ%%%%
5042E1%%q%%%Q%qQq%%%%QqQ%%%qQ%qQ%%%%%%%%%%%%%%%qQq%Qq%%%%%%%%%%%%%%%%%%%%%%%
5026D3%%%%%%%%%%%%QqQ%%q%%Qq%%%%%%%%%Qq%%%%%%%Qq%Qq%Q%qQqQ%%%%%qQq%%%%%%%%%%
5010D3%%%%%Qq%%%%Q%%qQq%%Qq%%%%Qq%%%%%%%%%%%Qq%%Q%q%%%%%Q%q%QqQqQqQ%%%qQ%%qQ
4994E1%qQ%%%qQ%%%%%%%%%%q%Qq%Q%%q%QqQ%%qQj6QQ%%q%%%%%Qq%Q%%q%%%Qq%%QqQqQ%%qQ
4978E1%%%qQqQ%qQ%qQqQqQqQ%%qQq%%%%%Qq%%%%%%%Qq%%%%QqQqQqQqQqQ%qQ%%q%%%%Qq%%%
4962D3%%%%%%%%%%%%QqQ%q%QqQqQ%q%%Qq%%%Q%%q%%%%Q%j6%J6%j6K4l2J6l2J6%J6%%L2m0J6
4948E1qj6L2qq%qJ6%q%qQQj6Q%%%%%QqQqQq%%%%%%%%%%%%%Qq%Q%%%%q%Q%%%qQ%%qQ%%%%%q
4933D3%%Qq%Q%q%%Q%%%%q%%%%%%%%%%%%%%%%%%%Q%%%%q%Q%%qQq%%%QqQqQq%Q%q%Qq%%%%%%
4917D3%%Qq%Qq%%%QqQ%q%%Q%qQ%%q%%%%%Q%q%QqQq%%Qq%Q%q%%%Qq%%%%%Q%%q%Q%%q%%%%%%
4901D3%Qq%%%%%%%%%Qq%%%%%%%%%%%%%%%%%%%%%%%%%%%%%Qq%%%Q%q%%%%%%%%Qq%%%%%%%Q%
4885E1q%%%%%%Q%q%%%%%%%%%%%%%%%%%%%%%QqQ%%q%%Qq%%%Q%%qQq%%%%%%%%%%%%%%%%%%qJ6
4869E1%j6J6Qq%qQqQq%%%Q%qQ%%%%%%%q%QqQ%%qQqQq%%%%%%Q%qQqQ%%%%%%%qQq%%%%%%%Q%
4854E1q%%%%%%%%%%%%%%%%Qq%%%%%%%%%%%%%%%%%%%%%%%%%%%%%%%%%%%%Qq%%%%%%%%%%%%%
4838D3Qq%%Q%q%QqQq%QqQ%%q%Q%qQ%%qQq%%%%%%%%%%%%Qq%%QqQqQ%%qQqQ%%%%qQqQq%%%%%
4822D3%%%%%%%QqQ%%%q%%Qq%%%%%%%Q%%q%%%%Q%%q%%%%QqQq%Qq%%%%Qq%%%%%%%%%%%%%Q%q
4806D3%Qq%%Qq%Qq%Qj6QQq%%%%Qq%%%%%%%%%%%%%%Qq%%%%QqQq%%Qq%%Qq%%%%%Q%%%%q%Qq%
4790D3%%Q%q%%Qq%Q%%qQq%%%%%Qq%%%%%%%%%%%%%%%%%%%%%%%Qq%Q%qQ%qQqQ%qQq%%%%%%%%
4774D3%QqQq%%Qq%%%%%%%%%%%%%%%%%%%Qq%%Qq%Q%qQ%%%q%Qq%%%%Q%%qQqQ%%%%%%qQ%q%%%
4758D3Qq%%%%%Qq%%%Qq%Q%qQqQqqQ%%Q%%%qQ%%%%%%%%qQ%%q%%%%%Q%%qQ%%qQ%%%qQ%q%QqQ
4742E1q%%%%%%%%%%%%%%%%%%%%%%%%%%%%%%%%%%%%%%%%%%%%%%%%%%%%%%%%%%%Q%qQqQ%%q%
4726D3%%%%%%%%%%%%%%%Qq%Qq%%%Qq%%%%%%%%%%%%QqQq%%QqQq%Q%%q%%%%%%%%%%%%%%%%%%
4710D3Q%%qQ%q%Qq%%%%%%%%%%%%%%%%%%%Qq%%%%%%%Qq%%%%%%%%%%%%Qq%%%%%%%%%%%%%%%%
4694D3%%%%Qq%%%%%Qq%%%%%%%%%%%%%%%%%%Q%%q%%%%%%%%%%%%%%%%%%%%%QqQq%%%%Qq%%%%
4678D3%%%%%%%%%%%%%%%%%%%%%Qq%%%%%%%%Q%q%Q%qQ%q%Q%qQq%%%%Qq%Qq%%%%%%%%Qq%%%%
4662D3%%%%%%%%%%%%%%%%%%%%%Qj6Q%%%%%%%%%%%%%%%%%%%%%%%%%%%%%%%%%%%%%%%%%Qq%%
4646D3%%%%%%%%%%%%%%%%%%%Qq%%%%%%%%%%%%Qq%%%%%%%%%%%QqQq%qQ%%%%Qq%%%%%%%%%%%
4630D3%%%%%%%%%%%%%%%qQ%%%Qq%%%%%%%%%%%%%%%%%%%%%%%%%%%%%%%QqQ%q%%%%%%%%%%%%
4614D3%%%%%%%%%Qq%%%%Qq%%%%%%%%%%%%%%%%%%%%%%%%QqQq%%%%%%%%%%%%%Q%q%%Qq%QqQq
4598D3%qQQq%%%%%%%%%%%%%%%%%%%%%%%%%%Qq%Qq%%%%%%%%%%%%%%%%%%Qq%%%%%%%Qq%%%%%
4582D3%%%%%%%%%%%%%%%%%%%%%%%%%%%%%%%%%%%%%%%%%QqQq%%%%%%%%%%%%Qq%qQ%%%%%%%%
4566D3%%%%%%%%%%%%%%%%%%%%%%%%%%%%%%%%%%%%%%%%%%%Qq%%%%%%%%%%%%%%%%%%%%%%%%%
4550D3%%%%%%%%%%Q%%q%%%%%%%%%%%%%%%%%%%%%%%Q%%qQ%q%%Qq%%%%%%%%%%%%%%%%Qq%%%%
4534D3%%%%%%%%%%Q%q%%%%%%%%%%%%%%%%%%%%%%%%%%%Qq%%%%%%%%%%%%%%%%%%%%Qq%%%%%%
4518D3%%QqQq%Qq%%Q%%%%%%qQ%%qQq%Qq%%Q%%q%%Q%q%Qq%%%%%%%%%%Qq%%%%%%Q%q%%%%%%%
4502D3%%%%%%%%%%%%%%%%%%%%%%%%%%%%%%%%%%%%%%%%%%%%%%%%%%%%%%%%%%%%%%Qq%%%%%%
4486D3Qq%%%%%QqQq%%Qq%Q%%qQ%%qQqQq%%%%%%%%%%%%%%%%%%%%%%%%%%%%%%%%%%%%%%%%%%
4470D3%%%%%%%Qq%QqQ%%qQq%%%%%%%%%%QqQq%%%%%%%%%%%%%%Q%q%%qQ%%%%%%%%%%%%%%%%%
4454D3%%Qq%%Q%q%%%%%%%%%Qq%%%Q%%j6Q%j6K4Qj6qK4j6%%%%%%%%%%%Qq%%%%%%%%%%%%%%%
4439D3%%%%%%%%%%%%%%%%%%%%%%%%%%%%%%%%%%%%%%%%%%%%%Q%q%%%%%%%%%%%%%%%%%%%%%%
4423D3%%%%%%%Qq%Q%q%Qq%%%%%%%%%%%%%Qq%%%%%Qq%%%%%%%%%%%%%%%%%%%%%%%%%%%%%%%%
4407D3%%%%qQ%%%%%%Q%%qQ%qQqQq%%%%%%%%Qq%%%%%%%%%%%%%%%%%%%%%%%%%%%%%%%%%%%%%
4391D3%%%%%%%%%%%%%%%%%%%%%%%%%%%%%%%%%%%%%%%%%%%%%%%%%%%%%%%%%%%%%%%%%%%%%%
4375D3%%%%%%%%%%%%%%%%%%qQ%%%%%%%%%%%%%%%%%%%%%%%%%%Qj6J6%qqQ%%%%%%%QqQq%%%%
4359D3%%%%%%%%%%%%%%%%%%%%%%%%%%%%%%%%%%%%%%%%%%%%%%Qq%%%%%%%%%%%%%%%%%%%%%%
4343D3%%%%%%%Qq%%%%%%%%%%%%%%%%%%%%%%%%%%%%Qq%%Q%qQq%%Qq%%%%%%%%%%%%%%%%%%%%
4327D3%%%%%%%%%%%%%%%%%%%%%%%%%%%%%%%%%%%%%%%%%%%%%%%%%%%%%%%%%%%%%%%%%%QqQq
4311D3%%%%%%%%%%%%%%%%%%%%%%%%%%%%%%%%%%%%%%%%%%%Qq%%%%Qq%%%%%%%%%%Qq%%%%%%%
4295D3%%Qq%%%%%%%%%%%%%%%%%%%%%%%%%%%%%%%%%%%%%%%%%%%%%%%%QqQqq%QqQ%%%%%%%%Q
4279E1q%%%%%%%%%%%%%%%%%%%%%%%%%%%%%%%%%%%%%%%%%%%%%%%%%%%%%%%%%%%%%%%%%%%%%
4263D3%%%%%%%%%%%%%%Qq%%%%%%%%%%%%qQ%%%%%%%%Qq%%%%%%%%%%%%%%%%%%qQ%qQ%%%qQqQ
4247D3qQ%QqQj6%Q%%%%%%%%%%%%%%%%%%%%%%%%%%%%%%%%%%%%%%%%%%%%%%%%%%%%%%%%%%%%
4231D3%%%%Qq%%%%%%%%%%%%%%%%%%%%%%%Q%%q%%%%Qq%%Qq%QqQq%%%%%%%%%%%%Qq%%%%%%Qq
4215D3%%%%%%%%%%%%%%%%%%%%%%%%%%%%%%%%%%%%%%%%%%%%%%%Qq%%%%%%%%%%%%%%%%%%%%%
4199D3%%%%%%%%%%%%%%%%%%%%%%%%%%%%%%%%%%%%%%%%%%Qq%QqQqQqQ%q%%%%%%%%%%%%%%%%
4183D3%%%%%%%%%%%%%%%%%%%%%%%%%%%%%%%%%%%%%%%%%%%%Qq%Qq%%%%%%%%%%%%%%Qq%%qQ%
4167D3%%%%Qq%j6K4k4K4q%%%qQ%%q%QqQ%%%%%%%Qq%%%%%%%%%%%%%%%qQ%qQ%%%%%%%%%%%%%
4152D3%%%%%%%%%%%%%%%%%%%%%%%%%%%%%%%%%%%%%%%%%%%%%%%%%%%%%%qQ%%%%%%%%%%%%qQ
4136D3%%%qQ%%%%%%%%%%%qQ%%%%%%%%%%qJ6q%q%QQqQq%%%%%%%%%%%Qq%%%%%%%%%%%%%%%%%
4120D3%%%%%%%%%%%%%%%%%%%%%%%%%%%%%%%%%%%%%%%%%%%%%%%%%%%%%%%%%%%%%%%%%qQqQ%
4104D3%%%%%%%qQ%%%%%qQ%%%%%%%%%%%%%%%%%%%%%%%%q%Q%%%%%%%%%%%%%%%%%%%%%%%%%%%
4088D3%%%%%%%%%%%%%%%%%%%%%%%%%%%%%%%%%%%%%%%%%%%%%%%%%%%%%%%%%%%%%%%%%%%%%%
4072D3%%%%%%%%%%%%%%%%%%%%%%%%%%%%%%%%%%%%%%%%%%%%%%%%%%Qq%%%%%%%%%%%%%%%%%%
4056D3%%%%%%%%%%%%%%%%%%%%%%%%%%%%%%%%%%Qq%%%%%%%%%%%%%%%%%%%%%%%%%%%%%%%%%%
4040D3%%%%%%%%%%%%%%%%%%%%%%%%%%%%%%%%%%%%%%%%%%%%%%%%%%%%%%%%%%%qQqQ%%%%%%%
4024D3%%%%%%%%%%%%%%%%%%%%%%%%%%%%%%%%%qQ%qQ%%%%%%%qQ%%Qqq%%K4l2QJ6q%%Q%q%%%
4009D3%%%%%%%%%%%%%%%%%%%%%%%qQ%%%%%%%qQ%%%%%%%%%%%%%%%%%%%%%%%%%%%%%%%%%%qQ
3993D3%%%%%%%%%%%%qQ%%%qQ%qQ%%%%%%%%%%%%%%%%%%%%%%%%%qQ%%%%%%%%Qq%%%%Qq%%%%%
3977D3%%%%%%%%%%%%%%%%%%%%%Qq%%%%%%%%%%%%%%%%%%%%%%%%%%%%%%%%%%%%%%%%%%%%%%%
3961D3%Qq%%%Qq%%%%%%%%%%%%qQ%q%Q%%%%%qQ%qQ%%%%%%%%%%%%%%qQ%%%%%%%%%%%%%%%%%%
3945D3%%%%%%%%%%%%%%%%%%%%%%%%%%%%%%%%%%%%%%%%%%%%%qQ%%%%%%%%%%%%%qQ%%%qQq%Q
3929D3%%%%%%%%%%%%%%%%%%%%%%Qq%%%%%%%%%%%%%%%%%%%%%%%%%%%%%%%%%%%%%%%%%%%%%%
3913D3%%%%%%%%%%%%%%%%%%%%%%%%%%%%%%%%%%%%%%%%%%%%%%%%%%%%%qQ%%%%%%%qQ%%%%%%
3897D3%%%%%%%%%%%%%%%%%%%%%%%%%%%%%%%%%%%%%%%%%%%%%%%%%%%%%%%%%%%%%%%%%%%%%%
3881D3%%%Qq%%%%%%%%%%%%%%%%qQ%%%%%%%%%%%%%%%%%%qQ%qQqQq%Q%%%%%%%%%%%%%QqQj6Q
3865D3J6k4K4k4J6j6%%%Q%q%QqQ%%%qQ%%%%%%%%%%%%%%%%%%%%%%Qq%%%%%%%%%%%%%%%%%%%
3850D3%%%%%%%%%%%%%%%%%%%%%qQ%%%%%%%%%%%%%%%%%%%%%%%%%%%%%%%%%%%%%qQQj6Q%%%%
3834D3%%%%%%%%%%%%%%%%%%%%%%%%%%%%%%%%%%%%%%qQq%Q%%%%%%%%%%%qQqQ%%%%%%%%%%%%
3818D3qQ%%%%%%%%%%%%%%%%%%%qQ%%%%%%%%%%%%%%%%%%%%%%%%%%%%%Qq%Q%q%%%%%%%%%%%%
3802D3%%%%%%%%%%%%%%%%%%%%%%%%%%%%%%%%%%%%%%%%%%%%%%%%%%%%%%%%%%%%%%%%%%%%%%
3786D3%%%%%%%%%%%qQ%%%%%%%%%%%%%%%%%%QqqQ%%%%qJ6j6QqQ%%%%%%%%%%%%%%%%%%%%Qq%
3771D3%%%%%%%%%%%%%%%%%%%%%%%%%%%%%%%%%%%%%%%qQ%%%%%%%%%%q%Q%%%%%%%%%%%%%qQ%
3755D3%qQ%%%%%%%%%%%%%%%%%%%%%%%%%%qQQq%%%%%%%%%%%%%%%%%%%%%%%%%%%%%%%%%%%%%
3739D3%%%%%%%%%%%%%%%%%%%%%%%%%%%%qQ%%%%%qQq%Qq%%Qq%Q%%qQ%%%%%%%%%%%%%%%%%%%
3723D3%%%%%%%%%%%%%%%%%qQqQ%%%%%%%%%%%%%%%qQ%q%%Q%%%%qQ%%%%%%%%qQ%%%%%%qQ%%%
3707D3%%%%%%%%%%qQ%%%%%%%%%%%%qQ%q%Q%%%%%%%Qj6QqJ6k4K4j6%%QqQqQ%%qQ%%%%%%%%%
3692D3%qQ%%q%Qq%%%QqQ%qQ%%%%%%%%%%%%%%%%%%%%%%%%%%%%%%%%%qQ%qQ%qQ%%qQ%%%%%%%
3676D3%%%%%%%%%%%%%%%%%%%%%%%%qQ%%%%%%%%%%%%%%%%%%%%%%%%%%%%%%%%%%%%%%%qQqQ%
3660D3%%qQqQ%%%%%%%%%%qQ%%%%%%%%%%%%%%%%%%%%%%%%%%%%%%%%%%%%%%%%%%%%%%%%%%%%
3644D3%%%%%%%%%%%%%%%%%%%%%%qQ%%qQ%qQ%%%%%%%%%%q%Q%qQqQqQqQ%%QqqQ%qQ%%%%qQ%%
3628D3%%%%%%%%%%qQ%%%%%%qQ%%%%%%%%%%%%%%%%%%%%%%%%%%%%qQ%%%%%%%%qQ%%%%%%%%%%
3612D3%%%%%%%q%Q%%%%%%%%q%Q%%qQqQ%%%%%%%%%%%%%%%%%%%%qQ%%%%%%%%%%%qQ%%%%%%%%
3596D3%%%%%%%%%%%%%%%%%%%%%%%%%%%%%%%%%%%%%qQ%%%qQ%%qQ%%%%%%%%%%%%%%%%%q%QqQ
3580D3%%%qQqQ%%%%%%%%%%q%%%QqQqQq%%%Q%q%%%QqQ%%q%Q%%q%Q%%%qQ%q%%Q%%%%%%%%%%%
3564D3%%%%%%%%%%%%%%%%%%%%%qQqQ%%%qQ%%%%%%%%%%%%%%%qQq%Q%%%%%%%%%qQ%%%%%%%%%
3548D3%%%%%%q%QqQ%%%%%qQqQqQqQ%%qQ%%%%%%%%%%%%%%%%%%%%%%%%%%%%%%%%%%%%%%%%%%
3532D3%%%%%%%%%%%%%%%%%%%%%%%%%%%%%%%%%%%%%%%%%%%%%%Qq%%%%%%%%%%%%%%%%%%%%%%
3516D3%%qQ%%%qQ%%%qQ%%%%%%%%%%%%Qq%%%%%qQ%%%%%%%%%%%%%q%%%Q%%%%qQ%%%%%%%%%%%
3500D3%%%%q%Q%%%%%%%%%%%%%%%%%%%%%%%%%%%%%%%%%%%%%%%%q%Q%qQ%%%%%%%%%%%%%%q%Q
3484D3q%QqQ%%%%%%%%%%%%%%%%qQq%Q%%%%%%%%%%%%%%%%%qQ%%qQ%%%%%%%%%%%%%%%%%%%%%
3467D3%qQ%%qQ%%%%%%%%qQ%%Q%q%%%J6j6%%%%%%%%%qQ%%qQ%%%%q%%%Q%qQq%Q%%%%%%%%%%%
3452D3qQ%%%%%%%%%%%%qQ%%q%Qq%Q%%%%%%qQ%%%%%%%%%%%%%%qQ%%%%%%%%%%%%%%%%%%%%qQ
3436D3%%%%%%%%%qQ%%qQ%q%%%Q%q%%Q%qQ%%%%%%%%%%%%%%%%%%%%%%%%%%%%%%%%%%%%%%%%%
3420D3%%%%%%%%%%%%%%%%%%%%qQ%%%%%%%%%%%%%%%%%%%%%%%%%%%%%%%%%%%%%%%%%%%%%%%%
3404D3%%%%%qQ%%%%%%qQ%%qQqQqQq%%Q%qQ%%qQ%QqqQ%qQ%%%%%%qQqQ%%%%%%%%%%%%%q%Q%%
3388D3%%qQ%%%qQ%%%%%%%%%%%%%%%%%%%%%%%%%%%qQ%%%%%%%%%%qQ%%%qQ%%%%%%%%%%%%%%%
3372D3%%q%Q%q%Q%%%%%%q%Q%%qQqQ%%q%Q%q%Q%q%Q%%%%%%%%%%%%%%%%%%%%%%%%%%%qQ%%qQ
3356D3%qQ%%%%%q%Q%%%%%%qQ%%%%%%%%%%%%%%%%%qQ%qQq%Qq%Q%%%%%qQ%%%%%%%%%%qQ%%qQ
3340D3qQ%%%qQ%q%Q%%%%%%q%Q%%%%%q%Q%%%%%%qQ%%%%q%%Q%%%%%qQ%%%%%%%%%%%%%%%%%%%
3324D3%%%%%%%%%%%%%%%%%%%%qQ%%%%%%%%%%%%%qQ%%q%Q%%%%%q%Q%%%%%%%%%%%qQQ%q%%qJ6
3308E1qqQ%%%%%%%%%%%qQ%%qQqQ%%%%%%%%%%%%%%%%%qQ%%%%%%%%%%%%%%%qQ%%%%%%%%%%%%
3292D3%%%%%%qQ%%qQ%%%%%%%%%%%%%qQ%%%qQ%%qQqQqQqQ%%qQ%%%%q%QqQ%%%%%%%%%%%%%%%
3276D3%%%%%%%%%%%%%%%%%%%q%Q%%%%%%%%%%%%%%%%%%%%%qQq%%Qq%Q%%%qQ%%%%%%%%%%%%%
3260D3%%%qQqQ%%%%%%%%%%%%%%%%%%%%%q%%QqQ%%q%Q%q%%%QqQq%Q%%qQ%qQqQ%%%%qQ%%%%%
3244D3%qQq%%%%%%%%%%%%%%%%Qq%QqQ%%%qQ%%%%%q%Q%%%qQ%%q%%%%%QqQ%q%%%Q%Qj6j6K4Q
3228E1Qm0J6QQqqQq%%%Qq%Q%q%%Q%%%%qQ%%%qQqQ%qQqQ%qQ%%%%%%%%%qQ%%%%%%%%%%%%%%%
3213D3%%%%qQ%%%%%q%Q%%qQ%%%%%%%%%qQ%%%%%q%Q%%%%%%%%qQ%%%%qQ%%%q%Qq%QqQqQq%%Q
3197D3qQ%%%%%%%%%%%%qQqQq%Q%qQ%%%%%qQ%%%%%%%%qQqQq%%%QqQ%q%%%Q%%%%%%%%%%%%qQ
3181D3%%%qQ%%%%%%%%%qQ%%%qQ%%%%%%%%%%%%%%qQ%%%%%%qQ%%%qQ%%%%%%qQ%%%%qQqQ%%%%
3165D3%%%%%%%%qQqQ%Qj6Q%%%%%%%%qQ%%%qQ%%%%qQ%q%Qq%Q%%qQ%%%%%%%%%%qQ%%%qQ%%%%
3149D3q%QqQ%%%%%%%%%%%qQ%%qQ%qQ%%qQ%%%q%Q%%qQ%%%%q%Q%%%q%Q%%%%%%%%qQqQ%qQq%Q
3133D3%qQ%qQqQ%q%%Q%%%%%qQ%%%%qQ%%%%%%%%%%%%%q%%%%%%%%%Q%q%%Qq%Qq%Q%%q%%Qq%%
3117C5Qq%Qq%Q%%%%qQ%%%qQ%%%%%%q%Q%%qQ%%%%%%%qQ%qQ%%%%%%%%%%%%%%%%%qQ%%q%%Q%%
3101D3%%%%%%%%%%%qQ%%%%%%%%%%%%%%%%%%%%%%%%%%%%%%%%%%%%%%%%%%%%%%%%%%%%%%%%%
3085D3%%%%%%%qQq%%%%Q%q%Q%qQ%qQq%QqQ%q%Q%%%%j6J6j6J6k4%M8j6j6J6qq%J6qqQ%q%%%
3071C5%%Q%%q%Qq%%%QqQq%%QqQqQ%qQ%%%%q%%Qq%Q%%%q%Q%%%qQ%%%%%%%qQ%%%%q%QqQ%%%%
3055D3%%%%%q%Qq%%Q%%qQqQ%%qQ%%qQ%qQqQ%%%%%%%qQ%qQ%%q%QqQ%%qQ%%%%qQ%qQ%qQ%%%%
3039D3%%%%%%%%%%%qQ%%%%%%%%%%q%Q%%%%%%%%%%%%%%%%%%%%%%%%%%%%%%%%%qQ%%%%%%%%%
3023D3q%Qq%Qq%Q%qQqQq%%%Qq%Qq%%%%%Q%%qQqQq%Q%%%%%%%%%qQq%QqQ%%qQ%%%%q%Q%%%%%
3007D3%%%%%%%%q%QqQ%%%%%%qQ%%%q%%QqQ%%qQ%%qQq%%%%%Q%%%%%%%%%%Qq%%%QqqQ%qQ%qQ
2991D3qQ%%%%%q%%Qq%%%Q%%%%%%qQ%%%%%qQqQq%QqQ%qQ%qQqQ%qQ%%q%Q%%%%%%%%%%%%%%%%
2975D3%%%%q%%%%%%%%%%%%%%%%%%%%%%%%%%%%%%%%Qq%%Q%qQqQqQq%%Q%%%%%%%%%%%%q%QqQ
2959D3%%%%%qQ%Qj6%%%QqQq%QqQ%%%qQ%qQqQqQq%%%%%QqQ%qQ%%%%%q%%%%%%Qq%%Q%%%%%q%
2943C5%Qq%%%%%%%%%Q%%qQ%qQq%Q%%%%%%%%%%%%%%%%%%%%qQqQ%q%Q%qQqQ%%q%Q%%q%QqJ6j6
2927C5J6%qQq%%%%%qQqQ%qQq%%%%%%%%%Q%qQ%%%%%%%%%%%q%%%Q%%%%%%%%%%%%qQ%qQ%%%%%
2912D3%%%%qQ%%q%%QqQ%%%qQ%q%%Qq%Q%%qQq%%Q%q%Qq%%%%%%%%%%Qq%%%%QqQ%%%%%%%%%%%
2896D3%%%%%%qQq%%QqQ%%qQq%Q%%%%%%%%%%%%%%%%qQ%%%%q%%%%%%%%Qq%Qq%Qq%Qq%%%%Qq%
2879C5Q%%q%Qq%%Q%%%qQ%q%Q%q%%%%%%%Qq%%%%%%%%%Qq%Q%%%%%%%%%%%%%%%%%qQ%%qQqQ%%
2863D3q%Q%%q%%%Q%%%%qQ%%%%%%%qQ%%qQ%q%%%%%Qq%Qq%QqQqQ%%qQqQq%%%Q%%%%%%%%%%%%
2847D3%%%%%qQ%q%Qq%%%%Q%qQ%%%%%%%q%Qj6Q%Q%%q%%Q%q%%%%%QqQqQq%Qq%Q%%%%q%Q%qQ%
2832D3%%%%%%qQ%qQ%%qQ%%qQ%%%%%%%%%qQqQ%q%%Q%q%Q%qQ%%%%%%%%%%qQ%%qQqQq%Qq%Q%%
2816D3%q%%QqQ%qQ%%q%Q%%%qQqQ%qQqQ%%%%%%%%%q%Q%%qQ%%%qQqQqQ%%%qQ%%%%%%%%%%%%q
2800C5QqQ%%%%%%%%%%%%%%%%%%%%%%%%%qQ%%%%%%qQq%%Qq%%%%%%QqQ%%%q%%Qq%Q%%%qQ%%%
2784D3qQ%qQ%%%%%%qQ%qQqQ%qQ%q%%%%%%%%%Qq%%%%Qq%%%Qq%%%%%%Qq%%Q%%%%%%%qQ%%%%q
2768C5Q%%%%%%%%%%qQ%%%%%%%%%q%%%%%%Qq%%QqQl2K4%QqQqQ%%q%Q%%%q%Qq%%%Qq%%%Q%qQ
2752D3q%Qq%%%Qq%%%%%%%%%Q%q%%QqQqQ%%qQ%q%Qq%%Qq%%%Q%q%%Qq%Qq%%%%%%%%Q%qQ%%q%
2736C5Q%%q%%%%%%%%%%Q%%%qQq%%%%%%Q%%%qQq%Qq%Q%%q%Q%%qQqQ%%%%%Q%q%qQ%%%qQ%%%q
2720C5%Q%%qQq%Qq%%%Q%qQ%%q%%%%Q%q%Q%q%%%%%%%%%Qq%%%%%%%%%%Q%qQ%%%%%%%%%q%Q%q
2704C5Qq%%%%%%%Qq%%Q%%%q%Q%%%%%%%%%%%%%%%%%%%%qQ%%%qQqQq%QqQq%QqQ%qQq%Q%%%%%
2688D3%%%qQ%%qQ%%%%%%%%qQ%qQ%%%%%%%%%%%%%%%%%q%Q%%%q%%QqQ%%q%%%Qq%%%%%%%%%Qq
2672C5%Q%q%QqQqQ%q%Qq%%%%Qq%%%%%%Q%qQ%%%%%q%%%QqQ%q%%%QqQ%q%Qq%%%%%%%%%%Qq%%
2656C5%%%%%%%%%%%QqQq%%%%%%%%QqQq%%%%%Qq%%%Q%%qQ%q%Qq%Q%q%%Q%%%q%%%Q%qQq%%Qq
2640C5%%%%%%%%%%%%Q%q%%QqQqQq%Q%qQ%%qQq%%QqQq%%%Q%qQq%%%%Q%q%Q%q%%%%QqQ%qQ%%
2624D3%%%%qQ%q%%%%%%Qq%%%%Qq%%%%%%%%Qq%%%Q%%q%Q%%%qQ%%qQ%%q%QqQqQ%%%%%%%qQ%%
2608D3%q%Q%qQ%j6L2qqqQq%%%%%%Qq%%Q%%%%%qQqQ%qQ%q%QqQqQqQq%%%%%%%%%%%%%%%%Qq%
2592C5%%%%%Qq%%%%%Qq%%%%QqQqQ%%%%%%qQ%qQ%q%%%%%%Q%%%%%%%%%%%qQ%%%%%%%%q%Qq%%
2576C5%%%QqQ%qQqQqQ%%qQq%%%%QqQ%%qQq%%Qq%Q%q%%%Q%%qQ%q%%%%%%%%%Q%%qQq%%QqQ%%
2560D3%%qQ%q%QqQq%QqQ%qQ%%%q%QqQq%%Q%q%%QqQ%%%%%qQ%%%q%%%%%Qq%Q%%%%%qQ%%q%Q%
2544D3q%%%%QqQq%%%%%Qq%%%%%Q%%%%%%%%%%%%%%%%%%%%%%%%%%%%q%Qq%%%%%%%Q%%%qQ%qQ
2528D3qQq%%%Q%%q%QqQ%q%Q%q%QqQ%q%%%%%%%%%%%%%%%%Q%%%qQqQ%%%%q%Q%%q%%%Qq%%%%%
2512C5%Qq%%%%%%Qq%%QqQqQq%%%%Q%%q%%Qq%%%%%%%%%%%%%%QqQqQqQ%qQ%qQqQ%qQ%qQqQ%%
2496D3qQ%%q%Q%q%Qq%%Qq%%%Q%%%%%%qQ%qQqQqQqQ%%%%qQ%%%%qQ%%%%%%%%%%%%%%%qQ%%%%
2480D3%%%%%qQ%q%%%Qq%Qq%%%Qq%%%%%%Qq%%%%%%Q%q%%%%%Q%q%%QqQ%q%Q%%%%%qQ%%qQqQ%
2464D3%%%%%%%%%%%%%q%Q%q%%%QqQq%%Qq%%%%Qq%%Q%qQq%QqQqQ%%%%%qQ%%%%%%%%%%%qQqQ
2448D3%qQ%%%%%qQ%%%%q%%Qq%%Qq%%Q%qQ%%q%Q%%qQ%%%%%%%%%%%%%%%qQq%%%%%%%%%%%%%Q
2432D3q%Q%%%%%%q%Q%q%%%%%Qq%%%%Q%%qQ%qQ%qQ%%%qQ%%%%%%%%%%qQ%%qQ%%qQ%%qQqQq%%
2416C5Qq%Q%%%%%%%qQ%%%%%%qQq%Q%qQq%%%Q%q%Qq%Q%q%%Q%%%%%qQ%q%Q%%%%%q%Q%%%%%%%
2400D3%%%q%%Qq%%QqQ%%%%%%%%%qQ%%q%Q%%%%qQ%%%%%%%%%%%%qQqQ%q%Q%%q%Q%%%%%%%%%q
2384C5Q%%qQ%%%qQq%%%%%%%%%Qq%%%Q%qQ%%%%%%%%%qQ%%%%%q%%Qq%Q%qqJ6qQq%Q%%%%%q%Q
2368D3q%%Qq%Q%%q%Q%q%Q%q%%%%Q%%%%%%q%Q%q%%%%%%%%Qq%%%%Qq%QqQ%qQ%qQq%%%Q%%%qQ
2352D3%q%%%QqQqQ%%%%q%Qq%%%%%%%%%%%%Q%%%%%%%%%%%%%%qQ%%qQ%%%%%%%%%q%%%QqQ%%%
2336D3%%%q%Qq%Qq%%%%%%%%%%%%%%%%%Qq%%Qq%%%%%%%%%%%%%Q%%qQ%%%%%%q%%Qq%%Q%%%q%
2320C5%Q%%q%QqQqQ%%%%q%%%%%%%%%QqQq%%%%%%Q%q%%%%%%%QqQ%%%%%%q%%%%%%%%%%%%%%Q
2304D3qQ%q%%Q%qQqQ%%%%q%Q%q%%%%%Qq%%%%%Q%qQ%%%%q%%%Q%%%%qQq%%Q%qK4k4J6q%QqqJ6
2289E1qq%%%Q%%%%%%%%%qQqQqQq%%QqQ%qQ%q%%%Q%q%Q%%%%%q%%Q%q%%%Q%%%%qQqQ%%%%qQq
2273C5%%%%Qq%Q%%%q%%%%%%%%Qq%Q%%%q%%%%Qq%%Q%q%QqQqQqQqQqQq%Q%qQ%%%%qQ%%qQ%qQ
2257D3%%qQ%%qQ%%Qj6%%Q%%qQqQqQ%%%%q%Qq%%%%%%Qq%%%%Qq%%Qq%%%%%Qq%%%%%%Qq%%%%%
2241C5%%%%%%%%%%%%Qq%%Q%%%%%%q%Qq%%%%%%Qq%Q%%%%qQ%%%%%q%%%%%%%%%%%%%%%%%Q%%%
2225D3q%QqQq%QqQq%Q%%q%%%Qq%%%Q%%qQ%%%%qQ%q%%%%%%%Qq%%%Qq%Qq%%%Qq%Qq%%%%%%%%
2209C5%%%%%%%%%Qq%%%%%%%%Q%%%qQ%%%%%%%%%%%%%%q%Q%%q%%%%QqQq%Qq%%%Qq%%Q%%%%%q
2193C5Q%%%qQ%%%%%%%%%%%%%%%%%%%%%%%%%%%%%qQ%qQqQq%Qq%%%%%Qq%QqQq%Q%%%%%%%%%%
2177D3%%%q%%%%%QqQqQ%q%%qJ6qQ%q%Qq%%%%%%Q%q%%%Q%%%%q%%%Q%qQq%Q%%%%%%qQ%%%%%%
2161D3%%%%%%%q%Qq%%%Q%q%%Q%%qQqQq%%Q%qQqQ%%q%Q%q%QqQqQq%%%%%%%Qq%%Qq%%%Qq%%%
2145C5%%Qq%%%%%%%%%%%%Q%%%q%QqQ%%qQQq%Qj6Qq%K4k4Q%q%%%Q%%%%%%%%%qQ%q%Qq%%%%%
2130C5%Q%q%QqQq%%QqQ%q%%%%%QqQqQqQ%qQ%q%Qq%%%%%%%%%Qq%%%%%Qq%%%%%%%%%Qq%qQ%%
2114C5%%%%%%%%%%%Qq%%%%%%%%%%%%Q%q%Q%%qQ%%q%%Qq%Qq%%%Qq%%%%%%%QqQqQq%%Q%qQ%q
2098C5Q%%%%%%%%%%%%%%%%qQ%%%%%q%%%Qq%%%Q%%q%QqQ%q%Qq%%QqQqQ%q%Qq%%%%%%%%Qq%%
2082C5%%%%%%%%Qq%%%%%%%%%%%%%%%Qq%%%%%Qq%Qq%%QqQ%%%%qQq%%%%%%%%%%%%%%%%%%%%%
2066C5%%%%Qq%Q%%%%%qQ%%qQ%%%%q%QqQ%qQq%%QqQqQq%J6k4QQq%QqQq%%Q%qQq%%%%%%%%%Q
2050D3q%%Qq%%Q%q%Q%%%%%%%%%%%qQ%%%qQ%q%%Q%qQ%%%%%q%%%%%%%%%%%%Qq%%%%%%%QqQqQ
2034D3qQ%q%%%%%%%%%%%%%%%%%%%%%%%%%%%%%%%Qq%%%Qq%%%%%%Qq%%%Qq%%Qq%%%%%%%Qq%%
2018C5%Q%q%%%%%%%%%%%%%%%%%QqQ%%q%Q%qQqQq%%%%Q%%q%Q%%qQ%%%qQq%%%%%%Q%q%%%%%%
2002C5QqQ%%q%Qq%%Q%qQq%%%Qq%%%%%%%%%Qq%QqQq%%Q%q%%%%%%%%QqQQj6K4k4qQ%Q%%q%%%
1987C5Qq%%%%%%%%%%%%%%%Qq%%%Qq%QqQq%Q%qQqQ%q%%%%Q%q%%%QqQq%%%Qq%Qq%%%%%%%QqQ
1971D3q%%%%%%%%%%%%%%%%%%%Q%qQq%Qq%%Q%%%%%qQq%Q%qQqQ%%%q%%%%%%%%Qq%%QqQq%%%%
1955C5%Qq%%%%QqQq%QqQqQq%%%%%QqQ%%q%%%%%%%Q%%%qQqQ%%q%%%%%%%%%%%%%%Qq%%Q%%qQ
1939D3%%q%%%qQ%%%Qq%%Qq%%%%%%%QqQq%QqQ%q%Qq%QqQ%q%Qq%QqQ%qQ%%%%%qQq%%Q%%%%qQ
1923D3%%qQq%%%%%%%Q%q%%%%%%%%%%%%%%%%Qq%%%Qq%%%%%%%%%Qq%%%%QqQq%%%%%%%%%%%%%
1907C5%%%Qq%%%%%%Q%qqQ%%Q%%%q%Qq%%%%QqQqQ%%q%%%%%%%%%%%%%%%%%Qq%%%QqQq%%Q%%%
1890D3%q%%%%Qq%%%%%Q%%q%%%%%%%%%%%%%Q%%qQ%%%%qQ%qQq%Qq%%%Qq%Q%q%%Qq%%Q%%%%%%
1874D3qQq%%%%QqQq%Q%q%%%%%%%%Qq%Qq%%%%%%%%%%%%%%%%%%%Qq%Q%q%%%%%%%%%%%%%%%Qq
1858C5%%%%%%%%%QqQq%%%%%%QqQq%%%%%%QqQqQ%%%qQq%QqQq%%%QqQ%qQ%q%Q%%qQqQq%%%%Q
1842D3q%%%%%%%%%%Qq%Qq%%%%%%%Qq%%Q%%%q%%%%%%%%%Q%%q%%%%%%Qq%%%Qq%%Qq%Q%qQ%qQ
1826D3q%%Qq%%%%%%Qq%Qq%Qj6J6%%qQ%q%%%%%%Q%qQq%%Qq%%%%Q%q%%%%Q%q%%%%%%%%Qq%%%
1811C5%%%%QqQqQ%%%%q%QqQqQ%%%%%%%%%%%%qQ%qQq%%%%%%Qq%QqQqQ%qQ%qQqQ%q%Q%qQ%q%
1795C5%%Q%qQ%%qQq%Q%q%%%%%%%%%%%Qq%%%%QqQ%%q%qQ%Q%%%%qQ%qQqQq%Q%%%%%%%%%qQ%%
1779D3%%%%qQq%Qq%Qq%Q%q%%%%%%%%%%%%Q%qQ%q%%%%%%%%%%QqQq%%%QqQ%%%qQq%%%%%%Qq%
1763C5Q%q%%%%Qq%%Qq%%Q%%%%%%%q%Qq%%QqQqQq%%%%Qq%%%%%%%Qq%%Qq%%Qq%Qq%%Q%%%%%%
1747D3%qQ%qQq%%%%Qq%%%%%Q%qQ%%%q%Qq%Q%q%Q%qQ%%%%%%%%%%%qQ%qQ%q%%QqQ%qQ%%%%q%
1731C5Q%q%Q%%%%q%%Q%qQq%Qq%%%%%%Q%q%%%%%%%%QqQq%%%%%%%%%%%%%%%%%%%%%%Q%%%q%%
1715C5Q%%%q%%Q%qQqQq%Qq%%%%%%%%%%%%%%%QqQq%%%%%Qq%Qq%%%Q%%q%%Q%%%%%%%q%%%%%%
1699C5Q%%q%Q%%%qQ%qQ%q%Qq%%%%%%%%%%Qq%%%%%Qq%%Qq%Qq%Q%qQq%Qq%%%Qq%%%Q%q%%%%%
1683C5%%%%%%%%%%%%%%%%%%%%%%%%%%%%%%QqQq%%%%%%%%%%%%%%%%Q%q%%Qq%%Q%j6QQk4J6Q
1667D3q%%Qq%%%Qq%%%%%%%%%%%%%%%%%%Q%q%%%%%%%%%%%%Qq%%%%%%%%%%%%%%%%QqQ%qQqQq
1651C5Q%%%qQq%%Qq%Qq%%Q%q%%%%%%%Qq%%%%%%%%%Qq%%Qq%Qq%Qq%Q%qQ%q%QqQ%%%%%%q%Qq
1635C5Qq%QqQq%%%%%%Qq%Q%%%qQ%%%%%%%q%Q%%q%%Qq%%%%%%%%%%%%%%%%%%%%%%%%%%%%%%%
1619C5%%%%%%Qq%%Qq%%QqQq%QqQq%Qq%%Q%%qQ%q%Qq%Q%%qQqQ%%%qQ%q%%Q%qQqQ%q%%%Qq%%
1603C5%Q%q%Q%%%%%%%%%%%%q%%Qq%%%%Qq%%%%Qq%Q%%%%%%qQ%%qQ%q%Qq%%%%%Qq%%Qq%Q%q%
1587C5%%Q%q%Q%%qQ%q%Qq%%%%Qq%Q%%%%%q%Q%q%%Qq%%%%%%%%Qq%%Q%%q%Qq%Q%q%%%%%%%%%
1571C5%%%%%%%%%%%Qq%%%%%%%%Q%%q%%%%%%Q%q%%%%%%%%%%%%%%%%%%%%%%%%Qq%%%%%%%%%%
1555C5%%%%%%%%%%%%%%Q%qQ%%qQqQqQqQq%%%Qq%Qq%%%%%%%%%Qq%%%%%%%%%%%%%%%%Qq%%Qq
1539C5%%%%%%%%%%%%%%%%%Qq%%%%%%%%%%%%%%%%%%%%%%%%%%%QqqQ%%%%%%%%%%%Q%qQ%q%Qq
1523C5%%%%%%%%qQQ%q%%Qq%%%%%%%%Qq%%%%%%%%Q%qQq%%%%%Qq%%%%%%%%Qq%%%%Qq%%Qq%%%
1507C5Qq%%%%%%%%%%Q%qQq%Qq%Qq%%%%%Q%%%qQ%q%%%%%%Qq%%Qq%%%%%%%%%%%%%QqQ%qQqQ%
1491D3qQqQq%%%%%%%%%%%%%%%%Q%%%%q%%%%%%%%%%%%%%%%%%%%%%%%%%%%%%%%%%%Q%q%Q%qQ
1475D3q%%%%%%%Qq%%%%QqQqQqQ%%qQq%%%%%Qq%%%%%Q%q%Qq%%%%%%Qq%%%%%%Q%q%Q%qQ%%%%
1459D3q%QqQ%qQ%q%%QqQ%%%%%%q%%Qq%%%%%%%%%%%%%%%%%%%%%%Qq%%%%%%%%%%%Qq%%Q%%%%
1443D3%%%%%%%q%%%Qq%Qq%%%%%%%%%%%%%%%Q%qQ%q%Qq%Qq%%%Qq%%%%%%%%%%Qq%%%Q%q%QqQ
1427D3qQq%%Qq%%%%%%%%%%%%%%%%%%%%%%%%%%%%%%%%%%%%%%%%%%%%%%%%%%%%Qq%%%%%%Q%q
1411C5Q%%qQ%qQ%qQ%q%%Qq%%Qq%%%%%%%%%%%%QqQq%%%%%%%%%%%%%%%%%Qq%%%%%%%%%%%%%%
1395C5%%%%Q%q%%%%%Q%qQq%Q%%q%Q%q%%%%%%QqQq%QqQ%q%%%%%%%Qq%%%%%%%%%%%%%Qq%%%%
1379C5%%%Qq%%%%%%%Qq%QqQq%%%%%%%%%%%%%%%%%%%Q%qQ%%q%Qq%QqQqQ%%%%qQ%q%%QqQqQ%
1363D3%q%Qq%Qq%%%%%%%%Qq%%%%%QqQ%q%%%%Q%q%QqK4k4Qj6J6Qm0L2%%Qq%qQq%%%%Qq%%Qq
1348C5%%%%Qq%QqQqQ%%q%%Qq%Qq%%%%QqQqQ%q%Q%%q%%%%%%%%%%%%%%%%%%%%%%%%%%Qq%Qq%
1332C5%%%%%%%%QqQq%%Qq%%%%%%%%%%%%%%%%%%%%%%%%Qq%%%%%%%%%%%%%%%%%Qq%Qq%%Qq%%
1316C5Qq%%%%QqQ%q%%%%%%%%%%Q%%%%%q%Q%qQ%%%%qQ%%%%%%q%%%%%%Q%qQ%q%%Qq%%%%%%%%
1300C5%%%%%%Qq%%%%%%%%%Qq%%%%%Qq%Qq%%Q%%%qQq%%%%%%%%%%%%%Qq%%%%%Qq%%%%%%%%%%
1284C5Qq%%QqQq%%%%%Q%%%%qQ%q%%%%%%%%%%%%%%%%%%%%%%%%%Q%q%QqQq%%Qq%%%%%%%%%%%
1268C5%%%%%%%%%%%%%QqQq%%%%%%%%%%%%%%%%%%%%%%%%%%%Qq%%QqQq%%%%Qq%Qq%%%%%%%%%
1252C5%%%%%%%%%%%%%%%%%%%%%%%%%%%%%Q%qQqQ%%%%qQq%%%Qq%%%%%Q%qQ%q%Q%%%qQq%%%%
1236C5%qQ%%%%%%Qq%%Qq%%%%%%%%%%%%%%%%%%Qq%%%%Qq%%%%%%Qq%%%%%%%%%%%%%%%%%%QqQ
1220D3%q%Q%%%%%%%%%%qQqQ%%q%%%%%%%%qQ%%%%%%%%%%%%%%Qq%Qq%Q%%q%Qq%%%%%%%%%%Qq
1204C5%%%%qQ%%%Q%j6QQqQl2qM8l2O4k4l2L2qk4Qj6K4%Qq%%%qQ%%%%qQ%%%qQq%Q%%%%qQ%q
1191C5%%%Qq%%%%%%%%%%QqQq%%%Qq%%%%%%%%%%%%%%%%Q%%%q%%%%%%Qq%%%%%%%%Qq%%%%%%%
1175C5%%%%%%%%%%%%%%%%%Qq%%%QqQq%Q%%q%%%%%%%%%%%%%%%%Qq%%%%%%%%%%%%%%%%%%%%%
1159C5%%%%%%%%%%%%%%%%%%%%%%%%%%%%%%%%%%%%%%%%%%%%%%Qq%Qq%%%%%%%%%%Qq%Q%%%q%
1143C5%%%%%%%Qq%%%Qq%%QqQ%%%q%QqQq%Q%q%%%%%Qq%%%%QqQ%q%%%QqQ%qQq%%%%%%%%%Q%%
1126D3qQq%%%%Q%q%%%%%%Qq%%%%%%%%%%%%Q%j6QqQQ%qQqQq%%%%%%%%%%%%%%%%%%%%%%%%%%
1111C5%Qq%%%%Qq%%%Qq%Q%q%%QqQ%%%%qQqQq%%QqQ%q%%Q%qQ%%%%%q%%Qq%%%%Q%%%%qQ%qQ%
1095D3%%qQqQ%%%%%%%qQq%QqQ%qQq%%Q%qQq%%Qq%%%%%%%%%%%Q%%%%%%%qQ%%qQqQq%%%Q%%%
1079D3qQq%%%%Qq%%%%%%%%%%%%%%%%%%%%Q%%%%%%%%%q%%%%%Qq%%%%%%%%%%%%%%%%%%%%%%%
1063C5%%%%%%Q%%%q%%Qq%%%%%%%%%%%%%%%%%%%%%%%%%%%%q%%QJ6k4Qq%Q%%%%%%%%%%%%%%%
1047C5Qq%%%%%%Qq%%%%%%%%%%%%Qq%%%%%%%%%%%%%%%Qq%Qq%Qq%%%Q%qQ%%%%%%q%%%%%%%%%
1031C5%%%Qq%Qq%%%Qq%%%%%%%%%%%%%%%%%Qq%Qq%qQ%%%%%%%%%%%%%%%%%%%%Qq%%Qq%Q%qQ%
1015D3%%q%%%%%%%%%%%%Q%q%%%%%%%%%%%%%%%%%%%%%%Qq%%%%%%%%%Q%q%%Qq%QqqJ6q%Q%q%
999C5%%%%%%%%%%%%%%%%%%Q%%qQ%q%QqQqQq%Q%q%%%%Qq%%%%%%Qq%%%%QqQq%%Qq%%Qq%%%%Q
983D3q%%%%%%%%%%%%%%%%%%%%%%%Q%q%Qq%%%%%%Q%q%%Q%%%q%Qq%%Qq%%%Q%%%%%%%q%Qq%%%
967C5%Q%%%Qj6%Qq%%%%%%%%%Qq%%%%%%%%%%%%%%%%%%%%Q%q%%%%Q%q%%%%%%%%%%%%%%%%%Qq
951C5%Q%%%q%%%%%%%%%%%%%%%%%%%%%%Qq%%%%%Qq%%%%%%%%%%%%%%%%%%%%%%%%%%%%QqqQQq
934C5%%Qq%%%%%%%%Qq%%%%%%%%%%%%Qq%%%%%%%%%%%%Q%q%Qq%%%%%%Q%qQ%q%%%%%Qq%%%%%%
918C5%%%%%%%%%%%%%%%%%%%%%%%Q%q%%%%%%%%%%%%%%%%%%%Q%qQqQq%Qq%%%%%%%%%%%%%Qq%
902C5%%Qq%%%%%%%%%%%%%%%%%%%%%%%Qq%%%%%%%%%%%%%%%Qq%Q%q%%%%%%%%%%%%%%%%%QqQq
886C5Q%%q%%J6j6j6J6%Qq%%Qq%%%%%%%%%%%%%QqQqQqQ%q%%%Qq%%%%%%%%%%%%%%%%%%%%%%%
870C5%%Qq%%%%%%%%%%%Qq%%Qq%Q%qQqQ%q%Qq%%%%%%%%%%%%%%%%%%%%%%%%%%%%%%QqQ%q%%%
854C5%%Qq%%Qq%Qq%%%%%%%%%%%%%%%QqQqQ%%%%qQqQ%q%%%%%%%%%%%%%%%%%%%%Qq%%Qq%%%%
838C5%%%%%%%%%%%%%%%%%%Qq%%%%%%%%%%%%%%%%%%%%%%%%%%Qq%%%Q%%%%q%Qq%%%%QqQq%%%
822C5Q%%%%q%Q%%%%%%%%qQqQ%%qQ%qQqQ%%%%qQ%%qQq%QqQq%%%%Qq%%%%%%%%%%%%%Qq%%%%%
805C5%%%Qq%%%%Qq%%%%%%%%%%%%%%%%%%%%%%%Qq%%Qq%%%%%%%%%%%%%%%%%%%%%%%%%%%Qq%%
789C5Qq%%%%%%%%%%%%%%%%%%%%%%%%%%%%%%%%%%%%%Qq%%Qq%%%%%%%%%%%%Qq%%QqQ%%%%%%q
773C5%%QqQ%%%q%QqQq%Qq%Q%qQqQqQ%%qQq%%%%%Qq%%%%%%%%%Qq%Q%%%%%%q%%%%Qq%%%Qq%%
757C5Qq%Qq%%%%%%%%%%%%%%%%%%Qq%%Qq%%%%%Qq%%Q%qQq%%%%Qq%%%%%%Qq%%%%%Q%%%%%%q%
740C5%%%%Q%%%q%Qq%%%%%Qq%%%%%%%%%%%%Qq%%Qq%%%%%q%J6q%q%Q%%Q%q%%Qq%%Qq%%%%%%Q
724D3q%%Qq%%%QqQqQq%%Q%%%%qQq%%%%%%%%%Qq%%Q%q%%%%%%Qq%Qq%%Q%%%qQ%qQqQ%q%Q%%j6
708B7QQq%%%%%%%%%%%%%%Qq%%%%%%Qq%%%%%%%QqQq%%%Qq%QqQ%q%%%%Qq%%%%QqQ%%qQq%%%%
692C5%Q%%qQqQq%%Qq%Qq%%%%%%%%%%%%Qq%%Q%%%%%%%%q%Qq%Qq%%%%%%%%%Q%q%%%%Qq%%%%%
676C5Qq%Q%%%q%Qq%Q%%qQ%qQ%q%%%%Qq%%%%%%%%%%%%Qq%%%%%%Q%%qQ%qQ%qQ%qQ%%q%QqQ%q
659C5%%%%%%Q%%%qQ%%q%%%Qq%%%%%%Q%qQ%%%%%qQqQq%%%%J6j6%%%%%Qq%Q%q%%%%%%%Qq%%%
644C5%Q%%%qQq%%%%%%%%Qq%%%%%%%%%%%%%Qq%%%Qq%Qq%%%%%%%%%%%Qq%%Qq%%%%%%Qq%Q%qQ
627D3qQq%%%%%%%%%%%%%%%%%%%%%%%%Qq%%%%%%%%%%%Qq%Q%q%%%%%QqQqQqQq%%QqQ%q%%%%%
611C5%%%%%%%%Qq%%%%%%Qq%Q%%q%%QqQq%%%Q%qQ%%%%%%qQ%qQqQ%%q%%%%%%%%%%%%%%%%%%%
595C5%%%%%%%%%Q%%%%q%%%%Q%%%q%%%%%%%%%QqQq%%%%%%%%%%%%Q%%%%q%Qq%%%Qq%%%%%%%%
579C5%%%%%%%%%%%%%%%%%%%%%%%%%%%%%%Q%qQqQ%qQqQ%q%%%%%%%%%%Q%%%%%qQ%q%Q%%%%q%
562C5%%Qq%%%%%%%%%%%%%%%%%%%%%Qq%%QqQqQq%%%%Qq%%%%%%%%%%%%%%%%%%%%%%%%%%%%%%
546C5%%Qq%%%%%%%%%%%%%%%%%%%%%%%%%%%%%%%%%%%%%%Qq%%%%Q%%%q%%%Qq%%QqQqQqQ%%%%
530D3q%%%%%%%%%%%%%%%%%%%%%%%%%%%%%%%%%%%%%%%%%%%%%%%%%%%QqQq%%%%%%%%%Qq%Q%%
514D3%q%%%%%%%%%%%%%%%%%%QqQqQq%Qq%%%%%%%%%%%%%%%%%QqQ%q%%Q%%q%QqQq%Qq%%%Q%q
497C5%%Q%%%%q%%%%QqQ%%q%Qq%%%%Q%q%Q%q%Q%qQ%q%%QqQqQq%%%%%%%%%%%%%%%%%%%Qq%Qq
481C5%%%Q%%qQ%%q%%%%%%%%%%%%%%%%%%%%qQ%%%%%%%%%%%%%%%Q%%%q%%Q%q%Q%q%QqQ%%%%q
465C5Q%q%Qq%%Qq%%%%%%%%%%%%%%%%%%%Q%q%%%%%%QqQq%%%%%%Qq%Qq%%%%%%%QqQq%%%%%%Q
449D3%%qQ%q%%Qq%%Qq%%%%Qq%%%%%%%%Q%qQ%%q%Q%%%%qQq%%%%%%qQ%%%Qq%Qq%%%%%%%Qq%Q
432D3q%%%%Q%%%qQ%%%%%%q%%Qq%%%%Qq%%%%%%%%%%%%%%%%%%%%%%Q%q%%Q%%%%qQqQqQqQq%q
416B7Q%j6J6%qJ6q%%Qq%%%%%%Qq%%Q%%%q%%%%%%%%%%%%%%%%%%%%%%%%%%%%%Qq%%%QqQ%qQq
400C5%%Qq%%%%Q%%qQ%q%%%%%%%Qq%%%%%%%%%Q%%%%q%%%%%%%%Qq%%%%%%%Q%qQ%qQ%%%%q%%%
384C5Qq%%%%%%%%%Qq%%%Q%q%%%%%%%Qq%%Q%qQ%q%Qq%%%%%%%%%%%%%%Qq%%Qq%Q%q%%%Q%%%%
368D3q%Q%%qQq%%%%%Qq%%%%%%Q%q%%%%%%Qq%%%%%%%%%%%%%%%%%%Q%q%%%%%%%%%%%%QqQqQq
352C5%%Q%q%%Qq%%Q%%qQq%QqQq%%%%%Qq%%%%%QqQq%Qq%%%%%%%%%Qq%%%%%%%%%%%%%%%%Q%q
335C5Q%q%%%%%%Qq%%%%%%%%%%%%%%%%%Q%%%q%%%%Qq%%%%%%%%%%%%Qq%Q%%%%q%%%%%Qq%Q%%
319D3q%%%Q%qQqQq%%%%%Qq%Qq%%Q%%%qQq%QqQq%%Qq%QqQq%%Qq%%%%%%Q%q%%%Qq%%%%Q%q%%
303C5Qq%Qq%%%QqQ%%q%Q%qQ%q%QqQq%%%Qq%%%%%%%%%%%Qq%%%%%%Qq%%%%%%%%%%%%%%%%qQ%
287C5%%%%%%%%%%%%Qq%%%%%%%%%%%%%%%%%%%%%%%%%%%%%%%%Q%%%%%%q%%Q%%%q%%Q%%q%%%%
270C5%%%%%%%%Qq%Qq%%%%%%%%%Qq%%%%%%QqQ%qQ%%%%qQqQ%q%%%%%%%%%%%%%%Qq%%%%QqQq%
254C5Qq%%%Qq%%%%%%%%%%%%%%%%%%%%%Qq%%%Qq%%%%%%%%%%%%%%Qq%%%%%%%%%%%%%%%%Qq%Q
238D3q%%%Qq%%%%%%%%%%%%Q%qQq%%%Qq%%%%Q%%%%q%%%%%%%%%%%%%Qq%%Qq%Qq%Qq%%QqQ%q%
222C5%%%%%%%%%%%%%Qq%%%%%%%%%%%%%%%Qq%%Qq%%%%%%%%%%%Q%qQ%%%q%Q%%%q%%%%%%%%Qq
205C5%Qq%Qq%%%QqQq%%Qq%%%%%%%Qq%%%%%%%Qq%Qq%%%%%Qq%%%%%%%%%%%Qq%%%%%%%%%%%%%
189C5%%%%%%%%%%QqQq%%%%%%%%%%%Qq%%%Qq%%%%QqQqQ%%%%qQ%qQqQqQq%%%%%%QqQ%q%%%%Q
173D3%q%%%%Qq%%QqQq%Qq%%%QqQ%q%%%%%%%%%%%%%%%%Qq%%%Qq%%Qq%%%Q%%%q%%Qq%%Qq%%%
157C5%%%%%%%%Qq%QqQq%%%%%%%%%%%%%%%Qq%%%%%%%%%%%%%%Q%%q%Qq%%Q%q%%%Q%%qQqQ%q%
140C5%%%%Qq%%Qq%%%%%%%%%%%%%%%%%%%Qq%%Qq%%%%%%%%%%%%%%%%%%%%Qq%%%%%%%%%%%%%%
124C5QqQq%%%%%%%%%Q%%qQ%%q%%Qq%%%%%%%qQQq%j6M0%m8L2n6Q8%l2J6j6%%qQqQq%Q%qQqQ
110D3%q%%Qq%%%Qq%%%%%%Q%q%%%%%%Q%%%q%Q%q%%Qq%%%%%%Qq%%%%%QqQ%%%%%%%%%%qQ%%%%
94D3%%%q%%%Qq%%%Q%%q%Qq%%%%Qq%%%%%%Qq%QqQq%Q%q%Q%%%qQ%q%%%%%%%%%%%Qq%%%%%%%%
77C5%%Qq%%Q%q%Q%%%q%%%%%%%%%Qq%%%%%%%%%%%%%%%%%%%%%%%%%%%%%%%Qj6J6%q%%%%%%Qq
61C5%%Q%%%q%%Q%%%q%Q%q%QqQ%%%q%Q%qQ%%q%%QqQqQq%%%Q%q%%Qq%%%%%%%%%Qq%%%%%Qq%%
45C5%Qq%Qq%%%%%%Qq%%%%%%%%%%%%Qq%%%%%%%%%%Q%%%%%%%%%%%qQ%qQq%%%%%%%%%%%Qq%Qq
28C5%%%Qq%Q%%q%Qq%Qq%Qq%%%%%%%%%%%%%%%%Qq%%%%%%%%%%%Q%%q%%%Q%%%%%%%%%%%q%Qq%
12C5%%%%%%%Qq%Qq%QqQq%Q%q%QqQ%%%%%%%qQ%q%Q%qQq%%%Qq%Qq%%%%Qq%%%%%%%Q%q%%%%%%
-5C5%%%QqQq%Q%%%q%%%%%%%%%%%%%%%%%%%%%%%%%%%%%%%QqQ%%%%qQqQ%%%%%%%%%qQ%q%%%Q
-21D3q%%%%%%%%%%%Q%qQqQqQqQ%qQ%q%%%%%%%%%%%%%%Q%%qQ%q%QqQ%qQ%%q%%%%%Qq%Qq%Qq
-37C5%%%%Qq%Q%q%%%%%%Qq%%%%%Qq%%QqQqQq%%QqQqQ%qQ%%%qQq%%%%%%%%%QqQqQ%%%q%q%Q
-54C5%qQ%Q%qQ%q%Q%%%qQq%%%%Qq%%%%%%%%%%%Q%q%%Q%%qQq%%%%%%%%%QqQ%q%Q%%q%Qq%%%
-70C5%%%QqQq%%QqQq%%Q%%%qQ%q%QqQq%Q%%%%%%%%%qQ%%%%qQq%%%%%%QqQq%Q%%%qQ%q%%%%
-86C5%%%Qq%%%Qq%%QqQqQ%%%q%Q%%qQ%%%%q%QqQ%qQqQqQq%%%%%QqQ%%qQ%%qQqQ%%%%qQq%%
-102C5Qq%%%%%%%%%%%%%%%%%%%%%Qq%%%%%%%%%%%%%Q%q%%%%%%%%%%%%Q%%%qQq%%%%%%%%Qq
-118C5QqQq%Q%%%%q%QqQq%%%%%%%%%%%%%%%%%%%%%%%%%%Qq%%%%%%%%%%%%%Qq%%%QqQ%%%%%
-134D3q%Qq%Qq%%%QqQ%%q%Q%%%%%%%%%qQ%q%QqQ%q%%%%%%%%%%%%Q%qQq%Qq%%%%%%%%%%%%%
-150C5%%%%%%%%%%%%%%%%%%%%%%Qq%%%Qq%%%%%%%%%%%%%%%%%%%Qq%%Qq%%QqQq%%QqQq%%%%
-166C5%%%%%%%%%%%%%%%%Qq%%%%%%Qq%%%%%Qq%%%%%%%%%%%%%Qq%Q%q%%%%%%%%%%Qq%%%%%Q
-182D3%q%%%%%%%QqQ%qQqQq%%QqQqQq%Qq%%%%%%%%%%%%%%%%%%%Qq%%%%%%%%%%%%%%QqQqQq
-199C5Q%%qQqQq%%%Qq%Q%qQ%%qQqQ%qQq%Qq%%Q%qK4j6%%qQqQ%%q%%Qq%%Qq%%%%Qq%%%%%%%
-214C5%%%%%%%%%Q%qQ%%%q%%%%%%Qq%%%%%%%%%%%%%%%%Q%q%Qq%%Qq%%%%%%QqQq%Qq%%Qq%%
-230C5%%%%%%Qq%%%%%%%%%%%%%%%QqQ%q%QqQq%Qq%%Qq%%%%%%%%%%%%Qq%%%%%%%%Q%q%%%Qq
-246C5%Q%q%%%%%%Qq%%%%%%Q%%qQ%%%%qQqQq%%%%%%%%%%%%%Qq%%%Qq%%QqQq%%%Q%%%qQ%qQ
-262D3%%qQqQqQ%%q%Q%qQ%%qQ%%%%%%%%q%QqQq%%%%%%Qq%Q%q%Q%q%%Qq%%%%%%%%%%%%%Qq%
-278C5%%Qq%%%%%%%%%%%%%%%%QqQq%%%%%%%%%Qq%%%%Q%%q%Qq%Qq%%%Qq%%%QqQq%Q%%q%Q%q
-294C5%%Q%q%%QqQ%%%%%q%QqQ%%q%%%%%Qq%Q%%qQ%qQq%Q%q%Qq%Q%q%%%%%%Q%%%%%%%%qQ%q
-310C5Q%%%qQ%q%%%Qq%Qq%%%%%%%%%%%Q%q%QqQ%q%QqQq%%Q%q%%Qq%Qq%Q%%%%%q%%Qq%Q%%q
-326C5Q%%%%%%%%q%Q%q%Qq%%%%%%%%%%%Qq%%Qq%%%%%Q%qQqQ%qQqQ%q%%%%%%%%%%%%Qq%%%%
-342C5%Qq%%%%%Qq%%%%%%%%Qq%%%Qq%%%%%%%%%%%%%%%%%%Qq%%%%qQQ%q%%%%%Qq%%%%%Q%q%
-358C5Q%q%%%%%%Qq%%%QqQ%q%%%%%%%Qq%%Qq%%Q%%qQ%%q%%%%%%QqQqQqQ%%%qQ%%%%%q%Q%%
-374D3%q%%%%%%Q%%%%qQq%%%%QqQ%%%%%%%qQq%Q%q%%%%%%Qq%%%%%%%%%%%%%%%%Q%q%Q%qQ%
-390D3q%Q%%qQ%%%%%%%%%q%%%%%%%%%Q%%%q%Q%%%%%%q%Qq%Q%%q%%%%%%%%%%%Q%%%qQq%%%Q
-406D3q%%%%Qq%Q%%qQ%%%%%q%%%%%Qq%%Qq%%%%QqQqQq%%%Qq%QqQ%%%%qQqQ%%q%%%Q%%qQq%
-422C5Q%%%%%%%%qQ%q%%%QqQ%q%%%%%%%%%%%%%%%%%Qq%%%%%QqQ%%%%%%%%q%Q%%qQqQq%%Qq
-438C5%%%%%%Qq%QqQqQqQ%qQq%%%%%%%%%%%%%%%Qq%%%%QqQ%q%Qq%Q%qQ%%q%%Qq%%%%%%%%%
-454C5%%Q%%%q%Qq%%%%%%Qq%Q%%q%%Qq%Q%%%qQ%%%q%%Qq%%%QqQ%qQq%%%%%%%Qq%%Qq%Qq%Q
-470D3q%%%%%%%%Qq%%%%%%%%%%QqQq%%%Q%qQ%%%%q%Q%qQ%%q%%%%%%Q%q%%%%%%Q%qQq%%%%%
-486C5%%%%%%%Qq%%%%%%Q%%qQ%%qQ%%%qQ%%%qQq%%%%QqQq%%%%%Q%qQ%%%%%q%Q%%%qQqQ%%%
-502D3qQ%%%%%%qQ%%%%%%qQ%%%qQqQ%q%%%%Q%q%%%%%QqQ%q%Q%q%QqQ%%%q%%QqqQ%%%%qQ%%
-518C5%%%Qj6J6qL2k4%k4%QQq8R6j12J52p2M0J6k4J6l2Q%%%%%Q%q%%%Qq%Q%q%%Qq%Q%%qQ%
-531D3%%%%q%Q%%%%q%%%%%%%%%%%Qq%%%QqQq%Qq%%%%Q%%%%%%%%%%%%%%%%%%%%q%%%%%%%%%
-547C5%%%%%%%%%%%%%Q%q%%%%%%%Qq%%%Q%qQq%%%%%%Qq%%QqQqQ%%%qQQj6Q%qQq%%Q%%%%qQ
-562D3%%q%%%QqQ%qQ%%q%%Qq%Q%q%Qq%%%%%%%%%%%%%Q%q%%%%%%%%%%%%%%%%%%%Qq%%%%%%%
-578C5%%Q%q%%%%Q%q%%%%%%%Qq%Qq%%%%Qq%Qq%Qq%Q%qQq%Q%q%%%%QqQqQ%q%%Q%qQq%%%%Qq
-594C5Q%%qQ%qQ%%q%%%%Qq%%%%%%%%%%%%Q%%%%qQ%%%qQ%q%%Qq%%%%Q%q%%%%%%%QqQ%q%%Qq
-611C5%Qq%%%%%%%%%%%%%%Qq%Q%qQq%QqQqQq%%Q%qQqQq%%%%%%%%%%%%%%%%%%QqQ%qQqQq%%
-627C5Q%%q%%%%%%%Qq%Q%q%%%%QqQqQ%%%%%%qQqQ%%%qQq%%%QqQqQ%%%qQqQqQ%%%%%%q%%Q%
-643D3q%Q%qQq%%%%Qq%Qq%%%%%%%%%Qq%%%%Qq%%%%%%Qq%%%Q%%qQqQq%%%Qq%%%%%%%%%%Qq%
-659C5%%%%%Qq%%%%QqQqQ%q%%%%%%%%%%%%%Qq%%Qq%%%%%%%%Qq%%%%%%%%%%%QqQ%q%Q%qJ6%
-674E1qq%%L2l2J6q%qK4k4%%%%Q%%qQ%%qQqQq%%%%%%%%%%%QqQ%%%qQ%%%%%%%%%%%%%%%qQ%
-689D3%%qQ%q%%%%QqQ%qQ%qQqQq%%%%Qq%QqQ%%%%%%%qQ%%%%%%%qQ%%%%%%%qQ%q%Q%qQqQ%q
-705C5Q%%%q%%QqQqQ%%qQq%%%%%QqQq%%%%%%%%%%%%Q%qQ%qQqQ%q%QqQ%qQ%%qQq%%Qq%%QqQ
-721D3%%%%%%qQq%%%%Qq%%QqQq%Qq%Q%%%%q%%%Qq%%%Qq%%Qq%Q%%q%Q%qQq%Q%%%%q%%%%Q%q
-737C5%%Qq%Q%%%%%%%%q%Qq%%%Q%%q%%%%%Qq%%%%Q%%%%%%%q%Q%q%%QqQ%q%%%Qq%%%%%%Qq%
-753C5%%%Qq%Qq%Qq%Qq%%%%%%%%Q%q%%%%%%%Q%%%q%Q%%q%%%%%Qq%Q%%%%%%%%q%%Qq%Q%%%q
-769C5Q%%qQ%%qQ%%%%%%%%%%%%%%qQqQ%q%Q%qQqQq%%QqQ%q%%%Q%%qQ%qQ%%qQqQq%%Q%%q%%
-785C5%%%%%%%%%%%Qq%%%%%QqQqQq%%%Q%q%%%%Qq%%%%Qq%Qq%QqQq%Qq%%%%%Qq%%QqQqQqQq
-801C5QqQq%%%%%%%%%%%%%%%%%%%%%%QqQ%%%%%%%qQ%%%qQq%Q%qQ%%q%Q%%%%%%%%q%%%%Q%%
-817D3%%%%qQ%qQ%%%%%%%%qQ%%j6J6%%%%%%%%%%%%%qQ%%qQq%%Qq%%%%%%Qq%%%%Qq%%%%%%%
-833C5%%%%%%%Qq%%%Q%%qQ%qQ%q%%%Q%%%%%%%q%%%%%Q%%q%Q%%%%qQqQ%%%%%qQ%%%%%%q%Qq
-849C5%%%%%%QqQqQ%%%qQ%%q%%%%%Qq%QqQqQ%%qQ%%%%%%%%qQqQ%%qQ%q%Q%qQ%q%%%%%%%%%
-865C5%%%%Q%%qQ%%%%%%%%%%%%%%%qQq%%%%%%Q%%q%%%Q%%%%%qQ%%%q%%QqQqQq%Q%%qQ%q%%
-881C5Q%qQq%%%Qq%%%Qq%%Qq%%%%%Q%q%%QqQ%qQq%%%Qq%Qq%%%%%Q%qQq%%%%QqQ%q%%%%%%%
-897C5QqQ%%q%Qq%Q%%%qQqQ%%%%%qQq%%Q%%%%%%qQ%qQqQq%%Q%%%%%%%qQ%q%%%%Qq%%%Qq%%
-913C5%%%%Q%%%%%q%%Qq%%%%%%%%%%%%%%Q%q%%%Qq%%%%%%%%%%Q%%qQq%%%%%Q%qQqQq%Q%%%
-929D3qQ%q%%%%%%%QqQq%%%QqQqQ%%%q%%%%%%%%%Q%%q%%%%%%%%Qq%%%%Q%qQ%q%%%Q%qQq%%
-945C5Q%%%%%%%%%%%%%%%%%%%%%%%%%%%%%%%%%%%%%%%%%%%qQq%Qq%%%%%%%Qq%%%%%%QqQ%%
-961D3%qQqQ%qQq%%%%%%Qq%%%%%%%Q%%%%qQ%qQqQq%%%%%Q%%%%q%%%%%Q%qQ%qQ%%%qQ%q%Q%
-977D3%%%%%qQ%%%qQqQq%%%%%%%%%Q%q%QqQq%Q%%q%%%%%%Qq%Q%q%Q%qQj6J6%q%%Qq%Qq%Qq
-993C5%Q%%%%%%%%%qQq%%%%%Qq%%%%%Qq%Qq%QqQ%%%%qQ%%%qQ%qQq%QqQq%Q%%%qQ%%%%%%%%
-1009D3%%%%%%%%%%%%%%%%qQqQqQ%%%%%%qQq%%QqQqQ%%%%%qQ%q%%%QqQ%%%%%%%%%%%%%%qQ
-1025D3%%%%%%%%%q%Q%%%%%%%%%qQ%q%%%%%%%Qq%Qq%Qq%%QqQ%%%%%%%%%%%%%%%%%%%%%%%q
-1040C5%Qq%Q%q%Qq%%%%%%Q%%%%q%%%%%%Q%qQq%%Q%%%q%Q%%%q%%%%QqQqQ%%%%%%qQ%%%%%q
-1056C5%%%%%%Qq%Qq%Q%%%%%%qQqQ%%%%%%%%%%%%%%%%%%%q%%Qq%%%%%Q%qQq%Q%%%qQ%qQ%q
-1072C5%%%QqQ%%%%%%%%%q%Q%%%%%%qQq%QqQqQ%%qQqQqQ%%%%%%qQ%qQqQqQqQqQ%%q%Qq%%%
-1088C5%%%%%%%Qq%%%Qq%%Q%q%Q%%%qQqQ%%%%%%%%%%%%%qQ%%qQ%%qQ%q%%Qq%%%Qq%%Q%qQ%
-1104D3%%%q%%Qq%QqQq%Qq%Qq%%Qq%%%QqQ%q%QqQ%q%%Qq%%%%Qq%Qq%Q%%%%%q%QqQ%%%%%%%
-1119D3%%%%%qQq%Q%%%%%qQ%%%qQ%%%%qQ%%q%Q%%qQqQ%%%%%%qQ%%%%%%%%%%%%%%%%%%%%%%
-1135D3%%%%%%q%QqQqQqQq%QqQq%%%QqQ%%qQ%q%%%Q%qqJ6qJ6j6QqQ%%%qQ%%q%%%Qq%%%%%%
-1150C5%QqQqQ%%%qQqQ%qQ%qQ%%%%%%%qQq%%Q%%%%%%%%%%%%%%%%%%qQ%%%%%%qQq%QqQ%%%%
-1166D3%qQ%qQ%%%qQ%qQ%%q%QqQ%q%QqQ%%qQ%%qQqQ%%%q%%%%%%%%%QQj6%%%%%QqQqQq%QqQ
-1182D3%%%%%%q%%%%%Q%%qQ%%%%%qQ%%%%%%%%%%%%%%%%%%%%%%%%%%q%%%%%%%%%%Qq%%%%%Q
-1197D3%qQ%qQ%%%%%%%qQq%%%%Qq%Q%q%Q%qQ%qQ%qQ%%%qQ%%%%%qQ%%qQq%%QqQ%qQqQ%%%%q
-1213C5Q%%%qQ%qQq%%%%Qq%Q%qQqQqQ%%%%%%%%%qQ%%%%%%%%%%%%QqQqqQ%qQq%%Q%q%Q%%%q
-1229C5%%QqQqQ%%%%%%%%%%%q%%Qq%Qq%%%Q%%%%qQ%q%QqQ%%%qQ%%q%Q%%%%%%%%%q%%%%QqQ
-1245D3%%qQqQ%%q%Q%%%%qQqQqQq
-1250C5
##$OBSERVED MULTIPLETS=	(I, X, Y, Hs, Vs, An, H, C, N, (J))
$$ I: Multiplet Index
$$ X: Strt Coordinate
$$ Y: End Coordinate
$$ Hs: Horizontal Chemical Shift
$$ An: Normalised Integral Area
$$ H: Hydrogens
$$ C: Category
$$ N: Name
$$ (J): Coupling Constants
(1, 155.53146952457657903, 155.65266307375921429, 155.59206629916789666, 0.63157780662410956118, 1, s, 6)
(2, 129.54777635455616291, 129.66896990940784917, 129.60837313198200604, 2.1473651370712532049, 2, s, 2&comma;4)
(3, 120.86762210132515349, 120.98881609125102443, 120.92821909628808896, 1.073689910754384691, 1, s, 3)
(4, 115.77306774243173493, 115.89426136689529301, 115.83366455466351397, 2.147367145550252765, 2, s, 1&comma;5)
##$OBSERVED MULTIPLETS AREAS=	
(1, 0.50491773185541133362)
(2, 1.7167207636235077839)
(3, 0.85836625158172252803)
(4, 1.7167223693111213212)
##$OBSERVED MULTIPLETS PEAKS=	(I, X, Y)
$$ I: Multiplet Peak Index
$$ X: Peak x Position
$$ Y: Peak Intensity
(1, 155.59206629916789666, 0.048570249229669570923)
(2, 129.60837313198200604, 0.16513888537883758545)
(3, 120.92821909628808896, 0.082569710910320281982)
(4, 115.83366455466351397, 0.16513894498348236084)
##$PREDICTED PEAKS=	(X Y T A)
(115.82097872585970322,  , 3.5499999999999998224, <1>)
(129.59486737149237001,  , 3, <2>)
(120.91495593767709238,  , 3, <3>)
(129.59486737149237001,  , 3, <4>)
(115.82097872585970322,  , 3.5499999999999998224, <5>)
(155.57469413144025339,  , 3.8399999999999998579, <6>)
##$PREDICTEDCOUPLINGCONSTANTS=	J(A,B)	$$ (Hz)
159.1(1, 1)
2.12(1, 2)
7.8(1, 3)
1(1, 4)
2.12(2, 1)
159.64(2, 2)
2.01(2, 3)
1(2, 5)
7.8(3, 1)
2.01(3, 2)
160.01(3, 3)
2.01(3, 4)
7.8(3, 5)
1(4, 1)
2.01(4, 3)
159.64(4, 4)
2.12(4, 5)
1(5, 2)
7.8(5, 3)
2.12(5, 4)
159.1(5, 5)
2.09(6, 1)
7.78(6, 2)
1.2(6, 3)
7.78(6, 4)
2.09(6, 5)
##END=		$$ NMR SPECTRUM
##TITLE=	Predicted 13C NMR Spectrum
##JCAMP-DX=	6.0	$$ MestReNova 17.0.0-41178
##DATA TYPE=	NMR PEAK TABLE
##DATA CLASS=	PEAK TABLE
##BLOCK_ID=	4
##ORIGIN=	Mestrelab Research S.L.
##OWNER=	ctheodore
##CROSS REFERENCE=	NMR SPECTRUM: BLOCK_ID=3                                     
##.OBSERVE FREQUENCY=	125
##.OBSERVE NUCLEUS=	^13C
##NPOINTS=	4
##FIRSTX=	115.83366455466351397
##LASTX=	155.59206629916789666
##XFACTOR=	1
##YFACTOR=	1
##FIRSTY=	0.16513894498348236084
##XUNITS=	PPM
##YUNITS=	ARBITRARY UNITS
##PEAK TABLE=	(XYW..XYW)
115.83366455466351397,0.16513894498348236084,0.012119362446357018898
120.92821909628808896,0.082569710910320281982,0.012119398992586006419
129.60837313198200604,0.16513888537883758545,0.012119355485170530545
155.59206629916789666,0.048570249229669570923,0.012119354918264891793
##$MNOVA/PEAK_DATA_TABLE=	(T,F,A,ST,SP,APT,APC)
$$ Complementary to PEAK TABLE
$$ T: Type
$$ F: Flags
$$ A: Annotation
$$ ST: Shape Type
$$ SP: Shape Parameter
$$ APT: Attached Peaks Type
$$ APC: Attached Peaks Count
Compound,None,,0,0,0,0
Compound,None,,0,0,0,0
Compound,None,,0,0,0,0
Compound,None,,0,0,0,0
##END=		$$ NMR PEAK TABLE
##END=		$$ LINK
