##TITLE=	ethyene 13c
##JCAMP-DX=	6.0	$$ MestReNova 17.0.0-41178
##DATA TYPE=	LINK
##BLOCKS=	4    
##ORIGIN=	Mestrelab Research S.L.
##OWNER=	ctheodore
##$MNOVA/METADATA=	(DOCUMENT,BASE64)
eyJuYW1lIjoiL1VzZXJzL2N0aGVvZG9yZS9Eb2N1bWVudHMvY2xhc3Nlcy9OTVIgZXhwZXJpbWVudC9
naXRodWIgZmlsZXMvZXRoeW5lL2V0aHllbmUgMTNjLm1ub3ZhIiwicGFnZXMiOlt7Iml0ZW1zIjpbIj
EiLCAgICAgICAgICAgICAgICAgICAgICAgICAgICAgICAgICAgICAiMyIgICAgICAgICAgICAgICAgI
CAgICAgICAgICAgICAgICAgICAgXX1dfQ==
##TITLE=	
##JCAMP-CS=	3.7	$$ MestReNova 17.0.0-41178
##BLOCK_ID=	1
##ORIGIN=	Mestrelab Research S.L.
##OWNER=	ctheodore
##$MNOVA/METADATA=	(ITEM,BASE64)
eyJhbmdsZSI6MC4wLCJwb2ludHMiOlt7IngiOjUzMjEuMCwieSI6NTgzNS4wfSx7IngiOjU1MDkuNjI
xODg2MzA3NjIzLCJ5Ijo1ODM1LjB9LHsieCI6NTUwOS42MjE4ODYzMDc2MjMsInkiOjU5ODkuMDI4OD
A5Mzc3MTU1fSx7IngiOjUzMjEuMCwieSI6NTk4OS4wMjg4MDkzNzcxNTV9LHsieCI6NTMyMS4wLCJ5I
jo1ODM1LjB9XSwieiI6MS4wfQ==
##NAMES=	
##ATOMLIST=	
$$ AN	AS	NH
	1	C	1
	2	C	1
##BONDLIST=	
$$ AN1	AN2	BT
	1	2	T
##MAXRASTER=	32768
##XY_RASTER=	
$$ AN	X	Y	Z
	1	-32767	18915	0
	2	32767	-18915	0
##END=		$$ JCAMP-CS
##TITLE=	Predicted 13C NMR Spectrum
##JCAMP-DX=	6.0	$$ MestReNova 17.0.0-41178
##DATA TYPE=	NMR PEAK ASSIGNMENTS
##DATA CLASS=	ASSIGNMENTS
##BLOCK_ID=	2
##ORIGIN=	Mestrelab Research S.L.
##OWNER=	ctheodore
##CROSS REFERENCE=	STRUCTURE: BLOCK_ID=1                                     
NMR SPECTRUM: BLOCK_ID=3                                     
##.OBSERVE FREQUENCY=	125
##.OBSERVE NUCLEUS=	^13C
##NPOINTS=	2
##XUNITS=	PPM
##YUNITS=	ARBITRARY UNITS
##PEAKASSIGNMENTS=	(XYWA)
(88.269597351021118925, 0.16513879597187042236, 0.0060596756226090064956, <1>)
(88.269597351021118925, 0.16513879597187042236, 0.0060596756226090064956, <2>)
##END=		$$ NMR PEAK ASSIGNMENTS
##TITLE=	Predicted 13C NMR Spectrum
##JCAMP-DX=	6.0	$$ MestReNova 17.0.0-41178
##DATA TYPE=	NMR SPECTRUM
##DATA CLASS=	XYDATA
##BLOCK_ID=	3
##ORIGIN=	Mestrelab Predictor
##OWNER=	ctheodore
##NUMDIM=	1
##$MNOVA/METADATA=	(ITEM,BASE64)
eyJhbmdsZSI6MC4wLCJheGVzIjp7IngiOnsibWF4IjoyMzAuMDI1MzAyNzgzMzA2MTYsIm1pbiI6LTk
uOTk5MjY4ODY0ODg3NjM4fSwieSI6eyJtYXgiOjAuMTgxNjUyNjc2MzE0MTE1NTIsIm1pbiI6LTAuMD
E2NTEzODgyNzgzNjkwNTkyfX0sInBvaW50cyI6W3sieCI6NTMyMS4wLCJ5Ijo1ODM1LjB9LHsieCI6O
DcyMi4wLCJ5Ijo1ODM1LjB9LHsieCI6ODcyMi4wLCJ5Ijo4MjA4LjB9LHsieCI6NTMyMS4wLCJ5Ijo4
MjA4LjB9LHsieCI6NTMyMS4wLCJ5Ijo1ODM1LjB9XSwieiI6MC4wfQ==
##.OBSERVE FREQUENCY=	125
##.OBSERVE NUCLEUS=	^13C
##.SOLVENT NAME=	DMSO-d6
##.PULSE SEQUENCE=	
##.ACQUISITIONMODE=	SIMULTANEOUS (DQD)
##$ORIGINAL FORMAT=	Predictor
##$MNOVA/SCALES_VERSION=	9
##$PARAMETER FILE=	(parameters, ASCII, , 0)
$$ <?xml version="1.0" encoding="utf-8"?>
$$ <PredictorParameters>
$$     <Title>Predicted 13C NMR Spectrum</Title>
$$     <Origin>Mnova: NMR Prediction</Origin>
$$     <Name>Mestrelab Predictor</Name>
$$     <Version>1.7</Version>
$$     <Nucleus>13C</Nucleus>
$$     <Solvent>DMSO-d6</Solvent>
$$     <From>-10</From>
$$     <To>230</To>
$$     <Frequency>125</Frequency>
$$     <LineWidth>1.5</LineWidth>
$$     <Size>131072</Size>
$$     <DEPT>0</DEPT>
$$     <ProtonatedCarbons>0</ProtonatedCarbons>
$$     <ExcludeLabile>false</ExcludeLabile>
$$     <FastPrediction>0</FastPrediction>
$$     <ProtonDecoupled>1</ProtonDecoupled>
$$     <Reference/>
$$     <Options>
$$         <Settings>
$$             <Predictor Name="Mestrelab Predictor">
$$                 <Settings>
$$                     <Model>/Applications/MestReNova.app/Contents/Resources/data/13C.mbst</Model>
$$                 </Settings>
$$             </Predictor>
$$         </Settings>
$$     </Options>
$$     <MoleculeID>{1e047008-26c9-4890-80c0-bf9702a35d2f}</MoleculeID>
$$ </PredictorParameters>
$$ 
##XUNITS=	HZ
##YUNITS=	ARBITRARY UNITS
##FIRSTX=	28750
##LASTX=	-1249.7711181640625
##DELTAX=	-0.2288818359375
##XFACTOR=	1
##YFACTOR=	7.6898744352520052223E-11
##FIRSTY=	1.2496943480044819808E-09
##MINY=	-2.4414454902199622666E-09
##MAXY=	0.16513879597187042236
##NPOINTS=	131072
##XYDATA=	(X++(Y..Y))
28750A6%%%%%%%%%%%%%%%%%%%%%%%%%%%%%%qQ%%%%%%%%%%%%%%%%%%%%%%%%%%%%%%%%%%%%%
28734A6%%%%%%%%%%%%%%%%%%%%%%%%%%%%%%%%%%%%%%%%%%%%%%%%%%%qQ%%%%%%%%%%%%%%%%
28718A6%%%%qQ%%%%%%%%%%%%%%%%%%%%%%%%%%%%%%%%%%%%%%%%%%%%%%%%%%%%%%%%%%%%%%%
28703A6%%%%%%%%%%%%%%qQ%%%%%%%%%%%%%%%%%%%%%%%%%%%%%%%%%%qQ%%%%%%%%%%%%%%%%%
28687A6%%%%%%%%%%qQ%%%%%%%%%%%%%%%%%%%%%%%%%%%%%%%%%%%%%%%%%%%%%%%%%%%%%%%%%
28671A6%%%%%%qQ%%%%%qQ%%%%%%%%%%%%%%%%%%%%%%%%%%%%%%%%%%%%%%%%%%%%%%%%%%%%%%
28655A6%%%%%%%%%%%%%%%%%%%%%%%%%%%%%%%%%%%%qQ%%%%%%%%%%%%%%%%%%%%%%%%%%%qQ%%
28639A6%%%%%%%%%%%%%%%%%%%%%%%%%%%%%%%%%%%%%%%%%%%%%%%%%%%%%%%%%%%%%%%%%%%%%
28624A6%%%%%%%%%%%%%%%%%%%%%%%%%%%%%%%%%%%%%%%%%%%%%%%%%%%q%QQq%%%%%%%%%%%%%
28608A6%%%%%%%%%%%%%%%%%%%%%%%%%%%%%%%%%%%%%%%%%%%%%%%%%%qQ%%%%%%%%%%%%%%%%%
28592A6%%%%%%%%%%%%%%%%%%%%%%%%%%%%%%%%%%%%%%%%%%%q%Q%%%%%%%%%%%%%%%%%%%%%%%
28576A6%%%%%%%%%%%%%%%%%%%%%%%%%%%%%%%%%%%%%%qQqQ%%%%%%%%%%%%%%%%%%%%%%%%%%%
28560A6%%%%%%%%%%%%%%%%%%%%%%%%%%qQqQ%%%%%%%%%%%%%qQ%%%%%%%%%%%%%%%%%%%%%%%%
28545A6%%%%%%%%%%%%%%%%%%%%%%%%%%%%%%%%%%%%%%%%%%%%%%%%%%%%%%%%%%%%%%%%%%%%%
28529A6%%%%%%%%%%%%%%%%%%%%%%%qQ%%qQ%qQ%%%%%%%%%%%%%%%%%%%%%%%%%%%%%%%%%%%%%
28513A6%%%%%%%%%%%%%%%%%%%%%%%%%%%%%%%%%%%qQ%%%%%%%%%%%%%%%%qQ%%%%%%%%%%%%%%
28497A6%%%%%%%%%%%%%qQ%%%%%%q%Q%%%%%qQ%%%%%%%%%%%%%%%%%%%%%%%%%%%%%%%%%%%%%%
28482A6%%%%%%%%%qQ%%%%%%%%%%%%%qQqQ%%%%%%%%%%%%%%%%%%%%%%%%qQ%%%%%%%%%%%%%%%
28466A6%%%%%qQ%%%%%%%%%%%%%%%%%%%%%%%%%%%%%%%%%%%%%%%%%%%%%%%%%%%%%%%%%%%%%%
28450A6%%%%%%%%%%%%%%%%%%%%%%%%%%%%%%%%%%%%%%%%%%%%%%%%%%%%%%%%qQ%%q%QqQqQq%
28434HQ%%%%%%%%%%%%%%%%%%%%%%%%%%%%%%%%%%%%%%%%%%%%%%%%%%%%%%%%%%qQ%%%%%%%%%
28418A6%%%%%%%%%%%%%%%%%%%%%%%%%%%%%%%%%%%%%%%%%%%%%%%qQ%%%%%%qQ%%%%%%%%%%%%
28402A6%%%%%%%%%%%qQ%%qQqQ%%%%%%%%%%%%%%%%%%%%%%%%%%%%qQ%%%%%%%%%%qQ%%%%%%%%
28387A6%%%%%%%%%%%%%%%%%%%%%%%%%%qQ%%q%Q%%%%qQ%qQQj6J6q%%%%%%%%%%%%qQ%%%%%%q
28371HQ%%%%%q%%%Q%%%%%qQ%%%qQ%qQ%%%%%%%%%%%qQ%%%%%%%%%%%qQ%%%qQ%qQ%%%%%%%%%%
28355A6%%%%%%%%%%%%%%%%%%%%%%%%%%%%%%%%%%qQ%%%%%%%%%%%%%%%%%%%%%%%%%%%%%%%%%
28339A6%%%%%%%%%%%%%%%%%%%%%%%%%%%%%%%%%%%%%%%%%%%%%%%%%%%%%%%%%%%%%%%%%%%%%
28324A6%%%%%%%%%%%%%%%%%%%%%%%%%qQ%%%%%%%%%%%%%%%%%%%%%%%%%%%%%%%%%%%%%%%%%%
28308A6%%%%%%%%%%%%%%%%%%%%%%%%%%%%%%%%%%%%%%%%%%%%%%%%%%%%%qQ%%%%%%%%%%%%%%
28292A6%%%%%%%%%qQ%%%qQ%%%%%%%%%%%%%%%%%%%%%%%%%%%%%%%%%%%%%%%%%%%%qQ%qQ%%%q
28276HQ%%%%%%%%%%%%qQ%%%%%%%%%%%%%%%%%%%%%%%%%%%%%%%%%%%%%%%%%%%%%%%%%%%%%%%
28260A6q%Q%%%%%%%%%%%%%%%%%%%%%%%%%%%%%%%%%%%%%%%%%%%%%%%%%%%%%%%%%%%%%%%%%%
28244A6%%%%%%%%%%%%%%%%%%%%%%%%%%%%%%%%%%%%%%%%%%%%%%%%%%%%%%%%%%%%%%%%%%%%%
28229A6%%%%%%%%%%%%%%%%%%%%%%%%%%%%%%%%%%%%%%%%%%%%%%%%%%%%%%%%qQ%%%%%%%%%%%
28213A6%%%%%%%%%qQ%%%%%%%%%%%%%%%%%%%%%%%%%%%%%%%%%%%%%%%%%qQ%qQ%%%%%%%%%%%%
28197A6%%%%qQ%%%%%%%%%%%%%%q%Q%%%%%%%%%%%%%%%%%%%%%%%%%%%%%%%%%%%%%%%%%%%%%%
28181A6%%%%%%%%%%%%%%%%%%%%%%%%%%%%%%%%%%%%%%%%q%Q%%%%%%%%%%%%%%%%qQ%%%%qQ%%
28165A6%%%%%%%%%%%%%%%%%%%%%%%%%%%%%%%%%%%%%%%qQ%%qQ%%%%%%%%%%%%%%%%%qQqQ%%%
28150A6%%%%%%%%%%%%%%%%%%%%%%%%%qQ%%%%q%J6q%%%%%%%%%qQ%%%%%%%%%%%%%%%%%qQ%%%
28134A6%%%%%%%%%%%%%%%%%%%%%%%%%%%%%%%%%%%%%%%%%%%%%%%%%%%%%%%%%%%%%qQ%%%%%q
28118HQ%qQ%%%%%qQ%%%%%%qQ%%%%qQqQ%%%%%%%%qQ%%%%%%%%%%%%%%%%%%%%%%%%%%%%%%%%%
28102A6%%%%%%%%%%%%%%%%%qQ%%%%%%%%%%%%%%%%%%%%%%%%%%%%%%%%%%%%%%%%%%%%%%%qQ%
28086A6%%%%%%q%Q%%qQqQ%%%%%%%%%%%%%%%%%%%%%%%%%%%%%%%%%%%%%%%%%%%%%%%%%%%%%%
28071A6%%%%%%%%qQ%%%%%%%%%%%%%%%%%%%%%%%%%%%%%%%%%%%%%%%%%%%%%%%%%%%%%%%%%%%
28055A6%%%%%%%%%%%%%%%%%%%%%%%%%%%%%%%%%%%%%%%%%%%%%%%%%%%%%%%%qQ%%%%%%%%%%%
28039A6%%%%qQ%%%%%%%%%%%%%%%%%%%%%%%%%%%%%%%%%%%%%%%%%%%%%%%%%%%%%%%q%Qq%Q%%
28023A6%qQ%%qQ%%%qQ%%%%%%%%%%%%%%qQ%%%%%%%%%%%%%%%%qQ%%%%%%%%%%qQ%%%%qQ%%%%%
28008A6%%%%%%%%%%%%%%%%%qQ%%%%%%%%%%%%%%%%%%%qQ%%%%%%%%%%%%%%%%%%%%%%%%%%%%%
27992A6%%%%%%%%%%qQqQ%%%%%%%%%%%%%%%%qQ%%%%%%%%%%%%%%q%Q%q%Q%%%%%%%%%%%%%%%%
27976A6%%%%%%%%%%%%%%%%%%%%%%%%%%%%%%%%%%%%%%%%qQqQ%%%%%%%%%%%%%qQ%%%%%%%%%%
27960A6%%%%qQ%%%%%%%%%%%%%%%%%%%%qQ%%%%%%qQq%Qq%QqQ%%%%%%%%%%%qQ%%%%%%%%%%%%
27944A6%%%%%%%%%%%%%%%%qQ%%%%qQ%%%qQ%%%%qQ%%%%%%%%%%%%%%%%%%%%%%%%%%%%%%%%%%
27929A6%%%%%%%%%%%%%%%%%%%%%%%%%%%%%%qQ%%%%%%%%qQ%%%%%%qQ%%%%%%%%%%%%qQqQ%%q
27913HQq%%Q%qQ%q%QqQ%qQ%q%%%K4j6J6k4Q%q%QqQqQ%%%%%qQqQ%%%%%%qQq%Q%%%%%%%%qQ%
27898A6%%%%%%%%%%%%%%qQ%%qQqQ%%%%%%q%Q%%%%%qQqQ%qQ%%%%%%%%%%%qQ%%%%%%%%%%%%q
27882HQ%%%%%%%%%%%%%q%Q%%%%%%qQ%%%qQ%%%%%%%%%%%%%%%%%%%%%%%%%%%%qQ%%%%%qQ%%%
27866A6%%%%%%%%%%%%%%qQ%%%%%%%%%%%%%%%%%%%%%%%%%%qQ%%%%qQ%%%%q%%QqQqQ%%%%%qQ
27850A6%%q%Q%%%%%%%%%%%%%%%%%%%%%%%%%%%%%%%%%%%%%%%%qQ%%%%%%%%%%%%%%%%%%%qQq
27834HQ%%%%%%%%%%%%%%%qQ%%%%%%%%%%%%%%%%%%%%%%%%qQ%%%q%%%Q%%qQ%%%%%%%%%%%%%%
27818A6%%%%%%%%%%%%%%%%%%%%%%%%%%%%%%%%%%%%%%%%%%%%%%%%%%%%%%%%%%%%%%%%%%%%%
27802A6%%%%%%%%%%%%qQqQqQ%%%%%%%%%%%%%%%%%%%%%%%%%%%%%%%%qQ%%%%%%%%%%%%%%%%%
27787A6%%%%%%%%%%%%%%%qQ%%%%%%%%%%%%%%qQ%%%%%%%%%%qQ%%%%%%%%%%%%%%%%%%%%%%%%
27771A6%%%%%%%%%qQ%qQ%%qQ%%%%%%%qQ%%%%%%%qQ%%%qQ%%%%qQ%%%%%%%%%%%%%%%%%%%%%%
27755A6%%%%%qQ%%qQq%%%Q%%%%%%%%%%%%%%%%%%q%QqQ%%%%%%%qQ%%%%%%%%%%%%%%%%%%%%%
27739A6%%%%%%%%%%%%%%%%%qQ%%%%%%%%%%%%%%%%%%%%qQ%qQ%%%qQ%%%%%%%%%%%%%%%%%%%%
27723A6%%%%%%%%%%%%%%%%%%%%%%%%%%%%%%%%%qQ%%%%%qQ%%%%%%%%%%%%%%%%qQ%%%%%%%%%
27708A6%%%%%%%%%%%%%%%%%%qQ%%%%%qQ%%%%%%%%%%%%%%%%%%%%%%%%%%%%%%%%%%%%%%%%%%
27692A6%%%%%%%%%%%%%%%%qQqQ%%%%%%%%%%qQ%%%%%%%%qQ%%%%%%%%%%%%%%%%qQ%q%Q%q%Q%
27676A6%%%%%qQqQ%%qQQq%%qQ%qQ%qQ%%%%%%%qQqQqQ%%%%%%%%qQ%%%%%%%%%%%%%%%%%%%%%
27660A6%%%%qQ%%%%%%%%%%%%%%%%%%%%%%%%%%%%%%%%%%%%qQ%%%%%%%%%%%%%%%%%%%%%%%%%
27645A6%%qQ%%qQ%%%%%%%%%%%%%%%%%%%%%%%qQ%%qQ%%%qQ%%%%%%qQ%%%%%%%%%%%%%%%%%%%
27629A6%%%%%%%%%%%%%%%%%%%%%%%%%%%%%%%%%%%%%%%%%%%%%%%%%%%%%%%%%%%%%%%%qQqQ%
27613A6%%%%%%%%%%%%%%%%%%%%%%%%%%%%%%%%%%%%%%%qQ%%%%%%%%%%%%%%%%%%%%%%%%%%%%
27597A6%%%qQ%%%%%%%%%%%%%%%%%%%qQ%%%%%%%%%%%%%%%%%%%%%%%%%%%%qQ%%%%%qQ%%%%%%
27581A6%%%%%%%%%%%%%%%%%%%%%%%%%%%%%%%%%%%%%%%%%%%%%%qQ%%%%%%%%%%%%%%%%%%%%%
27566A6%%%%%%%%%%%%%%%%%%%%%%%%%%%%%q%%%Q%%%%%%%q%QqQ%%%%%%qQ%%%%%%%%%%%%%%%
27550A6%qQ%%%%%%%%%%%%%%%%%%%%%%%qQ%qQ%%%%%%%q%Q%%%qQ%%%%%%%%%%%%%%%%%%%%%%%
27534A6%%%%%%%%%qQ%%%%%%%%%%%%%%%%%%%%%%%%%qQ%%%%%%%%%%%%%%qQ%%%%%%%%%%%%%%%
27518A6%%%%%%%%qQ%%%%%%%%%%%qQ%%%%%%%%%%%%%%%%%%%qQ%%%%%%%%%q%Q%%%qQ%%%%%%%%
27502A6%%%%%%%%%%%%%%%%%%%%%qQqQ%%%%%%%%%%%%%%%%%%%%%%%%%%%%%%%%%%%%%%%%%%%%
27487A6%%%%%%%%%%%%%%%%%%%%%%%%%%%%%%%%%%%%%%%%%%%%%%%%%qQ%%%%%%%%qQ%%%%%%%%
27471A6%%%%%%%qQ%%%qQqQ%%%%%%%%%%%%%%%%%%%%%%%%%qQ%%%%%%%%%%%%%%%%%%%%%%%%%%
27455A6%%%%%%%%%%%%%%%%%%%%%%%%%%%%%%%%%%%%%%%%%qQqQq%%%Q%q%Q%qQ%q%Q%%qQ%q%Q
27439A6Qk4QQ%%%qQqQ%%%qQqQ%%%%%qQ%%%%%%%%%%%%%%qQ%%%%%%%%%%%%%%%%%%%%%%%%%%%
27424A6%%%%%%%%%%%%%%%%%%%%%%%%%%%%%%%%%%%%%%%%%%%qQ%%%%%%%%%%%%%%%%%%qQ%qQ%
27408A6%%%%%%%%%qQ%%%%%%%%%%%%%%%%%%q%%Qq%%%Q%%%q%QqQ%%%%%%qQ%%%%%%%%%%%%%%%
27392A6%%%%%%%%%%%%%%%%%%%%%%%%%%%%%%%%%%%%%%%%%%%%%%q%%Qq%%%Q%q%QqQqQ%%%%%%
27376A6%%%%qQ%%%%%%%%%qQqQ%%%%%%%%%%%%%%%%%%%%%%%%%%%%%qQ%%%%%%%%%%%%%%%%%%%
27360A6%%%%%qQqQqQ%%qQ%qQ%%%%%%%%%%%%%%%%%%%%%%%%%%%%%%%%%%%%%%%%%%%%%%%%%%%
27345A6%%%%%%%%%%%%%%%%%%%%%%%%%%%%%%%%%qQ%qQ%%qQ%%%%%%%%%%%%%qQ%%%%%%%%%%%%
27329A6%%%%%%%%%%%qQ%qQ%qQ%%%qQ%%qQ%%%%qQq%Q%q%Q%q%QqQ%%%%%%%%%%%%%%%%%%%%%%
27313A6%%%%%%%%%%%qQq%%Q%%%%%%%%%%%%%%%%%%%%%%%%%%%%%qQqQ%%%%%%%%%%%%%%%%%%%
27297A6%%%%%%%%%%%%%%%%%qQqQ%%%%%%%%%q%Q%%%%%%%%%%%%%%%%%%%qQqQ%%%%%%%%%%%%%
27281A6%%%%qQ%%%qQ%qQ%qQ%%%qQ%%%%%%%%%%%%%%%%%%%%qQ%qQ%%qQ%%%%%%%%%qQ%%%%%%%
27266A6%%%qQqQ%%qQq%%Q%%%qQ%%%q%Q%%%%%%%%%%%%%%%%%%%%%%%%%%%%%qQ%%%%%%%%%%%%
27250A6%%%%%%%%%%%%%%%%%%qQ%qQ%%%%%%%%%%%%%%%%%%%%%%%%%%qQq%Q%%%qQqQ%qQ%%q%Q
27234A6%%%%%qQ%%%%%%%%%%%%%%%%%%%%%%qQ%q%Q%q%Q%%%%%%%%%%%%%%%%%%%%%%%%q%QqQ%
27218A6%%%%q%%Q%q%QqQ%%%%qQ%qQ%%%%%%%%%%qQ%%%%%%qQ%%%%%%%%qQqQqQ%%%q%QqQ%qQq
27203HQ%%%%%%qQ%%%%%%%%%%%%%qQ%%%%%%%%%%%%%%%%%%%%%%%%qQ%%%%%%%%%%%%%%%%%%%%
27187A6%%%%%%%%%%%%%%%%%%%%%%%%%%%qQ%%%%%%%%%%%%%%%%qQ%%%qQ%%%qQ%qQ%%%%%%%%%
27171A6%qQ%%%%%%%%%%%qQ%%%%%%%%%%%%%%%%%%%qQqQ%%q%Q%%%%%%q%%QqQ%%qQqQ%%%%%%%
27155A6%%%qQ%qQ%%%%qQ%%qQ%q%%%Q%%%qQq%Q%%%%%%%%%q%%Q%%%%%%%qQ%%%%%%%%%%%%%%%
27139A6%%qQqQqQ%%%%%%qQ%%%%%%%%%%%%%%%%%%%%%%%%%%%qQqQ%%qQ%%%%%%qQ%%%%%%%%q%
27123HQ%%qQ%%q%%%Q%%q%%Q%%%%%qQ%%qQ%%%%%%%%%%%%%%%%%%%%%%%%%%%%qQ%%q%Q%%%%%%
27107A6%%%%%%%%%%%%%%%%%%%%%qQqQ%%%%%%%%%%%%%%%%%%%%%%%%q%Q%qQ%%q%%Q%%%q%%%%
27092H%Q%%%qQ%%%q%%Q%%%%%qQ%qQ%%%%%%%%qQ%%%%%%%qQ%%%%%%%%%%%%%%%%%%%%%%%%%%%
27076A6%%%%%%%%%%%%qQ%%%%%%%%%%%%%%%%%%%%%%%%%%%%%%%%%%%%%qQ%%%%q%Q%%q%%Q%%q
27060HQ%qQ%%%%%%qQ%%%%%%%qQ%%%qQ%q%Q%q%Q%%%%%qQ%%%%%%%%%%%%%%%%%%%%%%%%%%%%%
27044A6qQ%%%%%%%%%%%%%%%%%%%%%%%%%%%%%%%%%%%%%%%%%%%%%%%%%%%%%%%qQqQ%qQq%%Q%
27028A6qQ%%%%q%Qq%%%Qq%QqQ%%%%%%%%%%%%%%%%%%%%%%%%%%%%%%%%%%%%%%%qQ%%%%%%%%%
27012A6%%%%qQ%%%%%%%%qQ%%%%%%%%%%%%%%%%%%%%%%%%%%%%%%%%qQ%%%%%qQ%%%%%%%%%qQ%
26996A6%%%%%%qQ%%%%%%%%%%%%%%%%%%%%%%%%%%%%%%%%%%%%%%%qQ%%%%%%%qQ%%%%%%qQ%%%
26981A6qQ%%%%%%%%%%%%%%qQ%%%q%%%%Q%%%%qQ%%%qQqQ%%QqqqQK4k4%QqQq%Qq%Q%%%%qQ%%
26965A6%%%%%%%qQ%%qQ%%%qQqQ%qQ%%%%%%%%%%%qQqQ%%%%%%%qQ%%%%%%%%%%%%%%%%%q%Q%%
26949A6qQ%%qQ%%qQ%%%%%%%%%%%%%%%%%%%%%qQ%%%%qQ%%%%%%%%%%qQ%%%%%%%%%%%%%qQ%%q
26934H%Q%q%Q%%%%%%%%%%%%%%%%%%%%%%%qQqQ%%%%%%%%%%%%%%%%%%%%%%%%%%%%%%qQ%%qQ%
26918A6%%%%qQ%%%%%%%%%%%%%%%qQqQ%%q%%%%Q%%%%%qQ%%%%%%qQqQ%%%%%qQ%%%%%qQ%%%%%
26902A6%qQ%%%%%%%%%%%%%%%q%Q%%%%%%%%%q%Q%%%%%%%%%%%qQ%q%Q%qQ%q%%QqQqQq%%Q%%q
26886HQqQ%%%%%%%%%qQ%%%%%%%%%%%%%%%%%%%%q%Q%%%%%%%%%qQ%q%Q%qQ%%%%%%%%%%%%%%%
26870A6%%%%%%%%%%qQ%%%%%%qQqQqQqQ%%%%%%%%%%qQ%%q%Q%%%%%%%q%%Q%%%%%%qQqQ%q%Qq
26854H%Q%%%%%qQ%qQ%%%%%%%%%%%%%%qQ%%%%%%%%%%%%%%%%%%%%%%%%%%%%%%%%%%%%%%%%%%
26838A6%%%%%%%%%%%%%%%%%%%%%%%%%%%qQ%%qQ%q%%Q%%%qQ%%%%%%%qQ%%%%qQ%%%q%Q%%%qQ
26822A6%%qQ%%qQqQ%%qQ%%%%%%%%%%%%%%%%%%%%%%qQ%%%%qQ%%%%%%%%%q%Q%%%%%%%%%%%%%
26807A6%%%%%%q%Q%%%qQ%%%%%qQqQqQ%%%%%%%%%%%%%%%%%%q%%%Qq%Qq%%Q%qQqQq%Q%%%%%%
26791A6%%%%%%%%%%qQ%%%%%%%%%%qQ%%%%%%%%qQ%qQ%qQ%qQ%%%%%%%%%qQ%%q%Q%q%Q%q%Q%%
26775A6qQ%%qQ%%%%%%%%%%%%%q%Q%%%qQ%%%%%qQ%%qQ%%%%qQqQ%%%%%%%%%qQ%%%%%%%%%%%%
26759A6%%%%%%q%Q%q%Q%%qQ%%%%%%%%%%%%%%%%%%%%q%Q%%%%%%%%%%%%%%%%%%%%%%%%q%Qq%
26743HQ%%q%%Q%%%%%%%qQ%qQ%%%%qQ%%qQqQ%%%%%%%%%qQq%Q%qQ%%%%%qQ%%%%qQqQ%%%%qQ%
26727A6qQ%q%%Qq%%Qq%%Q%q%QqQ%%%%%%%%%%%%%q%Q%qQ%%q%Q%%%%%%%%%%%%%%%%%%%%%%%%
26712A6%%%%%%%%%%%%%%%%%%%qQ%qQ%%%qQ%%qQ%%%qQ%qQ%%%%%%%%%%%qQ%%qQ%%%%%%%%qQq
26696H%%QqQqQ%%qQ%%%%%%%q%QqQqQ%%%%%%%q%Q%%%%%%%%%%%%%%%%%%%%%%%%%%%%qQ%%%%q
26680HQ%%%q%Q%qQq%%%Q%%qQ%%%%%q%Q%%%%%%%%%%%%%%%qQ%%%%%%%%%%%%%%%%%%%%%%%%%%
26664A6%%%%%%%qQ%%%%%%%%%%%qQqQ%%%%%qQ%%%%%%qQ%%%%%qQ%%%qQ%%%%%%%%%%%%%q%QqQ
26648A6qQ%%%q%%Q%qQ%%%%%%%%%%%%%%%%%%qQ%%%%%%%%%%%%%%%%%%%%%%%%%%%%%%%%%qQ%%
26632A6%%%%%%%%qQ%%qQqQq%%QqQ%%%%%%%%%%qQ%%%%%%%%%qQ%%%%%%qQ%q%QqQ%%%%%%qQ%%
26616A6%%%%%%%%%%%%%qQ%%%%%%%%q%Q%qQ%qQ%%%%%%%%%%%%%%%%%%%%%%%%%qQ%%%%%%qQ%%
26601A6%%%%qQ%%%qQ%%%%%qQ%%%%%%%%%%%%%%%%%%%q%%QqQ%%%%q%%Q%%%%%%%%%%qQ%%%%%%
26585A6%%%%%%%%%%%%%%%%%%%%%%%%%%%%qQ%%%%%%%%%%%%%%%%%%%%%%%%%%%%%qQ%%qQ%%qQ
26569A6q%Q%%%%%%%%%%%%%%%%%%%%%%%%%%%%%%%q%Q%%%%qQqQ%%%%%qQ%%%%%%%%%%%%%%%%%
26553A6%%%%%%%%%%%%%%%qQ%%%%qQ%%%%%%%%%%%%%%%%%qQ%%%%%qQ%%%%%%q%Q%%q%%%%Q%%q
26537H%QqQ%%%%%%%%%%q%Q%%%%%%qQ%%q%%Q%%%%%%qQ%%%%%%%%%%%%%%%%%%%%%%%%%%%%%%%
26521A6%%%%%%%%%%%%%qQ%%%%%%%%%%%%%%%%qQ%%qQ%%%%%qQ%%%%%%%%%%%qQ%%%%qQ%%%%%%
26506A6qQ%%%%%%%%%%%q%QQqQk4QQqQ%%%%%qQ%q%QqQ%%%%qQ%%%%%%%qQqQqQ%%%%%%%%%%%%
26490A6%%q%%Q%%%%%%%%qQ%%%%%%%%%%%%%%%%%%%%%%%%%%%%%%%%%%%%%qQ%%%%%%%%%%%%%%
26474A6%%qQ%%qQ%qQqQ%%%%%%%qQqQ%%qQ%%qQ%q%%%Q%qQqQ%%q%Q%%%%%%qQ%%%%%%%%qQ%%%
26458A6%qQ%%%qQ%qQq%Q%qQ%%qQ%%%%%%%%%%%%%%%%%%%%%%%%%%%%%%%%%%%%%%%%qQqQ%q%%
26443HQ%%%%%%%%%%%%%%%%%%%%%%%%%%%%%%%%%%%qQ%%%%%%%%%%%%%%%%%%%%%%%%qQ%%%%%%
26427A6%%q%%Q%%%%%%%%%%%%qQ%%%%qQ%%%%%%%%%%%%%%%%%%%%%%%%%%qQ%qQ%%%qQqQqQ%%%
26411A6%%qQ%%%%%%qQ%%%%%%%%%%%%%%%%%%%%%%%%%%%%%%%%%%%%%%qQqQ%%%%%%%%%%%%%%%
26395A6%%%%%%%%%qQ%%%%%%%%%%%%%qQ%%%%%%%%%%%%qQ%qQ%qQ%qQ%%%%%qQ%%%%qQ%%%%%%%
26379A6%%%%%%%%%%%%%%%%%%qQ%%%%qQ%%%%%%%%%%%%%%q%QqQ%%%%%%%%%%%%%%%%%%%qQ%%%
26363A6%%%%qQ%%%%%%%%%%%%%%%%%%%%%%%%qQ%%%qQ%%%%%%%%%%%%%%%%%qQ%%%%%%%%%%%q%
26348HQq%QqQ%%%%%%%%%%%%q%Q%%%%%%%%%%%%%%%%%qQ%%%%%%%%%%%%%qQ%%qQ%%%%%qQ%%%%
26332A6%%%%%%%qQqQqQ%%%qQ%qQ%qQqQ%%%%%%%%%qQ%%%%%%%%%%%%%%%%%%%qQ%qQ%q%%Q%qQ
26316A6%%%%%%%%%%%%%%%%%%%%qQ%%%%%%%%%%%%%%%%%qQ%%%%%%%%%%%%%%%%%%%%%%%%%%%%
26300A6%%%%%%%%%%%%%%%%q%%Q%qQqQq%Qq%Q%%%%%qQ%%q%%Q%%%qQ%%%%%qQ%%%%%%%%%%%%%
26284A6%%%%%%qQ%%%%qQqQ%%qQ%%%%%%%%q%Q%%%%%%qQ%%%%%%%%qQ%%%%%qQ%%%qQ%%%%qQ%q
26268HQ%%qJ6qq%%%%Qq%%Q%qQ%%%qQ%q%QqQq%%%%Qq%%%%%%%Q%%%q%Q%%%%q%Q%%%qQ%%%%%%
26253A6%q%QqQ%%%%%%%%%%qQ%qQ%%%qQ%q%Q%q%Q%%%%%%%%%%%%%%%qQ%%%%%%%%%%%qQ%%qQ%
26237A6%%%%q%%Q%%%%%%%%%%%%%%%%%%%%%%%%qQ%%%%%%%%%%%%%%%%%%%%%%qQ%%%q%%QqQqQ
26221A6%%qQqQ%qQ%%%%%%%%%%%%%%%%%%%%%%%%%%%%%%qQqQ%%%%%%%%%q%QqQq%Q%%%qQ%qQ%
26205A6%%%%%%%%%%%%%%%%%%%%%%%%%%%%%%%qQ%%%%%%%%%%%qQ%qQ%%%qQ%%%%%%%%%%%%%%%
26189A6%%%%%%%%%%%%%%%%%%%%%%%%%%%%qQ%%%%%%%%%%%%%%%%%%%%%%%%%%%%%%%%%qQ%%%%
26174A6%%%%%%%%%%%%%%qQ%%%%%%%q%Qq%Q%%%%%%%%%%q%Qq%QqQ%%%%qQ%%qQ%%qQ%%qQ%%%%
26158A6%%qQ%qQ%%%%qQq%QqQ%%%%%%%%qQ%%qQ%%%%qQ%%%%%%%%%%%%%%%%%%%%q%Q%%%%q%%Q
26142A6%%%%%q%%Q%%%%%q%Q%%%%%%%%%%%%qQ%%%%%%%%%%%%qQ%%%%%%%%%%%%%%%%%%qQ%%%%
26126A6%%%%%%%%%%%%%%%%%%%%%%%%%qQqQq%QqQ%%%qQqQqQqQ%qQ%%%%%%%%qQ%%%qQ%%%%%%
26111A6%%%%%%%%%%%%%q%QqQ%qQ%%%%%%qQ%%%%%%q%QqQ%q%Q%q%Q%%%qQ%%%%%%%%%%%%%%%%
26095A6qQ%%%%%%%%%%%qQq%Qq%%%%%Qq%Qq%%Q%qQ%q%%%Q%%%qQ%%qQ%q%Q%%%%%%%%%%%%%%%
26079A6%%%%%%%%%q%Q%%qQ%q%QqQ%qQ%qQ%qQ%%%%%%%%%qQ%%%%%%%%%q%%Qq%QqQ%%q%Q%%%%
26063A6%%qQ%%%%%%%%q%Q%%%%%%%qQ%%%%%%%%%qQq%Qq%Q%qQ%%%%%%%q%Q%%%%%qQ%q%Q%%%%
26047A6qQ%%%%%qQ%%%qQ%%%%%qQqQ%%%%%%qQqQ%j6J6q%Qq%Q%qJ6q%qQ%%qqJ6qQj6L2m0L2m0
26033a6L2j6J6j6J6m0N6%l2%J6%Qqq%QQj6QqQqQj6Q%%Q%%qQq%QqQqQ%%%%%qQqQ%q%Qq%Q%%
26020A6q%Qq%Q%%%%qQqQq%Q%qQ%%%%%qQqQ%%%%%%qQ%%q%QqQ%%%%qQ%%%%%%%%%%%%%%%%%%%
26004A6%%%%%%%%%q%QqQq%%%QqQ%qQ%%%%%%%%%%qQ%q%%%Q%%%qQ%%%%%%%qQqQqQ%q%Q%qQq%
25989HQqQqQ%%qQq%Q%%%qQ%%%%%%%%%%%%%%%%qQ%%%%%%%%%%%%%%q%%Q%%%%%qQqQ%qQ%%qQ%
25973A6%%%qQ%%%%%qQ%%%%%%%%%qQ%%%%qQqQqQ%%%%%%%%qQ%%%%%%%%%%%%qQ%%%%%%%%%%%%
25957A6%%%%%%%%%%%%%%%%%%%qQ%%%%%qQ%%q%Q%q%Q%qQ%%%%%%%%%%%q%QqQ%%%%%%%%%%%%%
25941A6%%qQ%%%qQ%%q%Qq%%Q%%%%%%%%%%%%%%%%%%%%%%%%%%%qQ%%%%%qQ%%%%%qQqQ%qQ%%q
25925HQqQ%%%%%%%qQ%%%qQq%Q%%%%%%%%%qQ%%qQ%%%%qQqQ%%%%%%qQ%%%%q%%Q%qQ%%%%%%%%
25909A6%%%%%%q%%QqQ%%%%%%%qQ%q%Q%%qQq%%QqQqQ%%%%%%%%%qQ%%%qQ%qQ%%%%%%%%%%%%%
25893A6%%%%%%qQ%%%%%%qQ%%%%%%%%%%%%%qQ%%%%%%%%%%%%qQ%qQ%%%%%%%%%%%%%qQ%%%%%%
25878A6qQ%%%%%qQqQ%%%%%%%%%%%%qQ%%%%%%%qQ%%%%%%%%%%%%%%%%%%%%%%%%%%%%%%%%%%%
25862A6%%%%%%%%%%qQ%qQ%%%q%%Q%qQ%%%%%%%%%%%%%%%%%%%%%%%qQ%%%%%%%%%%%%%%%%%%q
25846HQ%qQ%%%qQ%qQq%Q%qQ%%%qQ%%%%%%%%%%%%%%%%%%%%%qQ%%%%%%%%%%%%%%%%%%%%%%%%
25830A6%%%%%%q%%Q%qQ%%%%%%%%%%%qQ%%%%%%%qQ%%%%%%%%%%%%%q%QqQ%%%qQ%qQ%%%%%%%%
25814A6%%%%%%%%%%%%qQ%%%%%%%%%%qQ%%%%%%qQq%Q%%qQ%%%qQ%%%%%q%Q%q%%Q%%%%%%%%%%
25798A6q%QqQ%%%%qQ%%%%%%%%%%%%%qQ%%%%%%%qQ%%%%%%%qQ%%%%qQ%%%%%%%%%%%%qQ%%qQ%
25783A6%%%%%%%%%%%%%%%%%%%%%%%%%%%%%%%%%%%%%%%%qQ%%%%%%%%%%%%%%qQ%%%%%%%%%%%
25767A6%%%%%%%%%%%%%%%%%%%%%%%%%%%%qQ%%%%%qQqQ%%%%%qQ%%%q%QqQ%%%qQ%%%qQ%%%qQ
25751A6q%%Q%%%%q%Q%%%%q%QqQqQ%q%Q%%%%%%%qQ%%%%%%%q%%%%Q%q%%QqQ%%%%%qQq%%Q%%%
25735A6qQ%%%%%%qQ%%qQ%%%%%%%%%%%%%%%%%%%%%%%%qQ%%%%qQ%%%%%%%%%qQ%%%%%%%%qQ%%
25719A6%%q%%QqQ%qQqQ%%qQ%%%%%%%qQ%qQ%%%%%%%%%%qQ%%%%%%%%%%%%%%%%%%%%%%%%%qQ%
25704A6%%%%%%%%%%%%qQ%%%%%%%%%%%%%%%%%%%%%%qQ%%%qQqQqQ%%%%%%%%%%%%%%q%%Q%%%%
25688A6qQ%%%%%%%%%%%%%%%%%%qQ%%%qQ%%%qQ%qQ%qQ%q%Q%%qQ%%qQ%%%%%%%qQqQqQ%%%%qQ
25672A6%%%%%%%%qQ%%%%%%%qQ%qQqQ%%%%%qQ%%%%%qQqQ%%%%%%%%%%%%%%%%%%%qQ%q%Q%%%%
25656A6%qQ%%%%%%qQ%%%%q%%Q%%%%%%%q%Q%%%%%qQ%%%%%%qQ%%%%%qQ%%%%%%%%qQ%%%qQ%%%
25640A6%%%%%%%%%qQ%%qQ%%%%%%%%qQ%%%qQ%%qQ%qQ%%%%q%Q%%qQ%%qQqQ%%%%%%%%%%%%%%q
25625HQ%%%%%q%QqQ%%%%qQqQqQ%%%%%%%%qQ%%%%%%%%%%%%%%%%%qQ%%%%%%%%%%%%%%%%%%%%
25609A6%%qQ%qQ%qQqQ%%%%%%%%%%%%%%%%%%%%%%q%Q%%%%%q%Q%%%qQq%Q%qQ%%q%Q%q%QqQ%%
25593A6%%%qQ%%%%%%%%%%%%qQ%%%q%%%Q%%%%%%%%%%qQ%%%%%%%%%%%%%%%%%%%%qQ%%qQqQ%q
25577HQ%%%%%%qQ%%%%%%%%%%%%%%%%%%%%%qQ%qQ%qQqQ%qQq%%Q%%%qQqQqJ6j6J6k4J6%q%Qq
25562HQ%%%%qQ%%%%qQqQ%%qQ%%%%%%%qQ%%%%%%%%%%%%qQ%%%qQ%%%%%%qQ%%q%Q%%%%%%%%%%
25546A6%%%%%%%%%%%%%%%%%%%%%%%%%%%%%qQ%%%qQ%%%%%%%%%%qQ%qQ%%%%%q%Q%qQ%%%q%Qq
25530HQ%%%%%%qQ%%qQqQqQ%q%Q%q%Q%%qQ%%%%%%%%%%%%%%%%%%%%%%%%%%%%%%qQ%%%%%%%%%
25514A6%%%%%%%%%%%%%%%%%%%qQ%%%%%%%%qQ%%qQ%%%%%%qQqQ%%%%%%%%%%%%%%%%%%%%qQ%%
25499A6%qQ%%%%qQqQ%q%Q%qQ%%%%%%%%%%q%Q%%%%%%%%%%%%%%%%%%%%%%%%%%%%%%%%%%%%%%
25483A6%%%%%qQ%%%%%%%%%%%qQ%%%%%%%qQqQ%%%%%%%%qQ%%qQ%%%%%%%%%%%%%%%%%%%%%qQ%
25467A6%%qQ%%qQq%Q%%%%%q%Q%%%%%qQ%qQ%%%%%%%%%qQqQqQ%%qQq%Q%%%%%%%%%%%%%%%qQ%
25451A6qQ%%%%%%%%%%qQqQ%%%qQqQ%qQ%%%%%%%%%%%%qQ%qQ%%%%%%%%%%%%%%%%%%qQqQqQ%%
25435A6%%qQqQ%%%%%%%%%%%%%%%%q%Q%%%%qQ%%%%%%%%%%%%%qQ%qQ%%%%%%%%%%%%%%%qQ%%%
25420A6%qQ%%%%%%%%%%%qQ%%%%qQqQ%%%%qQ%%%%%%qQ%%%%%qQ%%%%qQ%qQqQ%%%%%%%%%qQ%%
25404A6%%%qQ%%%%%%%%%%%%%qQ%%%qQ%%%%%%%%%%%%%%%%%%%%%%%%%%%%%%%%%qQqQ%q%Q%%q
25388H%QqQ%qQ%%qQ%%%%%%%%%%%%qQ%%%%%%%%%%%%%%%%%%%%%%%qQ%%%%%%%%%%%%%%%qQ%%%
25372A6%%%%%%%%q%Q%%%%%%%%%%%%%%%%%%%%%qQ%%%%%%%%%%%%%%%%%%%%%%q%QqQ%%%%%%%%
25356A6%%%%%%%%%%%q%Q%%%%%%qQ%%%%%%%%%%%%%%qQ%%%%%%%%%%%%%%%%%%%%%%%%%%%%qQ%
25340A6%%%%%qQ%%%%%%%%%%qQ%%%qQ%%qQ%%qQ%%qQ%%%%qQq%Qq%%Q%qQ%%qQ%%%qQq%QqQ%%%
25325A6%%%%%%%qQ%%%qQ%qQ%qQ%%%%%%%%%%%%%%%%%%%%%%qQ%%%%%%%%%%%%%%%%%qQ%%%%%%
25309A6%%%%%%%%%%%%%%%%%%%%%%%%%%%%%%%%%%qQ%%qQ%qQ%%%%%%%%%%%%%%%%%%%%%%%%%%
25293A6%%%%%%%%%qQ%%%%%%qQ%%%%%%%%%%%%%%%%%%%%%%%%%%%%%%%%%%%%%%qQ%%q%Q%%%%%
25277A6%%qQ%%%%%%%%%%%qQ%%%qQ%%qQq%QqQq%Q%q%%%%%Q%%%%%%%%%%%%%%%%%%%%qQ%q%%Q
25261A6%%%%%%%%%%%%%%%%%%%%%%%qQ%qQ%%%%%%%%%%%%%%%%%%%%%%%%%%%%%qQ%%%%%%%%%%
25246A6%%%%%%%%%%%qQ%%%qQ%qQ%%%%%%%%%%%%%%%%%%%%%%%%%%%%%%%%%%%%%%%%qQ%%%%%%
25230A6%%%%%%%qQ%%%%%%%%%%%%%%%%%%%%%%%%%%%%%%%%%%%q%Qq%QqQ%%%qQ%%%%%%qQ%%%%
25214A6qQq%QqQqQqQqQ%%%qQ%q%%Q%qQ%%qQ%%qQqQ%qQ%%%%%%%%%%%%%%%%%qQ%%%%%%qQq%Q
25198A6%%qQqQqQ%%%%%qQ%%%%%%%%%%%%%%%%%%%%%%%%%%%%%%%%%%%q%QqQ%%%qQ%qQqQqQ%%
25182A6%%%%%%qQ%%%%%%%%%%qQ%%qQ%qQ%qQ%qQqQ%%%qQ%q%QqQqQqQ%%%%%%%%%q%Q%%%%%%%
25167A6%%%%%%%%%%%%%%qQ%qQqQqQ%%qQ%%%%%%%%%%%%%%%qQ%%%%%qQ%%%%%%q%Q%%qQ%%%%q
25151HQ%qQ%%%%%%%%%%%%%%%%%%%%%%%%%qQqQ%%qQ%%%%%%%qQ%%%%%%qQ%%%%%%%%%%%%%%%q
25135HQ%%%%%%%%%q%%%Q%%%qQqQ%qQ%%qQ%%q%Q%%%%%%q%%Q%qQqQ%%%%%%%%%%%%%%%%%%%%%
25119A6%%%%%%%%qQ%%%q%Q%qQ%%%%%%%%%%%%%%qQ%%%%%%qQ%%qQ%q%%Q%%%%%qQ%%%%%%%qQ%
25103A6%%qQ%%%%%%%%%%%%%%%%%%%%%%%Qj6Qq%QJ6j6qJ6j6%Qq%%%%Q%%q%QqQ%%%%%qQ%%%%
25088A6%%%%%%%%%%%%%%%%%%%%%%qQ%%%%%%%q%%Q%%%qQ%%%%%q%Q%%qQ%%qQqQ%qQ%qQ%%%%%
25073A6%qQ%%qQ%qQ%%%%%qQ%%%qQ%%qQ%%%q%Q%%%%qQqQ%%%%qQq%%Q%%%%%%%%%%%%%%%%%%q
25057HQqQ%%%%qQ%%%%%%%%%%%%%qQ%%%%%%%%%%%%%%%%%%%%%%%%%%%%%%%qQ%%%q%QqQ%qQ%q
25041HQq%Qq%%%%Q%%%%%%q%Q%%qQ%qQ%qQq%Q%%%%%%qQ%%%%%%%%%%%%%%%%%%%%%%%%%%%%%%
25025A6%%%%%qQ%%%%qQ%%%%%%%%%%%%%%%%%%%%%%%%%%%%%%%%%%%%%%%%qQ%%%%%%qQ%qQ%%%
25009A6q%QqQ%%%%%%%%%%%%%%%%%%%%%%%qQ%%%%%%%%%%%%%%%%%%%%%%%%%%%%%%%%%%%%qQ%
24993A6qQ%qQ%%%q%Q%%qQ%%%%%%%%%q%Q%%%%%%%%%%%%%%%%%%%%%%%%%qQ%%%%%q%%%Q%%%%%
24977A6%%%%%%%%%%%%%%%%%qQqQ%%%%qQ%qQ%qQ%%%%%%%%%%%%%%%%%%%%%%%%%%%q%Q%%%%%%
24962A6qQ%%%%%%%%%%%%%%qQ%%%%%%qQ%%qQ%%%%%%%%%%%%%%%%%%%%%%%%%%%%%%%%qQ%%%%%
24946A6%%%%qQ%%%%%%q%%QqQ%%%%%%%%%%%%%%%%%%%%%%%%%%%%%%%%%%%qQ%%%%%%%%%%%%%%
24930A6%%%%%qQ%%%%qQ%%%%%%%%%%%%%qQ%qQq%%Q%%%%%%%%%qQ%%qQ%%%%%%%%%%%%%%%qQ%%
24914A6%%qQ%%qQ%%%%%%%%%%%%%%%%%%%%%%q%Q%%%%%%%%qQ%%%%qQ%%%%%%%%%%%%%%%%%%%%
24898A6%%qQ%%qQ%%%%%qQ%%%%%%%%%%%%%%%%%%%%%%q%Q%%%%%%%%%%%%%%%%%%qQ%%%%%%%q%
24883HQ%%qQ%%%%%%%%%%%%%%%%%%%%%%%qQqQ%%%%%%%%%%%%%%%%%%%%%%%%%%%%%%%qQ%%qQ%
24867A6qQ%%%%%%qQ%qQ%%%%qQq%Q%q%%%QqQ%%qQ%qQq%Q%%%%%%%%%%%qQ%%%%%%%%%%%%%%%%
24851A6%%%%%%%%%%%%%%%%%%q%Q%%qQqQ%%%%%%%%%%%%%%%%%%%%%%%%q%Q%%qQ%%%%%%%%%%%
24835A6%%%q%Q%%%%%q%%Q%qQ%%%%%%%%%%%%%%%%%%%qQ%%%%%%%%%%%%%%%%%%%%%%%%%%%%%%
24819A6%%%%%%%%%%%%%%%%%%%%%%%%%%%%%%%%%%%%%%%%%%%%%%%%%%%%%%%%%%%%%%%%%%%%%
24803A6%%%qQ%%qQ%qQ%%%%%%%%%%%%%qQ%%%%%qQ%%%%q%QqQ%%%%qQ%qQ%%%%%%%%%%%%%%%%%
24788A6qQ%%qQ%qQ%qQ%%%qQ%%qQ%%%%%%%%%qQ%q%Q%%%%%%%%%%%%%%%%%%%%%%%%%%qQ%qQ%%
24772A6%%%%%%%%%%%%%%qQ%%%%%%%%%%%%%%%%%%%%%%%%qQqQ%%%%%%%%%%%%%%%%%%%%%%q%Q
24756A6%%%%%%%%%%%qQ%%%qQ%%qQ%%%%%%%%%%%%%%%%%%%%%%%%q%QqQ%%%q%QqQ%%%%%qQ%%%
24740A6%%q%%%QqQqQ%%%%%%%%%%%%%%%%%%%qQ%qQ%%%%%%%%%%%%%%%%%%%%%%%%%%%%%%%%%%
24724A6%%%%%%%%%%%%%%%%%%%%%%%%%%%%%%%%%%%%%%%%%%%qQ%%%%%%%%qQ%%%%%%%%%%%%qQ
24709A6%%%%%%%qQqQ%qQ%%%%%%%%%%%%%%%%%%%%%%%%%%%%%%%%qQ%%%%%%%%%%%%%%%%%%%%%
24693A6qQ%%%%%%%%%%%%%%%%%%%%%%%%%%%%%%q%%%%Q%%%%%%%%%%%%%%%qQ%%%%%%%qQqQqQ%
24677A6qQ%%%%%%%%%%qQ%%%%%%qQ%%%%%%qQ%%%qQ%%%%%%%%%%%%%%%%%qQqQ%%%qQ%%%%%%%%
24661A6%%%%%%%%%%%%%%%qQ%%qQ%%%%%%%%%%%qQ%%%%%%%%%%%%%%%%%%%%%%%%%%%%%%%%%%%
24645A6%%%%%%%%%%%%%%%%%%q%Q%%%%%%%%%%%%%%%%%%qQqQ%%%%%%%%qQ%%%%%%%%%%%%%%%%
24630A6%%%%qQ%%%%q%%Qj6J6qQqQ%%%qQ%%%%%%%qQ%%%%%qQ%%%%%qQ%%%%%%%qQ%%%%%%%%%%
24614A6%%%%%%%%%%%%%qQ%%%%%%%%%%%%%%%%%%%%%%%%%%%%%%%%%%%%%%%%%%%%%%%%%%%%%%
24599A6%%%%%%%%%%qQ%%%%%%%%%%%%%%qQ%%%qQ%%%%%%%%qQ%%%%%%%%%%%%%%%%%%%%%%%%%q
24583HQ%%%%%%%%%%%%%%%%%%%%%%%%%%%q%%Q%%%%%%%%qQ%%%%%%%%%%qQ%qQq%QqQq%Q%%%%%
24567A6%qQ%%%%%%%qQ%%qQ%%q%Q%%%q%Qq%%%Q%%%%%%%%%%%%%%%%%qQqQ%%%%%%%%%%%%%%%%
24551A6%%%%%%%%%%qQ%%%%%%%%qQ%qQ%%%%%%%q%QqQ%%%%%%%%%%%qQ%%%%%q%Q%qQ%%%%%%%%
24535A6%%%%%%%%%%%%%%%%%%%%%%%%%%%%%%%%%%%%%%%%%%%%%%%%qQ%%%%%qQ%%%%%%%%%%%%
24519A6%%%%%%%%%%%%%%%%%%%%%%%%%%%%%%%%%%%%qQ%%%%%%q%%%%%Q%qQ%%%%qQ%%%%%%qQ%
24504A6%%%%%%%%%%%%%%%%%%%%%%%%%%%%%%%%%%%%%%%%%%%%%%%%%%%%%%%%%%%%%qQ%qQ%%%
24488A6%%%%%%%%%%%%%%%%%%%%%%%%%%%%%%%%%%%%%%%%%%%%%%%qQ%%qQ%%%%%%%%%%%%%%%%
24472A6%%%%%%%%%%%%%%%%%%%%%%%%%%%%%%%%%%%%%%%%%%%%%%%%%%%%%%%%%%%%%%%%%%%%%
24456A6%%%%%%%%%%%%%%%%%%%%qQq%Q%%%%%%qQ%%%%%%%%%%%%%%%%%%%%qQ%%%%%%%%%%%%%%
24440A6%%%%%%%%qQ%%%%%%%%%%qQ%%%%%%%%%%%%qQ%%%%%%%%%%%%%%%%%%%%%%%%%%%%%%%%%
24425A6%%%%%%%%%%%qQ%%%%%%qQ%%%%%%%%%%%%%%%%%%%%%%%%%qQ%%%%%%%%%%%%%%%%%%%%%
24409A6%%%%%%qQ%%%qQqQ%%%%%%%%%%%%%%%%%%%%%%%%%%qQ%%%%%%qQ%%%%%%%%%q%Q%%q%Qq
24393HQ%%qQ%%%qQ%%%%%%q%Q%%%%%%%%%%%%%%%%%qQ%%%%%%%%%%%%%%%%%%%%%%%%%%%%%%%%
24377A6%%%%%%%%%%%%%%%%%%%%%%%%qQ%%%%%%%%%qQ%%%%%%%%%%%%%%%%%%%%%%%%%%%%%%%%
24361A6qQ%%%%%%%%%%%%%%%%%%%%%%qQ%%qQ%%%%%qQ%%%%qQ%%%%%%%%%%%%%%%%%%%%%%%%%%
24345A6%%%%%%%%%%%%%%%%%%%%%%%%%%%%%%%%%%%%qQqQ%%qQ%%q%Q%%%q%Q%%qQ%qQ%qQ%%%%
24330A6%%%%%%%%%%%%%%%qQ%%qQ%%%%%%%%%%%%%%%%%%%%%%%%%%qQ%%%%%%%%%%%%%%%%%%%%
24314A6%%%%%%%%%%%%%%%%%%%%%%%%%%%%%%%%%%%%%%%%%%%%%%qQ%%%%%%%%%%%%%%%%%%%%q
24298HQ%%%%%%%%%%%%%%%%%%%%%%%%%%%%%%%%%%%%%%%%%%%%%%%%%%%%%%%%%%%%%%%%%%%%q
24282HQ%%%%%%%%%%%%%%%%%%%%%%qQ%q%%%Qq%%Q%%qQ%%%%%%%%%%%%%%%%%%%%%%%%%q%Q%qQ
24266A6%%%%%%%%%%%%%%%%%%%%%%%%%%qQ%%%%%%%%%%%%%%%%%%%%%%%%%%%%%%%%%%%%%%%%%
24250A6%%%%%%%%%%%%%%%%%%%%%%%%%%%%%%%%%%%%q%Q%%%%%%%%%%%qQ%qQ%%%%%%%%%%%%%%
24234A6%%%%%%%%%%%%%%%%%%%%%%%%%%%%%%%%%%%qQ%%%%%%%%qQ%%%%%%%%%%%%%%qQ%%%%%%
24219A6%%%qQ%%q%%J6q%%%%%%%%%%%qQ%%%%%%%%%%%%%%%%%%%%%%%%%%%%%%%%%%%%%%%%%%%
24203A6%%%%%%%%%%%%%%%%%%%%%%%%%%%%%%%%%%%%%%%%%%%%%%%%%%%%%%%%%%%qQ%%%%%%%%
24187A6qQ%%%%%%%%%%%%%%%%%%%%%%%%qQqQ%%%%%%%%%%%%%%%qQ%%%%%%%%%qQqQqQ%%%%%%%
24171A6%%%%%%%%%%%%%%%%%%%%%%%%qQ%%%%q%%Qq%Qq%QqQqQ%qQ%%%qQqQ%j6J6%k4K4%%q%%
24157H%qQ%%Q%qQq%Q%%%%%%%%%qQ%%%qQqQ%%%%%%%%%%%%%%%%%%%%%%qQ%%%%%%%qQ%%%%%%%
24141A6%%%qQqQ%%%%%qQ%%%%%%%%%%%%%%%%%%%%%%%%%%%%%%%%%%%%%%%qQ%%%%%%%%%%%%%%
24125A6%%%%%%%%%%%%%%%%%%%%%%%%%%%%%%%%%%%%%%%%%%%%%%%%%%%%%%%%%%%%%%%%%%%%%
24109A6%%%%%%%%%%%%%%%%%%%qQ%%qQ%qQ%q%Q%%%%%qQ%%%%qQ%%%%%%%%%%%%%%%%%%%%%%%%
24093A6%%%%%%%%%%%%%%%%%%%%%%%%%%qQ%%%qQ%%qQ%%%qQ%%%%%%%%%%%%%%%%%%%%%%%%%qQ
24077A6qQ%%%q%Q%%%%%%%%%%%%%%%%qQ%%qQq%Q%%%%%%%q%%Qq%Q%%%%%%%%%%%%%%%qQ%%%%%
24062A6%%%%%%%%%%%%%%%%%%%%%%%qQ%%qQ%%%%%%%%%%%%%%%%%%%%%%%%%%%%%%%%qQ%%%%%%
24046A6%%%%%q%QqQ%%%qQ%%%%%qQ%qQ%%%%%%%qQ%%%%%%%%%%%%%%%%%%%%%%%%%%%%%%%%%%%
24030A6%%%%%%%%%%%%%%%%%%%%%%%%%%%qQ%%qQ%%%%%%%%%%%%%%qQ%%%%%%%%%%%%%%%%%%%%
24014A6%%%%%%%%qQ%%%%%%%%%%%%%%%%%%%%%%%%%%%%%%%%%%%%%%%%%%%%%%%%%%%%%%%%%%%
23998A6%%%%%%%%%%%%%%%%%%%%%%%%%%%%%%%%%%%%%%%%%%%%%%%%%%%%%%%%%%%%%%%%%%%%q
23983HQ%qQ%%%%%%%%%%%%%%%%%%%%%%%%%%%%%qQ%%%%%%%%%%%%%%%%%%%%%%%%%%%%%%%qQ%q
23967HQ%%%%%%%%%%%qQ%%%%%%%%%%%%qQ%%%%%%%%%%%%%%%%%%%%%%%%%%%%%%%%qQqQ%qQ%%%
23951A6%%%%%%%%%%%%%%%%%%%%%%%%%%%%%%%%%%%%%%%%%%%%%%%%%%%%%%%%%%%%%%%%%%%%%
23935A6%%%%%%%%%%%%%%%%%%%%%%%%%%%%%%%%%%%%%%%%%%%%%%%%q%QQqq%Q%%%%%%%qQqQqQ
23919A6%%%%%%%%%q%Q%%%%%%%%qQ%%%%%%%%%%%%qQ%%%%%%%%%%%%%%%%%%%%%%%%%%qQ%%%%%
23903A6%%%%%%%%%%%%%%%%%%%%%%%%%%%%%%%%%%%qQ%%qQ%%%%%%%%%%%%%%%%%%%%%%%%%%%%
23887A6%%%%%%%%%%%%%%%%%%%%qQ%%%%%%%qQ%%%%%%qQqQ%%%%%%%%%%%%%%%%%%%%%%%%qQ%%
23872A6%%%%%%%%%%%%%%%%%%%%%%%%%%%%%%%%qQ%%%%%%%%%%%%%%%%%%%%%%%%%%%%%%%%%%%
23856A6%%%%%%%%%%%%%%%%qQ%%%%%%qQ%%%%%%%%%%%%%%%%%%%%%%%%%%%%%%%%%%%%%%%%%%%
23840A6%%%%%%%%%%%%%%%%%%%qQqQ%%qQqQ%%%%%%%%%%%%%%%%%%%%%%%%%%%%%%%%%%%%%%%%
23824A6%%%%%%%%%%%%%%%%%%%%%%%%%%%%%%%%%%qQ%%%%%%qQq%Q%%%%%%%%%%%%%%%%%%%%%%
23808A6%%%%%%%%%%%%%%qQq%%Q%%%%%%%%%%%%%%%%%%%%%%%%%%%%%%%%%%%%%%%%%%%%%%%%%
23793A6%%%%%%%%%%%%%%%%%%%%%%%%%%%%%%%%%%qQ%%%qQ%%%%%%%%%%%%%%%%%%%%%%%%%%%q
23777HQ%%%%%%%%%%%%%%%%%%%%%%%%%%%%%%%%%%qQ%%%%%%%qQ%%%%%%%%%%%%%%%%q%Q%%qQ%
23761A6%%%%%%qQ%%%%%%%%%%%%%%%%%%%%%%%%%%%%%%%%%%%%%%%%%%%%qQ%%%%%%qQ%%%%%%%
23745A6%%%%%%%%%%%%%%%%%%%%%%%%%%%%%%%%%%%%%%%%%%%%%%%%%%%%%%%%%%%%%%%%%%%%%
23729A6%%%%%%%%%%%%%%%%%%%%%%%%%%%%%%%%%%%%%%%%%%%%%%%%%%%%%%%%%%%%%%%%%%%%%
23713A6%%%%%%%%%%%%%%q%Q%%%%%%%%%%qQ%%%%%%%%%%%%%%%%%%%%%%%%%%%%%%%%%%%qQ%%%
23698A6q%Q%%%%qQ%%q%Q%%%%%%%%%%%%qQ%%qQqJ6j6%QqK4j6%%%%%%%%%%%qQ%%%%%%%%%%%%
23683A6%%%%%%%%%%%%%%%%%%%%%%%%%%%%%%%%%%%%%%%%%%%%%%%%%%%%%%%%%%%%%%%%%%%%%
23667A6%%%%%%%%%%%qQ%%qQ%%%%%%%%%%%%qQ%%%%%%%%%%%%%%%%%%%%%%%%%%%%%%%%%%%%%%
23651A6%%%%%%%%%%%%%%%%%%%%%%%%%%qQqQ%%%%%%%%%%%%%%%%%%qQ%%%%%%%%%%%%%%%%%%%
23635A6%%%%%%%%%%%%%%%%qQ%%%%qQqQ%%%%%%%qQ%%%%%%%%%%%%qQ%%%%%%%%%%%%%%%%%%%%
23620A6%%%%%%%%%%%%qQ%%%%%%%%%%%%%%%%%%%%%%%%%%%%%%%%%%%%%%%%%%%%%%%%%%%%%%%
23604A6%%%%%%%qQ%%%%%%%%%%%%%%%%%%%%%%%%%%%%%%%%%%%%%%%%%%%%%%%%%%%%%%%%%%%%
23588A6%%%qQqQ%%%%%%%%%%%%%%%%%%%%%%%%%%%qQ%%%%%%%%%%%%%%%%%%%%%%%%%%%%%qQ%%
23572A6%%%%%%%qQqQ%%qQ%%%%%%%%%%%%%%%%%%%%%%%%%%%%%%%%%%%qQ%%%%%%%%%%%%%%%%%
23556A6%%%%%%%%%%%%%qQ%%%%%%%%%%%%%%qQ%%%%%%%%%%%%%%%%%%%%%%%%%%%%%%%q%%Q%%%
23541A6%%%%%%%%%%%%%%%%%%%%%%%%%%%%%%%%%%%%%%%%%%%%%%%%%%%%%%%%%%%qQ%%%%%%%%
23525A6%%%%%%%%%%%%%%%%%%%%%%%%%%%%%%%%%%%%%%%%%%%%%qQ%%%q%Q%%%%%%%%%qQ%%%%%
23509A6%%%%%%%%%%%%%%%%%%%%%%%%%%%%%%%%%%%%%%%%%%%%%qQ%%%%%%%%%%%%%%%%%%%%%%
23493A6%%%%%%%%%%%%%%%%%%%%%%%%%%%%%%%%%%%%%%%%qQ%%%%%%%%%%%%%%%%%%%%%%%%%%%
23477A6%%%%%%%%%%%%%%%%%%%%%%%%%%%%%%%%%%qQqQ%%%%%%%%%%%%%%%%%%%%%%%%%%%%%%%
23462A6%%%%%%%%%%%%%%%%%%%%%%%%%%%%%%%%Qq%qQ%%%%%%%%%%%%%%%%%%%%%%%%%%%%%%%%
23446A6%%%%%%%%%%%%%%%%%%%%%%%%%%%%%%%%%%%%%%%%%%%%%%%%%%%%%%%%%%%%%%%%%%qQ%
23430A6%%%%%%%%%%%%%qQ%%%%%%%%%%%%%%%%%%%%%%%%%%%%%%%%%%%%%%%%qQ%%%%%%%%%%%%
23414A6%%%%%%%%%%%%%%%qQ%%%%%%%%%%%%qQ%%%%%%%%%%%q%Q%%%%%%%%%%%%%%%%%%%%%%%%
23399A6%%%%%%%%%%%%%%%%%%%%%%%%%%%%%%%%%%%%%%%%%%%%%%%%%%%%%%%%%%%%%%%%%%%%%
23383A6%%%%%%%%%%%%%%%%%%%%%%%%%%%%%%%%%%%%%%%%%%%%%%%%%%%%%%%%%%%%%%%%%%%%%
23367A6%%%%%%%%%%%%%%%%%%%%%%%%%%%%%%%%%%%%%%%%%%%%%%%%%%%%%%%%%%%%%%%%%%%%%
23351A6%%%%%%qQ%%%%%%%%%%%%%%%%%%%%%%%%%%%%%%%%%%%%%%%%%%%%%%%%%%QqqQQq%%%%q
23335HQ%%%%%%qQ%%%%%%%%%%%%%%%%%%%%%%%%%%%%%%%%%%%%%%%%%%%%%%qQ%%%%%%%%%%%%%
23319A6%%%%%%%%%%%%%%%%%%%%%%%%%%%%%%%%%%%%%%%%%%%%%%%%qQ%%%%%%%%%%%%%%%%%%%
23304A6%%%%%%%%%%%%%%%%%%%%%%%%%%%%%%%%%%%%%%%%%%%%%%%%%%%%%%%%%%%%%%%%%%%%%
23288A6%%%%%%%%%%%%%%%%%%%%%%%%qQ%%qQ%%%%%%%qQ%%%%%%%%%%%%%%%%%qQ%%%%%%%%%%%
23272A6%%%%%%%%%%%%%%%%%%%%%%%%%%%%%%%%%%%%%%%%%%%%%qQ%%%%%%%%%%%%%%%%%%%%%q
23256HQ%%%%%%%%%%%%%%%%%%%%%%%%%%%%%%%%%%%%%%%%%%%%%%%%%%%%%%%%%%%%%%%%%%%%%
23240A6%%%%%%%%%%%%%%%%%%%%%%%%%qQ%%%%%%%%%%%%%%%%%%%%%%%%%%%%%qQ%%%%%%%%%%q
23224HQ%%%%%qQqJ6q%%qJ6j6%K4j6%qQ%qQq%Qq%Q%qQQqqQ%%%%%%%%%%%%%%%%%%qQqQ%%%%%
23209A6%%%%%%%%%%%%%%%%qQ%%qQ%%%%%%%%%%%%%%%%%%%%%%%%%%%%%%%%%%%%%%%%%%%%%%%
23194A6%%%%%%%%%%%%%%%%%%%%%%%%%%%%%%%%%%%%%%%%%%%%%%%%%%%%%%%%%%%%%%%%%%%%%
23178A6%%%%%%%%%%%%%%%%%%%%%%%%%%%%%%%%%%%%%%%%%%%%%%%%%%%%%%%%%%%%%%%%%%%%%
23162A6qQ%q%%Q%%%%%%%%%%%%%%%%%%%%%%%%%%%%qQ%%%%%%%%%%%%%%%%%%%%%%%%%%%%%%%%
23146A6%%%%%%%%%%%%%%%%%%%%%%%%%%%%%%%%%%%%%%%%%%%%%%%%%%%%%%%%%%%%%%%%%%%%%
23130A6%%%%%%%%%%%%%%%%%%%%%%%%%%%%%%%%%%%%%%%%%%%%%%%%%%%%%%%%%%%%%%%%%%%%%
23115A6%%%%%%%%%%%%%%%%%%%%%%%%%%%%%%%%%%%%%%%%%%%%%%%%qQqQqQ%qJ6q%%%%%%%%%%
23099A6%%%%%%%%%%%%%%%%%%%%%%%%%%%%%%%%%%%%%%%%%%%%%%%qQ%%%%%%%%%%%%%%%%%%%%
23083A6%%%%%%%%%%%%%%%%%%%%%%%%%%%%%%%%%%%%%%%%%%%%%%%%%%%%%%%%%%%%%%%%%%%%%
23068A6%%%%%%%%%%%%%%%%%%%%%%%%%%%%%%%%%%%%%%%%%%%%%%%%%%%%%%%%%%%%%%%%%%%%%
23052A6%%%%%%%%%%%%%%%%%%%%%%%%%%%%%%%%QqqQ%%%%%%%%%%%%%%%%%%%%%%%%%%%%%%%%%
23036A6%%%%%%%%%%%%%%%%%%%%%%%%%%%%%%%%%%%%%%%%%%%%%%%%%%%%%%%%%%%%%%%%%%%%%
23020A6%%%%%%%%%%%%%%%%%%%%%%%qQ%%%%%%%%%%%%%%%%%%%%%%%%%%%%%%%%%%%%%%%%%%%%
23004A6%%%%%%%%%%%%%%%%%%%%%%%%%%%%%%%%%%%%%%%%%%%%%%%%%%%%%%%%%qQ%%%%%%%%%%
22989A6%%%%%qQ%%%%%%%qQ%%%%%%%%%%%%%qQ%%%%%%%%%%%%%%%%%%%%%%%%%%%%%%%%%%%%%%
22973A6%%%%%%%%qQ%%%%%%%%%%%%%%%%%%%%%%%%%%%%%%%%%%%%%%%%%%%%%%%%%%%%%%%%%%%
22957A6%qQ%%qQ%%%%%%%%%%%%%%%%%%%%%%%%%%%%%%%%%%%%%%%%%%%%%%%%%%%%%%%%%%%%%q
22941HQ%%%%%%%%%%%%%%%%%%%%%%%%%%%%%%%%%%%%%%%%%%%%%%%%%%%%%%%%%%%%%%%%%%%%%
22925A6%%%%%%%%%%%%%%%%%%%%%%%%%%%%%%%%%%%%%%%%%%%%%%%%%%%%%%%qQ%%%%%%%%%%%%
22909A6%%%%%%%%%%%%%%%%%%%%%%%%%%%%%%%%%%%%%%%%%%%%%%%%%%%%%%%%%%%%%%%%%%%%%
22894A6%%%%%%%%%%%%%%%%%%%%%%%%%%%%%%%%%%%%%%%%%%%%%%%%%%%%%%%%%%%%%%%%%%%%%
22878A6%%%%%%%%%%%%%%%%%%%%%%%%%%%%%%%%%%%%%%%%%qQ%%%%%%%%%%%qQ%%%%%%%qQ%qQ%
22862A6%%%%%%%%%%%%%%%%%%%%%%%%%%%%%%%%%%%%%%%%%%%%%%%%%%%%%%%%%%%%%%%%%%%%%
22846A6%%%%%%%%%%%%%%%%%%%%%%%%%%%%%%%qQ%%%%%%%%%%%%%%%%%%%%%%%%%%%%%%%%%%%%
22830A6%%%%%%%%%%%%%%%%%%%%%%%%%%%%%%%%%%%%%%%%%%%qQ%%%%%%%%%%%%%%%%%%%%%%%%
22815A6%%%%%%%%%%%%%%%%%%%qQ%%%%%%%%%%%%%%%%%%%%%%%%%%%%%%%%%%%%%%%%%%%%%%%%
22799A6%%%%%%%%%%%%%%%%%%%%%%%%%%%%%%%%%%%%%%%%%%%%%%%%%%%%%%%%%%%%%%%%%%%%%
22783A6%%%%%%%%%%%%%%%%%%%%%%%%%%%%%%%%%%%%qQ%%%%%%%%%%%%%%%%%%%%%%%%%%%%%%%
22767A6%%%%%%%%%%%%%%%%%%%%%%%%%%%%%%%%%%%%qQ%%%%%%%%%%%%%%%%%%%%%%%%Qq%%%%Q
22751B4qQj6%Q%Qq%%qQ%%%%%%%%%%%%%%%%%%%%%%%%%%%%%%%%%%%%%%%%%%%%%%%%%%%%%%%%
22736A6%%%%%%%%%%%%%%%%%%%%%%%%%%%%%%%%%%%%%%%%%%%%%%%%%%%%%%%%%%%%%%%%%%%%%
22720A6%%%%%%%%%%%%%%%%%%%%%%%%%%%%%%%%%%%%%%%%%%%%%%%%%%%%%%%%%%%%%%%%%%%%%
22704A6%%%%%%%%%%%%%%%%%%%%%%%%%%%%%%%%%%%%%%%%%%%%%%%%%qQ%%%%%%%%%%%%%%%%%%
22689A6%%%%%%%%%%%%%%%%%%%%%%%%%%%%%%%%%%%%%%%%%%%%%%%%%%%%%%%%%%%%%%%%%%%%%
22673A6%%%%%%%%%%%%%%%%%%%%%%%%%%%%%%%%%%%%%%%%%%qQ%%%%%%%%%%%%%%%%%%%%%%%%%
22657A6%%%%%%%%%%%%%%%%%%%%%%%%%%%%%%%%%%%%%%%%%%%%%%%%%%%%%%%%%%%%%%%%%%%%%
22641A6%%%%%%%%%%%%%%%%%%%%%%%%%%%%qJ6%j6Q%%%%qQ%%%%%%%%%%%%%%%%%%%%%%%%%%%%
22626A6%%%%%%%%%%%%%%%%%%%%%%%%%%%%%%%%%%%%%%%%%%%%%%%%%%%%%%%%%%%%%%%%%%%%%
22610A6%%%%%%%%%%%%%%%%%%%%%%%%%%%%%%%%%%%%%%%%%%%%%%%%%%%%%%%%%%%%%%%%%%%%%
22594A6%%%%%%%%%%%%%%%%%%%%%%%%%%%%%%%%%%%%%%%%%%%%%%%%%%%%%%%%%%%%%%%%%%%%%
22578A6%%%%%%%%%%%%%%%%%%%%%%%%%%%%%%%%%%%%%%%%%%%%%%%%%%%%%%%%%%%%%%%%%%%%%
22563A6%%%%%%%%%%%%%%%%%%%%%%%%%%%%%%%%%%%%%%%%%%%%%%%%%%%%%%%%%%%%%%%%%%%%%
22547A6%%%%%%%%%%%%%%%%%%%%%%%%%%%%%%%%%%%%%%%%%%%%%%%%%%%%%%%%%%%%%%%%%%%%%
22531A6%%%%%%%%%%%%%%%%%%%%%%%%%%%%%%%%%%%%%%%%%%%%%%%%%%%%%%%%qQ%%Qj6Q%%%%%
22515A6%%%%%%%%%%%%%%%%%%%%%%%%%%%%%%%%%%%%%%%%%%%%%%%%%%%%%%%%%%%%%%%%%%%%%
22500A6%%%%%%%%%%%%%%%%%%%%%%%%%%%%%%%%%%%%%%%%%%%%%%%%%%%%qQ%%%%%%%%%%%%%%%
22484A6%%%%%%%%%%%%%%%%%%%%%%%%%%%%%%%%%%%%%%%%%%%%%%%%%%%%%%%%%%%%%%%%%%%%%
22468A6%%%%%%%%%%%%%%%%%%%%%%%%%%%%%%%%%%%%%%%%%%%%%%%%%%%%%%%%%%%%%%%%%%%%%
22452A6%%%%%%%%%%%%%%%%%%%%%%qQ%%%%%%%%%%%%%%%%%%%%%%%%%%%%%%%%%%%%%%%%%%%%%
22437A6%%%%%%%%%%%%%%%%%%%%%%%%%%%%%%%%%%%%%%%%%%%%%%%%%%%%%%%%%%%%%%%%%%%%%
22421A6%%%%%%%%%%%%%%%%%%%%%%%%%%%%%%%%%%%%%%%%%%%%%%%%%%%%%%%%%%%%%%%%%%%%%
22405A6%%%%%%%%%%%%%%%%%%%%%%%%%%%%%%%%qQ%%%%%%%%%%%%%%%%%%%%%%%%%%%%%%%%%%%
22389A6%%%%%%%%%%%%%%%%%%%%%%%%%%%%%%%%%%%%%%%%%%%%%%%%%%%%%%%%%%%%%%%%%%%%%
22373A6%%%%%%%%%%%qQ%%%%%%%%%%%%%%%%%%%%%%%%%%%%%%%%%%%%%%%%%%%%%%%%%%%%%%%%
22358A6%%%%%%%%%%%%%%%%%%%%%%%%%%%%%%%%%%%%%%%%%%%%%%%%%%%%%%%%%%%%%%%%%%%%%
22342A6%%%%%%%%%%%%%%%%%%%%%%%%%%%%%%%%%%%%%%%%%%%%%%%%%%%%%%%%%%%%%%%%%%%%%
22326A6%%%%%%%%%%%%%%%%%%%%%%%%%%%%%%%%%%%%%%%%%%%%%%%%%%%%%%%%%%%%%%%%%%%%%
22310A6%%%%%%%%%%%%%%%%%%%%%%%%%%%%%%%%%%%%%%%%%%%%%%%%%%%%%%%%%%%%%%%%%%%%%
22294A6%%%%%%%%%%%%%%qQ%%%%%qQ%%%%%%%%%%%%qQ%qJ6qq%J6%j6K4m0K4qk4L2J6m8J6J6q
22281HJ6j6J6%qQQj6%%QqqQ%%qQ%%%qQ%%%%%%%%%%%%%%%%%%%%%%%%%%qQ%%%%%%%%%%%%%%%
22266A6%%%%%%%%%%%%%%%%%%%%%%%%%%%%%%%%%%%%%%%%%%%%%%%%%%%%%%%%%%%%%%%%%%%%%
22250A6%%%%%%%%%%%%%%%%%%%%%%%%%%%%%%%%%%%%%%%%%%%%%%%%%%%%%%%%%%%%%%%%%%%%%
22235A6%%%%%%%%%%%%%%%%%%%%%%%%%%%%%%%%%%%%%%%%%%%%%%qQ%%%%%%%%%%%%%%%%%%%%%
22219A6%%%%%%%%%%%%%%%%%%%%%%%%%%%%%%%%%%%%%%%%%%%%%%%%%%%%%%%%%%%%%%%%%%%%%
22203A6%%%%%%%%%%%%%%%%%%%%%%%%%%%%%%%%%%%%%%%%%%%%%%%%%%%%%%%%%%%%%%%%%%%%%
22187A6%%%%%%%%%%%%%%%%%%%%%%%%%%%%%%%%%%%%%%%%%%%%%%%%%%%%%%%%%%%%%%%%%%%%%
22171A6%%%%%%%%%%%%%%%%%%%%%%%qQqQ%%%%%%%%%%%%%%%%%%%%%%%%%%%%%%%%%%%%%%%%%%
22156A6%%%%%%%%%%%%%%%%%%%%%%%%%%%%%%%%%%%%%%%%%%%%%%%%%%%%%%%%%%%%%%%%%%%%%
22140A6%%%%%%%%%%%%%%%%%%%%%%%%%%%%%%%%%%%%%%%%%%%%%%%%%%%%%%%%%%%%%%%%%%%%%
22124A6%%%%%%%%%%%%%%%%%%%%%%%%%%%%%%%%%%%%%%%%%%%%%%%%%%%%%%%%%%%%%%%%%%%%%
22108A6%%%%%%%qQ%%%%%%%%%%%%%%%%%%%%%%%%%%%%%%%%%%%%%%%%%%%%%%%%%%%%%%%%%%%%
22093A6%%%%%%%%%%%%%%%%%%%%%%%%%%%%%%%%%%%%%%%%%%%%%%%%%%%%%%%%%%%%%%%%%%%%%
22077A6%%%%%%%%%%%%%%%%%%%%%%%%%%%%%%%%%%%%%%%%%%%%%%%%%%%%%%%%%%%%%%%%%%%%%
22061A6%%%%%%%%%%%%%%%%%%%%%%%%%%%%%%%%%%%%%%%%%%%%%%%%%%%%Qj6QQqqQ%%%%%%%%%
22045A6%%%%%%%%%%%%%%%%%%%%%%%%%%%%%%%%%%%%%%%%%%%%%%%%%%%%%%%%%%%%%%%%%%%%%
22030A6%%%%%%%%%%%%%%%%%%%%%%%%%%%%%%%%%%%%%%%%%%%%%%%%%%%%%%%%%%%%%%%%%%%%%
22014A6%%%%%%%%%%%%%%%%%%%%%%%%%%%%%%%%%%%%%%%%%%%%%%%%%%%%%%%%%%%%%%%%%%%%%
21998A6%%%%%%%%%%%%%%%%%%%%%%%%%%%%%%%%%%%%%%%%%%%%%%%%%%%%%%%%%%%%%%%%%%%%%
21982A6%%%%%%%%%%%%%%%%%%%%%%%%%%%%%%%%%%%%%%%%%%%%%%%%%%%%%%%%%%%%%%%%%%%%%
21966A6%%%%%%%%%%%%%%%%%%%%%%%%%%%%%%%%%%%%%%%%%%%%%%%%%%%%%%%%%%%%%%%%%%%%%
21951A6%%%%%%%%%%%%%%%%%%%%%%%%%%%%%%%%%%%%%%%%%%%%%%%%%%%%%%%%%%%%%%%%%%%%%
21935A6%%%%%%%%%%%%%%%%%%%%%%%%%%%%%%%%%%%%%%%%%%%%%%%%%%%%%%%%%%%%%%%%%%%%%
21919A6%%%%%%%%%%%%%%%%%%%%%%%%%%%%%%%%%%%%%%%%%%%%%%%%%%%%%%%%%%%%%%%%%%%%%
21903A6%%%%%Qq%%%%%%%%%%%%%%%%%%%%%%%%%%%%%%%%%%%%%%%%%%%%%%%%%%%%%%%%%%%%%%
21887A6%%%%%%%%%%%%%%%%%%%%%%%%%%%%%%%%%%%%%%%%%%%%%%%%%%%%%%%%%%%%%%%%%%qQ%
21872A6%%%%%%%%%%%%%%%%%%%%%%%%%%%%%%%%%%%%%%%%%%%%%%%%%%%%%%%%%%%%Qq%%%%%%%
21856A6%%%%%%%%%%%%%%%%%%%%%%%%%%%%%%%%%%%%%%%%%%%%%%%%%%%%%%%%%%%%%%%%%%%%%
21840A6%%%%%%%%%%%%%%%%%%%%%%%%%%%%%%%%%%%%%%%%%%%%%%%%%qQ%%%%%%%%%%%%%%%%%%
21824A6%%%%%%%%%%%%%%%%%%%%%%%%%%%%%%%%%%%%%%%%%qQ%%j6QQ%qQ%%Qq%%%%%%%%%%%%%
21809A6%%%%%%%%%%%%%%%%%%%%%%%%%%%%%%%%%%%%%%%%%%%%%%%%%%%%%%%%%%%%%%%%%%%%%
21793A6%%%%%%%%%%%%%%%%%%%%%%%%%%%%%%%%%%%%%%%%%%%%%%%%%%%%%%%%%%%%%%%%%%%%%
21777A6%%%%%%%%%%%%%%%%%%%%%%%%%%%%%%%%%%%%%%%%%%%%%%%%%%%%%%%%%%%%%%%%%%%%%
21761A6%%%%%%%%%%%%%%%%%%%%%%%%%%%%%%%%%%%%%%%%%%%%%%%%%%%%%%%%%%%%%%%%%%%%%
21746A6%%%%%%%%%%%%%%%%%%%%%%%%%%%%%%%%%%%%%%%%%%%%%%%%%%%%%%%%%%%%%%%%%%%%%
21730A6%%%%%%%%%%%%%%%%%%%%%%%%%%%%%%%%%%%%%%%%%%%%%%%%%%%%%%%%%%%%%%%%%%%%%
21714A6%%%%%%%%%%%%%%%%%%%%%%%%%%%%%%%%%%%%%%%%%%%%%%%%%%%%%%%%%%%%%%%%%%%%%
21698A6%%%%%qQQq%%%%%%%%%%%%%%%%%%%%%%%%%%%%%%%%%%%%%%%%%%%%%%%%%%%%%%%%%%%%
21682A6%%%%%%%%%%%%%%%%%%%%%%%%%%%%%%%%%%%%%%%%%%%%%%%%%%%%%%%%%%%%%%%%%%%%%
21667A6%%%%%%%%%%%%%%%%%%%%%%%%%%%%%%%%%%%%%%%%%%%%%%%%%%%%%%%%%%%%%%%%%%%%%
21651A6%%%%%%%%%%%%%%%%%%%%%%%%%%%%%%%%%%%%%%%%%%%%%%%%%%%%%%%%%%Qq%%%%%%%%%
21635A6%%%%%%%%%%%%%%%%%%%%%%%%%%%%%%%%%%%%%%%%%%%%%%%%%%%%%%%%%%%%%%%%%%%%%
21619A6%%%%%%%%%%%%%%%%%%%%%%%%%%%%%%%%%%%%%%%%%%%%%%%%%%%%%%%%%%%%%%%%%%%%%
21603A6%%%%%%%%%%%%%%%%%%%%%%%%%%%%%%%%%%%%%%%%%%%%%%%%%%%%%%%%%%%%%%%%%%%%%
21588A6%%%%%%%%%%%%%%%%%%%%%%%%%%%%%%%%%%q%Q%%%Qq%%%%%%%%%%%%%%%%%%%%%%%%%%%
21572A6%%%%%%%%%%%%%%%%%%%%%%%%%%%%%%%%%%%%%%%%%%%%%%%%%%%%%%%%%%%%%%%%%%%%%
21556A6%%%%%%%%%%%%%%%%%%%%%%%%%%%%%%%%%%%%%%%%%%%%%%%%%%%%%%%%%%%%%%%%%%%%%
21540A6%%%%%%%%%%%%%%%%%%%%%%%%%%%%%%%%%%%%%%%%%%%%%%%%%%%%%%%%%%%%%%%%%%%%%
21524A6%%%%%%%%%%%%%%%%%%%%%%%%%%%%%%%%%%%%%%%%%%%%%%%%%%%%%%%%%%%%%%%%%%%%%
21509A6%%%%%%%%%%%%%%%%%%%%%%%%%%%%%%%%%%%%%%%%%%%%%%%%%%%%%%%%%%%%%%%%%%%%%
21493A6%%%%%%%%%%%%%%%%%%%%%%%%%%%%%%%%%%%%%%%%%%%%%%%%%%%%%%%%%%%%%%%%%%%%%
21477A6%%%%%%%%%%%%%%%%%%%%%%%%%%%%%%%%%%%%%%%%%%%%%%%%%%%%%%%%%%%%%%%%%%%Qq
21461A6%%%%%%%%%%%%%%%%%%%%%%%%%%%%%%%%%%%%%%%%%%%%%%%%%%%%%%%%%%%%%%%%%%%%%
21445A6%%%%%%%%%%%%%%%%%%%%%%%%%%%%%%%%%%%%%%%%%%%%%%%%%%%%%%%%%%%%%%%%%%%%%
21430A6%%%%%%%%%%%%%%%%%%%%%%%%%%%%%%%%%%%%%%%%%%%%%%%%%%%%%%%%%%%%%%%%%%%%%
21414A6%%%%%%%%%%%%%%%%%%%%%%%%%%%%%%%%%%%%%%%%%%%%%%%%Qq%%%%%%%%%%%%%%%%%%%
21398A6%%%%%%%%%%%%%%%%%%%%%%%%%%%%%%%%%%%%%%%%%%%%%%%%%%%%%%%%%%%%%%%%%%%%%
21382A6%%%%%%%%%%%%%%%%%%%%%%%%%%%%%%%%%%%%Qq%%%%%%%%%%%%%%%%%%%%%%%%%%%%%%%
21367A6%%%%%%%%%%%%%%%%%%%%%%%%%%%%%%%%%%%%%%%%%%%%%%%%%%%%%%%%%%%%%%%%%%%%%
21351A6%%%%%%%%%%%%%%Qq%%qQqq%L2k4qK4%qqQQq%%%%%%%Qq%%%%%%%%%%%%%%%%%%%%%%%%
21336A6%%%%%%%%%%%%%%%%%%%%%%%%%%%%%%%%%%%%%%%%%%%%%%%%%%%%%%%%%%%%%%%%%%%%%
21320A6%%%%%%%%%%%%%%%%%%%%%%%%%%%%%%%%%%%%%%%%%%%%%%%%%%%%%%%%%%%%%%%%%%%%%
21304A6%%%%%%%%%%%%%%%%%%%%%%%%%%%%%%%%%%%%%%%%%%%%%%%%%%%%%%%%%%%%%%%%%%%%%
21288A6%%%%%%qQ%%%%%%%%%%%%%%%%%%%%%%%%%%%%%%%%%%%%%%%%%%%%%%%%%%%%%%%%%%%%%
21272A6%%%%%%%%%%%%%%%%%%%%%%%%%%%%%%%%%%%%%%%%%%%%%%%%%%%%%%%%%%%%%%%%Qq%%%
21257A6%%%%%%%%%%%%%%%%%%%%%%%%%%%%%%%%%%%%%%%%%%%%%%%%%%%%%%%%%%%%%%%%%%%%%
21241A6%%%%%%%%%%%%%%%%%%%%%%%Qq%%%%%%%%%%%%%%%%%%%%%%%%%%%%Q%q%%%%%%%%%%%%%
21225A6%%%%%%%%%%%%%%%%%%%%%%%%%%%%%%%%%%%%%%%%%%%%%%%%%%%%%%%%%%%%%%%%%%%%%
21209A6%%%%%%%%%%%%%%%%%%%%%%%%%%%%%%%%%%%%%%%Qq%%%%%%%%%%%%%%%%%%%%%%%%%%%%
21193A6%%%%%%%%%%%%%%%%%%%%%%%%%%%%%%%%%%%%%%%%%%%%%%%%%%%%%%%%%%%%%%%%%%%%%
21178A6%%%%%%%%%%%%%%%%%%%%%%%%%%%%%%%%%%QqqJ6q%%%%%%%%%%%%%%%%%%%%%%%%%%%%%
21162A6%%%%%%%%%%%%%%%%%%%%%%%%%%%%%%%%%%%%%%%%%%%%%%%%%%%%%%%%%%%%%%%%%%%%%
21146A6%%%%%%%%%%%%%%%%%%%%%%%%%%%%%%%%%%%%%%%%%%%%%%%%%%%%%%%%%%%%%%%%%%%%%
21131A6%%%%%%%%%%%%%%%%%%%%%%%%%%%%%%%%%%%%%%%%%%%%%%%%%%%%%%%%%%%%%%%%%%%%%
21115A6%%%%%%%%%%%%%%%%%qqQJ6%q%%%%%%%%%%%%%%%%%%%%%%%%%%%%%%%%%%%%%%%%%%%%%
21099A6%%%%%%%%%%%%%%%%%%%%%%%%%%%%%%%%%%%%%%%%%%%%%%%%%%%%%%%%%%%%%%%%%%%%%
21083A6%%%%%%%%Qq%%%%%%%%%%%%%%%%%%%%%%%%%%%%%%%%%%%%%%%%%%%%%%%%%%%%%%%%%%%
21068A6%%%%%%%%%%%%%%%%%%%%%%%%%%%%%%%%%%%%%%%%%%%%%%%%%%%%%%%%%%%%%%%%%%%%%
21052A6%%%%%%%%%%%%%%%%%%%%%%%%%%%%%%%%%%%%%%%%%%%%%%%%%%Qq%%%%%%%%%%%%%%%%%
21036A6%%%%%%%%%%%%%%%%%%%%%%%%%%%%%%%%%%%%%%%%%%%%%%%%%%%%%%%%%%%%%%%%%%%%%
21020A6%%%%%%%%%%%%%%%%%%%%%%%%%%%%%%%%%%%%%%%%%%%%%%%%%%%%%%%%%%%%%%%%%%%%%
21004A6%%%%%%%%%%%%%%%%%%%%%%%%%%%%%%%%%%%%%Qq%%%%%%%%%%Qq%%%%%%%%%%%%%%%%%%
20989A6%%%%%%%%%%%%%%%%%%%%%Qq%%%%%%%%%%%%%%%%%%%%%%%%%%%%%%%%%%%%%%%%%%%%%%
20973A6%%%%%%%%%%%%%%%%%%%%%%%%%%%%%%%%%%%%%%%%%%Qq%%%%%%%%%%%%%%%%%%%%%%%%%
20957A6%%%%%%%%%%%%%%%%%%%%%%%%%%%%%%%%%%%%%%%%%%%%%%%%%%%%%%%%%%%%%%%%%%%%%
20941A6%%%%%%%%%%%%%%%%%%%%%%%%%Qq%%%%%%Qq%%%%%%%%%%%%%%%%%%%%%%%%%%%%%%%%%%
20925A6%%%%%%%%%%%%%%%%%%%%%%%%%%%%%%%%%%%%%%%%%%%%%%%%%%%%%%%%%%%%%%%%%%%%%
20910A6%%%%%%%%%%%%%%%%%%%Qq%%%%%%%%%%%%%%%%%%%%%%%%%%%%%%%%%%%%%%%%%%%%%%%%
20894A6%%%%%%%%%%%%%%%%%%%%%%%%%%%%%%%%%%%%%%%%%%%%%%%%%%%%%%%%%%Qq%Qq%%%%%%
20878A6Q%%Qj6%%Q%q%QqQq%%%%%%%%%%%%%%%%%%%%%%%%%%%%%Qq%%%%%%%%%%%%%%%%%%%%%%
20863A6%%%%%%%%%%%%%%%%%%%%%%%%%%%%%%%%%%%%%%%%%%%%%%%%%%%%%%%%%%%%%%%%%%%%Q
20847B4q%%%%%%%%%%%%%%%%%%%%%%%%%%%%%%%%%%%%%%%%%%%%%%%%%%%%%%%%%%%%%Qq%%%%%
20831A6%%%%%%%%%%%%%%%%%%%%%%%%%%%%%%%%%%%%%%%%%%%%Qq%%%%%%%%%Q%q%%%%%%%%%%%
20815A6%%%%%%%%%%%%%%%%%%%%%%%%%%%%%%%%%%%%%%%%%%%%%%%%%%%%%%%%%%%%%%%%%%%%%
20799A6%%%%%%%%%%%%%%%%%%%%%%%%%%%%%%%%%%%%%%%%%QqQq%Qq%%%%%%%%%%%%%%%%%%%%%
20784A6%%%%%%%%%%%%%%%%%%%%%%Qq%%%%%%%%%%%%%%%%%%%%%%%%%Qq%%%%%%%%%%%%%%%%%%
20768A6%%%%%%%%%%%%%%%%%%%%%%%%%%%%%%%%%%%%QqQq%%%%%%%%%%%%%%%%%%%%%%%%%%%%%
20752A6%%%%%%%%%%%%%%%%%%%%%%%%%%%%%%%%%%%%%%%%%%%%%%%%%%%%%%%%%%%%%%%%%%%%%
20736A6%%%%%%%%%%%%%%%%%%%%%%%%Qq%%%Qq%%%%%%%%%%%%%%%%%%%Qq%%%%%%%%%%%%%%%%%
20720A6%%%%%%%%%%%%%%%%%%%%%%%%Qq%%%%%%%%%%%%%%%%%%%%%%%%%%%%%%%%%%%%%%%%%%%
20705A6%%Qq%%%%%%Qq%%QqqQ%%%%%%%%%%%%%%%%%%%%%%%%%%%%%%%%%%%%%%%%%%%%%%%%%%%
20689A6%%%%%%%%%%%Qq%%%Q%q%%%%%%%%%%%%%%%%%%%%%%%%%%%%%%%%%%%%%%%%%%%%%%%%%%
20673A6%%%%%%%%%%%%%%%%%%%%%%%%%%%%%%%%%%%%%%%%%%%%%%%%%%%%%%%%%%%%%%%%%%%%%
20657A6%%%%%%Qq%%%%%%%%%%%%%%%%%%%%%%%%%%%%%%%%%%%%%%%%%%%Qq%%%%%%%%%%%J6k4J6
20642B4%qQqQ%q%%%%%%%%%%%%%%%%%%%%%%%%%%%%%%%%%%%%%Qq%%%%%%%%%%%%%%%%%Qq%%%%
20626A6%%%%%%%%%Qq%%%%%%%%%%%%%%%%%%%%%Qq%%%%%%%%%%%%%%%%%%%%%%Qq%%%%%%Qq%%%
20610A6%QqQ%q%%%%%%%%%%%%%%%%%%%%%%%%%%%%%%%%%%%%%%%%%%%%%Qq%%%%%%%%%%%%%%Qq
20594A6Qq%%%%%%%%%%%%%%%%%%%%%%%%%%%%%%%%%%%%%%%%%%%%Qq%%Qq%%QqQq%%%%%%%%%%%
20579A6%%%%%%%%%%%QqQq%%%%%%%%%%%%%%%%Qq%%%%%%%%%%%%%%%%%%%%%%%%%%%%%%%%%%%%
20563A6Qq%%Qq%%%%%%%%%%%%%%%%%%%%Qq%%%%%%%Q%q%%%%%%%%%%%%%%%%%%%Qq%%%%%%%%%%
20547A6%%%%Qq%%%%%%%%%%%%%%%%%%%%%%%%%%%%%%%%%%%%%%%%%%%%%%%%%%%%%%%%%%%%%%%
20531A6%%%%%%%%%%%%%%%Qq%%%%%Q%q%Q%qQ%%q%Q%q%%%%%Qq%%%%Qq%Qq%%%Qq%%%%%%%%%%%
20516A6%%%%%%%%%%%%%%%%%%Qq%%%%%%%%%%%%%%%%%%%%%%%%%%%%%%%%%%%%%%%%%%%%%%%%%
20500A6%%%%%%%%%%%%Qq%%%Qq%%Qq%%%%%%%%%%%%%%%%%%%%%%%%%%%Qq%%%%%%%%%%%%Qq%%%
20484A6%%%%%%%Qq%%%%%%%%%%%%%%%%%%%%%%%%%%%%%%%%%%%%%%%%%%%Qq%Qq%%%%Qq%%%%%Q
20468B4q%%Qq%%%%%%%%%%%%%%%%%%%%Q%%q%%%%%%%%%%%%%%%%%%Qq%%%%%%%%%%%%%%%%%%%%
20452A6%Qq%%%%%Qq%%%%%%%%%%%%%%%%%%%%%%%%%%Qq%%%%%%%%%%%%%%%%Qq%%%%Qq%Qq%%%Q
20437B4%q%%%Qq%%%%%%%%%%%%%%%%%%%%%%%%%%%%Qq%%%%%%%%%%%%%%%%%%%%%%Qq%Qq%%%%%
20421A6%%%Q%%q%%%%%%%%%%%Qq%%%%%%%%%%%%%%%%%%%%%%%%Q%q%Qj6J6%%j6Q%%J6Qm0QJ6%
20406B4%QqqqQ%%%%Qq%%%QqQq%%%Qq%%%%%%QqQq%%%Qq%%%Qq%%%%%%%%%%%%%%%%%%%%%%%%Q
20391B4%qQ%%q%%Qq%Qq%%%%%%%Qq%%%%%%%%%%%%%%%%%%%%%%%%%%%%%Qq%%%%%%%%%%%Qq%%%
20375A6%%%Qq%%%%%%%%%%Qq%%%%%Qq%Qq%%%%%%%%%%%%%%%%Q%q%%QqQqQq%%%%%%%%%%QqQ%%
20359B4qQ%q%%QqQq%%%%Qq%%%%%%%Qq%%%Qq%Qq%%Qq%QqQ%%qQq%%%Qq%Q%q%%%%%%%%%%%%%%
20343A6QqQq%%%%%%%Q%q%%%%Qq%%%%Q%q%%%%%%%%%%%%Q%q%%Q%q%%%%%%%%%%Q%%q%%%Q%%q%
20327A6%%%%%%%%%%%%%%%%%%%%Qq%%%%%%%%%%%%%%%Q%q%Q%qQqQq%%%%%%%%%%%%%%%%%%%%%
20312A6Qq%%%%%%%%%%%%%%Qq%QqQqQq%%Q%q%%%%%%%%%%%%%%%%%%%%%%%%%%%%%%%Qq%%Q%%q
20296A6%Qq%%Q%q%%Qq%%%QqQ%%qQ%%%qQqQ%%qQ%q%%QqQ%qQq%%%%%%%%%%%%%%%%%%%%%%%%%
20280A6%%%%%%%%%%Qq%%%%Qq%Qq%%%Q%q%%%%%%%%%%%%%%%%%%%%%%%%%%%%%%%%%%%%%%%%%%
20264A6%%%%%%%%QqQq%Qq%%%%%%%%%%%Qq%%%%%Q%%%q%Qq%QqQq%QqQ%q%QqQq%Q%q%QqQqQ%q
20248A6%%%%%%Q%q%%Qq%Qq%%%%%%%%%%%%%%%%%Qq%Qq%%%QqQ%qQqQ%q%Qq%%%Qq%Q%qQ%q%Q%
20233B4%q%%Qq%Qq%QqQqQqQq%%%Qq%%%%%%%%%%QqQq%%%%%%%%%%%%%%%%%%QqQ%qQ%q%Q%%q%
20217A6Q%qQ%q%%%%%%%Q%q%Q%%%qQ%%%q%%%%QqQqQqQq%%Q%%q%%%Q%%%%%qQ%%%%q%%%Q%q%Q
20201B4%q%%%%%Q%q%Q%%%%%%qQ%%%%q%%%Q%%%%%%qQ%%qQqQ%%q%%Qq%Qq%Q%q%%%QqQq%%%%%
20185A6Qq%%Qq%%Q%qQq%Q%q%%Qq%%%Qq%%%QqQ%q%%%%%%QqQqQqQq%%%QQj6%%%%%%Qq%Qq%Q%
20170B4%qQq%QqQq%QqQq%%%%Qq%%%%%%%%%%%%%%%%%%%%Qq%Qq%Qq%%Qq%QqQqQ%%%%%qQq%%%
20154A6%%%%%%%%%%%%%%%%%%%%%%%%%%%Qq%Q%%%%%%qQqQq%Qq%QqQ%qQ%%%%%qQqQqQ%q%%%Q
20138B4qQqQ%%qQqQ%q%%%%%%Qq%%%%%%Q%%%%qQ%qQ%%%%%qQq%%%Qq%%Q%qQq%Q%%qQ%q%%Qq%
20122A6Q%q%%Q%%%%q%%Qq%%Qq%%QqQqQ%q%%%%%%Q%q%%%%Q%qQ%q%%%%QqQq%%%Qq%%%%Q%%qQ
20107B4q%%Q%%qQq%%%Qq%%%%%%%%%%%%%%%%%%Q%q%%Q%qQ%%qQ%%%qQ%qQ%qQqQ%%qQq%%%%Q%
20091B4q%%%%%%%%%%%%Q%q%%%%%%%%%%QqQq%%Q%%%q%Qq%%%Qq%%Qq%%Qq%%Q%%%qQ%%%%%qQq
20075A6%%Q%qQ%qQqQ%qQ%q%Q%%qQ%%qQ%%%q%Q%%%%%%qQqQ%%%%qQ%q%Qq%%%Q%q%%Qq%QqQ%q
20059A6QqQq%%Qq%QqQq%%Q%qQqQ%q%Q%%%%qQ%%%%%%%%qQq%%%%Qq%QqQ%q%%%Q%q%%%%%%QqQ
20043B4qQ%%%%qQq%Q%qQqQqQqQq%Qq%Qq%%Q%%%q%Q%qQ%q%QqQ%%q%%%%%%%%%Qq%Q%%%%%%q%
20028A6Q%q%%%%Qq%%%%QqQq%%%%%%%%%%%%%%QqQq%Qq%Qq%Qq%Qq%Q%%%qQ%qQ%%%%%%%%%%%%
20012B4%%%%%qQ%%%%%q%Q%%%%q%%Q%%%q%%Q%%qQ%%q%Qq%QqQq%%%%Q%%q%%%%Q%%qQ%qQq%%Q
19996B4q%Q%qQq%%QqQq%%%%%Qq%Qq%%%%%%%%%Qq%QqQ%%q%%%%%Q%q%Q%%%q%Q%%%%%q%%%%%%
19980A6%Qq%%%Q%%%qQ%%%%%qQ%%%%qQ%%%qQ%qQ%%%%qQqQ%q%Q%q%Q%q%%Q%qQq%QqQq%Q%q%%
19964A6%Q%qQqQq%%%QqQq%QqQ%q%Qq%%QqQq%Q%%%%q%Q%%%%qQ%qQq%QqQq%Q%qQq%%Q%%q%%%
19949A6%%%Q%qQ%%%%q%%%%%QqQ%q%Q%qQqQ%q%%QqqQQqQq%%qL2k4Qq%Qq%%Q%%%qQ%%%qQ%%%
19933B4%q%Q%qQqQ%qQ%%qQqQqQ%%qQqQq%%%%%%%Q%qQ%%%%%%qQq%%%%Q%%qQ%%%%%%%qQ%qQ%
19917B4%%qQ%%qQ%%%%%%qQq%QqQ%%q%Q%%q%Q%%%%%qQ%q%%QqQqQ%qQq%Q%qQqQq%Qq%%%%%%%
19902A6%%%Q%%%%qQ%%%%%%%%qQ%%qQqQq%%%Q%%%%%%%qQ%%%%%qQ%%qQ%qQqQ%qQ%%%%qQqQqQ
19886B4qQ%%q%Q%%q%%Q%%%%%%qQq%%Q%qQ%qQ%%qQ%%%q%Q%qQqQ%qQq%Q%q%QqQq%QqQ%q%Q%q
19870A6Q%%%%%%qQ%%%%%%%%qQ%q%Q%%%%%%%q%QqQ%%%%%qQ%%%%%%qQ%%%%%%%%qQ%q%Q%%%%%
19854B4qQ%qQ%%qQ%q%Q%%%qQ%%%qQ%%qQqQ%qQ%%%%%%%%qQ%%%%qQ%q%Q%%%%%%%%%%%%%%%qQ
19838B4%%%%%%%%%%%%%%%%%%%q%Q%qQqQqQ%%%%%%qQ%%%%%%%%%%%%%%%%%qQ%%%q%%%Q%%%%q
19823A6Q%qQq%Qq%%%Q%%%%q%Qq%Q%%%%%%%%%%%%%q%%%Q%%%%%%%%%q%%Qq%Q%%q%Qq%QqQqQ%
19807B4%%%%%%%%%%%%%%%%%qQqQ%%q%Q%%qQ%%%%%%%%qQ%%%%%qQ%%qQ%%%%%%%qQqQ%q%Q%%q
19791A6Q%%%%%%qQ%qQ%%%q%%Q%%%%%%%%%%q%%%QqQ%%%%%%%%%%%%%%%%%%%%qQ%qQ%%%%%%%%
19775B4%%%%%%%qQ%%%%%%%%%%%%%%%%%%%%%%%%%%%%%%%%%%%%qQ%q%%%%Q%%q%%%%%Q%qQ%%q
19760A6Q%%%%%%%%%%%%%%qQ%%%%%%%%%%%%%%%%%%%%%%%%%%%%%%%%%qQ%%%%%%%qQqQ%%%%%%
19744B4%%%%%%%%%%%%%%%%%%%%%%%%%%%%%%%qQ%%q%Q%qQ%%%%%%%%%%%%%%%%%%%%%%%%%%%%
19728B4%%%%%qQ%%%%%%%%%%%%%%%%%%%%%%qQqQ%%%qQ%qQ%%%%%%%%%%%qQ%%%%%%%%qQ%%%%%
19712B4qQ%%%%%%%%%%%%%%%%qQ%%%%%qQq%%QqQq%QqQ%%q%%%Q%%%%%%%%%%%%%%%%%%qQ%%qQ
19696B4%%%%%%%%%%%%%%%qQ%%%%%%%%%%qQ%%%%%%%qQ%%%%%%%%%%%%%%%%%%%%%%%%%%%%%%%
19681B4%%%%%%%qQ%%%%%%%%%%%%%qQ%%q%Q%%%%%%%%q%Q%%qQ%q%QqQqQ%qQ%qQqQqQ%%%%%%%
19665B4%%%%%%%%%%%%%%%%%%q%Q%%%%%%%%%%%%%%%%%%%%%%%%%%%%%q%Q%%%qQ%%%%%%%%%%%
19649B4%%%%%%%%%%%%%%qQ%%%%%%%%%%%%%%%%%%%%%%%%%%%%%%%%%%%%%%%%%%%%%%%%%%%%%
19633B4%%%%%%%%%qQ%%%qQ%%%%%%%%%%%%%%%%%%%%%%%%qQ%%%%%%q%Q%%%%%%%%%%%%%%%qQ%
19617B4%qQqQ%%%%%%%%qQ%%%%%%%%%%%%%%%%qQ%%%%%%%%%%%%%%%%%%%%%%%%%%qQ%%%%%%%%
19602B4%%%%%%%%%%%%%%%%%%%%%%%%%%%%%%%%%%%%%%%%%%%%%%%%%qQ%%%qQ%%%%qQ%%qQ%%%
19586B4%%%qQ%%qQ%%%qQ%%%%%%%%%%%%%%%%%%%%%%%%%%%%%%%%%%%%%%%%%%%%%%%%%%%%%%%
19570B4%%%%%%%%%%%%%%%%%%%%%%%%%%%%%%%%%%%%%%%%%%%%%%%%%%%qQ%qQ%%%%%%%%%%%%%
19554B4%qQ%%%%%%%%qQ%%%%%%%%%%%%%%%%%%%%%%%%%%%%%%%%%%%%%%%%%%%%%%%%%%%%%%%%
19538B4%%%%%%%%%%%%%%%%%%%%%%%%%%%%%%%%%%%qQ%%%%%q%QqQq%Q%%%%%%%%%%%%%%%%%%%
19523B4%%%%%%%%%%%%%%%%%%%%%%%%%%%%%%%%%%qQ%qQ%%%%%%%%%%%%%%%%%%%%%%%%%%%%%%
19507B4%%%%%%%%%%%%%%q%Q%%%%%%%%%%%q%%Q%qQ%%%%%%%%%%%%%%%%%%%%%%%%%%%%%%%%%%
19491B4%%%%%%%%%%%%%%%%%%%%%%%%%%%%%%%%%%%%%%%%%%%qQ%%%%%%%%%%%%%%%%%%%%%%%%
19475B4%%%%%%%%%%%%%%%%j6J6%%Q%q%q%%qJ6%%%%%%%%%%%qQ%%%%%%%%%%%%%%%%qQ%%%%%%
19460B4%%%%%%%%%%%%%%%%%%%%%%%%%%%%%%%%%%%%%%%%%%%%%%%%%%%%%%%%%%%%%%%%%q%Qq
19444A6QqQ%%%%%%%%%%%%%%%%%%%%%%%%%%%%%%%%%%%%%%%%%%%%%%%%%%%%%%%%%%%%%%%%%%
19429B4%%%%%%%%%%%%qQ%%%%%%%%%%%%%%%%%%%%%%%%%%%%%%%%%%%%%%%%%%%%%%%%%%%%%%%
19413B4%%%qQ%%qQ%%%%%%%%%%%%%%%%%%%%%%%%%%%%%%%%%%%%%%%%%%%%%%%%%%%%%%%%%%%%
19397B4qQ%%%%%%%%%%%%%%%%%%%%%%%%%%%%%%%%%%%%%%%%%%%%%%%%%%%%%%%%%%%%%q%Q%%%
19381B4%%%%%%%%%%%%%%%%%%%%%%%%%%%%%%%%%%%%%%%%%%%%%%%%%%%%%%%%%%qQ%q%Q%%%%%
19365B4%%%%%%%%%%%%%%%%%%%%%%%%%%%%%%%%%%%%%%%%%%%%%%%qQ%qQ%%%%%%%%%%%%%%%%%
19350B4%%%%%%%%%%%%%%%%%%%%%%%%%%%%%%%%%%%%%%%%%%%%%%%%%%%%%%%%%%%%%%%%%%%%%
19334B4%%%%%%%%%%%%%%%%%%%%%%%%%%%%%%%%%%%%%%%%%%%%%%%%%%%%%%%%%%%%%%%%%%%%%
19318B4%%%%%%%%%%%%%%%%%%%%%%%%%%%%%%%%%%%%%%%%%%%%%%%%%%%%%%%%%%%%%%%%%%%%%
19302B4%%%%%%%%%%%%%%%%%%%%%%%%%%%%%%%%%Qj6Q%qQ%%%%%%%%%%%%%%%%%%%%%%%%%%%%%
19287B4%%%%%%%%%%%%%%%%%%%%%%%%%%%%%%%%%%%%%%%%%%%%%%%%%%%%%%%%%%%%%%%%%%%%%
19271B4%%%%%%%%%%%%%%%%%%%%%%%%%%%%%%%%%%%%%%%%%%%%%%%%%%%%%%%%%%%%%%%%%%%%%
19255B4%%%%%%%%%%%%%%%%%%%%%%%%%%%%%%%%%%%%%%%%%%%%%%%%%%%%%%%%%%%%%%%%%%%%%
19239B4%%%%%%%%%%qQ%Q%qqQ%%%%%%%%%%%%%%%%%%%%%%%%%%%%%%%%%%%%%%%%%%%%%%%%%%%
19223B4%%%%%%%%%%%%%%%%%%%%%%%%%%%%%%%%%%%%%%%%%%%%%%%%%%%%%%%%%%%%%%%%%%%%%
19208B4%%%%%%%%%%%%%%%%%%%%%%%%%%%%%%%%%%%%%%%%%%%%%%%%%%%%%%%%%%%%%%%%%%%%%
19192B4%%%%%%%%%%%%%%%%%%%%%%%%%%%%%%%%%%%%%%%%%%%%%%%%%%%%%%%%%%%%%%%%%%%%%
19176B4%%%%%%%%%%%%%%%%%%%%%%%%%%%%%%%%%%%%%%%%%%%%%%%%%%%%%%%%%%%%%%%%%%%%%
19160B4%%%%%%%%%%%%%%%%%%%%%%%%%%%%%%%%%%%%%%%%%%%%%%%%%%%%%%%%%%%%%%%%%%%%%
19145B4%%%%%%%%%%%%%%%%%%%%%%%%%%%%%%%%%%%%%%%%%%%%%%%%%%%%%%%%%%%%%%%%%%%%%
19129B4%%%%%%%%%%%%%%%%%%%%%%%%%%%%%%%%%%%%%%%%%%%qQqQ%%qQ%%%%%%%%%%%%%%%%%%
19113B4%%%%%%%%%%%%%%%%%%%%%%%%%%%%%%%%%%%%%%%%%%%%%%%%%%%%%%%%%%%%%%%%%%%%%
19097B4%%%%%%%%%%%%%%%%%%%%%%%%%%%%%%%%%%%%%%%%%%%%%%%%%%%%%%%%%%%%%%%%%%%%%
19081B4%%%%%%%%%%%%%%%%%%%%%%%%%%%%%%%%%%%%%%%%%%%%%%%%%%%%%%%%%%%%%%%%%%%%%
19066B4%%%%%%%%%%%%%%%%%%%%%%%%%%%%%%%%%%%%%%%%%%%%%%%%%%%%%%%%%%%%%%%%%%%%%
19050B4%%%%%%%%%%%%%%%%%%%%qQ%%%%%%%%%%%%%%%%%%%%%%%%%%%%qQ%%%%%%%%%%%%%%%%%
19034B4%%%%%%%%%%%%%%%%%%%%%%%%%%%%%%%%%%%%%%%%%%%%%%%%%%%%%%%%%%%%%%%%%%%%%
19018B4%%%%%%%%%%%%%%%%%%%%%%%%%%%%%%%%%%%%%%%%%%%%%%%%%%%%%%%%%%%%%%%%%%%qQ
19002B4%qJ6Qj6%q%QqQ%%%%%%%%%%%%%%%%%%%%%%%%%%%%%%%%%%%%%%%%%%%%%%%%%%%%%%%%
18987B4%%%%%%%%%%%%%%%%%%%%%%%%%%%%%%%%%%%%%%%%%%%%%%%%%%%%%%%%%%%%%%%%%%%%%
18971B4%%%%%%%%%%%%%%%%%%%%%%%%%%%%%%%%%%%%%%%%%%%%%%%%%%%%%%%%%%%%%%%%%%%%%
18955B4%%%%%%%%%%%%%%%%%%%%%%%%%%%%%%%%%%%%%%%%%%%%%%%%%%%%%%%%qQ%%%%%%%%%%%
18940B4%%%%%%%%%%%%%%%%%%%%%%%%%%%%%%%%%%%%%%%%%%%%%%%%%%%%%%%%%%%%%%%%%%%%%
18924B4%%%%%%%%%%%%%%%%%%%%%%%%%%%%%%%%%%%%%%%%%%%%%%%%%%%%%%%%%%%%%%%%%%%%%
18908B4%%%%%%%%%%%%%%%%%%%%%%%%%%%%%%%%%%%%%%%%%%%%%%%%%%%%%%%%%%%%%%%%%%%%%
18892B4%%%%%%%%%%%%%%%%%%%%%%%%%%%%%%%%%%%%%Qq%%%%qQ%%%%%%%%%%%%%%%%%%%%%%%%
18876B4%%%%%%%%%%%%%%%%%%%%%%%%%%%%%%%%%%%%%%%%%%%%%%%%%%%%%%%%%%%%%%%%%%%%%
18861B4%%%%%%%%%%%%%%%%%%%%%%%%%%%%%%%%%%%%%%%%%%%%%%%%%%%%%%%%%%%%%%%%%%%%%
18845B4%%%%%%%%%%%%%%%%%%%%%%%%%%%%%%%%%%%%%%%%%%%%%%%%%%%%%%%%%%%%%%%%%%%%%
18829B4%%%%%%%%%%%%%QqQq%%%%%%%%%%%%%%%%%%%%%%%%%%%%%%%%%%%%%%%%%%%%%%%%%%%%
18813B4%%%%%%%%%%%%%%%%%%%%%%%%%%%%%%%%%%%%%%%%%%%%%%%%%%%%%%%%%%%%%%%%%%%%%
18798B4%%%%%%%%%%%%%%%%%%%%%%%%%%%%%%%%%%%%%%%%%%%%%%%%%%%%%%%%%%%%%%%%%%%%%
18782B4%%%%%%%%%%%%%%%%%%%%%%%%%%%%%%%%%%%%%%%%%%%%%%%%%%%%%%%%%%%%%%%QqQq%%
18766B4%%%%%%%%%%%%%%%%%%%%%%%%%%%%%%%%%%%%%%%%%%%%%%%%%%%%%%%%%%%%%%%%%%%%%
18750B4%%%%%%%%%%%%%%%%%%%%%%%%%%%%%%%%%%%%%%%%%%%%%%%%%%%%%%%%%%%%%%%%%%%%%
18734B4%%%%%%%%%%%%%%%%%%%%%%%%%%%%%%%%%%%%%%%%%%%%%%%%%%%%%%%%%%%%%%%%%%%%%
18719B4%%%%%%%%%%%%%%%%%%%%%%%%%%%%%%%%%%%%%%%%%%%%Qq%qQ%%%%%%%%%%%%%%%%%%%%
18703B4%%%%%%%%%%%%%%%%%%%%%%%%%%%%%%%%%%%%%%%%%%%%%%%%%%%%%%%%%%%%%%%%%%%%%
18687B4%%%%%%%%%%%%%%%%%%%%%%%%%%%%%%%%%%Qq%%%%%%%%%%%%%%%%%%%%%%%%%%%%%%%%%
18671B4%%%%%%%%%%%%%%%%%%%%%%%%%%%%%%%%%%%%%%%%%%%%%%%%%%%%%%%%%%%%%%%%%%%%%
18655B4%%%%%%%%%%%%%%%%%%%%%%%%%%Qq%%%%%%%%%%%%%%%%%%%%%%%%%%%%%%%%%%%%%%%%%
18640B4%%%%%%%%%%%%%%%%%%%%%%%%%%%%%%%%%%%%%%%%%%%%%%%%%%%%%%%%Qq%%%%%%%%%%%
18624B4%%%%%%%%%%%%%%%%%%%%%%%%%%%%%Qq%%%%%%%%%%%%%%%%%%%%%%%%%%%%%%%%%%%%%%
18608B4%%%%%%%%QqQq%%%%%%%%%%%%%%%%%%%%%%%%%%%%%%%%%%%%%%%%%%%%%%%%%%%%%%%%%
18592B4%%%%Q%%qQq%%%%%%%%%%%%%%%%%%%%%%%%%%%%%Qq%%%%%%%Qq%%%%%%%%%%%%%%%%%Qq
18576B4%%%%%%%%%%%%%%%%%%%%%%%%%%%%%%%%%%%%%%%%%%Qq%%%%%%%%%%%%%%%%%Qq%%%%%%
18561B4%%%%%%%%%%%Qq%%%Qq%%%%Q%q%%%%%%%%%%Qq%%%%%%%%%%%%%%%%%%%%%%%%%%%%%%%%
18545B4QqQqQq%%%Qq%%%%%%%%%%%%Q%qQq%%%%Q%%q%QqJ6q%j6J6qJ6qqqK4%Qk4l2K4L2k4j6
18532HM8m0%j6K4%J6k4QJ6k4J6%%q%%%%Q%q%%%%%Q%qQqQ%q%%%Qq%Qq%%Qq%%%Qq%%%%%%%%%
18518B4%Q%q%%%%%%Qq%%%%%%%%%%%%%%%%%%Qq%%%%%%%%%%%%%%%Qq%%%%%%Q%qQq%%%%%%%%%
18502B4%%%%%%%%%%%%%%%%%%%%%%%%%%%%%%%%%%%%%%%%%%%%%%%Qq%%%%%%%%%Qq%%%%%%%%%
18486B4%%%%%%Qq%%%%%Qq%%Qq%%%%%%%%%%%%%%%%%%%%%%%%%%%%%%%%%qQ%%Qq%%%%%%%%%%%
18470B4%%%%%%%%%%%%%%%Qq%%%%%%Qq%%%%%%%%%%%%%%%%%%%%%%%%%%%%%%%%%%%%%%%%%%%%
18454B4%%%Qq%%%%%%%%%%%%%%%%%%%%%%%%%%%%%%%%%%Qq%%%%%%%Qq%%%QqQq%%%%%%%%%%%%
18439B4Qq%%%%%%%%%%%%%%%%%%%%%Qq%%%%%%%%%%%%%%%%Qq%%%%%%%Qq%Q%q%Qq%%Q%qQq%%%
18423B4%%%%%%%Qq%Q%q%%%%%%%%%%%%%Q%q%qQ%QqQq%%Qq%%Qq%%%Qq%Qq%%%%%%%%%%%%%%%%
18407B4%%QqQq%%%%%%%Qq%%%%%%%%%Q%q%%%%%%%%Q%q%%%%%%%%%%%%%%%%%%%%%%%%%%%%%%Q
18391C2qQq%%%%Qq%Q%q%Qq%%%%%%%%%%%%Qq%%%%%%%%%Qq%%%%%%%%%%%%%%QqQq%Q%%q%%Q%%
18375C2q%Qq%%%%%%%%%%%%%%Qq%Qq%%%%%%%%%%%%Qq%%%%%%%QqQq%%%%%Qq%%%%%%%%%%%%Q%
18360C2qQq%%%%%%Q%q%Qq%%%%%Q%qQqQ%q%%%%Qq%Qq%Q%%q%Qq%%%%%%%%%%%%%%%%%%Qq%%%%
18344B4%%Q%qQ%%q%%Qq%%%%%%%%%%%%%%%%%%%%%%%%%%Q%q%%%%Qq%%%%%%Qq%%%%%Q%%%%qQq
18328B4Q%%q%%Q%q%%Q%%qQq%Qq%%%%%QqQqQq%QqQq%Qq%Qq%%%Q%%%%%%%qQq%Q%qQ%qQ%q%Q%
18312C2q%Q%q%Q%q%%%Qq%%%%Qq%%%Q%%q%Qq%%Q%%qQ%%%%%qQ%q%Q%%qQ%%qQ%qQqQq%Q%%qQ%
18297C2%%qQ%%%q%%%Q%q%%Q%%q%QqQq%Qq%%%Q%q%%%%%%Qq%Qq%%%Qq%Q%%%%%%%%q%%Qq%Qq%
18281B4%%%%%%%Qq%%%%%%%%%%%%%%%%%Qq%%Q%qQ%%%%%q%%%%%%Q%q%%%QqQqQ%%%%q%QqQqQq
18265B4%%Qq%%Qq%%Qq%Q%%q%%QqQqQq%%%%Qq%Q%%q%%%%%Qq%Q%q%QqQ%%%q%%Qq%%%%%Qq%Qq
18249B4%%%%Qq%%%%%%%Qq%Q%%%%qQqQ%%qQ%%%q%QqQ%%%qQqQ%%%qQ%%qQ%%q%Q%qQ%%qQ%qQ%
18233C2%%%q%%%Qq%%%%Q%%%q%%%Q%qQqQq%QqQq%%%%Qq%%%%QqQqQ%%%%%%q%Q%%%%%qQqQ%%q
18218B4%%Q%q%%%%%Q%%%%%%%%%%qQq%%%Q%q%%Q%qQq%Qq%%%%Q%%%%qQ%qQqQ%%%%%%qQ%%qQq
18202B4%%%%%%%%%%%%%Qq%%%%%%%%Qq%%%Q%%%%qQ%%%qQ%%%%%%%%%%%%qQqQqQ%%qQ%qQ%%%q
18186B4Q%%%%%%qQ%%%%%%%%q%%%%Q%%%%%%%%%%%%%%qQqQ%qQ%%%%%%qQ%%qQqQ%%%%%%%%%%q
18170B4%%%Q%q%QqQq%Qq%%%Q%%qQ%%%%%%%qQ%%%qQqQqQq%%Q%%%%q%%%Q%%%%qQ%%%q%Q%%q%
18154B4%QqQ%q%Q%%qQq%Q%qQ%%%%%qQ%%%%%%%qQ%%%qQq%Q%qQqQ%%%%%%%q%Q%%%qQq%Q%qQ%
18139C2%q%Q%%q%%Q%%%%qQ%%qQ%%%%%%%%qQ%%%qQqQqQ%%%%%%%%%%qQ%%qQ%qQqQ%q%Q%%q%Q
18123C2q%%%QqQ%%qQ%%%q%Q%%%qQ%q%Q%%%%%qQ%%%%%q%Q%%%%%%%qQ%%%%%q%QqQqQ%%qQ%%%
18107C2%%%q%%Q%q%%QqQqQ%%%%%%%%%%%%qQ%%%%qQ%%%%%%%%%%%%%%%%%%%%%%%%%%%%%%%qQ
18091C2%qQ%%%%%%%%%%%%%%%%%%qQ%%%%%%%%%%%%%%%%%%%%%%%%%%%%%%%qQqQ%%%%%%%q%Q%
18075C2%qQ%%%%%%%%%%%%%%%qQ%%%%%%%%%%%%%%%%q%Qq%Q%%qQ%%q%Q%%Q%%qq%%Q%%%%qQq%
18060B4Q%%%%%%%qQ%%%%%%%%%%%%%%%%%%%%%%%%%%%%%%%%%%qQ%%qQ%%%%%%%%%%%qQ%%q%Q%
18044C2q%Q%qQ%q%QqQ%%%%qQ%%%%%%%%%%%%%%%%%%%%%%%qQ%%%%%%%%%%%%%%%%%%%%%%%%%%
18028C2%q%Q%%%%%%%%%%%%%%%%%qQ%%%%%%%%%%%%%qQ%%%%%%%%%%%%%%%%%%%%%%%%%%%%%%%
18012C2%%%%%%%%%%%%%%%%%%%%%%%%%qQ%%%%%%%%qQ%%%%%%%%%%%%%%%%%%%%%%%%%%%qQ%%%
17996C2%%%%%%%%%%%%%%%%%%%%%qQ%%%%%%%%%%%%%%%%%%%%%%%%%%%%%%%%%%%%%%%%%%%%%%
17981C2%%%%%%%%%%%%%%%%%%%%qQ%%%%%%%%%%%%%%%%%%%%%%%%%%%%%%%%%%%%%%%%%%%%%%%
17965C2%%%%%%%%%%%%%%%%%%%%%%%%%%%%%%%%%%%%%%%%%%%%%%%%%%%%%%%%%%%%%%%%%%%%%
17949C2%%%%%%%%%%%%%%QqqQ%%%%%%%%%%%%%%%%%%%%%%%%%%%%%%%%%%%%%%%%%%%%%%%%%%%
17933C2%%%%%%%%%%%%%%%%%%%%%%%%%%%%%%%%%%%%%%%%%%%%%%%%%%%%%%%%%%%%%%%%%%%%%
17917C2%%%%%%%%%%%%%qQ%%%%%%%%%%%%%%%%%%%%%%%%%%%%%%%%qQ%%qQ%%%%%%%%%%q%Q%%%
17902C2%%%%%%%%%%%%%%%%%%%%%%%%%%%%%%%%%%%%%%%%%%%%%%%%%%%%%%%%%qQ%%qQ%%%%%%
17886C2%%%%%%%%%%%%%%%%%%%%%%%%%%%%%%%%%%%%%%%%%%%%%%%%%%%%%%%%%%%%%%%%%%%%%
17870C2%%%%%%%%%%%%%%%%%%%%%%%%%%%%%%%%%%%%%%%%%%%%%%%%%%%%%%%qQ%%%%%%%%%%%%
17854C2%%%%%%%%%%%%%%%%%%%%%%%%%%%%%%%%%%%%%%%%%%%%%%%%%%%%%%%%%%%%%%%%%%%%%
17839C2%%%%%%%%%%%%%%%qQ%%%%%%%%%%%%%%%q%Q%%q%QQj6%%Q%%%%%%%%%%%%%%%%%%%%%%%
17823C2%%%%%%%%%%%%%%%%%%%%%%%%%%%%%%%%%%%%%%%%%%%%%%%%%%%%%%%%%%%%%%%%%%%%%
17807C2%%%%%%%%%%%%%%%%%%%%%%%%%%%%%%%%%%%%%%%%%%%%%%%%%%%%%%%%%%%%%%%%%%%%%
17791C2%%%%%%%%%%%%%%%%%%%%%%%%%%%%%%%%%%%%%%%%%%%%%%%%%%%%%%%%%%%%%%%%%%%%%
17776C2%%%%%%%%%%%%%%%%%%%%%qQ%%%%%%%%%%%%%%%%%%%%%%%%%%%%%%%%%%%%%%%%%%%%%%
17760C2%%%%%%%%%%%%%%%%%%%%%%%%%%%%%%%%%%%%%%%%%%%%%%%%%%%%%%%%%%%%%%%%%%%%%
17744C2%%%%%%%%%%%%%%%%%%%%%%%%%%%%%%%%%%%%%%%%%%%%%%%%%%%%%%%%%%%%%%%%%%%%%
17728C2%%%%%%%%%%%%%%%%%%%%%%%%%%%%%%%%%%%%%%%%%%%%%%%%%%%%%%%%%%%%%%%%%%qQq
17712B4Q%%%%%%%%%%%%%%%%%%%%%%%%%%%%%%%%%%%%%%%%%%%%%%%%%%%%%%%%%%%%%%%%%%%%
17697C2%%%%%%%%%%%%%%%%%%%%%%%%%%%%%%%%%%%%%%%%%%%%%%%%%%%%%%%%%%%%%%%%%%%%%
17681C2%%%%%%%%%%%%%%%%%%%%%%%%%%%%%%%%%%%%%%%%%%%%%%%%%%%%%%%%%%%%%%%%%%%%%
17665C2%%%%%%%%%%%%%%%%%%%%%%%%%%%%%%%%%%%%%%%%%%%%%%%%%%%%%%%%%%%%%%%%%%%%%
17649C2%%%%%%%%%%%%%%%%%%%%%%%%%%%%%%%%%%%%%%%%%%%%%%%%%%%%%%%%%%%%%%%%%%%%%
17633C2%%%%%%%%%%%%%%%%%%%%%%%%%%%%%%%%%%%%%%%%%%%%%%%%%%%%%%%%%%%%%%%%%%%%%
17618C2%%%%%%%Qq%%%%%%%%%%%%%%%%%%%%%%%%%%%%%%%%%%%%%%%%%%%%%%%%%%%%%%%%%%%%
17602C2%%%%%%%%%%%%%%%%%%%qQ%%%%%%%QqQqqQ%qQ%QqqQ%%%%%%%%%%%%%%%%%%%%%%%%%%%
17586C2%%%%%%%%%%%%%%%%%%%%%%%%%%%%%%%%%%%%%%%%%%%%%%%%%%%%%%%%%%%%%%%%%%%%%
17570C2%%%%%%%%%%%%%%%%%%%%%%%%%%%%%%%%%%%%%%%%%%%%%%%%%%%%%%%%%%%%%%%%%%%%%
17554C2%%%%%%%%%%%%%%%%%%%%%%%%%%%%%%%%%%%%%%%%%%%%%%%%%%%%%%%%%%%%%%%%%%%%%
17539C2%%%%%%%%%%%%%%%%%%%%%%%%%%%%%%%%%%%%%%%%%%%%%%%%%%%%%%%%%%%%%%%%%%%%%
17523C2%%%%%%%%%%%%%%%%%%%%%%%%%%%%%%%%%%%%%%%%%%%%%%%%%%%%%%%%%%%%%%%%%%%%%
17507C2%%%%%%%%%%%%%%%%%%%%%%%%%%%%%%%%%%%%%%%%%%%%%%%%%%%%%%%%%%%%%%%%%%%%%
17491C2%%%%%%%%%%%%%%%%%%%%%%%%%%%%%%%%%%%%%%%%%%%%%%Qq%%%%%%qQQj6Q%%%Qq%%%%
17476C2Qq%%%%%%%%%%%%%%%%%%%%%%%Qq%%%%%%%%%%%%%%%%%%%%%%%%%%%%%%%%%%%%%%%%%%
17460C2%%%%%%%%%%%%%%%%%%%%%%%%%%%%%%%%%Qq%%%%%%%%%%%%%%%%%%%%%%%%%%%%%%%%%%
17444C2%%%%%%%%%%%%%%%%%%%%%%%%%%%%%%%%%%%%%%%%%%%%%%%%%%%%%%%%%%%%%Qq%%%%%%
17428C2%%%%%%%%%%%%%%%%%%%Qq%%%%%%%%%%%%%%%%%%%%%%%%%%%%%%%%%%%%%%%%%%%%%Qq%
17413C2%%%Qq%%%%%%%%%%%%%%%%%%%%%%%%%%%%%%%%%Qq%%%%%%%%%%%%%%%%%%%%%%%%%%%%%
17397C2%Qq%%%%%%%%%%%%%%%%%%%%%%%%Qq%%%%%%%%%%%%%%%%%%%%%%%%%%%%%%%%%%%%%%%%
17381C2%%%%%%%%%%%%%%%%%%%%%%QqQq%%%%%%%%%%%%%%%%%%%%%%%%%%%%%Qq%%%%%%%%%Qq%
17365C2%Q%qQq%%%%%QqQ%%qQqQq%%%QqqQQq%%%%%%%%%%%%%%%%%%Qq%%%%%%%%%%%%Qq%%%%%
17349C2%%%%%%%%%%%%%%%Qq%%%%%%%%%%%%%%%%%Qq%%%%%%%%%%%Qq%%%%%%%%%%%QqQq%QqQq
17334C2%%%%%%Qq%Qq%%%%%%%%%%%%%%%%%%%%%%%%%%%%%%%%%%%%%%%%%%%%%%%%%%%Qq%%%%%
17318C2%%%%%%%%%%%%%%%%%%%%%%%%%%%%%%%%%%%%%%%%%%%%%Qq%%%%Q%q%%%Q%%qQqQq%QqQ
17302D0qQ%%%%q%%%%%%%%Qq%%Q%q%%%%%%%%%Q%%q%Qq%Qq%QqQ%%%q%%%%%%%%Q%q%%Q%%%q%%
17286C2Q%q%%%QqQqQ%q%%%Q%qQqQ%%qQ%q%%%%%%Qq%%%%%%%%%%%%Q%q%%%Q%qQ%qQq%%%Qq%Q
17270D0q%%%%%%%%%%%Qq%%%Qq%%Qq%%%%%%%%%Qq%%%%Qq%Q%qQqQ%%%%%qQ%q%%Qq%%%%%%%%%
17255C2%%%%%%%%Qq%QqQqQqQqQ%%qQ%%%%qQ%%qQ%q%%%%%Qq%%%Qq%%Qq%%Qq%Q%%%q%%Qq%%%
17239C2Qq%%%%%%%%%%%%%%%%QqQqQq%Q%q%Q%%qQ%%%%%%qQq%Q%q%%Q%%%%q%%%%%%%Qq%%%%%
17223C2%%%Q%qQ%%%%%qQqQ%qQq%Q%%%%%q%QqQ%qQ%qQ%qQq%%Qq%%%Q%%qQ%%%%%%q%Q%qQ%%%
17207D0%%%%q%Qq%%Q%%qQqQ%%q%QqQ%%%%%q%%QqQq%%%%%QqQq%Q%%%qQ%qQ%%%q%%Q%%q%Qq%
17191C2Q%%qQ%%qQ%%%qQ%q%Q%qQ%qQq%Q%qQq%%%Q%%%q%%QqQq%%%%%%Q%qQ%%%%qQ%%%%%%%%
17176D0%qQqQqQ%%qQ%q%%Qq%QqQ%qQ%%%%%%%%%%%%%%%%%%%%%%%%%%qQ%%%qQq%Q%%%%%%%%%
17160D0%%%%%%%%%%%%%%%%%%%%%qQqQqQ%%%qQ%%qQ%%%qQ%%%qQq%Q%qQqQ%%%%%%%%%%%%%%%
17144D0%%%%%%q%Q%%%%qQ%%%%%%%%%%%%%%%%%%%%%%%%%%%%qQ%%qQ%%%%%%%%%%%%%%%%%%%%
17128D0qQ%%%%q%%J6q%q%%Q%qQ%%%%%%%%%%%%%%%%%%%%%%%%%qQ%%%%%%%%%%%%%%%%%%qQ%%
17113D0%%q%Q%%%%%%%%%qQ%%%%%%%%%%%%%%qQqQ%%%%%%%%%q%Q%%%%%%qQqQ%%qQ%%%%qQ%%%
17097D0%%%%%%%%%%%%%%%%%%%%%%%%%%%%%%%%%%%%%%%%%%%%%%%%%%%%%%%%%%%qQ%%%%%%%%
17081D0%%%%%%%%%%%qQ%%%%%%%%%%%%qQ%%%%qQ%%%%%%%%%%%%qQ%%%%q%Q%%qQ%Qq%%%qQ%%%
17065D0%%%%%%%%%%%%%%%%%%%%%%%%%%%%%%%%%%%%%%%%%%%%%%%%%%%%%%%%qQ%%%%%%%%%%%
17050D0%%%%%%%%%%%%%%%%%%%%%%%%%%%%%%%%%q%Q%q%%%Qq%%Q%%%qQ%qQ%%%%%%%%%%%%%%%
17034D0%%%%%%%%%%%%%%%%%%%%%%%%%%%%%%%%%%%%%%%%%%%%%%%%%%%%%%%%%%%%%%%%%%%%%
17018D0%%%%%%%%%%%%%%%%%%%%%%%%%%%%%%%%%%%qQ%%%%%%%qQ%%%%%%%%%%%%%%%%%%%%%%%
17002D0%%%%%%%%%%%%%%%%%%%%%%%%%%%%%%%%%%%%%qQ%%%%%%%%%%%%%%%%%%%%%%%%%%%%%%
16986D0%%%%%%%%%%%%%%%%%%%%%%%%%%%%%%%%%%%%%%%%%%%%%%%%%%%%%%%%%%%%%%%%%%%%%
16971D0%%%%%%%%%%%%%%%%%%%%%%%%%%qQ%%%%%%%%%%%%%%%%%%%%%%%%%%%%%%%%%%%%%%%%%
16955D0%%%%%%%%%%%%%%%%%Qq%%%%%%%%%%%%%%%%%%%%%%%%%%%%%%%%%%%%%%%%%%%%%%%%%%
16939D0%%%%%%%%%%%%%%%%%%%%%%%%%%%%%%%%%%%%%%%%%%%%%%%%%%%%%%%%%%%%%%%%%%%%%
16923D0%%%%%%%%%%%%%%%%%%%%%%%%%%%%%%%%%%%%%%%%%%%%%%%%%%%%%%%%%%%%%%%%%%%%%
16907D0%%%%%%%%%%%%%%%%%%%%%%%%%%%%%%%%%%%%%%%%%%%%%%%%%%%%%%%%%%%%%%%%%%qQQ
16892D8%q%%%%%%%%%%%%%%%%%%%%%%%%%%%%%%%%%%%%%%%%%%%%%%%%%%%%%%%%%%%%%%%%%%%
16876D0%%%%%%%%%%%%%%%%%%%%%%%%%%%%%%%%%%%%%%%%%%%%%%%%%%%%%%%%%%%%%%%%%%%%%
16860D0%%%%%%%%%%%%%%%%%%%%%%%%%%%%%%%%%%%%%%%%%%%%%%%%%%%%%%%%%%%%%%%%%%%%%
16844D0%%%%%%%%%%%%%%%%%%%%%%%%%%%%%%%%%%%%%%%%%%%%%%%%%%%%%%%%%%%%%%%%%%%%%
16828D0%%%%%%%%%%%%%%%%%%%%%%%%%%%%%%%%%%%%%%%%%%%%%%%%%%%%%%%%%%%%%%%%%%%%%
16813D0%%%%%%%%%%%%%%%%%%%%%%%%%%%%%%%%%%%%Qq%%%%%%%%%%%%%%%%%%%%%%%%%%%%%%%
16797D0%%%%%%%%%%%%%%%%%%%%%%%%%%%%%%%%qQ%%%%%%%%%%%%%%%%%%%%%%%%%%%%%%%%%%%
16781D0%%%%%%%%%%%%%%%%%%%%%%%%%Q%%j6Q%%%%%%%%%%%%%%%%%%%%%%%%%%%%%%%%%%%%%%
16766D0%%%%%%%%%%%%%%%%%%%%%%%Qq%%%%%%%%%%%%%%%%%%%%%%%%%%%%%%%%%%%%%%%%%%%%
16750D0%%%%%%%%%%%%%%%%Qq%Qq%%%%%%%%%%%%%%%%%%%%%%%%%%%%%%%%%%%%%%%%%%%%%%%%
16734D0%%%%%%%%%%%%%%%%%%%%%%%%%%%%%%%%%%%%%%%%%%%%%%%%%%%%%%%%%%%%%%%%%%%%%
16718D0%%%%%%qQ%QqQq%%Qq%%%%%%%%%%%%%%%%%%%%%%%%%%%%%%%%%%%%%%%%%%%%%%%%%%%%
16702D0%%Qq%%Qq%%Qq%%%%%%%%%%%%%%%%%%%%%%%%%%%%%%%%%%%%%%%%%%%%%%%%%%%Qq%%Qq
16687D0%%%%%%%%%%%%%%%%%%%%%%%%%%%%%%%%%%%%%%%%%%%%%%%%%%%%%%%%%%%%%QqQq%%%%
16671D0%%%%%%%%%%%%%Qq%%%%%%%%%%%%%Qq%%%%QqQq%%%%%%%%QqQ%qqQ%Qj6Qj6QJ6%qqJ6%
16656D8%q%Q%q%%%%%%Q%q%%Qq%%%%%%%%Qq%Qq%%%%%%Q%qQq%%%Q%qQq%%%%%%Qq%%%%%%%%%%
16640D0%%%%%%%%%%%%%%%%%%%%%%%%Qq%%%%%%Qq%%%%%%%%%%%%%%%%%%%Qq%%%%%%%%%%%%%%
16624D0%%%%%%%%%%%%%%%%%%%%%%%%Qq%%%%%Qq%%%%%%%%%Qq%%%%%%%%%%%%Qq%%%%%%%%%Qq
16609D0%%%%%%%%%Qq%%%%%%Q%q%%%%Q%qQq%%%%QqQq%%%QqQ%qQ%q%Qq%%%%%%%%%%%%%%%%%Q
16593D8%%%qQqQ%q%%%%%%Q%%qQ%%q%Qq%%Q%q%Q%qQqQ%%%%%%%%%qQ%qQqQq%%%%%%%%%%%%Qq
16577D0Q%q%QqQ%q%QqQq%QqQq%%%%%QqQq%Qq%QqQq%Qq%%%%%Q%%q%Q%q%QqQqQq%%%Q%%%%%%
16561D8%%%%%%q%%Qq%%Q%q%Q%%%q%%%%%%QqQ%%%q%%Qq%%%%%%%%%%Q%q%%QqQqQq%Qq%%%Qq%
16545D0%QqQq%%Qq%%Qq%Q%q%QqQ%%%%%%qQ%qQ%%%%%%%%%%%qQ%%%q%%Q%qQq%Qq%%%Qq%Qq%Q
16530D8%%%qQqQ%qQ%%qQ%qQ%%%%%qQ%%%%%%%qQqQ%%%qQqQqQqQ%%qQq%Qq%%Qq%Qq%Qq%%QqQ
16514D8q%Q%%%qQ%%%%%q%%%Q%%%%%%%%qQ%%%%qQ%%%%%%%%%qQ%%%%q%Q%%%%%%%%%%%%%qQqQ
16498D8%%%%%%%%q%QqQ%%%%%%%%%%%%%%%%%qQ%%%%%%%%%%qQ%%%%%%%%%%%%qQ%%%%%%%q%Qq
16482D0%Q%%%%%%qQ%%qQ%%%%%%%%%%%%%%%%%%%%%%%%%qQ%%qQ%%%%qQ%%%%%%%%%%%%%%%%%%
16466D8%%%%%%%%%%%%qQ%%%%%%%%%%%%%%%%%%%%%%%%%%%%%%%%%%%%%%%%%%%%%%%%%%%%%%%
16451D8%%%%%%%%%%%%%%%%%%%%qQ%%%%%%%%%%%%%qQ%%%%%%%%%%%%%%%%%%%%qQ%%%%%%%%%%
16435D8%%%%%%%%%%%%%%%%%%%%%%%%%%%%%%%%%%%%%%%qQqQ%%q%Q%%%%Qq%%%%%%%%%%%%%qQ
16419D8%%qQqQ%%%%%qQ%%%%%%%%%%%%%%%%%%%%%%%%%%%%%%%%%%%%%%%%%%%%%%%%%%%%%%%%
16403D8%%%%%%%%%%%%%%%%%%%%%%%%%%%%%%%%%%%%%%%%%%%%%%%%%%%%%%%%%%%%%%%%%%%%%
16387D8%%%%%%%%%%%%%%%%%%%%%%%%%%%%%%%%%%%%qQ%%%%%%%%%%%%%%%%%%%%%%%%%%%%%%%
16372D8%%%%%%%%%%%%%%%%%%%%%%%%%%%%%%%%qQ%%%%%%%%%%%%%%%%%%%%%%%%%%%%%%%%%%%
16356D8%%%%%%%%%%%%%%%%%%%%%%%%%%%%%%%%%%%%%%%%%%%%%%%%%%%%%%%%%%%%%%%%%%%%%
16340D8%%%%%%%%%%%%%%%%%%%%%%%%%%%%%%%%%%%%%%%%%%%%%%%%%%%%%%%%%%%%%%%%%%%%%
16324D8%%%%%%%%%%%%%%%%%%%%%%%%%%%%%%%%%%%%%%%%%%%%%%%%%%%%%%%%%%%%%%%%%%%%%
16308D8%%%%%%%QqQq%%%%%%%%%%%%%%%%%%%%%%%%%%%%%%%%%%%%%%%%%%%%%%%%%%%%%%%%%%
16293D8%%%%%%%%%%%%%%%%%%%%%%%%%%%%%%%%%%%%%%%%%%%%%%%%%%%%%%%%%%%%%%%%%%%%%
16277D8%%%%%%%%%%%%%%%%%%%%%%%%%%%%%%%%%%%%%%%%%%%%%%%%%%%%%%%%%%%%%%%%%%%%%
16261D8%%%%%%%%%%%%%%%%%%%%%%%%%%%%%%%%%%%%%%%%%%%%%%%%%%%%%%%%%%%%%%%%%%%%%
16245D8%%%%%%%%%%%%%%%%%%%%%%%%%%%%%%%%%%%%%%%%%%%%%%%%%%%%%%%%%%%%%%%%%%%%%
16229D8%%%%%%%%%%%%%%%%%Qq%%%%%%%%%%%%%%%%%%%%%%%%%%%%%%%%%%%%%%%%%%%%%%%%%%
16214D8%%%%%%%%%%%%%%%%%%%%%%%%%%%%%%%%%%%%%%%%%%%Qq%%%%%%%%%%%%%%%%%%%%%%%%
16198D8%%%%%%%%%%%%%%%%%%%%%%%%%Qq%%%Qq%%Qq%QJ6j6qqQ%%%qJ6q%%%Qq%%%%%%%%%%%%
16183D8%%%%%%%%%%%%%%%%%%%%%%%%%%%%%%%%%%%Qq%%%Qq%%%%%%%%%%%%%%%%%%%%%%%%%%%
16167D8%%%%%%%%%%%%%%%%%%%%%%%%Qq%%%%%%QqQq%%%%%%%%%%%%%%%%%%%%%%%%%%%%%%%%%
16151D8%%%%%%%%%%%%%%%%%%%%%%%%%%%%Qq%%%%%%%%%%%%%%%%%%%%%%%%%%%%%%%%%%%%%%%
16135D8%%%%%%%%%Qq%%%%%%Qq%%Qq%%Q%%%%q%%%Qq%%%%Qq%%%%Qq%%%%%%%%%%%%%%%Qq%%%%
16120D8%%%%Q%q%Qq%%QqQ%q%%%%QqQq%%Qq%%%%%%%%%%%%%Qq%%%%%%%%%%%%%%%%%%%%%%%%%
16104D8%%Qq%%Qq%%%%%%%%%%%%%%%%%%%%%%%%%%%%%%%%%%%%%%%%%Qq%%%%%%Qq%%%%Qq%%%%
16088D8%Q%%qQq%Q%qQq%%%%%%%QqQqQq%%Q%%%%%qQq%%Q%%qQqQ%qQq%QqQq%Q%q%%Q%%q%%%Q
16072E6%%%%qQq%QqQ%q%%%%%%Q%q%%%Q%%%qQ%q%Q%%%%%%%%%%q%Q%%qQ%%%%%%%%%%%qQ%%qQ
16056E6qQqQ%%%%%q%%Qq%%%%Q%%qQ%qQqQ%q%Q%%%%%%%%%%%%%%%%%%qQ%%qQqQ%%%%%%qQ%%q
16041D8Q%%%%%%%%%%%%%%%%%%%%%qQqQ%%%%%%%%%%%%qQ%%%%%%%%qQ%%%%%%q%Q%%%%qQ%%%%
16025E6%%%%%%%q%Q%%%%%%%qQ%%%%%%%%%%%%%%qQ%%%%%%%%qQ%%%%%%%%%%%q%Q%%%%%%%%%%
16009E6%%%%%%%%%%%%%%%%%%%%%%%%%%%%%%%%%%%%%%%%%%qQqQ%%%%%%%%%%%%%%%%%%%%%%%
15993E6%%%%%%%%%%%%%%%%%%%%%%%%%%%%%%%%%%%%%%%qQ%%%%%%%%%%%%%%%%%%%%%%%%%%%%
15977E6%%%%%%%%%%qQqQ%%%%%%%%%%%%%%%%%qQqQ%%%%%%%%%%%%%%%%qQ%%%%%%%%%%%%%qQ%
15962E6%%%%%%%%%%%%%%%%%%%%%%%%%%%%%%%%%%qQ%%%%%%%%qQ%%%%%%%%%%%%%%%%%%%%%%%
15946E6%%%%%%%%%%%%%%%%qQ%%%%%%%%%%%%%%%%%%%%%%%%%%%%%%%%%%%%%%%%qQ%%%%%%%%%
15930E6%%%%%%%%%%%%%%%%%%%%%%%%%%%%%%%%%%%%%%%%%%%%%%%%%%%%%%%%%%%%%%%%%%%%%
15914E6%%%%%%%%%%%%%%%%%%%%%%%%%%%%%%%%%%%%%%%%%%%%%%%%%%%%%%%%%%%%%%%%%%%%%
15899E6%%%%%%%%%%qQqQ%%%%%%%%%%%%%%%%%%%%%%%%%%%%%%%%%%%%%%%%%%%%%%%%%%%%%%%
15883E6%%%%%%%%%%%%%%%%%%%%%%%%%%%%%%%%%%%%%%%%%%%%%%%%%%%%%%%%%%%%%%%%%%%%%
15867E6%%%%%%%%%%%%%%%%%%%%%%%%%%%%%%%%%%%%%%%%%%%%%%%%%%%%%%%%%%%%%%%%%%%%%
15851E6%%%%%%%%%%%%%%%%%%%%%%%%%%%%%%%%%%%%%%%%%%%%%%%%%%%%%%%%%%%%QqQ%q%%%%
15835E6%%%%%%%%%%%%%%%%%%%%%%%%%%%%%%%%%%%%%%%%%%%%%%%%%%%%%%%%%%%%%%%%%%%%%
15820E6%%%%%%%%%%%%%%%%%%%%%%%%%%%%%%%%%%%%%%%%%%%%%%%%%%%%%%%%%%%%%%%%%%%%%
15804E6%%%%%%%%%Qq%%%%%%%%%%%%%%%%%%%%%%%%%%%%%%%%%%%%%%%%%%%%%%%%%%%%%%%%%%
15788E6%%%%%%%%%%%%%%%%%%%%%%%%%%%%%%%%%%%%%Q%q%%%%%%%%%%%%%%%%%%%%%%%%%%%%%
15772E6%%%%%%%%%%%%%%%%%%%%%%%%%%%%Qq%%%QqQq%%%Qq%%%%%%%%%%%%%%%%%Qq%%%%%%Qq
15756E6%%Qq%%%%%Qq%%%%%%%%%%%Qq%%%%%%%%%%%%%%%%%%%%%%%Qq%%%%%%%%%%%%%%%%%%Qq
15741E6%%%%%%%Qq%%%%%%%%%Qq%%Qq%Q%q%%%%%Q%qQq%%%%%%%Qq%%%%%%%%%Qq%%%%%%%Qq%%
15725E6Qq%%Q%qQq%%%%%%%%J6%j6qJ6Qq%%%%%%qQ%%qQq%Q%%q%Qq%%Q%q%Q%%q%%%Qq%%%%%%
15710E6%Qq%%%%%%%%%%%Qq%%%Q%qQ%qQq%Q%%%%%qQqQ%q%Q%%%%%%%%%%%%%%q%%%%Q%qQq%Qq
15694E6QqQ%qQ%qQq%%%QqQ%qQ%%%qQq%%%QqQq%%%%%%Qq%%Qq%Qq%Q%%q%Qq%Qq%Qq%Q%%qQ%%
15678F4q%%%Q%%q%QqQ%%qQ%%%%%%%%%%%%%%%%%qQ%%%qQ%%%%%%%%%%%%qQqQ%%%%%%%%%%%%q
15662E6Q%%%%q%Qq%Q%%%%%%%%%%%%%%%%%%%%%%%%%%%%%%%%%%%%%%%%%%qQ%%%%%%%%%%%%%%
15647F4%%%%%%%%%%%%%%%%%%%%%%%%%%%%%%%%%%%%%%%%%%%%%%%%%%%%%%%%%%%%%qQqQ%%%%
15631F4%%%%%%%%%%%%%%%%%%%%%%%%qQ%%%%%%%%%%%qQqQ%%%%%%%%%%%%%%%qQ%%%%%%%%%%%
15615F4%%%%%%%%%%%%%%%%%%%%%%%%%%%%%%%%%%%%qQ%%%%%%%%%%%%%%%%%%%%%%%%%%%%%%%
15599F4%%%%%%%%%%%%%%%%%%%%%%%%%%%%%%%%%%%%%%%%%%%%%%%%%%%%%%%%%%%%%%%%%%%%%
15583F4%%%%%%%%%%%%%%%%%%qQ%%%%%%%%%%%%%%%%%%%%%%%%%%%%%%%%%%%%%%%%%%%%%%%%%
15568F4%%%%%%%%%%%%%%%%%%%%%%%%%%%%%%%%%%%%%%%%%%%%%%%%%%%%%%%%%%%%%%%%%%%%%
15552F4%%%%%%%%%%%%%%%%%%%%%%%%%%%%%%%%Qq%%%%%%%%%%%%%%%%%%%%%%%%%%%%%%%%%%%
15536F4%%%%%%%%%%%%%%%%%%%%%%%%%%%%%%%%%%%%%%%%%%%%%%%%%%%%%%%%%%%%%%%%%%%%%
15520F4%%%%%%%%%%%%%%%%%%%%%%%qQ%%%%%%%%%%%%%%%%%%%%%%%%%%%%%%%%%%%%%%%%%%%%
15504F4%%%%%%%%%%%%%%%%%%%%%%%%%%%%%%%%%%%%%%%%%%%%%%%%%%%%%%%%%%%%%%%%%%%%%
15489F4%%%%%%%%%%%qQ%%%%%%%%%%%%%%%QqQq%%%%%%Qq%%%%%%%%%%%%%%%%%%%%%%%%%%%%%
15473F4%Qq%%%%%%%%%%%%%%%%%%%%%%%%%%%%%%%%%%%%%%%%%%%%%%%%%%%%%%%%%%%%%%%%%%
15457F4%%%%%%%%%%%%%%%%%%%%%Qq%%%%%%%%%%%%%%%%%%%%%%%%%%%%%%%%%%%%%%%%%%QqQq
15441F4%Qq%%%%%%%%%%%%%%%%%%%%%%%QqQqQq%%%%%%%%%%%%%%Qq%%%%%%%%Q%q%Q%q%%Qq%%
15425F4%Qq%%%Qq%%Q%q%%%%%QqQqQq%%Qq%%%Qq%%%%%%%%%Q%%%qQq%%%%%Qq%Q%q%%Qq%Q%q%
15410F4%%Qq%%%%%%%%Qq%%%Q%q%%Qq%%Q%%%%q%%Q%qQ%q%Qq%%%%%Qq%%%Q%%q%Qq%Q%q%%%%%
15394F4%%%Q%q%%%QqQq%Q%qQ%%%%%q%QqQ%q%Q%qQ%%%q%Q%q%Q%%qQqQ%%qQq%%%%%%Qq%Qq%%
15378F4%Qq%Q%q%Q%qQ%%%%%%qQ%%q%%Q%qQ%%%%%%q%%QqQ%%%q%QqQ%%%%qQqQq%Qq%QqQ%q%Q
15362G2%%%%q%Qq%QqQ%%qQ%%%%%%%%%%%%qQ%%%%%%qQ%%%%%%%%%q%Q%%%%%%qQ%%%%%qQ%%%%
15346G2%%%qQ%%%%%%%%%%%%%%%%%%%%%%%qQ%%%%%qQ%%%qQ%%%%%%%%%%%%%%%%%%%%%%%%%qQ
15331G2%%%%%%%%%%%%%%%%%%%%%%%%%%%%%%%%%%%%%%%%%%%%%%%%%%%%%%%%%%%%%%%%%%%%%
15315G2%%%%%%%%%%%%%%%%%%%%%qQ%%%%%%%%%%%%%%%%%%%%%%%%%%%%%%%%%%%%%%%%%%%%%%
15299G2%%%%%%%%%%%%%%%%%%%%%%%%%%%%%%%%%%%%%%%%%%%%%%%%%%%%%%%%%%%%%%%%%%%%%
15283G2%%%%%%%%%%%%%%%%%%%%%%%%%%%%%%%%%%%%%%%%%%%%%%%%%%%%%%%%%%%%%%%%%%%%%
15267G2%%%%%%%%%%%%%%%%%%%%%%%%%%%%%%%%%%%%%%%%%%%%%%%%%%%%%%%%%%%%%%%%%%%qq
15252E6QQ%%%%%%%%%%%%%%%%%%%%%%%%%%%%%%%%%%%%%%%%%%%%%%%%%%%%%%%%%%%%%%%%%%%
15236G2%%%%%%%%%%%%%%%%%%%%%%%%%%%%%%%%%%%%%%%%%%%%%%%%%%%%%%%%%%%%%%%%%%%%%
15220G2%%%%%%%%%%%%%%%%%%%%%%%%%%%%%%%%%%%%%%%%%%%%%%%%%%%%%%%%%%%%%%%%%%%%%
15204G2%%%%%%%%%%%%%%%%%%%%%%%%%%%%%%%%%%%%%%%%%%Q%q%%%Qq%%Qq%%%%%%%%%%%Qq%%
15189G2%%%%%%%%%%%%%%%%%%%%%%%%%%%%%%%%%%%%%%%%%%%%%%%%%%%%%%%%%%%%%%%Qq%%%%
15173G2%%%%%%%%%%%%%Qq%%Qq%%%%Qq%%%%QqQq%%Q%%%%q%Q%%%qQqQqQq%Qq%%%Qq%%%%%%%%
15157G2%Q%%q%Q%q%%Q%%q%%%%%%%%%%%%%%%%%%%Q%q%%%%%Q%%q%%%%%%%%%%%%%Q%%q%Q%qQq
15141G2Q%%%qQ%%%%qQq%Q%qQq%Q%%%%%%%qQqqQQqQ%qQqQq%Qq%%QqQ%%%qQ%%%qQ%qQ%%%%%%
15125H0%%%%%qQ%%%%qQ%%%%%%%%%%%q%Q%%%qQ%%%%%qQ%%%%%%%%%%%%%%%%%%%%%%%%%%%%%%
15110H0%%%%%%%%%%%%qQ%%%qQq%QqQqQ%%%%%%%%%%%%%%%%%%qQ%%%%qQqQ%%%%%%%%%%%%%%%
15094H0%%%%%%%%%%%%%qQ%%%%%%%%%%%%%%%%%%%%%%%qQ%%%%%%%%%%%%%%%%%%%%%%%%%%%%%
15078H0%%%%%%%qQ%qQQj6Q%%%%%%%%%%%%%%%%%%%%%%%%%%%%%%%%%%%%%%%%%%%%%%%%%%%%%
15062H0%%%%%%%%%%%%%%%%%%%%%%%%%%%%%%%%%%%%%%%%%%%%%%%%%%%%%%%%%%%%%%%%%%%%%
15047H0%%%%%%%%%%%%%%%%%%%%%%%%%%%%%%%%%%%%%%%%%%%%%%%%%%%%%%%%%%%%%%%%%%%%%
15031H0%%%%%%%%%%%%%%%%%%%%%%%%%%%%%%%%%%%%%%%%%%%%%%%%%%%%%%%%%%%%%QqqQ%%%%
15015H0%%%%%%%%%%%%%%%%%%%%%%%%%%%%%%%%%%%%%%%%%%%%%%%%%%%%%%%%%%%%%%%%%%%%%
14999H0%%%%%%%%%%%%%%%%%%%%%%%%%%%%%%%%%%%%%%%%%%%%%%%%%%%%%%%%%%%%%%%%%%%%%
14983H0%%%%%%%%%%%%%%%%%%%%%%%%%%%%%%%%%%%%%%%%%%%%%%%Qq%%%%%%%%%%%%%%%%%%%%
14968H0%%%%%%%Qq%%%%%Q%q%%%%%%%%%Qq%%%%%%Qq%%%%%%%%%QqQq%%%%%Q%q%Qq%%%%%%%%%
14952H0%QqQqQq%%%Qq%%%%%%%Qq%%%%%%%%%%%Qq%%%Qq%%%%%%%%%%%%Qq%Q%%%qQqQ%q%QqQq
14936H0%Q%qQq%%%QqQ%%%%qQqQq%Q%qQqQq%Q%qQq%Q%q%%%%QqQq%%%Q%q%%%%%%Q%%%%%qQ%%
14920H8%%q%%%%QqQqQqQ%qQ%%q%Q%q%Q%qQ%%qQqQq%%Q%%%qQ%%%%%%%%qQqQ%%%q%Q%%%%%%%
14904H8%%%%%%%%%%%%qQ%%%%qQq%%Q%qQ%%%%%%%%%%%%%%%%%qQ%%qQ%%%%%%%%%%%%%%%%%%%
14889H8%%%%%%%%%%%%%%qQ%%q%Q%%%qQ%%%%%%%%%%%%%%%%%%%%%%%%%%%%%%%%%%%%%%%%%%%
14873H8%%%%%qQ%%%%%%%%%%%%%%%%%%%%%%%%%%%%%%%%%%%%%%%%%%%%%%%%%%qQ%%%%%%%%%%
14857H8%%%%%%%%%%%%%%%%%%%%%%%%%%%%%%%%%%%%%%%%%%%%%%%%%%%%%%%%%%%%%%%%%%%%%
14841H8%%%%%%%%%%%%%%%%%%%%%%%%%%%%%%%%%%%%%%%%%%%%%%%%%%%%%%%%%%%%%%%%%%%%%
14826H8%%%%%%%%%%%%%%%%%%%%%%%%%%%%%%%%%%%%%%%%%%%%%%%%%%%%%%%%%%%%%%%%%%%%%
14810H8%%%%%%%%%%%%%%%%%%%%%%%%%%%%%%%%%%%%%%%%%%%%%%%%%%%QqQq%%%%%%%%%%%%%%
14794H8Qq%%%%%%%%%%%%%%%%%%%%%%Qq%%%%%%%Qq%%Q%j6Q%%qK4k4K4K4m0j6J6J6l2J6qJ6%
14781I6qQqQj6Q%Qq%%%%%%%%Qq%%%%%%%%%%%%%%Qq%%%Q%q%%%%%%%%%%%QqQq%%Qq%Q%q%%Q%
14765I6q%Qq%%%%Qq%%%%%Qq%Q%q%%Qq%%%%%Qq%Qq%%Q%%%%q%Qq%%%Qq%%Q%%%q%%%%Qq%%%%%
14750H8%Q%q%Qq%%Qq%%Q%%%%%qQ%%qQ%qQ%%%%%%qQ%qQq%%%%%%%%%%%%%%%%Q%q%%%%%Qq%%%
14734H8QqQ%%%%%%qQ%qQ%qQ%%%%%%%%%%%%%%%qQq%Q%%%qQqQqQqQqQ%%qQ%%%%%%qQ%%%%%%%
14718I6%%%%%%%%%%%%%%%%%%%%%%%%%%%%%%%%%%%qQ%%%%%%%%%%%%%%%%%%%%%%%%%%qQ%%%%
14702I6%%%%%%%%%%%%%%%%%%%%%%%%%%%%%%%%qQ%%%%%%%%%%%%%%%%%%%%%%%%%%%%%%%%%%%
14686I6%%%%%%%%%%%%%%%%%%%%%%%%%%%%%%%%%%%%%%%%%%%%%%%%%%%%%%%%%%%%%%%%%%%%%
14671I6%%%%%%%%%%%%%%%%%%%%%%%%%%%%%%%%%%%%%%%%%%%%%%%%%%%%%%%%%%%%%%%%%%%%%
14655I6%%%%%%%%%%%%%%%%%%%%%%%%%%%%%%%%%%%%%%%%%%%%%%%%%%%%%%%%%%%%%%%%%%%%%
14639I6%%%%%%%%%%%%%%%%%%%%%%%%%%%%%%%%%%%%%%%%%%%%%%%%%%%%%%%%%%%%%%%%%%%%%
14623I6%%%%%%%%%%%%%%%%%%%%%%%%%%%%%%%%%%%%%%%%%%%%%%%%%%%%%%%%%%%%%%%%QqQqQ
14607A04%q%%QqQ%qQq%%%%%%%%Qq%%%%%Qq%%%%%%Q%q%Qq%%%%%%%%%%%%QqQq%QqQqQ%%%qQq
14592I6%%Qq%%%%%%Qq%Qq%Q%%q%%%Q%%qQqQ%qQ%%%%%%%%%%%%%qQ%q%Q%qQ%q%%Q%q%Q%%%%q
14576I6Q%qQ%%%%%%%%%%%%%%%%%qQ%%%%qQ%%%%%%%%%%%%%qQ%%%%%%%%%%%%%%%qQ%%qQ%%%%
14560A04%%%%%%%%%%%%%%%%%%%qQ%%%%%qQ%qQq%QqQ%%%qQ%%%%%%%qQ%q%%Q%q%Q%%%%%%%%%
14545A04%%%%%%%%%%%%%%%%%%%%%%%%%%%%%%%%%%%%%%%%%%%%%%%%%%%%%%%%%%%%%%%%%%%%
14529A04%%%%%%%%%%%%%%%%%%%%%%%%%%%%%%%%%%%%%%%%%%%%%%%%%%%%%%%%%%%%%%%%%%%%
14514A04%%%%%%%%%%%%%%%%%%%%%%%%%%%%%%%%%%%%%%%%%%%%%%%%%%%%%%%%%%%%%%%%%%%%
14498A04%%%%%%%%%%%%%%%%%%%%%%%%%%%%%%%%%%%%%%%%%%%%%%%%%%%%%%%%%%%%%%%%%%%%
14482A04%%%%%%%%%%%%%%%%%%%%%%%%%%%%%%%%%%%%%%%%%%%%%%%%%%%%%%%%%%%%%%%%%%%%
14467A04%%%%%%%%%%%%%%%Qq%Q%%qQqQq%Q%%q%%%%%%%%%%%%%%%%%%%%%%Qq%%Q%q%%%%%%%%
14451A04Q%%%%qQqQ%qQqQ%qQq%%%%%%%Qq%QqQ%%%%%qQ%%q%%%%%%%%Qq%%QqQq%%Q%q%%%QqQ
14436A12%%%q%%%Q%qQqQ%%q%QqQqQ%%%%qQ%qQ%%%%%%%q%Q%%%q%Q%%%%%%%%%%%%qQ%%%%%%%
14420A12%%%%%%%%%%%%%%%%%%%%%%%%%%%%%%%%%%%%%%%%%%%%%%%%%%%%%%%%%%%%%%%%%%%%
14405A12%%%%%%%%%%%%%%%%%%%%%%%%%%%%%%%%%%%%%%%%%%%%%%%%%%%%%%%%%%%%%%%%%%%%
14389A12%%%%%%%%%%%%%%%%%%%%%%%%%%%%%%%%%%%%%%%%%%%%%%%%%%%%%%%%%%%%%%%%%%%%
14373A12%%Qq%%%%%Qq%%%%%%%%%%%%%%%%%%%%%%%%%%%%%%%%%%%%%%%%%%%%%%%%%%%%%%%%%
14358A12%%%%%%%%%%%%%%%%%%%%%%%%%%%%%%%%%%%%%%%%%%%%%%%%%%%%%%%%%%%%%QqQ%%q%
14342A12%Qq%%%%%%%%%%%%%%%%%%Qq%%%%Qq%%%%%%%%%%%%%Qq%%%%%%%%%%%Q%%%%qQq%%Qq%
14327A12%%%%Q%%q%Q%q%%QqQ%%qQ%%%%%%%%%%%%%%%%%%%%qQ%%%%%qQqQ%QqQk4%%J6q%%%Qq
14312A12QqQq%Q%%qQ%%%%%%%%qQ%%%%%%%%%%%%qQ%%q%Q%qQ%%%%%%%%%%%qQ%%qQ%qQ%%%%qQ
14296A20%%%%%%%%%%%%%%%%%%%%%%%%%%%%%%%%%%%%%%%%%%%%%%%qQ%%%%%%%%%%%%%%%%%%%
14281A20%%%%%%%%%%%%%%%%%%%%%%%%%%%%%%%%%%%%%%%%%%%%%%%%%%%%%%%%%%%%%%%%%%%%
14265A20%%%%%%%%%%%%%%%%%%%%%%%%%%%%%%%%%%%%%%%%%%%%%%%%%%%%%%%%%%%%%%%%%%%%
14249A20%%%%%%%%%%%%%%%%%%%%%%%%%%%%%%%%%%%%%%%%%%%%%%%%%%%%%%%%%%%%%%%%%%%%
14234A20%Qq%%%%%%%%%%%%%%%%%%%%%%%%%%%%%%%Q%q%%%%Qq%%%%%Q%%q%%%%%%%%%%%%%%%%
14218A20%%%Q%q%QqQq%%%%Q%%q%Qq%Qq%Qq%%%%%%%Qq%%%QqQ%%%%%%%%%%q%%%%%%Qq%%%Q%%
14203A28%qQqQqQ%%%qQqQ%%%qQq%Q%qQ%%%%%%%%%%%%%%%%%%%%%%%%qQqQ%%%%%%qQ%%%%%%%
14187A28%%%%%%%%%%%%%%%%%%%%%%%%%%%%%%%%%%%%%%%%%%%%%%%%%%%%%%%%%%%%%%%%%%%%
14172A28%%%%%%%%%%%%%%%%%%%%%%%%%%%%%%%%%%%%%%%%%%%%%%%%%%%%%%%%%%%%%%%%%%%%
14156A28%%%%%%%%%%%%%%%%%%%%%%%%%%%%%%%%%%%%%%%%%%%%%%%%%%%%%%%%%%%%%%%%%%%%
14140A28%%%%%%%%%%%%%%%%%%%%%%%%%%%%%%%%%%%%%%%%%%%%%%%%%%%%%%%%%%%%%%%%%%Qq
14125A28%%%%%%%%%Qq%%Qq%%%%%%%%%%%%%%%%%Qq%%%%%Qq%%%%%%%%Qq%%Qq%%%%%%%%Qq%%%
14109A28Q%%qQq%Q%%%qQ%%qQ%%%%%q%%%Q%%%%%%qQ%%%%%%%%qQ%%q%Q%qQ%%%%%%%%%%%%%qQ
14094A36%qQ%%%%%%%%%%%%%%%%%%%%%%%%%%%%%%%%%%%%%%%%%%%%%%%%%%%qQq%%QqQ%Q%j6Q
14078A36%%%%%%%%%%%%%%%%%%%%%%%%%%%%%%%%%%%%%%%%%%%%%%%%%%%%%%%%%%%%%%%%%%%%
14063A36%%%%%%%%%%%%%%%%%%%%%%%%%%%%%%%%%%%%%%%%%%%%%%%%%%%%%%%%%%%%%%%%%%%%
14047A36%%%%%%%%%%%%%%%%%%%%%%%%%%%%%%%%%%%%%%%%%%Qq%%%%%%%%%%%%%%%%%%%%%%%%
14032A36%%%%%%%%%%%%%%%%%%%%Qq%%%%%%%%%%%%Qq%Qq%%%%%%%%Q%%qQ%%%qQ%q%Qq%%%Q%%
14016A44qQ%%%%%%%%qQqQ%%%%%%%qQ%%%%%%%%%qQ%q%%%%%Q%q%Q%%qQ%qQ%%%%%%%%%%%%%%%
14001A44%%%%%%%%%%%%%%%%%%%%%%%%%qQ%%%%%%%%%%%%%qQ%%%%%%%%%%%%%%%%%%%%%%%%%%
13985A44%%%%%%%%%%%%%%%%%%%%%%%%%%%%%%%%%%%%%%%%%%%%%%%%%%%%%%%%%%%%%%%%%%%%
13969A44%%%%%%%%%%%%%%%%%%%%%%%%%%%%%%qQ%Qq%%%%%%%%%%%%%%%%%%%%%%%%%%%%%%%%%
13954A44%%%%%%%%%%%%%%%%%%%%%%%%%%QqQq%%%%%%%%%%%%%%%Qq%Qq%%%%%%Qq%QqQ%q%%%%
13938A44%%%%%%%%Q%%q%Qq%Qq%Qq%%%%Q%%qQ%qQq%QqQqQ%%qQ%q%Qq%Q%%%%%%%%%%%%%%%%%
13923A52%%%%%%%%%%%%%%%%%qQqQ%%%%%%%%%%%%%%%%%%%%%%%%%%%%%%%%%%%%%%%%%%%%%%%
13907A52%%%%%%%%%%%%%%qQ%%%%%%%%%%%%%%%%%%%%%%%%%%%%%%%%%%%%%%%%%%%%%%%%%%%%
13892A52%%%%%%%%%%%%%%%%%%%%%%%%%%%%%%%%%%%%%%%%%%%%%%%%%%%%%%%%%%%%%%%%%%%%
13876A52%%%%%%%%%%%%%%%%%%%%%%%%%%%%%%%%%%%%%%%%%%%%%%%%%%%%%%%%%%%%%Qq%%Qq%
13861A52Q%q%%%%%%%%%%%Qq%%%%%%QqQq%Qq%%Q%q%Qq%Q%q%%%%%QqQ%%q%%Q%%qQ%qJ6qqQ%Q
13845A68qqQqQQk4QQq%%%%QqQqQ%%%%%%%%%%%%%%%%%%%%%%%%%%%%%%%%%%%%%%%qQ%%%%qQ%
13830A60%%%%%%%%%%%%%%%%%%%%%%%%%%%%%%%%%%%%%%%%%%%%%%%%%%%%%%%%%%%%%%%qQ%%%
13814A60%%%%%%%%%%%%%%%%%%%%%%%%%%%%%%%%%%%%%%%%%%%%%%%%%%%%%%%%%%%%%%%%%%%%
13799A60%%%%%%%%%%%%%%%%%%%%%%%%%%%%%%%%%%%Qq%%%%%%%%%%QqQq%%Qq%%%QqQ%%q%Q%%
13783A68qQ%%%%%%%%%%%%%%qQ%%%%%%%%%%%%%%q%Q%%%qQ%%%%%%%%%%%%%%%%%%%%%%%%%%%%
13768A68%%%%%%%%%%%%qQ%%%%%%%%%%%%%%%%%%%%%%%%%%%%%qQ%%%%%%%%%%%%%%%%%%%%%%%
13752A68%%%%%%%%%%%%%%%%%%%%%%%%%%%%%%%%%%%%%%%%%%%%%%%%%%%%%%%%%%%%%%%%%%%%
13736A68%%%%%%%%%%%%%%%%%%%Qq%%%%%%%%%%%Qq%%Qq%%Qq%Qq%Qq%%%%%Qq%%%%%%%%%%%%%
13721A68%%Qq%%%%%%%%%Q%%%%qQq%%%%%%Q%%%%%q%QqQ%qQ%%%%%%%%%%%%%%%%%%%%%%%%%%%
13705A76%%%%%%%%%%%%%%%%%%%%%%%qQ%%qQ%%%%%%%%%%%%%%%%%%%%%%%%%%%%%%%%%%%%%%%
13690A76%%%%%%%%%%%%%%%%%%%%%%%%%%%%%%%%%%%%%%%%%%%%%%%%%%%%%%%%%%%%%%%%%%%%
13674A76%%%%%%%%%Qq%%%%%%%%%%%Qq%%Qq%%%%%%%%%%%%%%%%%%%%%%%%%%Q%q%%%%%%%%%%%
13659A76%%Qq%%%%%%%%Qq%QqQq%Qq%%%%%QqQ%qQ%%%%%%%%%%%%%%%%%%%%%%%%%%%%%%%%%%%
13643A84%%%%qQ%%%%%qQ%qQ%%%qQ%%%%%%%%%%%%%%%%%%%%%%%%%%%%%%%%%%%%%%%%%%%%%%%
13628A84%%%%%%%%%%%%%%%%%%%%%%%%%%%%%%%%%%%%%%%%%%%%%%%%%%%%%%%%%%%%%%QqQq%%
13612A84Qq%%QqQ%%q%Q%%q%%%%%%%%%%%%QqQqQ%%%q%QqQq%%%%%%%%%%%%%%%%%%%QqQqQq%%
13596A84Q%%qQq%%%Qq%Qq%%%%%%Q%qQ%%%%%qQq%QqQq%%Q%%%%%%%qQ%%%%%%%%%%%%%%qQ%%%
13581A92%%%%%%qQ%%%%%%%%%%%%%%%%%%%%%%%%%%%%%%%%%%%%%%%%%%%%%%%%%%%%%%%%%%%%
13565A92%%%%%%%%%%%%%%%%%%%%%%%%%%%%%%%%%%%%%%%%%%%%%%%%%%%%%%%%%%Qq%%%Qq%%Q
13550B00qQq%%%%%QqQqQ%q%%QqQqQ%q%Q%%%q%%Q%%qQ%qQ%%%%%%%%%%%%%qQ%%%%%%%%%%%%%
13534B00qQ%%qQ%%%%%%%%%%%%%%%%%%%%%%%%%%%%%%%%%%%%%%%%%%%%%%%%%%%%%%%%%%%%%%
13519B00%%%%%%%%%%%%%%%%%%%%%%%%%%%%%%%%%%%%%%%%%%%%%%%%%%%%%%%%%%%%%%%%%%%%
13503B00%%%%%%%%%%%%%%%%%%%%%Qq%%%%%%%%%QqQ%qQqQq%J6q%%%%%q%%Q%q%%Qq%Q%%q%%%
13488B00%%%Q%%%%%%%%%%%%qQ%%%%%%%%%%%%%%%%%%%%%%%%%%%%%%%%%%%%%%%%%%%%%%%%%%
13472B08%%%%%%%%%%%%%%%%%%%%%%%%%%%%%%%%%%%%%%%%%%%%%%%%%%%%%%%%%%%%%%%%%%%%
13457B08%%%%%%%%%%%%%%%%%%%%%%%%%%%%%%%%%%%%%%Q%q%%%%%%%Qq%%%%QqQq%Q%%%%%%%%
13441B16qQ%%%%%%q%Q%%q%%Q%%q%QqQq%%Q%%qQ%qQ%%%%%qQ%%%%%%%%%%%%%%%%%%%%%%%%%%
13425B16%%%%%%%%%%%%%%%%%%%%%%%%%%%%%%%%%%%%%%%%%%%%%%%%%%%%%%%%%%%%%%%%%%%%
13410B16%%%%%%%%%%%%%%%%%%%%%%%%%%%%%%%%%%%%%%%%%%%%%%%Qq%Q%%%%%%qQ%%%qQq%Q%
13394B24%%%%%%%%%%qQ%qQ%%qQ%%qQ%%%%qQ%%%%%%%%%%%%%%%%%%%%%%%%%%%%%%%%%%%%%%%
13379B24%%%%%qJ6%j6J6qQq%%%%%%%Qq%%%%%%%%%%%%%%%%%%%%%%%%%%%%%%%%%%%%%%%%%%%
13364B24%%%%Qq%%%%%%%%%%Qq%%%%%%%Q%q%%%%%%Q%%qQ%qQ%%%q%%Q%%%%%%%%%%%%qQ%%%%%
13348B32qQqQ%qQ%%%%%%%%%%%%%%%%%%%%%%%%%%%%%%%%%%%%%%%%%%%%%%%%%%%%%%%%%%%%%
13333B32%%%%%%%%%%%%%%%%%%%%%%%%%%%%%%%%%%Q%q%%Q%q%%%%%%%%QqQ%qQ%%%qQ%q%QqQq
13317B32Q%qQ%%q%%Q%%qQ%qQ%%%qQq%Q%%%q%QqQ%%%%%%%%%%%%%%%%%%%%%%%%%%%%%%%%%%%
13302B40%%%%%%%%%%%%%%%%%%%%%%%%%%%%%%%%%%%%%%%%%%%%%%%%%%%%%%%%%%%%%%%%%%%%
13286B40%%%%%%%%%%%%%%%%%%%%%%%%%Qq%%QqQq%%Qq%Qq%%%Qq%%Q%qQ%q%Q%qQ%%%%%%%%%%
13270B48%%%%%%%%%%%%%%%%%%%%qQ%%%%%%%%%%%%%%%%%%%%%%%%%qQ%%%%%%%%%%%%%%%%%%%
13255B48%%%%%%%%%%%%%%%%%%%%%%%%%%%%%%%%%%%%%%%%%%%%%%%QqQqQ%q%Q%q%%Q%%%%%qQ
13239B56%%%%%%%%%%%%%%%%%%%%%%%%%%%%%%%%%%%%%%%%%%%%%%%%%%%%%%%%%%%%%%%%%%%%
13224B56%%%%%%%%%%%%%%%%%%%%%%%%%%%%%%%%%%%%%%%%%%%%%%%%%%%%%%%%%%%%%%%%%Q%q
13208B56Qq%Qq%%%%%%QqQqQ%qQ%qQ%%%%qQq%%Qq%Q%%%qQ%%%%%%%%%%%%%%%%%%%%%%%%%%%%
13193B64%%%%%%%%%%%%%%%%%%%%%%%%%%%%%%%%%%%%%%%%%%%%%%%%%%%%%%%%%%%%%%%%%%%%
13177B64%%%%Qq%%%%%%%%%%%%%QqQq%%%%%%Qq%%%Q%%%%%%%%%%%%%%%%%%%%%%%%%%%%%%%%%
13162B72%%%%%%%%%%%%%%%%%%%%%%%%%%%%%%%%%%%%%%%%%%%%%%%%%%%%%%%%%%%%%%%%%%%Q
13146B80q%%%%%%%%%Q%%qQq%Qj6QQ%%%qQ%%q%Q%%qQ%%qQ%%%%%%%%%%%%%%%%%%%%%%%%%%%%
13131B80%%%%%%%%%%%%%%%%%%%%%%%%%%%%%%%%%%%%%%%%%%%%%%%%%%%%%%%%%%%%%%%%%%%%
13115B80%%QqQq%%Qq%Qq%%Q%qQ%%%%%%%%%%%%%%%%%%%%%%%%%%%%%%%%%%%%%%%%%%%%%%%%%
13100B88%%%%%%%%%%%%%%%%%%%%%%%%%%%%%%%%%%%%%%%%%%%%%%%%%%%%%%%Qq%%%%%%%Q%%q
13084B88%Qq%%Qq%Qq%%QqQqQ%%%%%%%%%%%%%%%%%%%%%%%%%%%%%%%%%%%%%%%%%%%%%%%%%%%
13068B96%%%%%%%%%%%%%%%%%%%%%%%%%%%%%%%%%%%%%%%%%%%%%%%%%%%%%%%%%%%%Q%%%%%%%
13053C04%%%%q%Q%%%%%qQqQ%%%%%%%%%%%%%%%%%%%%%%%%%%%%%%%%%%%%%%%%%%%%%%%%%%%%
13037C04%%%%%%%%%%%%%%%%%%%%%%%%%%%%%%Q%q%Q%%q%%%%%Q%q%%Q%qQ%qQ%qQ%q%Q%%qQ%%
13022C12qQ%%%%%%%%%%%%%%%%%%%%%%%%%%%%%%%%%%%%%%%%%%%%%%%%%%%%%%%%%%%%%%%%%%
13006C12%%%%%%%%%%Q%qQq%%%Qq%%%%%%Q%q%Qq%%%%%Q%%%%qQ%%%%%%%%%%%%%%%%%%%%%%%%
12991C20%%%%%%%%%%%%%%%%%%%%%%%%%%%%%%%%%%%%%%%%%%%%%%%%%%%%%%%%%QqQqQq%Qq%Q
12975C28q%QqQ%%%%%%%%%%%%%%%%%%%%%%%%%%%%%%%%q%QqQ%%%%%%%%%%%%%%%%%%%%%%%%%%
12959C28%%%%%%%%%%%%%%%%%%%%%%%%%%%%%%%QqQ%%%qQqQ%%qQ%%%%%%%%%%%%%%%%%%%%%%%
12944C36%%%%%%%%%%%%%%%%%%%%%%%%%%%%%%%%%%%%%%%%%%%%%%%%%%%%%QqQq%%%%%Qq%%%%
12928C36%QqQqQ%%q%Q%%%%%%%%%%%%%%%%%qQ%%%%%%%%%%%%%%%%%%%%%%%%%%%%%%QqQq%%%%
12913C44%Q%qQq%Qq%Q%qQ%qQ%J6k4%J6%K4j6j6q%J6l2J6%%Q%%%%q%QqQ%%qQ%%%%%%%%%%%%
12899C52%%%%%%%%%%%%%%%%Qq%%%%%%%%%%%%%%%%%%%%%%%%%%%%%%Qq%%Qq%QqQq%%%%Q%%%%
12884C60%%%qQ%%qQ%%%%%%%%%%%%%%%%%%%%%%%%%%%%%%%%%%%%%%%%%%%%%%%Qq%%%%%%%%%%
12868C60%%%%%Q%%%q%Qq%Q%%q%Q%qQ%%%%%%%qQ%%%%%%%%%%%%%%%%%%%%%%%%%%%%%%%%%%%%
12853C68%%%%%%%%%%%%%Qq%%%Qq%%%%%%%%%%%%%%%Q%%%%qQ%%%%%qQ%%%%%%%%%%%%%%%%%%%
12837C76%%%%%%%%%%%%%%%%%%%%%%%%%%%%%%%%%%%%%%%%%Q%q%%%%%%%Q%qQ%%%%%%%%%%%%%
12821C84%%qQ%%%qQ%%%%%%%%%%%%%%%%%%%%%%%%%%%%%%%%%%%%%%%%%%%%%%%%%%%%%%Qq%Q%
12806C92%%%%%%%%%%%%%%%%%%%%%%%%%%%%%%%%%%%%%%%%%%%%%%%%%%%%%%%%%%%%%%Q%q%%%
12790C92Q%qQ%%qQ%%qQ%q%%QqQ%%%qQ%%%%%%%%%%%%%%%%%%%%%%%%%%%%%%%%%%%%%%%%%%%%
12775D00%%%%%%%%%%%%%QqQqQqQ%%%%%%%%%%%%%%%%%%%%%%%%%%%%%%%%%%%%%%%qQ%%%%%%%
12759D08%%%%%%%%%%%%%%%%%%Q%%qQ%qQ%%qQ%%%%qQ%%%%%%qQ%%%%%%%%%%%%%%%%%%%%%%%%
12744D16%%%%%%%%%%%%%%%%%Qq%%%Q%%%%%qQ%qQ%%qQ%%%%%%%%%%%%%%%qQ%%%%%%%%%%%%%%
12728D24%%%%%%%%%%%%%%%%%%%%%Qq%Qq%%%Q%%%%%%%%%%%%%%%%%%%%%%%%%%%%%%%%%%%%%%
12712D32%%%%%%%%%%%%%%%%%%%%%%%%Q%qQ%%%%%%%qQ%q%Q%%qQ%qQ%%%%%%%%%%%%%%%%%%%%
12697D40%%%%%%%%%%%%%%%%%%%%%%%%%%%%Q%qQ%%%%%%%%%qQ%%%%%%%%%%%%%%%%%%%%%%%%%
12681D48%%%%%%%%%%%Qq%%%%%%%%%Qq%Qq%%%Q%%%Qj6%Q%%%qQ%%%%%%%%%%%%%%%%%%%%%%%%
12666D56%%%%%%%%%%%%%%%%%%%%%%%%Q%%%%%%q%Q%%qQ%%%%%%%%%%%%%%%%%%%%%%%%%%%%%%
12650D64%%%%%%%%%%%Qq%%%Q%%%%%%%%%%%%%%%%%%%%%%%%%%%%%%%%%%%%%%%%%%%%%%%%%%%
12635D72%%%%%%%Q%q%Q%%%%q%Q%%%%%%%%%%%%%%%%%%%%%%%%%%%%%%%%%%%%%%%%%%%%%%%%%
12619D80QqQ%%%%%%%%%%%qQ%%%%qQqQ%%%%%%%%%%%%%%%%%%%%%%%%Q%%%%q%Q%%qQ%%%%%%%%
12604D96%%%%%%%%%%%%%%%%%%%%%%%%%%%%%%%%%%%Qq%%%%%QqQ%%%%%%%%%%%%%%%%%%%%%%%
12588E04%%%%%%%%%%%%%%%%%%Qq%%%%%%%%%%Q%%qQqQ%%%%%%%%%%%%%%%%%%%%%%%%%%%%%%%
12573E12%%%%%%%Qq%QqQq%QqQ%%%%%%%%%%%%%%qQ%%%%%%%%%%%%%%%%%%%%%%%%%%%%%%%%%%
12557E20Qq%Q%j6QQ%%%%%%%%%%%%%%%%%%%%%%%%%%%%%%%%%%%%%%Q%qQ%%qQ%q%Q%%qQ%%%%%
12542E36%%%%%%%%%%%%%%%%%%%%%%%%%%%%%%%%%%%Q%%%%%%%%%%%%%%%%%%%%%%%%%%%%%%%%
12526E44%%Qq%%%%%%%%%%%Qq%Q%%%%%%%%%%%%%%%%%%%%%%%%%%%%%%%%%%%%%%%%QqQq%%Q%%
12511E60%%%%%%%%%%%%%%%%%%%%%%%%%%%%%%%%%%%QqQ%q%Q%q%Q%%%%%%%%%%%%%%%%%%%%%%
12495E68%%%%%%%%%%%%%%%%%%Q%%%%%%%%%%%%%%%%%%%%%%%%%%%%%%%%QqQq%%Q%q%Q%%%%qQ
12479E84%%%%%%%%%%%%%%%%%%%%%%%%%%%%%%QqQqQ%qQ%%%%%%%%%%%%%%%%%%%%%%%%%%%%%%
12464E92%%%%Q%qQqQq%Q%%%%%%%%%%%%%%%%%%%%%%%%%%%%%%%%%%%%Q%qQ%qQqQ%%%%%%%%%%
12448F08%%%%%%%%%%%%%%%%%%%%%%Qq%%QqQ%%%qQ%qQ%%%q%Q%%Qj6%Q%%%%%Qq%%%%%%%%%%%
12433F16QqQ%%%%%%%%%%%%%%%%%%%%%%%%%%%%%%%Q%%qQ%%%%%%%%%%%%%%%%%%%%%%%%%%%%%
12417F32%%%Qq%%%%Q%%%qQ%%%%%%%%%%%%%%%%%%%%%%%%%%%%%%%%%%Q%%%%%%%%%%%%%%%%%%
12402F48%%%%%%%%%%%%%%Qq%QqQ%%%%%%%%%%%%%%%%%%%%%%%%%%%%%%%%Q%%%%%%%%%%%%%%%
12386F64%%%%%%%%%%%%%%%%%%Qq%%Q%%q%%Q%%%%%%%%%%%%%%%%%%%%%%%Qq%%%QqQ%%%%%%%%
12371F80%%%%%%%%%%%%%%%%%%%%Qq%%Q%%qQ%%%%%%%%%%%%%%%%%%%%%%%%%%%%Q%%%qQ%%%%%
12355F96%%%%%%%%%%%%%%%Qq%%%%Q%q%%%Q%%q%Q%%%%%%%%%%%%%%%%%%%%%%Q%%%%%%%%%%%%
12340G12%%%%%%%%%%%%Qq%Qq%Qq%%%Q%%%%%%%%%%%%%%%%%%%%%%%%%%%%%%%Q%%%%%%%%%%%%
12324G28%%%%%QqQ%qQ%q%QqQqQ%%%%%%%%%%%%%%%%%%%%%%%%Q%%%%%%%%%%%%%%%%%%%%%%Qq
12309G44%%%%%%Qq%Q%%%%%%%%%%%%%%%%%%%%%Q%%%%qQ%qQ%%%%%%%%%%%%%%%%%%%%%%Q%qQq
12293G60%Qq%Q%%%%%%%%%%%%%%%%%%QqQ%%%qQ%%%%%%%%%%%%%%%%%%%%%Q%%%%%%%%%%%%%%%
12277G84%%%%%%%%%%%%%%%%Q%%%%%%%%%%%%%%%%%%%%%%%%%%Q%%%%%%%%%%%%%%%%%%%%%%%Q
12262H08%qQq%%Q%%%%%%%%%%%%%%%%%%Qq%%Q%%%%%%%%%%%%%%%%%%%%Q%qQqQ%%%%%%%%%%%%
12246H24%%%%%%%%%%%%%%Q%%%%%%%%%%%%%%%%%%%%%%%%Q%%%%%%%%%%%%%%%%%%%%%%%Q%%%%
12231H48%%qQ%%%%%%%%%%%%Q%q%%Q%%%%%%%%%%%%%%%%%Q%%%%%%%%%%%%%%%%%%%%%%%%%%%Q
12215H72%qQ%%%%%%%%%%%%%%%QqQ%qQ%%%%%%%%%%%%%%%%Q%%%qQ%%q%Q%%%%%%%%%%%%%%%%%
12200H88%%%%QqQ%%%%%%%%%%%%%%%QqQ%%%%%%%%%%%%%%%%%%%QqQ%%%%%%%%%%%%%%%%%%%%Q
12184I20qQqQ%%qQ%%%%%%%%%%%%%%%%%%Q%%%%%%%%%%%%Qq%%%Q%%%%%%%%%%%%%%%%%%%%Q%%
12168I44qQ%%%%%%%%%%%%%%%%%Q%%%%%%%%%%%%%%%%%%%Q%%%%%%%%%%%%%%%%%Qq%Qq%Q%%%%
12153I68%%%%%%%%%%%%Q%%%%%%%%%%%%%%QqQq%Q%qQ%%%%%%%%%%%%%%%%%Q%qQ%%%%%%%%%%%
12137I92%%%%%%%Q%%%%%%%%%%%%%%%%%%Q%%%%%%%%%%%%%Qq%QqQ%%%%%%%%%%%%%%QqQ%%%%%
12122A024%%%%%%%%%%QqQ%%%%%%%%%%%%Qq%%%Q%%%%%%%%%%%%%%%%%QqQqQ%%%%%%%%%%%%%Q
12106A056q%Q%%%%%%%%%%%%Q%%qQ%%%%%%%%%%%%QqQqQ%%%%%%%%%%%%%%%%Q%%%%%%%%%%%%%
12091A080Qq%Q%%%%%%%%%%%%%Qq%%%Q%qQ%%%%%%%%%%%Q%%%%%%%%%%%%%%%%%Q%%%%%%%%%%%
12076A112%%%%QqQ%qQ%%%%%%%QqQ%%%%%%%%%%%%%%Q%%%%%%%%%%%%%%%Q%%%%%%%%%%%%%%%%
12060A144%Q%%%%%%%%qQ%%%Q%%%%%%%%%%%%%%%%Q%qQ%%%%%%%%%%Q%%%%%%%%%%%%%%QqQ%%%
12045A184%%%%%%%%%%Q%%%%%%%%%%%%Q%%%%%%%%%%%%%%%QqQ%%%%%%%%%%%%Q%%%%%%%%%%%Q
12030A224%qQ%%%%%%%%%%%%%%Q%%%%%%%%%%%%%Q%%%%%%Qq%%Q%%%%%%%%%%%%%Q%%%%%%%%%%
12014A256Qq%%Q%%%%%%%%%%%%%Q%%%%%%%%%%%%Q%%%%%%%%%%%%Q%%%%%%%%%%%%%QqQ%%%%%Q
11999A304%%qQ%qQ%%%%%%%%%%%Q%%%%%%%%%%%Qq%Q%%%%%%%%%%Q%%%%%%%%%%Q%%%%%%%%%%Q
11984A344qQ%%%%%%%%%Qq%Q%%%%%%%%%%Q%q%Q%%%%Qq%%%Q%%%%%%%QqQqQqQQqQj6K4q%%qQq
11969A376%Q%%%%%%%Q%%%%%%%%Qq%Q%%%%%%%%Q%%%%%%%%%%%%%QqQ%%%%%%%%%Q%%%%%%%%%Q
11954A432qQ%%%%%Qq%Q%%%%%%%%%%%Q%%%%%%%%%%%%Q%%%%%%%%Q%%%%%%%%Q%qQ%%%%%%%%%Q
11938A480%%%%%%%%%Q%%%%%%%%%%%Q%%%%%%%%Q%%%%%%%Qq%Q%%%%%%%%%%%Q%%%%%%%%%Q%%%
11923A528%%%%%%%Q%%%%%%%Q%%%%%%%%Q%%%%%%%%%%%Q%%%%%%%%%%Q%%%%%Qq%Q%%%%%%%Q%%
11908A584%%%%%QqQ%%%%%%%Q%%%%%%%%Q%%%%%%%%%Q%%%%%%%%%%Q%%%%%%%Q%%%%%%%%Q%%%%
11892A640%%%%%Q%%%%%%%%Q%%%%%%%%%Q%%%%%%%%Q%%%%%%%Q%qQ%%%%%Q%%%%%%%QqQ%%%%%%
11877A696%Q%%%%%%%%Q%%%%%%%Q%%%%%%%%Q%%%%%%%%Q%%%%%%%Q%%%%%%%Q%%%%%%QqQ%%%%%
11861A760%Q%%%%%%%%Q%%%%%%%Q%%%%%%%Q%%%%%Qq%Q%%%QqQqQ%%%Qq%Q%%%%%%%Q%%%%%%%%
11846A824%%Q%%%%Q%%%%%%Q%%%%%%%Q%%%%%%%Q%%%%%%Q%%%%%%%Q%%%%%%Q%%%%%%QqQ%%%%%
11831A896Q%%%%%QqQ%%%%%QqQ%%%%%Q%%%%%%QqQ%%%Q%%%%%%%%Q%%%%%%%Q%%%%%Q%%%%%Q%%
11815A976%%%%%Q%%%%%Q%%%%%%%Q%%%%Q%%%%%Q%%%%%%%Q%%%%%%Q%%%%%%%Q%%%%%%Q%%%%Qq
11800B048Q%%%Q%%%%%%%Q%%%%%Q%%%%Q%%qQ%%%Q%%%%%Q%%%%Q%%%%%%Q%%%QqQ%%%%%Q%%%%%
11785B136%Q%%%%Q%%%%%%Q%%%%%Q%%%%Q%%%%%%Q%%%%%%Q%%%%%Q%%%Q%%%%%Q%%%%%Q%%%%%%
11769B224Q%%%%Q%%%%Q%%%%%QqQ%%%%Q%%%%Q%%%%%Q%%%%Q%%%%Q%%%%%%%Q%%%%Q%%%Q%%%%Q
11754B328%%%%%%Q%%%QqQ%%%Q%%%%%Q%%%%Q%%%%Q%%%%Q%%%%%Q%%%%Q%%%%Q%%%%Q%%%%Q%%%
11739B424%Q%%%%Q%%%%qQQ%%QqQQqQ%%%Q%%%%%Q%%%%Q%%%Q%%%%%Q%%%%Q%%%%Q%%%%Q%%%Q%
11723B536%%%Q%%%Q%%%%%Q%%%Q%%%%Q%%%Q%%%%Q%%%%Q%%%%Q%%%%Q%%%Q%%%%Q%%%Q%%%Q%%%
11708B648Q%%%%Q%%%QqQ%%Q%%%Q%%%Q%%%%Q%%%%Q%%%Q%%%%Q%%Q%%%%Q%%Q%%%%Q%%%Q%%%%Q
11693B776%%%Q%%%Q%%%Q%%%Q%%%Q%%%Q%%%Q%%Q%%%%Q%%Q%%%Q%%%Q%%%%Q%%%Q%%%Q%%Q%%%%
11677B904%Q%Q%%%Q%%%Q%%Q%%%%Q%%%Q%%Q%%%Q%%%%Q%Q%%%%Q%%Q%%%Q%%Q%%%Q%%Q%%%Q%%Q
11662C056%%%%Q%Q%%%%Q%%%Q%%Q%%Q%%%Q%%%Q%%%Q%%Q%%%Q%Q%%%Q%%Q%%%Q%%Q%%Q%%%Q%%Q
11647C208%%Q%%%Q%%Q%%Q%%Q%%%Q%%%Q%Q%%%Q%%Q%%%Q%%Q%%Q%Q%%%Q%%%Q%Q%%Q%%Q%%%Q%%
11631C368Q%%Q%Q%%%Q%%Q%%Q%%Q%%Q%%Q%%Q%%Q%%Q%%Q%%%Q%%Q%Q%%%Q%Q%%%Q%J6qQ%%QqQ%
11616C544Q%Q%%%Q%Q%%Q%%Q%%Q%%Q%Q%%Q%%Q%Q%%Q%%Q%%Q%%Q%Q%%Q%Q%%Q%%%Q%%Q%Q%Q%%Q
11601C744%Q%%Q%%Q%%Q%Q%%Q%%Q%Q%Q%%Q%%Q%Q%%Q%%Q%%Q%Q%Q%%Q%%QQqQQ%Q%%Q%%Q%Q%Q%
11586C952%Q%%Q%Q%%QQ%%Q%%Q%Q%Q%%Q%Q%Q%%Q%Q%Q%Q%%Q%Q%Q%%Q%Q%Q%%Q%Q%Q%%Q%Q%Q%Q
11570D184%%Q%Q%%Q%Q%Q%Q%Q%%Q%Q%Q%Q%Q%Q%Q%%Q%Q%Q%Q%Q%%J6%qQQ%Q%Q%%Q%QQ%Q%Q%%Q
11555D424Q%%Q%QQ%%QQ%Q%%Q%Q%Q%Q%Q%Q%QQ%%Q%Q%Q%Q%Q%Q%QQ%%QQ%Q%Q%Q%Q%Q%Q%Q%Q%Q
11540D696%QQ%Q%Q%Q%Q%QQ%Q%Q%Q%Q%QQ%%QQ%Q%QQ%%QQ%%Q%QQQ%Q%Q%Q%Q%QQ%QQ%Q%Q%Q%Q
11525D992Q%Q%QQ%Q%QQ%Q%Q%QQ%Q%QQ%Q%QQ%QQ%Q%QQ%Q%Q%QQ%QQ%Q%QQ%QQ%QQ%Q%QQ%Q%QQ
11509E320Q%QQ%Q%QQ%Q%QQQ%Q%QQ%J6%Q%Q%Q%J6Q%qJ6QQ%%Q%J6Q%Q%QQ%QQQ%QQ%QQ%QQ%QQ
11495E656%QQQ%QQ%QQQ%QQQ%QQ%QQ%QQQQ%QQ%QQQ%QQQ%QQ%QQQ%QQQ%QQQ%QQQ%QQQQ%QQQ%Q
11479F048%J6%QQQQ%QQQQ%QQQ%QQQQQ%QQQ%QQQQ%QQQQ%J6%QQQQ%QQQQQ%QQQQQ%QQQQQ%QQQ
11465F472QQQQQQ%QQQ%QQQQQQQQQ%QQQQQQQ%QQQQQQQQQQ%QQQQQQQQQQQQ%J6%QQQQQQQQQQQ
11450F952QQQQQ%J6%J6%QQQQQQQQQQQQQQQQJ6%QQQQQQQQQQQQQQQQQQQQQQQQQQJ6QQQQQQQQ
11435G456QQQQQJ6QQQQQQQQQQQQJ6QQQQQQQJ6%J6QQQQQQQQJ6QQQQQQJ6QQQQQQQJ6QQQQJ6Q
11422G984QQJ6QQQQQQJ6QQQQQJ6QQJ6QQQJ6QQQQJ6QQQQJ6QQJ6QQQJ6QQJ6QQQQQJ6QQJ6QQJ6
11409H528QQJ6QQQJ6QQJ6QQJ6QQJ6QQJ6QQJ6QQJ6QQJ6QQJ6QJ6QQJ6QJ6QQJ6QQJ6QJ6QJ6QQ
11398I064J6QJ6QJ6QJ6QQJ6QJ6QJ6QQJ6QJ6QJ6QJ6QJ6QJ6J6QQJ6QJ6QJ6QJ6QJ6J6QQJ6J6Q
11387I600J6QJ6QJ6J6QQJ6J6QJ6J6QQJ6J6J6QJ6QJ6J6QJ6J6QJ6J6QJ6J6QJ6QJ6J6QJ6J6QJ6
11378A0144QJ6J6J6QJ6J6J6QJ6J6QJ6J6QJ6J6J6J6QJ6J6J6QJ6J6J6QJ6J6J6J6QJ6J6J6QJ6
11369A0672J6J6J6J6QJ6J6J6J6J6J6QJ6J6J6J6J6J6QJ6J6J6J6J6J6J6J6J6J6QJ6J6J6J6J6
11361A1200J6J6J6J6J6J6J6J6J6J6J6J6J6J6J6J6J6J6J6J6J6J6J6K4QK4QK4J6J6J6J6J6J6
11353A1752J6J6J6J6K4J6J6J6J6J6J6J6K4J6J6J6J6K4J6J6J6J6J6J6K4J6J6J6K4J6J6J6K4
11346A2328J6J6J6K4J6J6J6K4J6J6K4J6K4J6J6K4J6J6J6K4J6J6K4J6K4J6J6K4J6K4J6J6K4
11338A2944J6J6K4J6K4J6K4J6K4J6K4J6K4J6K4J6K4J6K4K4J6J6K4J6K4K4J6K4J6K4K4J6K4
11330A3608K4J6K4J6K4K4J6K4K4J6K4K4J6K4K4J6K4K4J6K4K4J6K4K4K4K4J6L2J6K4K4K4K4
11323A4328J6K4K4K4K4J6K4K4K4K4K4K4K4K4J6K4L2J6K4K4K4K4K4K4K4K4K4K4K4K4K4K4K4
11315A5096K4K4K4K4L2K4K4K4K4K4K4K4L2K4K4K4K4L2J6L2K4K4K4L2K4K4K4L2K4K4L2K4K4
11308A5936L2K4K4K4L2K4K4L2K4L2K4K4L2K4L2K4L2K4K4L2K4L2L2K4K4L2L2K4L2K4L2L2K4
11300A6848L2L2K4L2K4L2L2K4L2L2K4L2L2K4L2L2L2L2K4L2L2L2L2K4L2L2L2K4L2L2L2L2L2
11293A7840L2L2L2L2L2L2L2L2L2L2L2L2L2L2L2L2L2L2M0L2L2L2L2L2L2M0L2L2L2L2M0L2L2
11285A8920M0L2L2M0L2L2M0L2L2M0L2L2M0L2M0L2M0L2M0M0L2L2M0M0L2M0L2M0M0L2M0M0L2
11278B0104M0M0L2M0M0L2M0M0M0M0M0M0M0L2M0M0M0M0M0M0M0M0M0M0M0M0M0M0M0M0M8L2M8
11270B1408M0M0M0M0M8M0M0M0M8M0M0M8M0M8M0M0M8M0M0M8M0M8M0M8M0M8M0M8M8M0M8M0M8
11263B2832M8M8M0M8M8M8M0M8M8M8M0N6M0N6M0M8M8M8M8M8M8M8M8N6M8M8M8M8M8N6M8M8M8
11255B4408N6M8M8N6M8M8N6M8N6M8N6M8M8N6N6M8N6N6M8N6M8N6N6N6M8N6N6N6N6N6N6M8N6
11247B6152N6N6O4M8O4N6N6N6N6N6O4N6N6N6N6O4N6N6O4N6O4N6O4N6O4N6O4N6O4O4N6O4O4
11240B8096O4N6O4O4O4O4O4O4N6P2N6P2O4O4O4O4O4P2O4O4P2O4O4O4P2O4P2O4P2O4P2P2O4
11232C0256P2P2P2O4P2P2P2P2P2P2P2P2O4Q0P2P2P2P2P2Q0P2P2Q0P2Q0P2P2Q0Q0P2Q0Q0P2
11225C2680Q0Q0Q0P2Q0Q0Q0Q0Q0Q8Q0Q0Q0Q0Q0Q8Q0Q0Q8Q0Q8Q0Q8Q0Q8Q8Q0Q8Q8Q8Q0Q8Q8
11217C5408Q8Q8Q8R6Q8Q8Q8Q8R6Q8R6Q8Q8R6R6Q8R6Q8R6R6R6R6R6R6R6R6R6R6R6J04R6R6J04
11210C8496J04R6J04R6J04R6J04J04R6J04J04J12J04J04J04J04J04J12J04J04J12J04J12J12
11204D1000J04J12J12J12J12J04J20J12J12J12J12J20J12J12J20J12J20J20J20J12J20J20
11199D3512J20J20J20J20J20J28J20J28J20J20J28J28J20J28J28J28J28J28J28J36J28J28
11194D6264J28J36J36J28J36J36J36J36J28J44J36J36J36J44J36J36J44J44J36J44J44J44
11189D9288J44J44J44J52J44J52J44J52J44J52J52J52J52J52J52J60J52J60J52J60J60J52
11184E2616J60J60J60J60J68J60J68J60J68J68J60J68J68J68J76J68J68J76J76J76J68J76
11179E6296J76J76J76J84J76J84J84J84J84J76J84J92J84J84J92J92J84J92J92K00J92J92
11174F0376K00J92K00K00K00K00K00K00K08K08K00K08K08K08K08K16K08K16K16K08K16K24
11169F4920K16K16K24K24K16K24K24K32K24K32K32K24K32K32K40K32K40K40K40K32K48K40
11164F9984K48K48K40K48K56K48K56K48K56K56K64K56K56K64K64K64K72K64K72K72K64K80
11159G5680K72K80K72K80K80K88K80K88K88K88K88K96K96K88K96L04L04K96L04L04L12L04
11154H2088L12L12L12L20L20L12L28L20L28L20L36L28L28L36L36L44L36L44L52L44L44L52
11149H9352L60L44L60L60L60L68L60L68L76L68L76L76L84L76L84L84L92L92L92L92M00M00
11144I7624M00M08M08M08M16M16M16M24M24M24M32M32M32M40M32M48M48M48M48M56M56M56
11139A07096M64M72M64M72M80M80M80M80M88M96M96M96N04M96N12N12N12N12N28N20N36N28
11134A18024N36N44N44N44N52N52N60N60N68N68N76N76N84N84N92N92O00O00O08O08O24O16
11129A30712O24O32O32O40O40O48O56O56O56O72O72O72O88O80O96O96P04P04P12P20P20P28
11124A45560P36P36P52P44P60P68P60P76P84P84P92Q00Q00Q16Q16Q24Q32Q40Q40Q48Q64Q56
11119A63088Q72Q80Q88Q88Q96R12R12R20R36R36R44R52R60R68R76R84R92J000J008J016J024
11114A82952J040J040J056J064J064J080J096J096J112J120J120J144J144J160J168J176J192
11110B01824J200J208J216J232J248J256J264J280J280J304J312J328J336J344J368J368J392
11106B23760J400J416J424J440J456J464J488J496J512J528J536J552J576J584J600J616J632
11102B49480J648J672J680J696J720J736J744J776J784J800J824J848J856J888J896J920J944
11098B79912J960J976K008K016K048K072K088K112K128K160K184K200K232K256K280K296K328
11094C16256K360K384K408K432K464K496K520K544K584K600K640K672K696K736K760K800K832
11090C60184K864K896K928K968L008L040L080L112L160L192L232L272L312L360L400L440L480
11087D13928L528L576L624L664L720L760L816L864L920L968M016M072M128M184M248M296M360
11083D80672M416M480M544M608M672M736M800M872M944N008N088N160N240N312N384N472N552
11079E64960N632N720N800N896N984O072O168O264O368O456O568O664O768O888O992P104P216
11075F73520P344P456P584P704P840P968Q104Q240Q384Q528Q672Q824Q976R136R296R464R632
11071H16672R808R984J0168J0352J0536J0744J0936J1144J1360J1568J1800J2016J2256J2496
11068I71840J2736J2992J3248J3520J3792J4064J4360J4648J4960J5264J5592J5920J6264
11065A159200J6608J6968J7344J7720J8112J8512J8936J9360J9800K0256K0728K1208K1704
11062A406456K2224K2752K3304K3856K4456K5048K5672K6320K6984K7680K8384K9120K9888
11059A742144L0672L1488L2328L3216L4120L5064L6048L7048L8104L9208M0328M1512M2744
11056B214024M4016M5336M6712M8160M9640N1200N2832N4520N6280N8128O0048O2056O4160
11053B907112O6352O8656P1056P3568P6216P8968Q1880Q4920Q8120R1480R5008R8728J02640
11050C984704J06768J11112J15688J20536J25648J31064J36776J42840J49264J56080J63304
11047E443784J71000J79176J87880J97176K07064K17640K28945K41055K54016K67928K82888
11045G878552K98960L16289L34975L55160L76992M00649M26336M54255M84656N17832N54104
11042A2398760N93832O37440O85424P38328P96801Q61614R33609J013856J103511J204050
11040B0967225J317111J444744J589353J753800J941673K157201K405679K693592L029030
11038C9299408L422170L885841M436480N095205N889712O856323Q043646R517407J1367873
11036I7814065J3720792J6754694K0726977K6016733L3192939M3126317N7173409P7470518
11034C85996444J07364789J51856890K17184870L05856753L96358370L99905156J82960375
11032B147483647j82960375l99905253l96358273l05856656k17184967j51856890j07364813
11031C85996420p7470518n7173385m3126341l3192915k6016757k0726953j6754694j3720792
11029I7814065j1367873r517425q043628o856323n889700n095229m436468l885841l422170
11027C9299408l029030k693592k405679k157201j941679j753794j589345j444752j317111
11025B0967225j204050j103518j013849r33616q61607p96809p38320o85415o37449n93832
11023A2398760n54104n17832m84656m54248m26336m00664l76984l55160l34968l16296k98968
11020G878544k82872k67936k54023k41048k28945k17640k07072j97160j87880j79184j71000
11018E443784j63312j56072j49264j42840j36776j31056j25656j20536j15696j11104j06768
11015C984704j02640r8720r5016r1480q8120q4920q1872p8984p6208p3568p1064o8648o6352
11012B907112o4160o2056o0048n8128n6280n4520n2824n1208m9648m8152m6712m5336m4016
11009B214024m2736m1520m0336l9192l8112l7056l6040l5064l4120l3208l2336l1496l0672
11006A742136k9880k9120k8384k7680k6984k6312k5680k5048k4448k3872k3296k2760k2216
11003A406456k1704k1208k0728k0256j9800j9360j8936j8512j8112j7720j7344j6968j6608
11000A159200j6264j5920j5592j5264j4960j4648j4360j4064j3792j3520j3248j2992j2736
10997I71840j2496j2256j2016j1800j1568j1360j1144j0936j0744j0536j0360j0160r984r808
10994H16672r632r464r296r136q976q824q672q528q384q240q104p968p840p704p584p456p344
10990F73520p216p112o984o880o776o664o568o464o360o264o168o072n984n896n800n720n632
10986E64960n552n472n392n312n232n160n088n008m944m872m800m736m672m608m544m480m416
10982D80672m360m304m240m184m128m072m024l968l912l864l816l760l720l664l624l576l528
10978D13928l488l440l392l360l312l272l232l192l160l112l080l040l000k976k928k896k864
10975C60184k832k792k768k736k696k672k632k608k584k544k520k496k464k440k400k384k352
10971C16264k336k304k272k256k232k200k184k160k136k104k096k064k040k024k008j976j960
10967B79912j944j920j896j888j856j848j824j800j792j768j744j736j720j696j688j664j648
10963B49480j632j616j600j584j576j552j544j520j512j496j488j464j456j440j424j416j400
10959B23760j392j368j360j352j336j328j312j296j296j272j264j256j248j232j224j208j200
10955B01816j184j176j168j160j144j144j128j120j104j096j096j080j072j056j056j040j040
10951A82952j024j016j008j000r92r84r76r68r60r52r44r44r20r28r12r04r04q96q80q72q80
10946A63088q64q48q56q40q40q32q24q16q08q08q00p92p84p84p68p68p68p52p52p44p44p36
10941A45560p28p20p20p12p12o96o96o96o80o88o72o72o64o64o56o56o48o40o40o32o32o24
10936A30712o16o16o16o08o00o00n92n92n84n84n76n76n68n68n60n60n52n52n52n36n44n36
10931A18024n28n28n28n20n20n12n12n12n04m96m96m96m96m88m80m80m80m80m72m64m72m64
10926A07096m56m56m56m48m48m48m40m40m40m32m32m32m24m24m24m16m16m16m08m08m08m00
10921I7624m00m00l92l92l92l92l84l84l76l84l76l76l76l68l68l60l68l60l60l52l60l52
10916H9352l52l44l52l44l36l44l44l36l36l28l28l28l28l28l20l28l20l12l20l12l12l12
10911H2088l04l12l04l04l04k96l04k96k96k96k88k88k96k80k88k80k88k80k80k72k80k72
10906G5680k80k72k64k72k64k72k64k64k56k64k56k64k56k56k48k56k48k48k56k40k48k48
10901F9984k40k40k40k40k40k32k40k32k40k32k32k24k32k24k32k24k16k32k16k24k16k16
10896F4920k24k16k16k08k16k08k16k08k08k08k08k08k00k08k00k00k00k00k00k00k00j92
10891F0376j92k00j84k00j84j92j92j92j84j84j92j84j84j84j76j84j84j76j76j76j84j76
10886E6296j76j76j68j76j76j68j68j76j60j76j68j60j68j68j60j68j60j60j68j60j60j60
10881E2616j60j52j60j60j52j52j60j52j52j52j52j52j52j44j52j44j52j44j52j44j44j44
10876D9288j44j44j44j36j44j44j36j36j44j36j44j36j36j36j28j36j36j36j36j28j36j28
10871D6264j28j36j28j28j28j28j28j28j20j28j28j28j20j28j20j20j28j20j20j20j20j20
10866D3512j20j20j20j12j20j20j12j20j12j12j20j12j12j12j20j04j12j12j12j12j12j12
10861D0992j04j12j04j12j04j04j12j04j04j04j12j04j04j04r6j04j04j04r6j04j04r6j04
10856C8592j04r6r6r6j04r6r6r6r6r6r6r6r6r6r6r6q8r6r6q8r6q8r6q8q8r6q8q8q8r6q8q8
10848C5584q8q8q8q8q0q8q8q8q8q0q8q0q8q0q8q0q8q0q0q8q0q0q0q0q8q0q0q0q0q0q0p2q0
10841C2840q0q0q0p2q0p2q0p2q0p2q0p2p2q0p2p2q0p2p2p2p2p2p2q0o4p2p2p2p2p2p2o4p2
10833C0400p2p2o4p2p2o4p2o4p2o4o4p2o4o4p2o4o4p2o4o4o4o4o4o4o4o4o4o4o4o4o4o4o4
10826B8216n6o4o4n6o4o4n6o4o4n6o4n6o4n6o4n6o4n6n6o4n6n6n6n6o4n6n6n6n6n6n6o4n6
10818B6264n6n6n6n6m8n6n6n6n6n6m8n6n6m8n6n6n6m8n6m8n6n6m8n6m8m8n6m8n6m8m8n6m8
10810B4512m8n6m8m8m8n6m8m8m8m8m8n6m8m8m8m8m8m8m8m8m8m8m0n6m0m8m8m8m8m0m8m8m8
10803B2920m0m8m8m0m8m0m8m8m0m8m0m8m0m8m0m8m0m0m8m0l2o4l2m8m8l2m8m0m8l2m0m8m0
10795B1488m0m0m0m8m0m0m0m0m0m0m0m0m0m0m0m0m0m0m0m0m0m0l2m0m0m0m0m0m0l2m0m0l2
10788B0184m0m0l2m0m0l2m0l2m0m0l2m0m0l2m0l2m0l2l2m0l2m0m0l2l2m0l2l2m0l2l2m0l2
10780A8992l2m0l2l2l2m0l2l2l2m0l2l2l2l2l2m0l2l2l2l2l2l2l2l2l2l2l2l2l2l2l2l2l2
10773A7904l2l2l2l2l2k4l2l2l2l2l2l2k4l2l2l2k4m0k4l2l2k4l2l2k4l2l2l2k4l2k4l2k4
10765A6912l2l2l2k4l2l2k4l2k4k4l2k4l2k4l2k4l2k4l2k4l2k4k4l2k4l2k4l2k4k4l2k4k4
10758A5992k4l2k4k4l2k4k4l2k4k4k4k4l2k4k4k4l2k4k4k4k4k4l2k4k4k4k4k4k4k4l2k4k4
10750A5144k4k4k4k4k4k4k4k4k4k4k4k4k4k4k4k4k4k4k4k4j6k4k4k4k4k4k4k4k4j6k4k4k4
10742A4368k4k4j6k4k4k4j6l2j6k4k4j6k4k4k4j6k4k4k4j6k4k4k4j6k4j6k4k4j6k4k4j6k4
10735A3648k4j6k4j6k4k4j6k4j6k4j6k4k4j6j6k4k4j6k4j6k4j6k4j6k4j6k4j6k4j6k4j6j6
10727A2984k4j6k4j6j6k4j6k4j6j6k4j6j6k4j6j6k4j6k4j6j6k4j6j6k4j6j6k4j6j6j6k4j6
10720A2360j6j6k4j6j6j6k4j6j6j6j6k4j6j6j6j6k4j6j6j6j6j6k4j6j6j6j6j6k4j6j6j6j6
10712A1784j6j6j6j6j6j6j6j6k4j6j6j6j6j6j6j6j6j6j6j6j6j6j6j6j6j6j6j6j6j6j6j6j6
10705A1248j6j6j6j6j6j6qk4qj6j6j6j6j6j6j6j6j6qj6j6j6j6j6j6j6qj6j6j6j6j6j6qj6j6
10696A0704j6j6j6j6qj6j6qj6j6j6j6qj6j6j6j6qj6j6qj6j6j6j6qj6j6qj6j6j6qj6j6qj6j6
10688A0168j6qj6qj6j6j6qj6qj6j6qj6j6qj6qj6j6qj6j6qj6qj6qj6j6j6qj6qj6qj6qj6j6q
10678I640j6qj6j6qqj6qj6j6qj6qj6qj6qj6qj6qj6qj6qqj6qj6j6qqj6qj6qj6qj6qqj6qj6q
10668I104j6qqj6qj6qj6qqj6qj6qqj6qqj6qj6qqj6qj6qqj6qqj6qqj6qqj6qqj6qqj6qqj6qq
10657H568qj6qqj6qqj6qqqj6qqj6qqqj6qqqqj6qqj6qqqj6qqqqj6qqqqj6qqqj6qqqqj6qqqq
10645H032qj6qqqj6qqqqqqqj6qqqqqj6qqqqqqqj6qqqqqqqj6qqqqqqqqqj6qqqqqqqqqqj6qq
10631G496qqqqqqqqqqqqqj6qqqqqqqqqqqqqqqqqqqqqqqqqqqqqqqqqqqqqq%j6qqqqq%qqqqq
10616F976qqqqqqqqqqqq%qqqqqqqqqqqqqqqqq%qqqqqqq%qqqqqqqq%qqqqqqqqq%qqqqqqq%q
10601F488qqqqq%qqqqq%qqqqq%qqqq%qqqqqq%qqqq%qqqq%qqqq%qqqqq%qq%qqqqq%qqq%qqq
10585F048q%qqq%qqqq%qq%qqqq%qqq%qqqq%q%qqq%qqq%qqq%qq%qqq%qq%qqqq%qq%qq%qqq%
10570E656qq%qq%qq%qq%qqq%qq%q%qq%q%j6Qqqqqq%q%qq%j6%%qq%qq%qqq%q%q%qq%qqq%q%
10555E312qq%qq%q%qq%qq%qq%q%qq%q%qq%q%qq%q%qq%qq%q%qq%%qq%qq%qq%q%q%qq%q%q%q
10540D984q%q%qq%q%qq%q%q%q%q%qq%q%q%qq%q%q%qq%q%q%q%q%q%q%qq%%q%qq%q%q%qq%q%
10525D688q%q%q%q%q%q%q%q%q%qq%%q%qq%q%q%q%q%q%q%q%q%q%q%q%q%q%q%q%%qq%%qq%q%
10509D416%q%q%q%q%q%q%qq%%qq%%%q%q%q%q%%q%q%q%q%q%%q%q%q%q%q%q%q%q%%q%q%q%%q
10494D168%q%q%q%%q%q%q%%q%q%%q%q%q%q%%q%q%q%%q%q%%q%q%q%q%%q%%q%q%q%q%%q%q%%
10479C944q%%q%q%q%%q%q%q%%q%%q%q%%q%q%%q%q%%q%%q%%q%q%%q%q%%q%q%%q%q%%q%%q%q
10463C728%%q%q%%%q%q%%q%%q%%q%q%%q%%q%q%%q%%q%q%%%q%q%%q%%q%%q%%q%q%%%q%q%%q
10448C536%%qqQqQj6%%%q%%q%q%%%q%%q%%q%q%%q%%%q%q%%%q%%q%%q%%q%%q%%q%%%q%q%%%
10433C368q%q%%q%%q%%%q%q%%%q%%q%%q%%q%%q%%%q%%q%%%q%%q%%q%%%q%%q%%q%%q%%%q%%
10417C200q%%%%q%q%%q%%q%%%q%%%q%%q%%%q%%q%%q%%%q%%%q%%q%%%q%%%q%%q%%%q%q%%%%
10402C048q%%q%%%q%%q%%q%%%%q%%q%%%q%%%%q%%q%%%q%%q%%%q%%%q%%%q%%%%q%q%Qj6Qq%
10387B904%qQq%q%%%%q%%q%%%q%%%q%%%q%%%%q%%%q%%q%%%q%%%q%%%q%%%q%%%q%%%q%%%%q
10372B768%%%q%%%q%%%q%%%q%%%%q%%%q%%%%q%%%q%%qQq%%%q%%%q%%q%%%%%q%%%q%%%%q%%
10356B648q%%%%q%%%%q%%%q%%%%q%%%q%%%%q%%%q%%%%%q%%%q%%%q%%%%q%%%%%q%%%%q%%%q
10341B528%%%%q%%%%q%%%%q%%q%%%%%q%%%%q%%%%q%%%q%%%%%%q%%%j6Q%%%%q%%%q%%%%q%%
10326B424%q%%%%%%q%%%%q%%%%%q%%%q%%%q%%%%%%q%%%q%%%%%q%%qQ%q%%%q%%%%%q%%%%q%
10311B320%%%%%q%%%q%%%%q%%%%%q%%%%%q%%%%%q%%%%q%%%%%q%%%%%q%%%%q%%%%%q%%%%%q
10295B224%%%%%q%%%%%q%%%%q%%%%q%%%%%%q%%%%%q%%%%%q%%%%%q%%%%q%%%%%%q%%%%%%q%
10280B136%%%%q%%%%%q%%%%%q%%%%%q%%%%%q%%%%%%%q%%%q%%Qq%%q%%%%%%%q%%%%%q%%%%q
10265B048%%%%%q%%%%%%%qQq%%%%%q%%%%q%%%%%%%q%%%%%%%q%%%q%%%%%%q%%%%%%%q%%%%%
10249A976%q%%%%%%q%%%%%q%%%%%%%%q%%%%%%%q%%%%%q%%%%q%%%%%%q%%%%%%%q%%%%%%%q%
10234A896%%%%%%q%%%%%%q%%%%%%%%q%%%%%%q%%%%%%q%%%%%%%q%%%%%%q%%%%%%q%%%%%%%q
10219A824%%%%%%q%%%%%%%%q%%%%%qQ%q%%%%qQq%%%%%%%%q%%%%%%%q%%%%%%%q%%%%%%%q%%
10203A760%%%%%q%%%%%%%q%%%%%%%q%%%%%%%q%%%%%%%%%%q%%%%qQq%%%%%%%q%%%%%%%qQq%
10188A696%%%%%%%q%%%%%%%q%%%%%qQ%%q%%%%%qQq%%%%%%%q%%%%%%%q%%%%%%%q%%%%%%%%%
10173A640%%%q%%%%%%%q%%%%%%%%q%%%%%%%qQq%%%%%%%qQq%%%%%%%qQq%%%%%%%q%%%%%%%%
10157A584q%%%%%%qQ%q%%%%qQqQ%q%%%%%%%%%%q%%%%%%%%%q%%%%%%%%%q%%%%%%%q%Qq%%%%
10142A528%%%q%%%%%%%%%qQq%%%%%%%%q%%%%%%%%%%q%%%%%%%%q%%%%%%%%%%%q%%%%%%%%%%
10127A480%q%%%%%%%%q%%%%%%%%%%%q%%%%%%%%qQq%%%%%%%%%q%%%%%%%%%%%%%q%%%%%%%%q
10111A424%%%%%%%%%%%q%%%%%%%%q%%%%%%%%%%%%qQ%q%%%%%%%%qQ%qQq%%%%%qQq%%Qqj6Q%
10096A376J6j6qJ6q%qJ6j6QQq%%%q%%%%%%%qQ%%%q%%%%%%%%%%q%%%%%%%%%%%%q%%%%%%%%%
10082A344%%q%%%Qq%%%%%%qQq%%%%%%%%%%q%%%%%%%%%%q%%%%%%%%%%%%q%Qq%%%%%%%%qQq%
10067A296%%%%%%%%%qQ%q%%%%%%%%%%q%%%%%%%%%%%%%%q%%%%%%%%%%%%%%q%%%%%%%%%qQq%
10051A256%%%%%%%%%%%%%q%%%%%%%%%%%%%q%%%%%%%%%%qQq%%%%%%%%%%%q%%%%%%%%%%%%%q
10036A216Qq%%%%%%%%%%%%%q%%%%%%%%%%%%q%%%%%%%%%%%%%%%qQq%%%%%%%%%%%q%%%%%%%%
10021A184%%%%%%%q%%%%%%%%%%%%%%%%q%%%%%%%%%%%qQq%%%%%%%%%%%%q%%%%%%%%%%%%%%%
10005A152%q%%%%%%%%%%%%%%%%q%%%%%%%%%%%%%qQq%%%%%%%%%%%%%%%%q%%%%%%%%%%%%%q%
9990A112%%%%%%%%%%%%%q%%%%%%%%%%%%%%%%%%%q%%%%%%%%%%%%%qQ%q%%Qq%%%%%%%%%%%%q
9974A080%%%%%%%%%%%%%%%%%q%%%%%%%%%%%%qQq%%%%%%%%%%%%%%%%qQ%%qQq%%%%%%%%%%%%
9959A056%q%%%%%%%%%%%%%%%%q%%%%%%%%%%%%%%%q%Qq%%%%%%%%%%%%%%%%%%q%%%%%%%%%%%
9943A024%%%%%%qQq%%%%%%%%%%%%%%q%Qq%%%%%%%%%%%%qQ%q%Qq%%%%%%%%%%%%%%q%%%%%%%
9928I92%%%%%%%%%%%%%%%q%%%%%%%%%%%%%%%qQqQ%q%%%%%%%%%%%%%%%%%q%%%%%%%%%%%%%%
9912I68%%%%%%qQqQq%%%%%%%%%%%%%q%Q%q%%%%%%%%%%%%%%%%%q%%%%%%%%%%%%%%%%%qQ%%%
9896I44%%q%%%%%%%%%%%%%%%%q%%%Qq%Q%q%%%%%%%%%%qQq%%%%%%%%%%%%%%%%%%%%%%q%%%%
9880I12%%%%%%%%%%%%%%%%%q%%%%%%%%%%%%%%%%%%%%q%%%%%%%%%%%%%%%%%%%qQq%%%%%%%%
9865H88%%%%%%%%%%%%%%q%QQj6Q%q%Qq%%%%%%%%%%%%%%%%q%%%%Qq%%%%%%%%%%%%%%qQq%%%
9849H64%%%%%%%%%%%%%%%%%%%%q%%%%%%%%%%%%%%%%%%%%%%%%q%%%%%%%%%%%%%%%%%%%%%qQ
9833H48%q%%%%%%%%%%%%%%%%%%%%%%%%%%q%%%%%%%%%%%%%%%%%%%q%%%%%%%%%%%%%%%%%%%%
9817H24%qQ%q%%Q%%q%%%%%%%%%%%%%%%%%%%%%%%q%%%%%%%%%%%%%%%%%%%%%%qQq%%%Qq%%%Q
9802H08%q%%%%%%%%%%%%%%%q%%%%%%%%%%%%%%%%%%%%%%%%%%qQq%%%%%%%%%%%%%%%%%%%%%%
9786G84%%%%q%%%%%%%%%%%%%%%%%%%%%%%q%Q%q%%%%%%%%%%%%%%%%%%%%%%%q%%%Qq%Qq%%%%
9770G60%%%%%%%%%%%%%%%%%%%%%q%%%%%%%%%%%%%%%%%%%%%%%%%%%%qQqQ%q%Qq%%%%%%%%%%
9754G44%%%%%%%%%%%%%q%Q%q%%%%%%%%%%%%%%%%%%qQ%%%qQ%q%%Qq%%Qq%%%%%%%%%%%%%%%%
9738G28%%q%Q%q%%%%%%%%%%%%%%%%%%%%%%%%%%%%%qQ%%q%%%%%%%%%%%%%%%%%%%%%%%%%%%%
9723G12q%Qq%%%%%%%%%%%%%%%%%%%%%qQ%%q%%%Qq%%%%Qq%%%%%%%%%%%%%%%%%%%%%%%%qQq%
9707F88%%%%%%%%%%%%%%%%%%%%%%%%%%%%q%%%%%%%%Qq%%%%%%%%%%%%%%%%qQ%%%qQq%%Qq%%
9691F72%%%%%%%%%%%%%%%%%%%%%%%%%qQ%%qQ%%%q%%%%%%%%%%%%%%%%%%%%%%%%%%qQ%%%%q%
9675F56%%%%%%%%%%%%%%%%%%%%%%%%%%%%%%%%%%%%%%q%QqQq%%%%%%%%%%%%%%%%%%%%%%%%%
9659F48q%%Qq%%%%%%%%%%%%%%%%%%%%%%%%%%%%%%%%%%%%%q%Qq%%%%%%%%%%%%%%%%%%%%%%%
9644F32%%%%%qQqQq%%%%%%%%%%%%%%%%%%%%%%%%%%%%%%%%%%%%%%%%%%q%%%%QqQq%%%%%%%q
9628F08Q%qQK4k4%%%%%qQqQq%Q%q%%%%%%Q%q%%%%%%%%%%%%%%%%%%%%%%%%%%%%%%q%%%%%Qq
9613F00%%%%%%%%%%%%%%%%%%%%%%%%%%%%%%qQ%%qQ%q%%%%%%%%%%%%%%%%%%%%%%%%%%%%%%%
9597E92%%%%%%%%%%%%%%%%%q%Qq%%%%%%%%%%%%%%%%%%%%%%%%%qQ%qQ%%%%%%%q%QqQq%%%%%
9581E76%%%%%%%%%%%%%%%%%%%%%%%%%%q%Qq%%%%%%Qq%%%%%%%%%%%%%%%%%%%%%%%%%%%%%qQ
9565E68%%%%%%%q%Qq%Q%%q%%%%%%%%%%%%%%%%%%%%%%%%%%%%%%%qQ%%%%qQqQq%%%%%%%%%%%
9549E52%%%%%%%%%%%%%%%%%%%%%%%%%%%%%q%%%%%%%%%%%%Q%q%%Q%q%%%%%%%%%%%%%%%%%%%
9534E44%%%%q%Q%qQ%q%%%%%%%%%%%%%%%%%%%%%%%%%%%%%%%%%%%%%%%%%%%%%%qQ%q%%%%%%%
9518E28%%%%%%%%%%%%%%%%%%%%%%%%%%%%%%%%%q%%Q%q%Q%q%%%Q%q%%%%%%%%%%%%%%%%%%%%
9502E20%%%%%%%%%%%%%%%%%%%%%qQ%%q%%Qq%Qq%%Q%q%%%%%%%%%%%%%%%%%%%%%%%%%%%%%%%
9486E12%%%%%%%%%%%%q%%%%%%%%%%%%%%%%%%%%%%%%%%%%%%%%%%%%%%%%%%%%%%%%%%%q%%%%
9470D96%%%%%%%%%%%%%%%%%%%%%%%%%%%%%%%%%%%%%%%%%%%%%%%%qQ%%q%%Qq%%Qq%%%%%%%%
9455D88%%%%%%%%%%%%%%%%%qQ%%%%%%qQ%qQqQ%q%Q%q%Qq%%%Qq%%%QqQq%%%%%%%%%%%%%%%%
9439D80%%%%%%%%%%%%%%%%%%%%%qQ%q%%Qq%%%%%%%%%%%%%%%%%%%%%%%%%%%%%%%%%%%%%%%%
9423D72%%%%%q%Q%%%qQ%%%%%%%%q%%%Qq%%%%%%%%%%%%%%%%%%%%%%%%%%%%%%%%%%%%%%%%%%
9407D64%%%qQ%%%%%q%%%Qq%Qq%%%%Qq%%%%%%%%%%%%%%%%%%%%%%%%%%%%%%qQ%%%%%%%qQqQ%
9391D56q%QqQqQqQqQq%%%%%%%%%%%%%%%%%%%%%%%%%%%%%%%%%%%%%%%%%%%%%%%qQ%%qQ%%%q
9376D40QqQ%q%%Qq%%%%%%%%%%%%%%%%%%%%%%%%%%%%%%%%%%%%%%%%%%%qQ%%%%qQ%%%%q%Qq%
9360D32QqQ%%q%Qq%%%%%%%%%%%%%%%%%%%%%%%%%%%%%%%%%%%%%%%%%%%%%%%%%%%%%%%%%%%q
9344D24Qq%%%%%Qq%%%%%%%%%%%%%%%%%%%%%%%%%%%%%%%%%%%%%%qQ%%%%%%%%%%%%%%qQ%%%%
9328D24%%%q%%Qq%%%%%%%%%%%%%%%%%%%%%%%%%%%%%%%%%%%%%%%%%%%%%%%%%%%%%%%%%%%%%
9312D16%%%%%%%%%qQq%%%%%%%%%%%%%%%%%%%%%%%%qQ%%%%%%%%%%%%%%%%%%%%%%%%%%%%%%%
9297D08%%%%qQqQ%%q%Q%qQqQq%%%%%%%%%%%%%%%%%%%%%%%%%%%%%%%%%%%%%%%%%%%%%%%%%%
9281D00%%%%%%%%%%%%%%%%%%%%%%%%q%%Q%%%%q%%%%%%%%%%%%%%%%%%%%%%%%%%%%%%%%%%%%
9265C92%%%%%%%%%%%%%%%%%%%%%%q%Qq%Q%q%%%%%%%%%%%%%%%%%%%%%%%%Qq%%%%%%%%%%%%%
9249C84%%%%%%%%%%%%%%%%qQ%%%%%%%%%%%%%%%%%qQqQ%q%%%%%%Qq%%%%%%%%%%%%%%%%%%%%
9233C76%%%%%%%%%%%%%%%%%%%%%%%%%%%%%%%%%%%%%%%%%%%%%%%%%%%%%%%q%Qq%%%Qq%%%%%
9218C68%%%QqQq%%%%%%%%%%%%%%%%%%%%%%%%%%%%%%%%%%%%%%%%%%%%%%%%%%%%%%%%%%%%qQ
9202C68%%%%%%qQq%%%%%%%%%%%%%%%%%Qq%%%%%%%%%%%%%%%%%%%%%%%%%%%%%%%%%%%%qQ%%%
9186C60%%%%%%%%%%%%%%%%%%%%%%q%QqQ%%%%%%%%q%Q%q%%%%%Qq%%%%%%%%%%%%%%%%%%%%%%
9170C52%%%%%%%%%%%%%%%%%%%%%%%%%%%%qQ%%qQq%Q%qQ%%qQqQq%%Qj6qQJ6qK4Qj6q%qQQj6
9156C44%Qq%%%%QqQq%%%%%%%%%%%%%%%%%%%%%%%%%%%%%%%%%%%%%%%%%%%%%%%%%%%%%%%%%%
9140C44%%%%%%%%%%q%Q%%%q%%%%%%QqQ%%q%%%%%%%%%%%%%%%%%%%%%%%%%%%%%%%%%%%%%%%%
9124C36%%%%%%%%%%%%%%%%%%%%%%%%%%%%%%%%%%%%%%%%%%%%%qQ%qQq%Qq%%%%%%%%%%%%%%%
9108C28%%%%%%%%%%%%%%%%%%%%%%%%%%%%%%%%%%%%%%%%%%%%%%%%%%%%%%%%%%%%%%%%%%%%%
9092C28%%%%qQ%%q%%QqQ%q%%Qq%%%%%%%%%%%%%Qq%%%%%%%%%%%%%%%%%%%%%%%%%%%%%%%%%%
9077C20%%%%%%%%%%%%%%%%%%%%%%%%%%%%%%%%%%%%%%%%%%%%%%%%%qQq%Q%q%Q%q%%QqQq%%%
9061C12Qq%%%%%%%%%%%%%%%%%%%%%%%%%%%%%%%%%%%%%%%%%%%%%%%%%%%%%%%%%%%%%%%%%%%
9045C12%%%%%%%%%%%%%%%qQ%%qQ%qQqQ%%qQ%%qQ%%qQ%%qQqQ%%%%q%%%%%%%%%%%%%%%%%%%%
9029C04%%%%%%%%%%%%%%%%%%%%%%%%%%%%%%%%%%%%%%%%%%%%%%%%%%%%%%qQ%%%%%%%%qQ%qQ
9014C04%%%%%%%%qQ%%%qQqQq%%%%%%%%%%%%%%%%%%%%%%%%%%%%%%%%%%%%%%%%%%%%%%%%%%%
8998B96%%%%%%%%%%%%%%%%%%%%%%%qQ%%%%%%%%%%%%%%q%Q%%%%%%%%%%%q%%Q%q%%%Qq%%%Q%
8982B96qQq%%%%%%Qq%%%Qq%Qq%%%%%%%%%%%%%%%%%%%%%%%%%%%%%%%%%%%%%%%%%%%%%%%%%%
8966B88%%%%%%%%%%%%%%%%%%%%%%%%%%%%%%%%%%%%%qQqQ%%%%%%%%%%%q%Qq%%%%Q%q%Qq%Qq
8950B80Qq%%%%%%%%%%%%%%%%%%%%%%%%%%%%%%%%%%%%%%%%%%%%%%%%%%%%%%%%%%%%%%%%%%%
8935B80%%%%%%%%%%%%%%%%%%qQ%qQ%%%qQ%%%q%QqQq%Q%%%%%qQ%%%%%qQ%qQq%%%%%%%%%%%%
8919B72%%%%%%%%%%%%%%%%%%%%%%%%%%%%%%%%%%%%%%%%%%%%%%%%%%%%%%%%%%%%%%%%%%%%%
8903B72%%%%%%%%%%%%%%%%%%%%%%%%%%%%%%q%%Q%%q%Q%q%%%%%%%%%Qq%%%%%%%Qq%Qq%%%%%
8887B64%%%%%%%%%%%%%%%%%%%%%%%%%%%%%%%%%%%%%%%%%%%%%%%%%%%%%%%%%%%%%%%%%%%%%
8871B64%%%%%%%%%%%%%%%%%%%%%%%%%%q%%Q%%%%qQ%%qQ%%%q%Qq%%%%Qq%%%%%%%Qq%QqQ%qQ
8856B64q%%%%%%%%%%%%%%%%%%%%%%%%%%%%%%%%%%%%%%%%%%%%%%%%%%%%%%%%%%%%%%%%%%%%
8840B56%%%%%%%%%%%%%%%%qQ%%%%%%%%%qQ%%%%%qQ%%%qQ%%%%%%%%%%%%%%%%%%%%%%%q%Q%q
8824B48%%Qq%Q%%%%qQq%%%%%%%%%%%%%%%%%%%%%%%%%%%%%%%%%%%%%%%%%%%%%%%%%%%%%%%%
8808B48%%%%%%%%%qQ%%%%%%%%%%%%%%%%%%%%%%%%%%%%%%%%%%%%%qQ%%%%%%%%%%%%qQ%%%%%
8792B48%qQ%%%%%%qQ%%qQ%qQ%%q%%QqQ%%%q%%%%%%Q%q%Qq%%%%%%%%%%%%%%%%%%%%%%%%%%%
8777B40%%%%%%%%%%%%%%%%%%%%%%%%%%%%%%%%%%%%%%%%%%%%%%%%%%%%%%%%%%%%%%%%%%%%%
8761B40%%%%%%%%%%%%%%%%%%%%%%%%%%%%%%qQq%QqQ%%%%%%%qQq%Q%qQ%qQ%q%Q%qQq%%%%Qq
8745B32Q%q%%%%%%Qq%%%%Qq%%%%%%%%%%%%%%%%%%%%%%%%%%%%%%%%%%%%%%%%%%%%%%%%%%%%
8729B32%%%%%%%%%%%%%%%%%%%%%%%%%%%%%%%%%%%%%%%%%qQ%%%%%%%%qQ%%%%%%%%q%Q%%%%%
8713B32%%%%%qQ%q%%Q%%%qQq%%Qq%%%%%%Qq%%%%%%%%%%%%%Qq%%%%%%%%%%%%%%%%%%%%%%%%
8698B24%%%%%%%%%%%%%%%%%%%%%%%%%%%%%%%%Qq%%qQK4k4Qq%%qQ%%%%%qQ%%%%%%%%%%%%%%
8682B24%%%%%%%%%%%%%%%%%%%%%%%%%%%%%%%%%%%%%%qQ%%%%%%%%%%%%q%Q%qQqQqQ%%%%%q%
8667B16%%%Qq%%%%%%%%%%%%%%%%%%%%%%%%%%%%%%%%%%%%%%%%%%%%%%%%%%%%%%%%%%%%%%%%
8651B16%%%%%%%%%%%%%%%%%%%%%%%%%%%%%%%%%%%%%%%%%%%%%%%%%%%%%%%%%%%%%%%%%%%%%
8635B16%%%%%%%%%%%%qQ%%%%%%qQ%%%%%%%%%%%%%%%%%%%%%%%%%%%%%%%%%%qQ%q%%%%Qq%%%
8619B08Qq%%%%%Qq%%%Qq%%Qq%%%%%%%%%%%%%%%%%%%%%%%%%%%%%%%%%%%%%%%%%%%%%%%%%%%
8603B08%%%%%%%%%%%%%%%%%%%%%%%%%%%%%%%%%%%%%%%%%%%%%%%%%%%%%%%%%%%%%%%%%%%%%
8588B08%%%%%%%%%%%%%%%%%%%%%%%%%%%qQqQ%%qQ%qQqQ%qQ%%%%%%%q%%Q%%q%%Q%qQ%qQ%%q
8572B00%Q%qQqQq%Q%q%%%%%%%%%%%%%%%%%%%%%%%%%%%%%%%%%%%%%%%%%%%%%%%%%%%%%%%%%
8556B00%%%%%%%%%%%%%%%%%%%%%%%%%%%%%%%%%%%%%%%%%%%%%%%%%%%%%%%%%%%%%%%%%%%%%
8540B00%%%%%%%%%%%%%%%%%%%%%%%%%%%%%%qQ%%%%%%%%q%%Q%qQ%qQ%%%%%qQ%%%%qQq%Qq%%
8524A92Qq%Qq%QqQqQqQqQ%q%%%%Q%q%%%Qq%%QqQqQq%%%%%%Qq%%Qq%%%QqQq%%%%%%%%Qq%%%
8509A92%%%%%%%%%%%%%%%%%%%%%%%%%%%%%%%%%%%%%%%%%%%%%%%%%%%%%%%%%%%%%%%%%%%%%
8493A92%%%%%%%%%%%%%%%%%%%%%%%%%%%%%%%%%%%%%qQ%%%%%%%%%%%%%%%%%%%%%%%%%%%%qQ
8477A92qQ%%%qQ%%%%%%%%qQqQq%Q%%%%%%%%%%%%%q%%%%Qq%%%%%%%%%%%%%%%%%%%%Qq%%%Q%
8461A92q%%%%%%%%%%%%%%%%%%%%%Qq%Qq%%%Qq%%%%%%%%%%%%%%%%%%%%%%%%%%%%%%%%%%%%%
8445A84%%%%%%%%%%%%%%%%%%%%%%%%%%%%%%%%%%%%%%%%%%%%%%%%%%%%%%%%%%%%%%qQ%%%%%
8430A84%%%%%%%%%%%%%%qQ%qQ%qQ%%%%%%%%%%%%%%%%%%%%%%%%%%%%%%%%%%%%qQ%qQ%qQ%%q
8414A76%%Qq%%%%%Q%%%%%q%Qq%%Qq%Qq%%%Q%%q%%%%Q%%%q%%%%%%Qq%%%%%%%%%%%Qq%Qq%%%
8398A76%%%%%%%%%%%%%Qq%%%%%%%%%%%%%%%%%%%%%%%%%%%%%%%%%%%%%%%%%%%%%%%%%%%%%%
8382A76%%%%%%%%%%%%%%%%%%%%%%%%%%%%%%%%%%%%%%%%%%%%%%%%%%%%%%%%%%%%%%%%%%%%%
8366A76%%%%%%%%%%%%%%%%%%%%%%%%%%%%%%%%%q%Q%%%%%%%%%%%%%%%%%%%%%qQ%%%%%%%%%q
8351A68Qq%%%Q%q%%Qq%%%%%%%%%%%%%%%%%%%%Q%q%%%%%%%Q%qQq%%Q%q%Qq%%Qq%%%%%%%%%%
8335A68%%%%%%%%%%Qq%%%%%%%%%%%%%%%%%%%%%%%%%%%%%%%%%%%%%%%%%%%%%%%%%%%%%%%%%
8319A68%%%%%%%%%%%%%%%%%%%%%%%%%%%%%%%%%%%%%%%%%%%%%%%%%%%%%%%%%%%%%%%%%%%%%
8303A68%%%%%%%%%%%%%%%%%%%%%%%%%%%%%%%%%%%%%%qQ%q%QqQ%%%%%%%%%%%%%%%%q%Qq%Qq
8288A60Q%%%%%%%%%%%%%%%%%%%%%%%%qQ%q%Q%%q%%%QqQ%q%Q%q%%%%%%Qq%%%%%%%%%%%%%%%
8272A60%%%%%%%%%Qq%%%%%%%%%%%%%%%%%%%Q%q%%%%%%%%%%%%%%%%%%%%%%%%%%%%%%%%%%%%
8256A60%%%%%%%%%%%%%%%%%%%%%%%%%%%%%%%%%%%%%%%%%%%%%%%%%%%%%%%%%%%%%%%%%%%%%
8240A60%%%%%%%%%%%%%%%%%%%%%%%qQ%%qQqQ%%%%%%%%qQ%%%%%%%%%%%%%%qQ%%qQ%%%%%%%%
8224A60%%%%qQqQ%%%%q%QQqqJ6qqQq%QJ6k4Q%%%%%%q%%%QqQqQqQ%%q%%QqQ%%q%Qq%Q%qQ%%
8209A60%q%Q%qQ%%%%qQqQqQqQq%Q%q%%%%%%%%%%%%%%%%%%%%%%%%%%%%%%%%%%%%%%%%%%%%%
8193A52%%%%%%%%%%%%%%%%%%%%%%%%%%%%%%%%%%%%%%%%%%%%%%%%%%%%%%%%%%%%%%%%%%%%%
8178A52%%%%%%%%%%%%%%%%%%%%%%%%%%%%%%%%%%%%%%%%%%%%%%%%%%%%%%%%%%%%%%%%%%%%%
8162A52qQ%%%%%%%%%%%%%%%%%%%qQ%%%%%%%%%%%qQ%%%%%%%%%%qQ%%%%%qQ%%%%%%%%%%qQ%%
8146A52%%%%%%%%%%%%%%%%%%%%%%%%%%%%%%q%%QqQqQq%Q%%%%qQqQ%%%q%%%%%%Q%%%%qQqQ%
8130A52%%qQq%Q%%qQq%%%%%%%%Qq%Q%qQq%%%%%%%%%%%%%%%%%%%%Qq%%%%Qq%%%%%%%%%%%%%
8114A44%%%%%Q%q%%%%%%%%%Qq%%%%%%%%%%%%%%%%%%%%%%%%%%%%%%%%%Qj6Q%%%%%%%%%%%%%
8099A44%%%%%%%%%%%%%%%%%%%%%%%%%%%%%%%%%%%%%%%%%%%%%%%%%%%%%%%%%%%%%%%%%%%%%
8083A44%%%%%%%%%%%%%%%%%%%%%%%%%%%%%%%%%%%%%%%%qQ%%qQ%%%%%%%%%%%%%%%%%%%%%%%
8067A44%%%%%%%%%%%%%%%%%%%%%%%%%%%%%%%%%q%QqQqQ%q%Q%%qQqQ%%%%%%%%%%%%%%%%q%Q
8052A44%%%qQqQ%%q%QqQ%q%%%%%Q%qQ%%q%%%%%Q%qQ%%%qQ%%qQ%%q%%%%%%%%%%%%%%%%%%%%
8036A36%%%%%%%%%%%%%Qq%%%%Qq%%%%%%%%%%%%%%%%%%%%%%%%%%%%%%%%%%%%%%%%%%%%%%%%
8020A36%%%%%%%%%%%%%%%%%%%%%Qq%%%%%%%%%%%%%%%%%%%%%%%%%%%%%%%%%%%%%%%%%%%%%%
8004A36%%%%%%%%%%%%%%%%%%%%%%%%%%%%%%%%%%%%%%%%%%%%%%%%%%%%%%%%%%%%%%%%%%%%%
7988A36%%%%%%qQ%%%qJ6q%%%%%%%%%%%%%%%%%%%%%%%%%%%%%%%%%%%%%%%%%%%%%%%%%%%%%%
7973A36%%%q%Qq%%QqQ%%%%%%%%%%%%%%%%%%%%%qQqQ%%qQ%%q%%%Q%%qQ%qQ%%%%qQ%%%%q%%%
7957A28Q%qQq%%%Qq%%Q%%q%Q%q%%%%%%%%%%%%%%%Qq%%%%%%%%%%%%%%%%%%%%%%%%%%%%Qq%%
7941A28%%%%%%%%%%%%%%%%%%%%%%%%%%%%%%%%%%%%%%%%%%%%%%%%%%%%%%%%%%%%%%%%%%%%%
7925A28%%%%%%%%%%%%%%%%%%%%%%%%%%%%%%%%%%%%%%%%%%%%%%%%%%%%%%%%%%%%%%%%%%%%%
7910A28%%%%%%%%%%%%%%%%%%%%%%%%%%%%%%%%%%%%%%%%%%%%%%%%%%%%%%%%%%%%%%%%%%%%%
7894A28%%%%%%%%%%%%%%%%%%%%%%%%%%%%%%%%%%%%%%%%%%%%%%%%%%%%%%%%%%%%%%%%%%%%%
7878A28%qQ%%%%%%%%%%%%%%%%%%qQ%%%qQ%qQ%qQ%%qQ%%%%%%qQ%q%Q%%%qQ%q%%%Q%%%q%Q%q
7862A20%Q%qQqQ%q%%%%%QqQ%%%%qQqQqQ%qQq%%%%%%Qq%%%%%%%%%QqQq%%%Q%q%%%Qq%Q%q%Q
7846A28q%Qq%%%%%%%%%%Q%q%%%%%%%%%%%%%Qq%%%%%%%%%%QqQq%%%%%%%%%%%%%%%%Qq%%%%%
7831A20%%%%%%%%%%%%%%%%%%%%%%%%%%Qq%%%%%%%%%%%%%%%%%%%%%%%%%%%%%%%%%%%%%%%%%
7815A20%%%%%%%%%%%%%%%%%%%%Qq%%%%%%%%%%%%%%%%%%%%%%%%%%%%%%%%%%%%%%%%%%%%%%%
7799A20%%%%%%%%%%%%%%%%%%%%%%%%%%%%%%%%%%%%%%%%%%%%%%%%%%%%%%%%%%%%%%%%%%%%%
7783A20%%%%%%%%%%%%%%%%%%%%%%%%%%%%%%%%%%%%%%%%%%%%%%%%qQ%%%%%%%%%%%%%%%%%%%
7767A20%%%%%qQ%%%%%%%%%qQq%QqQ%%%%%qQ%%qQ%%%qQ%%%%qQ%%%%%qQ%%qQ%%q%QqQ%%q%Q%
7752A20Qj6%%%Q%qQ%%%qQ%%%%qQ%%%%%%%%%%%%%%%%%%%%%%%%%%%q%%%%%%%QqQq%%%%Qq%Qq
7736A12%Qq%QqQq%%%%%%Qq%%%%%%%Qq%%%%Qq%%%%%%%%Qq%%%%%%%%%%%%%Qq%%Qq%%%%%%%%%
7720A12%%%%%%%%%%%%%%%%%%%%%%%%%%%%%%%%%%%%%%%%%%%%%%%%%%%%%%%%%%%%%%%%%%%%%
7705A12%%%%%%%%%%%%%%%%%%%%%%%%%%%%%%%%%%%%%%%%%%%%%%%%%%%%%%%%%%%%%%%%%%%%%
7689A12%%%%%%%%%%%%%%%%%%%%%%%%%%%%%%%%%%%%%%%%%%%%%%%%%%%%%%%%%%%%%%%%%%%%%
7673A12%%%%%%%%%%%%%%%%%%%%%%%%%%%%%%%%%%%%%%%%%%%%%%%%%%%%%%%%%%%%%%%%%%%%%
7657A12%%%%%%%%%%%%%%%%%%%%%%%%%%%%%%%%%%%%%%%%%%%%%%%%%%%%%%%%%%%%%%%%%%%%%
7641A12%%%%%%%%%%%%%%%qQ%%q%Q%q%Q%qQ%qQq%%%Q%qQqQq%QqQqQqQ%%%%%%q%Q%qQ%%qQq%
7626A04%QqQq%Q%%q%Qq%%Q%%%%%%qQqQq%%QqQqQqQ%qQ%%%%%q%QqQq%%Q%q%Q%q%%%%QqQq%%
7610A04Qq%%Q%%qQq%%%%%QqQ%%q%%%Q%q%Qq%%%%%%%%%%%%%%%%%%%%%%%%%%%%%Qq%%%%%%%%
7594A04%%%%%%%%%%%%%%%%%%%%%%%%%%%%%%%%%%%%%%%%%%%%%%%%%%%%%%%%%%%%%%%%%%%%%
7578A04%%%%%%%%%%%%%qJ6q%%%%%%%%%%%%%%%%%%%%%%%%%%%%%%%%%%%%%%%%%%%%%%%%%%%%
7563A04%%%%%%%%%%%%%%%%%%%%%%%%%%%%%%%%%%%%%%%%%%%%%%%%%%%%%%%%%%%%%%%%%%%%%
7547A04%%%%%%%%%%%%%%%%%%%%%%%%%%%%%%%%%%%%%%%%%%%%%%%%%%%%%%%%%%%%%%%%%%%%%
7531A04%%%%%%%%%%%%%%%%%%%%%%%%%%%%%%%%%%%%%%%%%%%%%%%%%%qQ%%qQ%%%Qj6Qq%%Q%%
7515A04qQ%q%Q%%%%%%%%%qQ%qQqQ%qQ%%%%%%%%%%%%%%%%%%%%%%%%%%%%%%%%%%%%%%%%%%%%
7500A04%%qQ%%qQ%%%%%%%%%%%%%%%%%%%qQ%%%%%%%%%%%%%%qQq%%%%Q%%qQqQ%%qQq%%Qq%%%
7484I6%%QqQq%Q%qQ%%qQ%%%%%%q%Qq%%%%%%%%%%%Q%q%%%%%%%%%%Qq%%%Qq%Qq%%%Qq%%%Q%%
7468A04%q%%%QqQ%%%%%q%Qq%%%%Qq%%%Qq%%QqQq%%%%%Q%q%Qq%%%%%Qq%%%%%%%%%%%%%%%%%
7452I6%%%%%%%%%%%%%%%%%%%%%%%%%%%%%%%%%%%%%%%%%%%%%%%%%%%%%%%%%%%%%%%%%%%%%%
7436I6%%%%%%%%%%%%%%%%%%%%%%%%%%%%%%%%%%%%%%%%%%%%%%%%%%%%%%%%%%%%%%%%%%%%%%
7420I6%%%%%%%%%%%%%%%%%%%%%%%%%%%%%%%%%%%%%%%%%%%%%%%%%%%%%%%%%%%%%%%%%%%%%%
7404I6%%%%%%%%%%%%%%%%%qQ%%%%%%%%%%%%%%%%%%%%%%%%%%%%%%%%%%%%%%%%%%%%%%%%%%%
7388I6%%%%%%%%%%%%%%%%%%%%%%%%%%%%%%%%%%%%%%%%%%%%%%%%%%%%%%%%%%%%%%%%%%%%%%
7372I6%%%%%%%%%%%%%%%%%%%%%%%%%%%%%%%%%%%%%%%%%%%%%%%%%%%%%%%%%%%%%%qQ%%%qQ%
7356I6%%%%%%%%%%%%%%%%%%%%%%%%%%%%%%%%q%%%Q%%%%q%Q%%%%%%%%%%%%%%qQ%qQ%%%qQ%q
7340H8Qq%%Q%q%%Q%%%%%%%%%%%%%%%q%%Q%qQ%qQ%%%%q%%Q%%%%q%%Q%%qQq%%%QqQ%q%%%%%%
7324H8Q%qQ%q%Qq%Q%%%%q%Q%%%%qQ%qQq%%QqQq%%Qq%Qq%%%%%%%%%%%%%%%%Qq%%%%%Qq%%%%
7308H8%%%%%%Qq%Qq%%Q%qQq%%%Qq%%%%%%%Qq%%%%%%%%%%%%Qq%%%Qq%%%QqQqQq%%%%%%%%%%
7292H8%QqQq%%%%%%%%%%%%Q%qQq%%qQ%Qj6QQqQj6Qq%K4Qk4j6%M8l2%%%Q%qQq%%%%%%%%Q%%
7277I6%%q%%Q%qQq%%%%%%%%%%%%%%%%%%%%%%%%%%%%%%%%Qq%%%%%%%%%%%%%%%%%%%%%%%%%%
7261H8%%%%%%%%%%%%%%%%%%%%%%%%%%%%%%%%%%%Qq%%%%%%%%%%%%%%%%%%%%%%%%%%%%%%%%%
7245H8%%%%%%%%%%%%%%%%%%%%%%%%%%%%%%%%%%%%%%%%%%%%%%%%%%%%%%%%%%%%%%%%%%%%%%
7229H8%%%%%%%%%%%%%%%%%%%%%%%qQ%%%%%%%%%%%%%%%%%%%%%%%%%%%%%%%%%%%%%%%%%%%%%
7213H8%%%%%%%%%%%%%%%%%%%%%%%%%%%%%%%%%%%%%%%%%%%%%%%%%%%%%%%%%%%%%%%%%%%%%%
7197H8%%%%%%%%%%%%%%%%%%%%%%%%%%%%%%%%%%%%%%%%%%%%%%%%%%%%%%%%%%%%%%%%%%%%%%
7181H8%qQqQ%qQ%%%%%%%%%%%qQ%%%%%%%%%%%%%%qQ%%%%%%%%%%%%%%%%%%%%%%%%%%%%%q%Q%
7165H8%%%%%%%%%qQq%Q%%%%%%%%%%%%%%%%%%%%qQ%%%%%%%q%Q%%qQqQqQq%Q%%%%%%%%%%%%q
7149H0Q%%%%%%%qQq%%Q%%%%%%q%Q%%qQ%%qQ%%qQq%Q%qQ%qQ%q%%%%%Q%%q%%Qq%Q%q%%QqQq%
7133H0%%%%%%%%Qq%Qq%%%%%Qq%%%Q%q%Qq%Q%%%qQq%%%%%%%%%QqQ%%q%Qq%%%Qq%%Q%q%%%%%
7117H0%%%%%%%%%%%%%%%%%%%%%%%%%%%%%%%%%%%%%%%QqQq%%%Q%q%%%Qq%%%%%%%Qq%%%%Qq%
7101H0%%%%%%%%%%%%%%%%%%%%%%%%%%%%%%%%%%%%%%%%%%%%%%%%%%%%%%%%%%%%%%%%%%%%%%
7085H0%%%%%%%%%%%%%%%%%%%%%%%%%%%%%%%%%%%%%%%%%%%%%%%%%%%%%%%%%%%%%%%%%%%%%%
7069H0%%%%%%%%%%%%%%%%%%%%%%%%%%%%Qq%%%%%%%%%%%%%%%%%%%%%%%%%%%%%%%%%%%%%%%%
7053H0%%%%%%%%%Qq%%%%Q%%%j6J6%q%%%%%%%Qq%%%%%%%%%%%%%%%%%%%%%%%%%%%%%%%%%%%%
7038H0%%%%%%%%%%%%%%%%%%%%%%%%%%%%%%%%%%%%%%%%%%%%%%%%%%%%%%%%%%%%%%%%%%%%%%
7022H0%%%%%%%%%%%%%%%%%%%%%%%%%%%%%%%%%%%%%%%%%%%%%%%%%%%%%%%%%%%%%%%%%%%%%%
7006H0%%%%%%%%%%%%%%%%%%%%%%%%%%%%%%%%%%%%%%%%%%%%%%%%%%%%%%%%%%%%%%%%%%%%%q
6990G2Q%%%%%%%%%%%%%%%%%%%%%%%%%%%%%%%%%%%%%%%%%%%%%%%%%%%%%%%%%%%%qQ%%%%%%%
6973H0%%%%%%%qQ%%%%%%qQ%%%%%%qQqQqQqQ%%%%%%%%%%%%%%%%%%%%%%%%%q%Q%%%%%qQ%%%%
6957H0%%%%%%%%%%%%%%%%%%%%%%%%%%%qQ%%%%%%%%%%%%%qQ%%%%qQq%QqQqQq%Q%qQ%%%%q%Q
6941H0%%%%qQ%%qQ%%%%qQ%%%%%%%qQqQq%%%%Qq%%%Q%%%qQqJ6qqQ%%%%%qQ%%qQ%%qQ%%q%%Q
6926H0qQqQ%%q%QqQ%%%q%%Q%%%%q%Q%q%Q%%%%%%%qQq%Qq%%%%%%%Qq%%%%%%%%%Qq%%Q%%%q%
6910G2QqQqQ%%q%%Qq%Qq%Qq%%QqQqQ%qQqQ%%%q%Qq%Q%q%%Qq%Q%%q%Qq%%%%%%%%%%%%%%%%%
6894G2%%%%%%%%%%%%%%%%%%Qq%%%%%%%%%%%%%%%%%%%%%%%%%%%%%%%%%%%%%%%%%%%%%%%%%%
6878G2%%%%%%%%%%%%%%%%%%%%%%%%%%%%Q%q%%%%%%%%%%%%%%%%%%%%%%%%%%%%%%%%%%%%%%%
6862G2%%%%%%%%%%%%%%%%%%%%%%%%%%%%%%%%%%%%%%%%%%%%%%%%%%%%%%%%%%%%%%%%%%%%%%
6846G2%%%%%%%%%%%%%%%%%%%%%%%%%%%%%%%%%%%%%%%%%%%%%%%%%%%%%%%%%%%%%%%%%%%%%%
6830G2%%%%%%%%%%%%%%%%%%%%%%%%%%%%%%%%%%%%%%%%%%%%%%%%%%%%%%%%%%%%%qQ%qQq%%Q
6814G2%%qQ%qQ%%%%%%%%%%%%%%%%%%%%%%%%%%%%%%%%%%%%%%%%%%%%%%%%%%%%%%%%%%%%%%%
6797G2%%%%%%%%%%%%%%%%%%%%%%%%%%%%%%%%%%%%%%%%%%%%%%%%%%%%%%%%%qQ%%%%%%%%%%%
6781G2%%%%%%%%%%%%%%%%%%%%%%%%%%%%%%%%%%%%%%%%%%%%%%%%%%%%%%%%%%%%%%%%%%%%%%
6765G2%%%%%%%%%%%%%%%%%%%%%%%%%%%%%%%%%%%%%%%%%%%%%%%qQ%%%%%%%%%%%%%%%%%%%%%
6749G2%%%%%%%%%%%%%%%%%%%%%%%%%%%%%%%%%%%%%%%%%%%%%%%%%%%%%%%%%%%%%%%%%%%%%%
6733G2qQ%%%%%%%%%%%%%%%%%%%%%%%%%q%QqQqQ%%%%%%%qQq%Q%%%%%%%%%%%%qQ%%%%qQ%%%%
6717G2%%%%%%%%%%%%qQ%q%%Qq%Qq%Qq%%Q%%%%qQ%%%%%%%%%%%%%%%%%%%%qQ%%%%%%%%%%%%%
6701G2%%%%%qQ%%%q%%Qq%Q%%q%%%Q%qQ%%%qQ%%%qQ%qQ%%qQ%%%%%%qQqQ%%%%%q%Qq%%Qq%Qq
6685F4%Qq%%Q%q%Qq%QqQqQ%%qQq%%Q%%%%qQq%Q%%q%%%%QqQq%%%%%%%%Q%q%Qq%Q%%q%%Qq%Q
6669G2%qQ%%q%%Q%%%q%Qq%Qq%%QqQqQ%q%%%%%%%%%%%Qq%%Qq%%%%%%%%%%Qq%%%%%%%%Q%q%%
6653F4%Qq%%%%%%QqQq%%%%%%%%Q%%q%%%%%%%%%%%%%%%%%%%%%%%%%%%%%%%Qq%%QqQq%%QqQq
6637F4%%%%Qq%%%%%%%%%%%%%%Qq%%Qq%Qq%QqQq%%%%%%%%%%%%%%%%%%%%%%%Qq%%%%Qq%%%%%
6621F4%%%%%%%%%%%%%%%%%%%%Qq%%%%%%%%%%%%%%%%%Q%%q%%%Q%q%Qq%QqQ%q%%%%%%%%%%%%
6605F4%%%%%%%%%%%%%%Qq%%%%%%%%%%%%%%%%%%%%%%%%%%%%%%%%%%%%%%%%%%%%%%%%%%%%%%
6589F4%%%%%%%%%%%%%%%%%%%%%%%%%%%%%%%Qq%%%%q%J6qqQQq%%%%Qq%%%%%%Qq%%%%%%%%%%
6573F4%%%%%%%%%%%%%%%%%%%%%%%%%%%%%%%%%%%%%%%%%%%%%%%%%%%%%%%%%%%%%%%%%%%%%%
6557F4%%%%%%%%%%%%%%%%%%%%%%%%%%%%%%%%%%%%%%%%%%%%%%%%%%%%%%%%%%%%%%%%%%%%%%
6541F4%%%%%%%%%%%%%%%%%%%%%%%%%%%%%%%%%%%%%%%%%%%%%%%%%%%%%%%%%%%%%%%%%%%%%%
6525F4%%%%%%%%%%%%%%%%%%%Qq%%%%%%%%%%%%%%%%%%%%%%%%%%%%%%%%%%%%%%%%%%%%%%%%%
6509F4%%%%%%%%%%%%%%%%%%%%%%%%%%%%%%%%%%%%%%%%%%%%%%%%%%%%%%%%%%%%%%%%%%%%%%
6493F4%%%%%%%%%%%%%%%%%%%%%%%%%%%%%%%%%%%%%%%%%%%%%%%%%%%%%%%%%%%%%%%%%%%%%%
6477F4%%%%%%%%%%%%%%%%%%%%%%%%%%%%%%%%%%%%%%%%%%%%%%%%%%%%%%%%%%%%qQ%%%%Qq%%
6461F4%%%%%%%%%%%%%%%%%%%%%%%%%%%%%%%%%%%%%%%%%%%%%%%%%%%%%%%%%%%%%%%%%%%%%%
6445F4%%%qQ%%%%qQ%%%%%%%%%%%%%%%%%%%%%%%%%%%%%%%%%%%%%%%%%%%q%Q%%%%%%%%%%%%%
6429F4%%%%%%%%%%%%%%%%%%%%%%%%%%%%%%%%%%%%%%%%%%%qQ%%qQ%q%Q%%%%%%%%%%%%%%%%%
6413F4%%%%%%%%qQ%%qQ%%%%%%%%%%%%%%%%%%qQ%%%%qQ%qQ%%%%%%%qQ%%%%%%%%%%q%%Q%%q%
6397E6QqQ%q%%%%Q%%%%%%%%%%%%%%%%%%%qQ%%q%%QqQ%q%Qq%Qq%Q%q%Q%q%%%%%Q%qQ%%q%%%
6381E6Q%q%%Q%q%%%%%%%%%%%%%%%Qq%Q%qQqQ%q%Q%%q%Q%%%%%%%%%%q%Qq%%Q%%%%qQ%%%%%%
6365F4%q%%Qq%%%%%Q%%%%%%%qQqQq%%%%%%%%%%%%%%%%%%%%Qq%Q%q%Q%qQ%%qQq%Qq%%%%%%Q
6349F4qQq%%%QqQ%%q%%qJ6q%Qj6Q%qQ%%Q%qQqQq%Qq%%Q%qQq%%%%%%%%%%%Qq%%%%%%%Qq%Qq
6334E6%%%%%Q%%q%%%%%Qq%%Qq%%%%%%%Qq%%%%%%%%%%%%%%%%%%%%%%%%%%%%%%%%%%%%%%%%%
6318E6%%%%%%%%%%%%%%Qq%%%%%QqQq%%%%%%%%%%%%%%%%%%%%%%%%%%%%%%%%%%%%%%%%%%%%%
6301E6%Qq%%%%%%%%%%%%%Qq%%%%%%%%%%%%%%%%%%%%%%%%%%%%%%%%%%%%%%%%%%%%%%%%%%%%
6285E6%%%%%%%%%%%%%%%%%%%%%%%%%%%%%%%%%%%%%%%%%%%%%%%%%%%%%%%%%%%%%%%%%%%%%%
6269E6%%%%%%%%%%%%%%%%%%%%%%%%%%%%%%%%%%%%%%%%%%%%%%%%%%%%%%%%%%%%%%%%%%%%%%
6253E6%%%%%%%%%%%%%%%%%%%%%%%%%%%%%%%%%%%%%%%%%%%%%%%%%%%%%%%%%%%%%%%%%%%%%%
6237E6%%%%%%%%%%%%%%%%%%%%%%%%%%%%%%%%%%%%%%Q%q%%%%%Qq%%%%%%%%%%%%%%%%%%%%%%
6221E6%%%%%%%%%%%%%%%%%%%%%%%%%%%%%%%%%%%%%%%%%%%%%%%%%%%%%%%%%%%%%%%%%%%%%%
6205E6%%%%%%%%%%%%%%%%%%%%%%%%%%%%%%%%%%%%%%%%%%%%%%%%%%%%%%%%%%%%%%%%%%%%%%
6189E6%%%%%%%%%%%%%%%%%%%%%%%%%%%%%%%%%%%%%%%%%%%%%%%%%%%%%%%%%%%%%%%%%%%%%%
6173E6%%%%%%%%%%%%%%%%%%qQ%%%%%%%%%%%%%%%%%%%%%%%%%%%%%%%%%%%%%%%%%%%%%%%%%%
6157E6%%%%%%%%%%%%%%%%%%%%%%%%%%%%%%%%%%%%%%%%%%%%%%%%%%%%%%%%%%%%%%%%%%%%%%
6141E6%%%%qQqQ%%%%%%%%%%%%%%%%%%%%%%%%%%%%%%%%%%%%%%qQ%%%%%%%%%%%%%%%%%%%%%%
6125E6%%%%%%%%%%%%%%%%%%%%%%%%%%%%%%%%%qQ%%%%%%%%%%%%%%%%%qQ%%%%qQq%J6%q%%%%
6109E6%%%%%%%%%%%%%%%%%%%%%%%%%%%%%%%%%%%%%%%%%%%%%%%%%%%%%%%%%%%%%%%%%%%%%%
6093E6%%%%%%%%%%%%%%%%%%%%%%%%%%%%%%%%%%%%%%%%%%%%%%%%%%%%%%%%%%%%qQ%%%%%%%%
6077E6%%%%%%%%%%%%%qQ%%%%%%%%%%%%%%%%%%%%%%%%%%%%%%%%%%%%%q%Q%%%%%%%%%%%%%%%
6061E6%%qQ%%%%%%qQ%%%%%%q%Q%%qQqQqQ%%%%%%%qQQq%%%%%%%%%%%%%qQ%%qQ%%%%%%%%%%%
6045E6qQ%%%%%%%%%%%%%%%%%%%%%qQ%%%qQqQqQ%%%%%%%%%%%%qQ%%%%%%%%%%%%%%%%qQ%%%%
6029E6%%qQ%%%%%q%Q%%%%%%%%qQ%%%q%Q%%%%qQqQ%%q%%Q%%%%%qQ%%%%qQqQ%%qQ%%%%%%%%%
6013E6%%qQ%qQ%%qQqQ%%%%qQq%Q%%%%%%%%%%%%%%%%%%%q%%Q%%%q%%Q%%%%qQqQ%%%%%%qQqQ
5997E6%%%%qQ%%qQqQqQqQ%%q%QqQqQ%q%%Q%%q%%Q%q%%Qq%%%%%%%Q%q%%Q%%%q%%%Qq%%%%%%
5981D8%%%%Q%%%qQqQq%Q%qQq%%%%%%%%%%%%%%%Q%%%q%QqQq%QqQ%qQ%qQq%%%%%%%%QqQq%Qq
5965D8%%%%%%QqQq%Qq%Qq%%%%%%Qq%QqQq%%%%%%%%%Qq%Q%%%q%%%%%%%%Qq%%Q%qQ%qQ%qQqQ
5949E6%q%Q%qQqQq%%%%%%Qq%%%%Qq%%%QqQq%Qq%%%%%%Q%qQ%%qQ%%%qQq%%Qq%%%Q%%q%%Qq%
5933D8Qq%%%%%%%%%Qq%%%%%%%%%%%%%Qq%%%%%%Q%q%%%%%%%%%%%%%%%%%%%%Q%%q%%Qq%QqQq
5917D8Qq%%Qq%%%%%%%%%%%%%%%%%%%%%%%%%%%%%%%%%%%%%%%%%%%%%%%%%%%%%%%%%Qq%%Qq%
5901D8%%%%%%%%%%%%Qq%%%%%%%%%%%%%%%%%%%%%%%%%%%%%%%%%%%%Qq%%%%%%%%%%%%%%%%%%
5885D8%%%%%%%%%%%%%%%%%%%%Qq%%Qq%Qq%%QqQ%%qJ6j6%QqQq%Qq%%%%%%%%%%%%%%%%%%%%%
5870D8%%%%%%%%%%%%%%%%%%%%%%%%%%%%%%%%%%%%%%%%%%%%%%%%%%%%%%%%%%%%%%%%%%%%%%
5854D8%%%%%%%%%%%%%%%%%%%%%%%%%%%%%%%%%%%%%%%%%%%%%%%%%%%%%%%%%%%%%%%%%%%%%%
5838D8%%%%%%%%%%%%%%%%%%%%%%%%%%%%%%%%%%%%%%%%%%%%%%%%%%%%%%%%%%%%%%%%%%%%%%
5822D8%%%%%%%%%%%%Qq%%%%%%%%%%%%%%%%%%%%%%%%%%%%%%%%%%%%%%%%%%%%%%%%%%%%%%%%
5806D8%%%%%%%%%%%%%%%%%%%%%%%%%%%%%%%%%%%%%%%%%%%%%%%%%%%%%%%%%%%%%%%%%%%%%%
5789D8%%%%%%%%%%%%%%%%%%%%%%%%%%%%%%%%%%%%%%%%%%%%%%%%%%%%%%%%%%%%%%%%%%%%%%
5773D8%%%%%%%%%%%%%%%%%%%%%%%%%%%%%%%%%%%%%%%%%%%%%%%%%%%%%%%%%%%%%QqqQ%%%%%
5757D8%%%%%%%%%%%%%%%%%%%%%%%%%%%%%%%%%%%%%%%%%%%%%%%%%%%%%%%%%%%%%%%%%%%%%%
5741D8%%%%%%%%%%%%%%%%%%%%%%%%%%%%%%%%%%%%%%%%%%%%%%%%%%%%%%%%%%%%%%%%%%%%%%
5725D8%%%%%%%%%%%%%%%%%%%%%%%%%%%%%%%%%%%%%%%%%%%%%%%%%%%%%%%%%%%%%%%%%%%%%%
5709D8%%%%%%%%%%%%%%%%%%%%%%%%%%%%%%%%%%%%%%%%qQ%qQ%%%%%%%%%%%%%%%%%%%%%%%%%
5693D8%%%%%%%%%%%%%%%%%%%%%%%%%%%%%%%%%%%%%%%%%%%%%%%%%%%%%%%%%%%%%%%%%%%%%%
5677D8%%%%%%%%%%%%%%%%%%%%%%%%%%%%%%%%%%%%%%%%%%%%%%%%%%%%%%%%%%%%%%%%%%%%%%
5661D8%%%%%%%%%%%%%%%%%%%qQ%%%%%%%%%%%%%%%%%%%%%%%%%%%%%%%%%%%%%qQ%%%%%%%%%%
5645D8qQ%%%%%%%%q%%Q%qQ%%Qj6Q%%%%%%%%%%%qQ%%%%%%%%%%%%%%%%%%%%%%%%%%%%%%%%%%
5630D8%%%%%qQ%qQ%%%%%%%%%%%%%%%%%%%%%%%%%%%%%%%%%%%%%%%%%%%%%%%%%%%%%%%%%%%%
5613D8%%%%%%%%%%%%%%%%%%%%%%%%%%%%%%%%%%%%%%%%%%%%%%%%%%%%%%%%%%q%Q%%%%%%%qQ
5597D8%%%%%%%%%%%%%qQ%%%%%%qQ%%%%%%%%%%%%%%%%%%%%%%%%%%q%Q%%%%%%q%%Q%%%qQ%%%
5581D8%%qQ%%%%%%%%%%%%%%qQ%%%qQ%%%%%%qQ%%%%%%%%%%%%%qQ%%%%%%%%%%%%%%%qQ%%%%%
5565D8qQ%%%%%%%%qQqQ%%%%qQ%%%%%qQ%qQ%%%%%%%%%%%%%%%%%%%qQqQ%%qQ%%qQqQ%%%%%%%
5549D8qQ%%%qQ%qQ%qQqQ%%%%%%%%%%%%%qQ%%%%%%%%%%%%%%%%q%%Q%q%%%%%%Q%q%%Qq%%Qq%
5533D0Q%%%%q%Qq%Q%%%qQ%%qQ%%qQ%qQqQ%q%Q%%qQq%Q%%%q%%Qq%%Q%q%Q%qQ%%q%Qq%Q%qQ%
5517D8qQ%q%%Q%qQ%%%%%q%%%%Q%%%%%%%%%qQ%%q%%Q%%%%%q%%Qq%%%%QqQ%%%%qQq%%%%%%%%
5501D0%%Q%%qQqQq%Q%q%%%%%%Q%%qQq%%QqQqQq%%%%%%%Q%q%%%%Q%%%qQ%%q%Q%q%%Q%q%%%%
5485D0%%%%Q%q%%QqQ%%q%%Qq%%%%%%QqQ%q%%%%Q%%%q%%%%%%%%%Qq%%%Qq%%%%%%Q%%%%%q%%
5469D0Qq%QqQ%qQ%%%%q%Q%%q%%%%%%QqQ%%%q%%%%%%%%%%%%Qq%Qq%%%%%%%%%%%%%%%%%%QqQ
5453D8q%%Qq%%%Qq%%%Qq%%Qq%%%QqQq%%%%%%%%%%%%QqQq%%%%%%%%%%%%%%%%%%%%%%%%%%%%
5437D0%%%Qq%%QqQqQq%Qq%Qq%QqQqQ%q%%%Qq%QqQ%q%%%%%%%%%%%%Qq%%%%%%%%%%%%%%%%%%
5421D0%%%%%%%Q%q%%%%QqQ%q%%%%%%%%%%%%%%Qq%%%%%%%Qq%QqQq%Qq%qK4q%l2M0k4QJ6q%q
5406D0j6J6%%%QqQ%%q%%%%%%%%%QqQq%%%%%%%%%%%%%%%%%%%%%%%%%%%%%%%%%%%%%%%%%%%%
5391D0%%%%%%%%%%%%%%%%%%%%%%%%Qq%%%%%%%%%%%%%%%%%%%%%%%%%%%Q%q%Qq%%Qq%%Qq%%%
5375D0%%%%%%%%%%%%%%%%%%%%%%%%%%%%%%%%%%%%%%%%%%Qq%%%Qq%%%%%%%%%%%%%%%%%%%%%
5359D0%%%%%%%%%%%%%%%%%%%%%%%%%%%%%%%%%%%%%%%%%%%%%%%%%%%%%%%%%%%%%%%%%%%%%%
5343D0%%%%%%%%%%%%%%%%%%%%%%%%%%%%%%%%%%%%%Qq%%%%%%%%%%%%%%%%%%%%%%%%%%%%%%%
5327D0%%%%%%%%%%%%%%%%%%%%%%%%%%%%Qq%Qq%%%%%%%%%%%%%%%%%%%%%%%%%%%%%%%%%%%%%
5311D0%%%%%%%%%%%%%%%%%%%%%%%%%Qq%%%%%%%%%%%%%%%%%%%%%%%%%%%%%%%%%%%%%%%%%%%
5295D0%%%%%%%%%%%%Qq%%%Qq%qQ%%%%%%%%%%%%%%%%%%%%%%%%%%%%%%%%%%%%%%%%%%%%%%%%
5279D0%%%%%%%%%%%%%%%%%%%%%%%%%%%%%%%%%%%%%%%%%%%%%%%%%%%%%%%%%%%%%%%%%%%%%%
5263D0Qq%%%%%%%%%%%%%%%%%%%%%%%%%%%%%%%%%%%%%%%%%%%%%%%%%%%%%%%%%%%%%%%%%%%%
5247D0%%%%%%%%%%%%%%%%%%%%%%%%%%%%%%%%%%%%%%%%%%%%%%%%%%%%%%%%%%%%%%%%%%%%%%
5231D0%%%%%%%%%%%%%%%%%%%%%%%%%%%%%%%%%%%%%%%%%%%%%%%%%%%%%%%%%%%%%%%%%%%%%%
5215D0%%%%%%%%%%%%%%%%%%%%%%%%%%%%%%%%%%%%%%%%%%%%%%%%%%%%%%%%%%%%%%%%%%%%%%
5199D0%%%%%%%%%%%%%%%%%%%%%%%%%%%%%%%%%%%%%%%%%%%%%%%%%%%%%%%%%%%%%%%%%%%%%%
5182D0%%%%%%%%%%%%%%%%%%%%%%%%%%%%%%%%%%%%%%%qQQ%q%%%%%%%%%%%%%%%%%%%%%%%%%%
5166D0%%%%%%%%%%%%%%%%%%%%%%%%%%%%%%%%%%%%%%%%%%%%%%%%%%%%%%%%%%%%%%%%%%%%%%
5150D0%%%%%%%%%%%%%%%%%%%%%%%%%%%%%%%%%%%%%%%%%%%%%%%%%%%%%%%%%%%%%%%%%%%%%%
5134D0%%%%%%%%%%%%%%%%%%%%%%%%%%%%%%%%%%%%%%%%%%%%%%%%%%%%%%%%%%%%%%%%%%%%%%
5118D0%%%%%%%%%%%%%%%%%%%%%%%%%%%%%%%%%%%%%%%%%%%%%%%%%%%%%%%%%%%%%%%%%%%%%%
5102D0%%%%%%%%%%%%%%%%%%%%%%%%%%%%%%%%%%%%%%%%%%%%%%%%%%%%%%%%%%%%%%%%%%%%%%
5086D0%%%%%%%%%%%%%%%%%%%%%%%%%%%%%%%%%%%%%%%%%%%%%%%%%%%%%%%%%%%%%%%%%%%%%%
5070D0%%%%%%%%%%%%%%%%%%%%%%%%%%%%%%%%%%%%%%%%%%%qQ%%%%%%%%%%q%Q%%qQ%%%%%%%%
5054D0qQqQ%%%%%%%%%%%%%%%%%%%%%%%%%%%%%%%%%%%%%%%%%%%%%%%%%%%%qQ%%%%%%%%%%%%
5038D0%%%%%%%%%%%%%%%%%%%%%%%%%%%%%%%%%%%%%%%qQ%%%%%%%qQ%qQ%%%qQ%%%%%%%%%%%%
5022D0%%%%%%%%%%%%%%%%%%%%%%%%%%%%%qQ%%%%%%%%%%%qQ%%%%%%%%%%%%%%%%%%%%%%%%%%
5006D0%%%%%%%%%%%%%%%%%%%%%%%%%%%%%%%%%%%qQq%Q%%%%%qQ%%%%%%%qQ%%%%%%%%%%%%%%
4990D0%%%%%%%%%%%%%%%%%%q%QqQ%%%%%%%%%%%%%%%%%%%%%%%%%%%%%%%%%%%%%%%%%%%%%%q
4974C2Q%%%%%%%%%%%%%%%%%%%%%%%%%%%%qQ%qQ%%%%%%%%%%%%%qQ%%qQ%qQ%%%%%%%%%%%%qQ
4958D0%%%%%%%%%%%%%%%%%%%%%%%qQqQ%qQ%%%%%q%%Q%%qQ%%%%%%qQq%Q%%%%%%qQ%%%%%qQ%
4942D0qQ%%%qQ%%q%Qj6J6qQ%q%Q%%%%q%Q%%%%%%%%%%%qQ%qQ%%%%%qQ%%%%%%%%%%%qQ%%%%%
4927D0%%%%%%%%%%%%qQ%%%%%%%%%%%qQ%qQ%%%%%%%%%%%q%QqQqQ%%qQ%%qQ%%qQqQ%%%%qQ%%
4911D0%%%qQ%%%%%%%qQ%%%qQqQ%q%Q%%%%%%q%Q%%%%%qQ%%%%%%qQ%qQ%%%%%%%%%%%%%%%%%%
4895D0qQ%%q%QqQ%qQ%%q%QqQq%%QqQ%%%q%Q%%qQ%%%%%%%qQqQ%qQ%q%QqQ%%qQ%%%%%q%Qq%%
4879C2%%%QqQ%%%%%%qQ%%%%%qQ%qQqQ%%q%Q%%qQqQ%%%%%%%%%q%%Qq%Q%%%qQqQ%qQq%%%QqQ
4863D0qQq%%%%Qq%Q%%qQ%%%%%%qQ%q%Q%qQ%%%%%%%%%%%qQ%q%%QqQ%q%QqQ%%%%%%%%qQ%%q%
4846C2%Qq%%%QqQ%%%q%Q%q%%%QqQqQqQqQ%%qQ%q%Q%%qQqQqQqQqQ%q%Qq%Q%qQ%q%Q%%qQ%qQ
4830D0%q%%Q%q%%Qq%%%%%Qq%%%%Q%q%Qq%%Qq%QqQ%q%%Qq%Qq%%%%%%%Qq%%%%%%Qq%%%Q%%%q
4814C2%%%%%%%%Q%qQq%%%%%%%%%%%%%%%%%%%Q%%%qQqQ%q%Q%q%%%QqQ%qQ%%%qQq%%%%%Qq%%
4798C2Qq%%%%%%%%%Qq%%%%%%%%%%%%%%%%%%%%%%%%QqQ%q%%%%%%%%Qq%Qq%%%%%Qq%%%%%%%%
4782C2%%%%Q%%%%q%%%%%Q%%qQ%%%q%%%%QqQq%%Qq%QqQ%%qQ%%%%qQq%%%%%%%%%%%%%%%%%%%
4766C2%%Qq%%Qq%%%Q%q%Q%%q%%%Q%%q%Qq%%%%%Q%%q%%%%%Q%q%Qq%Q%%q%%%Qq%%%%%%%%%%%
4750C2%%%%%%%%%%%%%%%%Qq%%%%%%%%%%%%%%%%%%%%%%%%%%%Qq%%%%%%%%%%%%%%%%%%Qq%%%
4734C2%%%%%Qq%Qq%%%%%%%%Qq%%%%%%%%%%%%%%%%%%%%%%%%%%%%%%%Qq%%%%%%%%Qq%%%%%Q%
4718D0q%%%%%%%%QqQq%Qq%%%Qq%%%%%%%%%%%%%%%%%%%%%%%%%%%%%%%%%%%%Q%%%q%Qq%%Qq%
4702C2%%%%Qq%%%%%%%%%%%Qq%Q%q%%%%%%%%%%%%%Qq%%%%%%%%%%%Q%qQq%%%%%%%%%%%%%%%%
4686C2%%%%%%%%%%%%%%%%%%%%%%%%%%%%%%%%%%%%%%%%%%%%%%%%%%%QqQ%q%%%%%%%%%%%%%%
4670C2%%%%%%%%%%%Qq%%%%%%%%%%%%%%%%%%%%%%%%%%%%%Qq%%%%%%%%%%%%%%%%%%%%%%%%%%
4654C2%%%%%%%%%%%%%%%%%%%%%%%%%%%%%%%%%%%%%%%Qq%Qq%%%%%%%%%%%%%%%%%%%%%%%%%%
4638C2%%%%%%%%%%%%%Qq%%%%%%%%%%%%%%%%%%%%%%%%%%%%%%%%%%%%%%%%%%%%%%%%%%%%%%%
4622C2%%%%%%%%%%%%%%%%%%%%%%%%%%%%Qq%%%%%%%%%%%%%%%%%%%%%%%%%%%%%%%%%%%%%%%%
4606C2%%%%%%%%%%%%%%%%%%Qq%%%%%%%%%%%%%%%%%%%%%%%%%%%%%%%%%%%%%%%%%%%%%%%%%%
4590C2%%QqQq%%QqQ%%%q%%%%%%%%%%%%%%%%%%%%%%%%%%%%%%%%%%%%%%%%%%%%%%%%%%%%%%%
4574C2%%%%%%%%%%%%%%%%%%%%%%%%%%%%%%%%%%%%%%%%%%%%%%%%%%%%%%%%%%%%%%%%%%%%%%
4558C2%%%%%%%%%%%%%%%%%%%%%%%%%%%%%%%%%%%%%%%%%%%%%%%%%%%%%%%%%%%%%%%%%%%%%%
4542C2%%%%%%%%%%%%%%%%%%%%%%%%%%%%%%%%%%%%%%%%%%%%%%%%%%%%Qq%%%qQ%Qq%%%%%%%%
4526C2%%%%%%%%%%%%%%Qq%%%%%%%%%%%%%%%%%%%%%%%%%%%%%%%%%%%%%%%%%%%%%%%%%%%%%%
4510C2%%%%%%%%%%%%%%%%%%%%%%%%%%%%%%%%%%%%%%%%%%%%%%%%%%%%%%%%%%%%%%%%%%%%%%
4494C2%%%%%%%%%%%%%%%%%%%%%%%%%%%%%%%%%%%%%%%%%%%%%%%%%%%%%%%%%%%%%%%%%%%%%%
4478C2%%%Qq%%%%%%%%%%%%%%%%Qq%%Qq%%qJ6%k4J6%qQqQQqQq%Qq%Qq%%%%%%%%%%%%%%%%%%
4463C2%%%%%%%%%%%%%%%%%%%%%%%%%%%%%%%%%%%%%%%%%%%%%%%%%%%%%%%%%%%%%%%%%%%%%%
4447C2%%%%%%%%%%%%%%%%%%%%%%%%%%%%%%%%%%%%%%%%%%%%%%%%%%%%%%%%%%%%%%%%%%%%%%
4431C2%%%%%%%%%%%%%%%%%%%%%%%%%%%%%%%%%%%%%%%%%%%%%%%%%%%%%%%%%%%%%%%%%%%%%%
4415C2%%%%%%%%%%%%%%%%%%%%Qq%%%%%%%%%%%%%%%%%%%%%%%%%%%%%%%%%%%%%%%%%%%%%%%%
4399C2%%%%%%%%%%%%%%%%%%%%%%%%%%%%%%%%%%%%%%%%%%%%%%%%%%%%%%%%%%%%%%%%%%%%%%
4383C2%%%%%%%%%%%%%%%%%%%%%%%%%%%%%%%%%%%%%%%%%%%%%%%%%%%%%%%%%%%%%%%%%%%%%%
4367C2%%%%%%%%%%%%%%%%%%%%%%%%%%%%%%%%%%%%%%%%%%%%%%%%%%%%%%%%%q%%Q%%%%%%%%%
4351C2%%%%%%%%%%%%%%%%%%%%%%%%%%%%%%%%%%%%%%%%%%%%%%%%%%%%%%%%%%%%%%%%%%%%%%
4334C2%%%%%%%%%%%%%%%%%%%%%%%%%%%%%%%%%%%%%%%%%%%%%%%%%%%%%%%%%%%%%%%%%%%%%%
4318C2%%%%%%%%%%%%%%%%%%%%%%%%%%%%%%%%%%%%%%%%%%%%%%%%%%%%%%%%%%%%%%%%%%%%%%
4302C2%%%%%%%%%%%%%%%%%%%%%%%%%%%%%%%%%%%%%%%%%%%%%%%%%%%%%%%%%%%%%%%%%%%%%%
4286C2%%%%%%%%%%%%%%%%%%%%%%%%%%%%%%%%%%%%%%%%%%%%%%%%%%%%%%%%%%%%%%%%%%%%%%
4270C2%%%%%%%%%%%%%%%%%%%%%%%%%%%%%%%%%%%%%%%%%%%%%%%%%%%%%%%%%%%%%%%%%%%%%%
4254C2%%%%%%%%%%%%%%%%%%%%%%%%%%%%%%%%%%%%%%%%%%%%%%%%%%%%%%%%%%%%%%%%%%%%%%
4238C2%%%%qQ%QqqQ%Qq%%q%QqQ%%%%%%%%%%%%%%%%%%%qQ%%%%%%%%%%%%%%%%%%%%%%%%%%%%
4222C2%%%%%%%%%%%%%%%%%%%%%%%%%%%%%%%%%%%%%%%%%%%%%%%%%%%%%%%%%%%%%%%%%%%%%%
4206C2%%%%%%%%%%%%%%%%%%%%%%%%%%%%%%%%%%%%%%%%%%%%%%%%%%%%%%%%%%%%%%%%%%%%%%
4190C2%%%%%%%%%%%%%%%%%%%%%%%%%%%%%%%%%%%%%%%%%%%%%%%%%%%%%%qQ%%%qQ%%%%%%%%%
4174C2%%%%%%%%%%%%%%%%%%%%%%%%%%%%%%%%%%%%%%%%%%%%%%%%%%q%Q%%%%%%%%%%%%%%%%%
4158C2%%%%%%%%%%%%%%%%%%%%%%%%%%%%%%%%%%%%%%%%%%%%%%%%%%%%%%%%%%%%%%%%%%%%%%
4142C2%%%%%%%%%%%%%%%%%%%%%%%%%%%%%%%%%%%%%%%%qQ%%%%%%%%%%%%%%%%%%%%%%%%%%%%
4126C2%%%%%%%%%%%%%%%%%%%%%%%%%%%%%%%qJ6q%qQ%%%%%%%%q%QqQ%%%%%%%%%%%%%%%%%%%
4110C2%%%%%%%%%%%%%%%%%%%%%%%%%%%%%%%%%%%%%%%%%%%%%%%%%%%%%%%%%%%%%qQ%%%%%%%
4094C2%%%%%%%%%%%%%%%%%qQ%%%%%%%%%%qQ%%%%%%%%%%%%%%%%%%%%%%qQ%%%%%%%%%%%%%%%
4078C2%%%%%%%%%%%%%%%%%%qQ%%%%%%%%%%%%%%%%%%%%%%%%%%%%%%%%%%%%%%%%qQ%%%%%%%%
4062C2%%qQq%QqQ%q%Q%qQ%%%%qQ%%%%%%%%%%%%%%%%%%%%%%%%%%%%%%%%%%%%%%%%%%%%%%qQ
4046C2%%%%%%%%%qQ%%%qQq%Q%%%%%%%%%%%%%%%%%%%%%%%%%%%%%%%%qQ%%%%%%%%%%%%%qQ%%
4030C2%%%%%%%%%%%qQ%%%%%qQ%%%%qQ%%%%%%%%%%%%%%%%%%q%%Q%q%Q%%%%%%%%%qQ%%%%%%%
4014C2%%%%%%%%%qQ%qQ%%qQ%%%%%%%%%%%%%qQ%%%%qQ%%%%%q%Q%%q%Q%%%q%J6j6Qq%Q%%qQq
3999B4%Q%%qQ%%%%%%%%%%%%%%%%%%%%%%%%%%%%%%%qQ%%%%%%%%%%qQ%%%qQ%%%%%%%%%%%%%%
3983C2%%%%%%%%%qQ%qQ%%%%%%%%%%%%qQ%%%%%%%%%%%%%%%%%%%%%%%%qQ%%%%%%%%%%%%%%%%
3967C2%%%%%qQ%%%%%qQ%%%%%%q%Q%q%Qq%QqQq%Q%%q%Q%%%%q%Qq%Q%%%%%%%qQ%%%%%%q%Q%%
3951C2%%%%%%%%%qQ%%%%q%%Q%%qQ%%%%%qQ%qQ%qQ%%%%%%%%%qQ%%%%%%%%%%%%%%%%qQqQ%%%
3935C2%%%%%qQ%%q%Q%qQqQ%%%%qQ%%qQ%%%%%%%%%%%%qQ%%%%qQqQ%qQ%%%%%%%%%%%%%%%qQ%
3919C2%%qQ%%%%%%%qQ%%%%%qQ%qQq%QqQ%qQ%%%%%q%Q%%%q%%Qq%%QqQqQqQq%%Q%%%%%%qQ%%
3903C2%%%qQ%qQ%%%%%%%qQ%q%%%Q%qQ%q%Qq%%%Q%qQ%%q%Qq%%%Q%%%qQ%qQ%%%%%q%%Qq%Qq%
3887B4%%%Q%%%%qQ%%%qQ%%qQ%%%%qQqQ%q%Q%q%Q%%%%q%Q%q%%%QqQqQ%%%%%%qQ%%%%%%qQ%%
3871C2qQ%q%%QqQ%qQqQqQq%Q%q%%%QqQq%%%%%%QqQqQqQqQ%%%%%%%%%%%%qQqQqQq%%%Qq%Qq
3855B4Q%%qQqQq%QqQ%%%%%qQq%Qq%%%%%%Qq%%%Qq%QqQqQ%%%q%Qq%%Q%%qQqQqQq%%Qq%%%Qq
3839B4%Q%%qQqQ%%qQ%q%Q%q%Q%%qQ%%%qQ%qQ%%q%Q%q%%%Q%q%Q%%q%Q%%q%Q%qQ%%%qQ%%qQq
3822B4QqQ%%%%%%%q%Q%q%%%%%Q%qQqQq%Qq%Q%q%%Q%qQqQq%%Q%qQq%Q%qQq%%%%Q%q%%%%%%%
3806B4%%Qq%Q%%qQ%%%q%Q%%q%Q%q%%%%Q%%%%%qQqQq%%%%%%%Qq%Q%q%Q%%%q%QqQ%qQ%%%q%%
3790B4%Qq%Q%qQq%Qq%Qq%%%%%%Qq%%QqQq%%%%%%%Qq%Q%qQq%%Qq%%QqQq%%%%%%%%Qq%%%%%%
3774B4%%%Qq%%%Qq%QqQq%Q%q%%%%%QqQ%%q%%%J6q%q%QqQ%%%q%%%%Q%q%%%Q%qQ%%%%q%%%%%
3759B4%%%Qq%%%%%%%%%%%%%Qq%%Q%%qQqQ%q%%QqQqQ%q%Qq%%%%%%Qq%%%%QqQq%%%%%%Qq%%Q
3743C2%q%QqQ%%q%%%%%%Qq%%%%%%QqQqQq%%%Qq%Q%qQ%q%%%%Qq%%%%Qq%%%%Qq%%Qq%%Q%q%%
3727B4%%%Q%%%%qQq%%%Q%%%q%%%%%%%%%%%%%%%%%%%%%%Qq%%%%%%%%Qq%Qq%%%Qq%%%Qq%%%%
3711B4%%%%%%%%Qq%%%%%%%%%%%%%%Qq%%%%%%%%%%%%%%%%%%%%%%%%%%%%%%Qq%Qq%%%%%%Qq%
3695B4%%%%%%%%%%%%%%%%%%%QqQq%%%%%%%%%Qq%%%%%%%%%%%Qq%%%%%%Qq%%%%%%%%%%%%%%%
3679B4%%%%%%%%%%%%%%%%%%%Qq%QqQq%Qq%%%%%Qq%%Qq%%%%Qq%%%%%%%Q%q%Qq%%%%Qq%%%%%
3662B4%%%%%%%%%%%%%%%%QqQq%%Qq%%%%%%%%%%%Qq%%%%%%Q%%%q%%Qq%%Q%%%qQ%%q%%%%%Q%
3646C2qQ%q%%%%%%%%%%%QqQq%%Qq%%%%Qq%%Qq%%%QqQq%Qq%%%%%%Qq%%%%%%%%%%%%%%Qq%%%
3630B4%Qq%%%%%%%%%%%%%%%%%%%%%%%%%%%Qq%%%%%Qq%%%%%Qq%Q%q%%%%%%%%%%%%%%%%%%%%
3614B4%%%%%%%%%%%%%%%%%%%%%%%%%%%%%%%%%QqQq%%%%%Qq%%%Qq%%%%%%%%%%%%%%%%%Qq%%
3598B4%%%%%%%%%%%%%%%%%Qq%%%%%%Qq%%%%%Qq%%%%%%%%%%%%%%%%%%%%%%%Qq%%%%%%%%%%%
3582B4%Q%q%%%%%%%%%%%%%%%%Qq%%%Qq%%%%%%%%%%%%%%%%%%%%%%%%%%%%%%%%Q%q%%%%%%%%
3566B4%%%%%%%%%%%%%%%%%Qq%%%%%%%%%%%%%%%%%QqQqQq%%Qq%%%%%%%%%%%%%%%%%%%%QqQq
3550B4%%%%Qq%%%Qq%%%Qq%%%Qq%%%%%%%%%Qq%%%%%%%%Qq%QqQ%q%Qq%%%QqQq%Qq%%Qk4L2j6
3535B4%Qqj6%K4qJ6%m0l2M0P2o4K4qqQq%J6k4QQj6J6q%%Qq%Qq%%%Q%q%%%%QqQq%%%%%%%%%
3522B4%%%%Q%%%q%Q%q%Qq%%%%%%%%%%%%%%%%Qq%%%%%%%%%%Qq%%%%%%Qq%%%%%%%%%%%%%%%%
3506B4%Qq%%%%%%Qq%%%%%%%%%%%%%%%%%%%%%%%%%%%%%%%%%%%%%%%%%%%%%%%%%%%%%%%%%%%
3490B4%QqQ%q%%%%%%%%%%%%%%%%%%%%%%%%%%%%%%%%%%%%%%%%%%%%%%%%%%%%%%%%%%%%%%%Q
3474C2%%q%%%%%%%%%%%%%%%%%%%%%%%%%%%%%%%%%%%%%%%%%%%%%%%%%%%%%%%%%%%%%%%%%%%
3458B4%%%%%%%%%%%%%%%%%%%%%%%%%%%%%%%%%%%%%%%%%%%%%%%%%%%%Qq%%%%%%%%%%%%%%%%
3442B4%%%%%%Qq%%%%%%%%%%%%%%%%%%%%%%%%%%%%%%%%%%%%%%%%%%%%%%%%%%%%%%%%%%%%%%
3426B4%%%%%%%%%%%%%%%%%%%%%%%%%%%%%%%Qq%%%%%%%%%%%Qq%%%Qq%%%%%%%%%%%%%%%%%%%
3410B4%%%%%%%%%%%%%%%%%%%%%%%%%%%%%%%%%%%%%%%%%%%%%%%%%%%%%%%%%%%%%%%%%%%%%%
3394B4%%%%%%%%%%%%%%%%%%%%%%%%%%%%%%%%%%%%%%%%%%%%%%%%%%%%%%%%%%%%%%%%%%%%%%
3378B4%%%%%%%%%%%%%%%%%%%%%%%%%%%%%%%%%%%%%%%%%%%%%%%%%%%%%%%%%%%%%%%%%%%%%%
3362B4%%%%%%%%%%%%%%%%%%%%%%%Qq%%%%%%%%%%%%%%%%%%%%%%%%%%%%%%%%%%%%%%%%%%%%%
3346B4%%%%%%%%%%%%%%%%%%%%%%%%%%%%%%%%%%%%%%%%%%%%%%%%%%%%%%%%%%%%%%%%%%%%%%
3330B4%%%%%%%%%%%Qq%%%%%%%%%%%%%%%%%%%%%%%%%%%%%%%%%%%%%%%%%%%%%%%%%%%%%%%%%
3314B4%%%%%%%%%%%%%%%%%%%%%%%%%%%%%%%%%%%%%%%%%%%%%%%%%%%%%%%%%%%%%%%%%%Qj6Q
3298B4%%%%%%%%%%%%%%%%%%%%%%%%%%%%%%%%%%%%%%%%%%%%%%%%%%%%%%%%%%%%%%%%%%%%%%
3282B4%%%%%%%%%%%%%%%%%%%%%%%%%%%%%%%%%%%%%%%%%%%%%%%%%%%%%%%%%%%%%%%%%%%%%%
3266B4%%%%%%%%%%%%%%%%%%%%%%%%%%%%%%%%%%%%%%%%%%%%%%%%%%%%%%%%%%%%%%%%%%%%%%
3250B4%%%%%%%%%%%%%%%%%%%%%%%%%%%%%%%%%%%%%%%%%%QqQq%%%%%%%%%%%%%%%%%%%%%%%%
3234B4%%%%%%%%%%%%%%%%%%%%%%%%%%%%%%%%%%%%%%%%%%%%%%%%%%%%%%%%%%%%%%%%%%%%%%
3218B4%%%%%%%%%%%%%%%%%%%%%%%%%%%%%%%%%%%%%%%%%%%%%%%%%%%%%%%%%%%%%%%%%%%%%%
3202B4%%%%%%%%%%%%%%%%%%%%%%%%%%%%%%%%%%%%%%%%%%%%%%%%%%%%%%%%%%%%%%%%%%%%%%
3186B4%%%%%%%%%%%%%%%%%%qQ%Qq%%%%%%%%%%%%%%%%%%%%%%%%%%%%%%%%%%%%%%%%%%%%%%%
3170B4%%%%%%%%%%%%%%%%%%%%%%%%%%%%%%%%%%%%%%%%%%%%%%%%%%%%%%%%%%%%%%%%%%%%%%
3154B4%%%%%%%%%%%%%%%%%%%%%%%%%%%%%%%%%%%%%%%%%%%%%%%%%%%%%%%%%%%%%%%%%%%%%%
3138B4%%%%%%%%%%%%%%%%%%%%%%%%%%%%%%%%%%%%%%%%%%%%%%%%%%%%%%%%%%%%%%%%%%%%%%
3122B4%%%%%%%%%%%%%%%%%%%%%%%%%%%%%%%%%%%%%%%%%%%%%%%%%%%%%%%%%%%%%%%%%%%%%%
3106B4%%%%%%%%%%%%%%%%%%%%%%%%%%%%%%%%%%%%%%%%%%%%%%%%%%%%%%%%%%%%%%%%%%%%%%
3090B4%%%%%%%%%%%%%%%%%%%%%%%%%%%%%%%%%%%%%%%%%%%%%%%%%%%%%%%%%%%%%%%%%%%%%%
3074B4%%%%%%%%%%%%%%%%%%%%%%%%%%%%%%%%%%%QqQ%qQqqQq%%QQq%%%%%qQ%%%%%%%%%%%%%
3058B4%%%%%%%%%%%%%%%%%%%%%%%%%%%%%%%%%%%%%%%%%%%%%%%%%%%%%%%%%%%%%%%%%%%%%%
3042B4%%%%%%%%%%%%%%%%%%%%%%%%%%%%%%%%%%%%%%%%%%%%%%%%%%%%%%%%%%%%%%%%%%%%%%
3026B4%%%%%%%%%%%%%%%%%%%%%%%%%%%%%%%%%%%%%%%%%%%%%%%%%%%%%%%%%%%%%%%%%%%%%%
3009B4%%%%%%%%%%%%%%%%%%%%%%%%%%%%%%%%%%%%%%%%%%%%%%%%%%%%%%%%%%%%%%%%%%%%%%
2993B4%%%%%%%%%%%%%%%%%%%%%%%%%%%%%%%%%%%%%%%%%%%%%%%%%%%%%%%%%%%%%%%%%%%%%%
2977B4%%%%%%%%%%%%%%%%%%%%%%%%%%%%%%%%%%%%%%%%%%%%%%%%%%%%%%%%%%%%%%%%%%%%%%
2961B4%%%%%%%%%%%%%%%%%%%%%%%%%%%%%%%%%%%%%%%%%%%%%%%%%%%%%%%%%%%Qq%%qQ%%%%%
2945B4%%%%%%%%%%%%%%%%%%%%%%%%%%%%%%%%%%%%%%%%%%%%%%%%%%%%%%%%%%%%%%%%%%%%%%
2929B4%%%%%%%%%%%%%%%%%%%%%%%%%%%%%%%%%%%%%%%%%%%%%%%%%%%Qq%%%%%%%%%%%%%%%%%
2913B4%%%%%%%%%%%%%%%%%%%%%%%%%%%%%%%%%%%%%%%%%%%%qQ%%%%%%%%%%%%%%%%%%%%%%%%
2897B4%%%%%%%%%%%%%%%%%%%%%%%%%%%%%%%%%%%%%%%%%%%%%%%%%%%%%%%%%%%%%%%%%%%%%%
2881B4%%%%%%%%%%%%%%%%%%%%%%%%%%%%%%%%%%%%%%%%%%%%%%%%%%%%%%%%%%%%%%%%%%%%%%
2865B4%%%%%%%%%%%%%%%%%%%%%%%%%%%%%%%%%%%%%%%%%%%%%%%%%%%%%%%%%%%%%%%%%%%%%%
2849B4%%%%%%%%%%%%%%%%%%%%%%%%%%%%%%%%%%%%%%%%%%%%%%%%%%%%%%%%%%%%%%%%%%%%%q
2833A6Q%qQ%%qQ%%%%Qq%QqqQ%qQ%%%%%%%%%%%%%%%%%%%%%%%%%%%%%%%%%%%%%%%%%%%%%%%%
2817B4%%%%%%%%%%%%%%%%%%%%%%%%%%%%%%%%%%%%%%%%%%%%%%%%%%%%%%%%%%%%%%%%%%%%%%
2801B4%%%%%%%%%%%%%%%%%%%%%%%%%%%%%%%%%%%%%%%%%%%%%%%%%%%%%%%%%%%%%%%%%%%%%%
2785B4%%%%%%%%%%%%%%%%%%%%%%%%%%%%%%%%%%%%%%%%%%%%%%%%%%%%%%%%%%%%%%qQ%%%%%%
2769B4%%%%%%%%%%%%%%%%%%%%%%%%%%%%%%%%%%%%%%%%%%%%%%%%%%%%%%%%%%%%%%%%%%%%%%
2753B4%%%%%%%%%%%%%%%%%%%%%%%%%%%%%%%%%qQ%%%%%%%%%%%%%%%%%%%%%%%%%%%%%%%%%%%
2737B4%%%%%%%%%%%%%%%%%%%%%%%%%%%%%%%%%%%%%%%%%%%%%%%%%%%%%%%%%%%%%%%%%%%%%%
2721B4%%%%%%%%%%%%%%%%%%%%%%%%%%%%%%%%qQ%%%%qQqQ%qQ%%%%%%%%%%%%%%%%%%%%%%%%%
2705B4%%%%%%%%%%%%%%%%%%%%%%%%%%%%%%%%%%qQ%%%%%%%%%%%%%%%%%%%%%%%%%%%%%%%%%%
2689B4%%%%%%%%%%%%%%%%%%%%%%%%%qQ%%%%%%%%%%%%%%%%%%%%%%%%%%%%%%%%%%%%%%%%%%%
2673B4%%%%%%%%%%%%%%%qQqQ%%%%%%%%%%%%%%%%%%%%%%%%%%%%%%%%%%%%%%%%%%%%%%%%%%%
2657B4%%%%%%%%%%qQ%%%%qQ%%%%%%%%%%%%%%%qQ%%%%%%%%%%%%%%%%%%%%%%%%%%%%%%%%%%%
2641B4%%%%%%%%%%%%%%%%%%%%%%%%%%%%%%%%%%%%%%%%%%%%%%%%%%%%%%%%%%%%%%%%%%%%%%
2625B4%%%%%%%%%%%%%%%%%%%%%%%%%%%%%%%%%%%%%%%%%%%%%%%%%%%%%%%%%%%%%%%%%%%%%%
2609B4%%%%%%%%%%%%%%%%%%%%%%%%%%%%%%%%%%%%%%%%qQ%%%%%%%%%%q%Q%QqQqqqJ6q%QQqq
2593A6Q%%%%%%%%%%%%%%%%%%%%%%%%%%%%%%%%%%%%%%%%%%%%%%%%%%%%%%%%%%%%%%%%%%%%%
2577B4%%%%%%%%%%%%%%%%%%%%%%%%%%%%%%%%%%%%%%%%%%%%%%%%%%%%%%%%qQ%%%%%%%%%%%%
2561B4%%%%%%%%%%%%%%%%%%%%%%%%%%%%%%%%%%%%%%%%%%%%%%%%%%%%%%%%%%%%%%%%%%%%%%
2545B4%%%%%%%%%%%%%%%%%%%%%%%%%%%%%%%qQ%%%%qQ%%%%%%%%%%%%%%%%%%%%%%%%%%%%%%%
2529B4%%%%%%%%%%%%%%%%%%%%%%%%%%%%%%%%%%%%%%%%%%%%%%qQ%%%%%%%%%%%%%%%%%%%%%%
2513B4%%%%%qQ%%%qQ%%%%%q%Q%qQ%q%%Q%%%%%%%%%%%%%%%%q%Q%%%%%%%%%%%%%%q%Q%%%%%%
2497B4qQ%%%%%%%%%%%%%%%%%%%qQ%%%%%%%%%%%%%%%qQ%%%%%%%%%%%%%%%%%qQ%%%%%%%%qQq
2481A6QqQqQ%%%%qQqQ%%q%Q%qQqQ%%%%qQ%%%qQ%%%%%qQqQqQ%%%%%%%%%%%%%%%%%%%%%%%%%
2465B4%%%%qQ%%%%%%%%%%%%%%%%%%%%%%%%%%%%%qQqQ%%%qQ%%%%%%%%%%%%%%%%%%%%%%%%qQ
2449B4%qQ%%%%%%%%%%%%%%%%%%%%qQ%%%%%%%%%qQ%%%qQ%%%%%%%%%%%%%%%%%%%qQ%q%Q%qQ%
2433B4%qQ%%%%%qQ%%%%%%%%%%%%%%%%%%%%%%%%%%%%%%%%%%%%%%%%%%%%%%qQ%%qQ%qQ%%%%%
2417B4%%%%%%%%%%%%%qQ%%%%qQqQ%%%%%%%%%%%%%%qQ%%%%%%%%%%%%%%%%%%%%%%%%%%%%%%%
2401B4%%%%%%%%%%%%%%%qQ%%%%%%qQ%q%Qq%%QqQqQ%%%qQ%%%%qQ%%q%Q%%%%%%%%%%qQ%%%%%
2385B4%%%qQ%%qQ%%%%%%%%%%%%%%%%%%%%%%%%%%%%%%%%%%%%qQ%%%qQ%%%%%%%%%%%%%%%%%%
2369B4%%%%%qQ%%%%%%%%%%%%%%%%%q%%Q%%%qQ%%%qQqQ%qQqQqQ%qQ%%%%%%%%%%qQ%%%%%%%%
2353B4%%%%%%%%%%%%%%%%%%%%q%Q%q%Q%%%%qQ%%%q%Q%%%%qQ%%%%%qQ%%%%%%%%%%%%qQ%%%%
2337B4%%%%%%%%%%%%%%%%%%%qQ%%%q%Q%%%%q%Qq%Q%%%%%%%%%%%%%%%%%%%%%%%qQ%qQ%%%qQ
2321B4%%q%%%%%%Q%%%%qQ%%%qQqQ%%%%%%%%%%%%%%%%%%%%%%qQ%qQ%%%%%%%%%%%%%%%%q%%%
2305A6%%%Q%%%qQ%q%QqQ%qQqQ%%%%%%%%%%%%%%%%%%%%%%%%%%%%%%%%%%%%%%%%%%%%%%%%%q
2289A6%Q%%qQqQ%%%%qQqQ%qQ%qQ%%%%%%%%%%%%%%%%%%%%%%qQ%qQ%q%Q%%%%%%%%%%%%%%%%q
2273A6Q%%%%%%%qQ%%qQ%%%%%%%qQ%qQ%%%%qQ%%%qQ%%qQ%%%%%%%%qQ%%%%%qQ%%%%%%q%Q%%q
2257A6%Qq%Q%q%%QqQ%%%%qQ%qQqQq%%%%%QqQ%%%%qQ%%%%qQ%%q%%%Qq%%Qq%%Qq%Q%%qQqQqQ
2241B4q%%Qq%%%QqQ%q%%%%%Q%q%%%%Q%qQ%%%%q%%Q%%%%%%%%qQq%%Q%%qQqQ%%%%%%qQ%%%%%
2225B4%%%%%%%%%%%%%q%%%Q%%%qQ%%%%qQq%Q%qQ%%q%%%%QqQ%%%%%qQ%%%%%%%qQ%%%%%%%qQ
2209B4qQ%q%Q%%%%%%q%%Q%%%qQqQ%%qQq%%Qq%%QqQqQqQq%Q%%%qQ%%%%%%%%%%%%%qQ%%qQ%q
2193A6Q%%qQ%%%qQ%qQ%%qQ%%%%q%%Q%%q%QqQqQ%%qQ%%%qQ%%qQ%%%%%%q%%QqQ%q%QqQqQqQ%
2177B4%%%%%qQqQ%%%%%%%%%%qQ%%%%qQqQ%%%%%%%%%%%qQ%%%%%%%%%%qQ%q%Qq%Q%%%%qQqQ%
2161B4%%%%%%%q%Qq%%%Q%qQq%Q%%%%q%%QqQ%%%%%%%%%q%QqQ%%%%%%qQ%%qQ%%qQ%%%%%qQqQ
2145B4%qQ%%qQqQq%Q%qQ%%q%%Q%qQ%qQq%%%%%%Q%qQ%q%%%%Q%q%%Q%%%%%qQ%%%%%%%%%%qQ%
2129B4%%Qj6qQQQj6%%QqQ%q%%Q%qQqQ%qQqQ%qQq%%Q%%q%%%%Q%%%q%Q%%q%%%Qq%Q%%qQ%%%q
2113A6Q%%%%q%%Q%%%qQ%%%q%QqQ%%%%%%%%%q%Q%%%%qQq%Q%qQ%%%qQ%%q%Qq%Q%q%Q%%%%%%q
2097A6Q%%qQ%%q%Q%qQ%%%qQ%q%Q%q%Q%%qQqQ%%%%q%%%%Q%%q%%%%%Q%qQq%Qq%%%Q%qQ%qQq%
2081A6Q%%%q%Q%%%%%q%Q%q%%Qq%%%%%%%%Q%q%%Q%qQ%q%%%%%%QqQqQq%QqQ%q%Q%qQ%q%%Q%q
2065A6Q%%q%%Q%qQqQqQ%qQ%qQ%qQ%qQ%%%%%%%q%%Q%%%%%qQ%%%%%%%%%%%%%%%%%%%%%%%%qQ
2049B4%%qQ%qQ%q%QqQ%%qQqQq%%%%%%%%%%%%%%%Q%q%Qq%%Q%%%qQ%%%%qQqQq%QqQ%q%%%%Q%
2033B4q%QqQ%qQ%%%%%%%%qQ%q%%%%%%%QqQ%q%%QqQ%%qQq%Q%q%%Qq%Q%q%%%%%%Q%%%q%Q%qQ
2017B4q%%%Q%q%Q%%%qQq%Qq%%%%%Q%%qQ%q%%Qq%%%Q%%q%%Qq%%Qq%%%%%%%%%%%%%%%%%Q%%q
2001A6%%Qq%%%%Q%%%%%%%%qQ%qQ%%%qQ%%%%%%%%qQ%%%q%%Q%qQ%q%%Q%q%Q%qQ%q%%Qq%Qq%%
1985A6%%%%%%%%Q%%%qQ%q%Q%q%%%%%%%Q%q%%%%Q%q%%%%%%Qq%%%%%%%QqQq%Q%qQ%%%q%%%%%
1969A6%Q%%%%qQqQqQqQq%%QqQq%Q%q%%%%%%%%%%%%%%%%%QqQ%%q%Q%q%%Qq%Qq%%%%%%%%Qq%
1953A6%%%%%Qq%%Q%q%Q%%qQ%q%%%%Q%%%qQq%Q%qQqQq%Qq%%%Qq%Q%%q%QqQ%q%%%%Q%%q%Q%q
1937A6%Q%qQ%%%%%%%qQ%%qQ%%qQq%%%%%%%%%%%Qq%%%%%%%%Qq%%%%Q%q%QqQqQ%%%q%Q%q%Q%
1921B4%%q%Q%qQ%q%%Q%q%%%%%%%%%%%%%%%%%%%%%Qq%%%%%%%%%%QqQq%%%%%Qq%%%Qq%%Qq%Q
1905B4q%%%QqQq%%%%%%%%%%Qq%%%%%%%%Qq%Q%q%%Q%qQq%%%Qq%%%%%%%%%QqQq%Q%%q%%%%%%
1889A6Qq%%%%Q%q%%%%%%%%%%%Qq%%QqQ%q%%QqQq%%%%%%%%%%%%%%%%Q%q%%%%%%%%%Qq%%%Q%
1873B4q%Q%%q%Qq%%Qq%%Qq%%QqQqQ%%%%q%%%%%%%%QqQq%%%%%%%%%%%%Qq%%%%%%Qq%%%%Qq%
1857A6Qq%%%%%%%%%%%%%%Qq%%%%%%%%%%%%%Qq%%%QqQqQqQq%%%%%%%%%%%%%Qq%%%Qq%%%%%Q
1841B4q%Qq%%%Qq%Qq%%%%%%%%%%%%Qq%%%Qq%Qj6QQq%%%%%%%%%%%%%%Qq%%%Qq%%%%%%%%%%%
1825A6%%%%%%%%%%%%%%%%%%%%Qq%%%Q%q%%%%%%%%%%%%Qq%%%Qq%%%Qq%%QqQq%Q%qQq%Qq%%%
1809A6%Q%q%%%%%%%%%%%%%%%QqQq%%%%%%%%%%%%%%%%Qq%%%%%%%%Qq%%%%%%%%%%%%%Qq%%%%
1793A6%%%%%Qq%Qq%%%%%%Qq%%%Qq%%%%%%Qq%%%%%%%%%%%%%%%Qq%%%%%QqQq%%%%Q%qQqQq%Q
1777B4%%q%%%%%Q%qQq%%%%Qq%Qq%%Qq%%Qq%%%Qq%Qq%%Q%q%%%%%%%%%%%%%%%%%%%%%%%%%%%
1761A6%%%%%Q%q%%%%%Qq%%%Qq%Q%q%%Qq%%Qq%%Q%qQq%%%%Qq%%Qq%%%%%%%%%%%%%%%%Qq%%%
1745A6%%%%%%%%%%Qq%%Qq%%%%%%%%%%%%Q%q%%%%Qq%%%%%%%%Qq%%%%QqQq%%%%%%%%%%%%%%%
1729A6%%%%%%%%%%%%%%%%Qq%%%%%Q%q%%%%%%Qq%%%%%%%%%%%%%Q%%q%%%%%%Qq%%Qq%%%QqQq
1713A6%%%%%%%Qq%%Qq%%%%%Qq%%QqQq%%Q%%%%%q%%%%Qq%%%%%%%Qq%%%%%%%%%%%%%%%%%%%%
1697A6%%Qq%%%%Qq%Q%%q%%%%%%%%%%%%%%%Qq%%%%Qq%%%Qq%Qq%%%%%%%%%%%%%%%%%%%%%%%%
1681A6%%%%%%%%%%%%Q%qQq%%%%%%%%%%%%%%%%%%%QqQq%%%%Q%q%%Qq%Qq%Qq%%Qq%%%%%%%Qq
1665A6%%%%%%%%%%QqQqQ%qqJ6%%%%%%%qqK4J6k4%l2M0q%j6Q%QqQqQqQ%%q%%Qq%%%Qq%%Qq%
1650A6%Qq%%%%QqQqQq%%%%%%QqQ%q%%%Qq%%%%%%%Qq%%%%%%%%%%%%%%%%%%%%%%%%%%%Qq%%%
1634A6%%%%%%%%%%%%%%%%%%%%QqQq%%%%%%%Qq%%%%%%Q%q%%Qq%%Qq%%%Qq%%Qq%%%%%%%%%%Q
1618B4q%%%%%%%%%%%%%%%%%%%%Qq%%%%%%%%%%Qq%%%%%%%%%%%%%%%%%%%%%%%%%%%%%Qq%%%Q
1602B4q%%%Qq%%%Qq%%Qq%Q%qQq%%%%%%%%%%%%Q%qQq%%%QqQq%%%%%%%%%%%%%%%%%%%%%%%%%
1586A6%%%%%%Qq%%%%%%%%%Qq%%%%%%%%%%%%%%%%%%Qq%%%%%%%%%%%%%%%%%%%%%%%%%%%%%%%
1570A6%%%%%%%%%%%%%%%%%%%%%%%%%%%%%%%%%%%%%%%%%%%%%%%%%%%%%%%%%%%%%%%%%%%%%%
1554A6%%%%%%%%%%%%%%%%%%%%Qq%%%%%%%Qq%%%%%%%%%%%%%%Qq%%%%%%%%%%%%%%Q%q%%%%%%
1538A6%%%%%%%%%%%%%%%%%%%%Qq%%%%%%%%%%%%%%%%%%%%%Qq%%%%%%%%%%%%%%%%%%%%%%%%%
1522A6%%%%%%%%%%%%%%%%%%%%%%%%%%%%%%%%%%%%%%%%%Q%qQq%%%%%Q%q%%%%%%%%%%%%%%%%
1506A6%%%%%%%Qq%Qq%%Q%q%%%%%%%%%%%%%%%%%%Qq%%%%%%%%%%%%%%%%%%%%%%%%%%%%%%%%%
1490A6%%%%%%%%%%%%%%%%%%%%%%%%%%%%%%%%%%Q%%q%%%%%%%%%%%%%%%%%%%%%%%%%%%%%%%%
1474A6%%%%%%%%%%%%%QqQq%%%%%%%%%%QqQqQq%%%Qq%%%%%%%%%%%%%%%%%%%%%%%%%%%%%%%%
1458A6%%%%%%%%%%%%%%%%%%%%%%%%%Qq%%%%%%%%%%%%%%%%%%%%%%%Qq%Qq%%%%%%%%%%%%%%%
1442A6%%%%%%%%%%%%%%%%%Qq%%%%%%%%%%%%%%%%%%Qq%%%%%%%%%%%%%%Qq%%%%%%Qq%%%%%%%
1426A6%%%%%%%%%%%%QqQ%q%%%%%%%%%%%%%%%Q%q%%Qq%%%%%%%%%%%%%%%%%%%%%%%%%%%%%%%
1410A6%%%%%Qq%%%%%%%%%Qq%%%%%%%%%%Qq%%%%%%Qq%%%%%%%%%%%%%%%%%%%%%%Qq%%%%%%%%
1394A6%%%Qq%%%%%%%%%%%%%%%%%%%%%Qq%%%%%%%%%%%%%%%%%%%%%%%%%%%%%%%%%Qq%%%%%%%
1378A6%%%Qq%%%%%%%%%%%%%%%%Qq%%%%%%%Qq%%%%%%%%%%%%%%%%%%%%QqQq%%%%%Qq%%Qq%%%
1362A6Q%q%%%%%%%%%%%%%%%%%%%%%%%%%%%%%%%%%%Qq%%%%%%%%%%%%%%%%%%%%%%%%%%%%%%%
1346A6%%%%%%%%%%%%%%%%%%%%%%%%%%%%%%%%%%%%%%%%%%%Qq%%%%%%%%%%%%%%%%Qq%%%%%%%
1330A6%%%%%%%%%%%%%%%%%%%%%%%%%%%%%%%%%%%%%%%%%%%%%%%%%%%%%%%%%%%%%%%%%%%%%%
1314A6%%%%%%%%%%%%%%%%%%%%%%%%%%Qq%Qq%QqQq%%%%%%%%%Qq%%%%%%%%%%%%%%%%%%%%%%%
1298A6%%%%%%%%%%%%%%%%%%%%%%%%%%%%%%%%%%%%%%%%%%%%%%%%%%%%%%%%%Qq%%%%%%%%%%%
1282A6%%%%%%%%%%%%%%%%Qq%%%%%%%%%%%%%%%%%%%%%%%%%%%%%%%%%%%%%%%%%%%%%%%%%%%%
1266A6%%%%%%%%%%%%%%%%%%%%%%%%%%%%%%%%%%%%%%%%%%%%%%%%%%%%%%%%%%%%%%%%%%%%%%
1250A6%%%%%%%%%qQ%%%%%%%%%%%%%%%%%%%%%%%%%%%%%%%%%%%%%%%%%%%%%%%%%%%%%%%%%%%
1234A6%%%Qq%%%%%%%%%%%%%%%%%%%%%%%%%%%%%%%%%%%%%%%%%%%%%%%%%%%%%%%%%%%%%%Qq%
1218A6%%%%%%%%%%%%%%%%%%%%%%%%%%%%%%%%%%%%%%%%%%%%%%%%%%%%%%%%%%%%%%%%%%%%%%
1202A6%%%%%%%%%%%%%%%%%%%%%%%%%%%%%%%%%%%%%%%%%%QqQq%%%%%%%%Q%qqQ%%%Q%q%%%%%
1186A6%%Qq%%%%%%%%%%%%%%%%%%%%%%%%%%%%%%%%%%%%%%%%%%%%%%%%%%%%%%%%%%%%%%%%%%
1170A6%%%%%%%%%%%%%%%%%%%%%%%%%%%%%%%%%%%%%%%%%%%%%%%%%%%%%%%%%%%%%%%%%%%%%%
1153A6%%%%%Q%q%%%%%%%%%%%%%%%%%%%%%%%%%%%%%%%%%%%%%%%%%%%%%%%%%%%%%%%%%%%%%%
1137A6%%%%%%%%%%%%%%%%%%%%%%%%%%%%%Qq%%%%%%%%%%%%%%%%%%%%%%%%%%%%%%%%%%%%%%%
1121A6%%%%%%%%%%%%%%%%%%%%%%%%%%%%%%%%%%%%%%%%%%%%%%%%%%%%%%%%%%%%%%%%%%%%%%
1105A6%%%%%%%%%%%%%%%%%%%%%%%%%%%%%%%%%%%%%%%%%%%%%%%%%%%%%%%%%%%%%%%%%%%%%%
1089A6%%%%%%%%%%%%%%%%%%%%%%%%%%%%%%%%%%%%%%%%%%%%%%%%%%%%%%%%%%%%%%%%%%%%%%
1073A6%Qq%%%%%%qQQq%%%%%%%%%%%%%%%%%%%%%%%%%%%%%%%%%%%%%%%%%%%%%%%%%%%%%%%%%
1057A6%%%%%%%%%%%%%%%%%%%%%%%%%%%%%%%%%%%%%%%%%%%%%%%%%%%Qq%%%%%%%%%%%%%%%%%
1041A6%%%%%%%%%%%%%%%%%%%%%%%%%%%%%%%%%%%%%%%%%%%%%%%%%%%%%%%%%%%%%%%%%%%%%%
1025A6%%%%%%%%%%%%%%%%%%%%%%%%%%%%%%%%%%%%%%%%%%%%%%%%%%%Q%q%Qq%%%Qq%%%%%%%%
1009A6%%%%%%%%%%%%%%%%%%%%%%%%%%%%%%%%%%%%%%%%%%%%%%%%%%%%%%%%%%%%%%%%%%%%%%
993A6%%%%%%%%%%%%%%%%%%%%%%%%%%%%%%%%%%%%%%%%%Q%q%%%%%%%%%%%%%%%%%%%%%%%%%%%
977A6%%%%%%%%%%%%%%%%%%%%%%%%%%%%%%%%%%%%%%%%%%%%%%%%%%%%%%%%%%%%%%%%%%%%%%%
961A6%%%%%%%%%%%%%%%Qq%%Qq%%Q%q%%qQ%%%QqQq%%%%%%%%%%%%%%%%%%%%%%%%%%%%%%%%%%
945A6%%%%%%%%%%%%%%%%%%%%%%%%%%%%%%%%%%%%%%%%%%%%%%%%%%%%%%%%%%%%%%%%%%%%%%%
928A6%%%%%%%%%%%%%%%%%%%%%%%%%%%%%%%%%%%%%%%%%%%%%%%%%%%%%%%%%%%%%%%%%%%%%%%
912A6%%%%%%%%%%%%%%%%%%%%%%%%%%%%%%%%%%%%%%%%%%%%%%%%%%%%%%%%%%%%%%%%%%%%%%q
896HJ6q%%%%%%%%%%%%%%%%%%%%%%%%%%%%%%%%%%%%%%%%%%%%%%%%%%%%%%%%%%%Qq%%%%%%%%
880A6%%%%%%%%%%%%%%%%%%%%%%%%%%%%%%%%%%%%%%%%%%%%%%%%%%%%%%%%%%%%%%%%%%%%%%%
863A6%%%%%%%%%%%%%%%%%%%%%%%%%%%%%%%%%%%%%%%%%%%%%%%%%%%%%%%%%%%%%%%%%%%%%%%
847A6%%%%%%%%%%%%%%%%%%%%%%%%%%%%%%%%%%%%%Q%%q%%%Qq%%%%%%%%%Qq%%%%%%%%%%%%%%
831A6%%%%%%%%%%%%%%%%%%%%%%%%%%%%%%%%%%%%%%%%%%%%%%%%%%%%%%%%%%%%%%%%%%%%%%%
815A6%%%%%%%%%%%%%%%%%%%%%%%%%%%%%%%%%%%%%%%%%%%%%%%%%%%%%%%%%%%%%%%%%%%%%%%
798A6%%%%%%%%%%%%%%%%%%%%%%%%%%%%%%%%%%%%%%%%%%%%%%%%%%%%%%%%%%%%%%%%%%%%%%%
782A6%%%%%%%%%%%%%%%%%%%%%%%%%%%%%%%%%%%%%%%%%%%%%%%%%%%%%%%%%%%%%%%%%%%%%%%
766A6%%%%%%%%%%%%%%%%%%%%%%%%%%%%%%%%%%%%%%%%%%%%%%%%%%%%%%%%%%%%%%%%%%%%%%%
750A6Qq%%%%%%%%%%%%%%%%%%%%%%%%%%%%%%%%%%%%%%%%%%%%%%%%%%%%%%%%%%%%%%%%%%%%%
733A6%%%%%%%%%%%%%%%%%%%%%%%%%%%%%%%%%%%%%%%%%%%%%%%%qJ6qQ%q%qJ6qqJ6qQqq%Q%%
718A6%%%%%%%%%%Qq%%%%%%%%%%%%%%%%%%%%%%%%%%%%%%%%%%%%%%%%%%%%%%%%%%%%%%%%%%%
701A6%%%%%%%%%%%%%%%%%%%%%%%%%%%%%%%%%%%%%%%%%%%%%%%%%%%%%%%%%%%%%%%%%%%%%%%
685A6%%%%%%%%%%%%%%%%%%%%%%%%%%%%%%%%%%%%%%%%%%%%%%%%%%%%%%%%%%%%%%%%%%%%%%%
669A6%%%%%%%%%%%%%%%%%%%%%%%%%%%%%%%%%%%%%%%%%%%%%%%%%%%%%%%%%%%%%%%%%%%%%%%
653A6%%%%%%%%%%%%%%%%%%%%%%%%%%%%%%%%%%%%%%%%%%%%%%%%%%%%%%%%%%%%%%%%%%%%%%%
636A6%%%%%%%%%%%%%%%%%%%%%%%%%%%%%%%%%%%%%%%%%%%%%%%%%%%%%%%%%%%%%%%%%%%%%%%
620A6%%%%%%%%%%%%%%%%%%%%%%%%%%%%%%%%%%%%%%%%%%%%%%%%%%%%%%%%%%%%%%%%%%%%%%Q
604B4j6Q%%Qq%%%%%%%%%%%%%%%%%%%%%%%%%%%%%%%%%%%%%%%%%%%%%%%%%%%%%%%%%%%%%%%%
588A6%%%%%%%%%%%%%%%%%%%%%%%%%%%%%%%%%%%%%%%%%%%%%%%%%%%%%%%%%%%%%%%%%%%%%%%
572A6%%%%%%%%%%%%%%%%%%%%%%%%%%%%%%%%%%%%%%%%%%%%%%%%%%%%%%%%%%%%%%%%%%%%%%%
555A6%%%%%%%%%%%%%%%%%%%%%%%%%%%%%%%%%%%%%%%%%%%%%%%%%Qq%%%%%%%%%%%%%%%%%%%%
539A6%%%%%%%%%%%%%%%%%%%%%%%%%%%%%%%%%%%%%%%%%%%%%%%%%%%%%%%%%%%%%%%%%%%%%%%
523A6%%%%%%%%%%%%%%%%%%%%%%%%%%%%%%%%%%Qq%%%%%%%%%%%%%%%%%%%%%%%%%%%%%%%%%%%
507A6%%%%%%%%%%%%%%%%%%%%%%%%%%%%%%%%%%%%%%%%%%%%%%%%%%%%%%%%%%%%%%%%%%%%%%%
490A6%%%%%%%%%%%%%%%%%%%qQ%%%%%%%%%%%%%%%%%%%%%%%%%%%%%%%%%%%%%%%%%%%%%%%%%%
474A6%%%%%%%%%%%%%%%%%%%%%%%%%%%%%%%%%%%%%%%%%%%%%%%%%%%%%%%%%%%%%%%%%%%%%%%
458A6%%%%%%%%%%%%%%%%%%%%%%%%%%%%%%%%%%%%%%%%%%%%%%%%%%%%%%%%%%%%%%%%%%%%%%%
442A6%%%%%%%%%%%%%%%%%%%%%%%%%%%%%%%%%%%%%%%%%%%%%%%%%%%%%%%%%%%%%Qq%qQ%%%%%
425A6%%%%%%%%%%%%%%%%%%%%%%%%%%%%%%%%%%%%%%%%%%%%%%%%%%%%%%%%%%%%%%%%%%%%%%%
409A6%%%%%%%%%%%%%%%%%%%%%%%%%%%%%%%%%%%%%%%%%%%%%%%%%%%%%%%%%%%%%%%%%%%%%%%
393A6%%%%%%%%%%%%%%%%%%%%%%%%%%%%%%%%%%%%%%%%%%%%%%%%%%%%%%%%%%%%%%%%%%%%%%%
377A6%%%%%%%%%%%%%%%%%%%%%%%%%%%%%%%%QqqQ%%qQ%%%%%%%%%%%%%%%%%%%%%%%%%%%%%%%
360A6%%%%%%%%%%%%%%%%%%%%%%%%%%%%%%%%%%%%%%%%%%%%%%%%%%%%%%%%%%%%%%%%%%%%%%%
344A6%%%%%%%%%%%%%%%%%%%%%%%%%%%%%%%%%%%%%%%%%%%%%%%%%%%%%%%%%%%%%%%%%%%%%%%
328A6%%%%%%%%%%%%%%%%%%%%%%%%%%%%%%%%%%%%%%%%%%%%%%%%%%%%%%%%%%%%%%%%%%%%%%%
312A6%%%%%%%%%%%%%%%%%%%%%%%%%%%%%%%%%%%%%%%%%%%%%%%%%%%%%%%%%%%%%%%%%%%%%%%
295A6%%%%%%%%%%%%%%%%%%%%%%%%%%%%%%%%%%%%%%%%%%%%%%%%%%%%%%%%%%%%%%%%%%%%%%%
279A6%%%%%%%%%%%%%%%%%%%%%%%%%%%%%%%%%%%%%%%%%%%%%%%%%%%%%%%%%%%%%%%%%%%%%%%
263A6%%%%%%%%%%%%%%%%%%%%%%%%%%%%%%%%%%%%%%%%%%%%%%%%QqqqK4%qQq%%%%%%%Qq%%%%
247A6%%%%%%%%%%%%%%%%%%%%%%%%%%%%%%%%%%%%%%%%%%%%%%%%%%%%%%%%%%%%%%%%%%%%%%%
231A6%%%%%%%%%%%%%%%%%%%%%%%%%%%%%%%%%%%%%%%%%%%%%%%%%%%%%%%%%%%%%%%%%%%%%%%
214A6%%%%%%%%%%%%%%%%%%%%%%%%%%%%%%%%%%%%%%%%%%%%%%%%%%%%%%%%%%%%%%%%%%%%%%%
198A6%%%%%%%%%%%%%%%%%%%%%%%%qQ%%%%%%%%%%%%%%%%%%%%%%%%%%%%%%%%%%%%%%%%%%%%%
182A6%%%%%%%%%%%%%%%%%%%%%%%%%%%%%%%%%%%%%%%%%%%%%%%%%%%%%%%%%%%%%%%%%%%%%%%
166A6%%%%%%%%Qq%%%%%%%%%%%%%%%%%%%%%%%%%%%%%%%%%%%%%%%%%%%%%%%%%%%%%%%%%%%%%
149A6%%%%%%%%%%%%%%%%%%%%%%%%%%%%%%%%%%%%%%%%%%%%%%%%%%%%%%%%%%%QqQq%QqQq%%%
133A6%%%%%%%%%%%%%%%%%%%%%%%%%%%%%%%%%%%%%%%%%%%%%%%%%%%%%%%%%%%%%%%%%%%%%%%
117A6%%%%%%%%%%%%%%%%%%%%%%%%%%%%%%%%%%%%%%%%%%%%%%%%%%%%%%%%%%%%%%%%%%%%%%%
101A6%%%%%%%%%%%%%%%%%%%%%%%%%%%%%%%%%%%%%%%%%%%%%%%%%%%%%%%%%%%%%%%%%%%%%%%
84A6%%%%%%%%%%%%%%%%%%%%%%%%%%%%%%%%%%%%%%%%%%%%%%%%%%%%%%%%%%%%%%%%%%%%%%%%
68A6%%%%%%%%%%%%%%%%%%%%%%%%%%%%%%%%%%%%%%%%%%%%%%%%%%%%%%%%%%%%%%%%%%%%%%%%
51A6%%%%%%%%%%%%%%%%%%%%%%%%%%%%%%%%%%%%%%%%%%%%%%%%%%%%%%%%%%%%%%%%%%%%%%%%
35A6%%%%%%%%%%%%%%%%%%%%%%%%%%%%%%%%%%%%%%%%%%%%%%%%%%%%%%%%%%%%%%%%%%%%%%%%
18A6%Qq%%Qq%%%%qQ%%%%%%%%%%%%%%%%%%%%%%%%%%%%%%%%%%%%%%%%%%%%%%%%%%%%%%%%%%%
2A6%%%%%%%%%%%%%%%%%%%%%%%%%%%%%%%%%%%%%%%%%%%%%%%%%%%%%%%%%%%%%%%%%%%%%%%%%
-15A6%%%%%%%%%%%%%%%%%%%%%%%%%%%%%%%%%%%%%%%%%%%%%%%%%%%%%%%%%%%%%%%%%%%%%%%
-31A6%%%%%%%%%%%%%%%%%%%%%%%%%%%%%%%%%%%%%%%%%%%%%%%%Qq%%%%%%%%%%%%%%%%%%%%%
-47A6%%%%%%%%%%%%%%%%%%%%%%%%%%%%%%%%%%%%%%%%%%%%%%%%%%%%%%%%%%%%%%%%%%%%%%%
-63A6%%%%%%%%%%%%%%%%%%%%%%%%%%%%%%%%%%%%%%%%%%%%%%%%%%%%%%%%%%%%%%%%%%%%%%%
-80A6%%%%%%%%%%%%%%%%%%%%%%%%%%%%%%%%%%%%%%%%%%%%%%%%%%%%%%%%%%%%%%%%%%%%%%%
-96A6%%%%%%%%%%%%%%%%%qQ%%%%%%%%%%%%%%%%%%%%%%%%%%%%%%%%%%%%%%%%%%%%%%%%%%%%
-112A6%%%%%%%%%%%%%%%%%%%%%%%%%%%%%%%%%%%%%%%%%%%%%%%%%%%%%%%%%%%%%%%%%%%%%%
-128A6%%%%%%%%%%%%%%%%%%%%%%%%%%%%%%%%%%%%%%%%%%%%%%%%%%%%%%%%%%%%%%%%%%%%%%
-144A6%%%%%%%%%%%%%%%%%%%%%%%%%%%%%%%%%%%%%%%%%%%%%%%%%%%%%%%%%%%%%%%%%%%%%%
-160A6%%%%%%%%%%%%%%%%%%%%%%%%%%%%%%%%%%%%%%%%%%%%%%%%%%%%%%%%%%%%%%%%%%%%%%
-176A6%%%%%%%%%%%%%%%%%%%%%%%%%%%%%%%%%%%%%%%%%%%%%%%%%%%%%%%%%%%%%%%%%%%%%%
-192A6%%%%%%%%%%%%%%%%%%%%%%%%%%%%%%%%%%%%%%%%%%%%%%%%%%%%%%%%%%%%%%%%%%%%%%
-208A6%%%%%%%%%%%%%%%%%%qQ%%%%%%%qQ%qQqq%J6K4n6L2%%k4QQJ6q%qJ6k4J6%%%qQ%%Qj6
-222HQQq%%%%%qQ%%qQ%%%%%%%%%%%%%%%%%%%%%%%%%%%%%%%%%%%%%%%%%%%%%%%%%%%%%%%%%
-238A6%%%%%%%%%%%%%%%%%%%%%%%%%%%%%%%%%%%%%%%%%%%%%%%%%%%%%%%%%%%%%%%%%%%%%%
-254A6%%%%%%%%%%%%%%%%%%%%%%%%%%%%%qQ%%%%%%%%%%%%%%%%%%%%%%%%%%%%%%%%%%%%%%%
-270A6%%%%%%%%%%%%%%%%%%%%%%%%%%%%%%%%%%%%%%%%%%%%%%%%%%%%%%%%%qQ%%%%%%%%%%%
-286A6%%%%%%%%%%%%%%%%%%%%%%%%%%%%%%%%%%%%%%%%%%%%%%%%%%%%%%%%%%%%%%%%%%%%%%
-302A6%%%%%%%%%%%%%%%%%%%%%%%%%%%%%%%%%%%%%%%%%%%%%%%%%%%%%%%%%%%%%%%%%%%%%%
-318A6%%%%%%%%%%%%%%%%%%%%%%%%%%%%%%%%%%%%%%%%%%%%%%%%%%%%%%%%%%%%%%%%%%%%%%
-334A6q%%%Q%%%%%%%%%%%%%%%%%%%%%%%%%%%%%%%%%%%%%%%%%%%%%%%%%%%%%%%%%%%%%%%%%
-350A6%%%%%%%%%%%%%%%%%%%%%%%%%%%%%%%%%%%%%%%%%%%%%%%%%%%%%%%%%%%%%%%%%%%%%%
-367A6%%%%%%%%%%%%%%%%%%%%%%%%%%%%%%%%%%%%%%%%%%%%%%%%%%%%%%%%%%%%%%%%%%%%%%
-383A6%%%%%%%%%%%%%%%%%%%%%%%%%%%%%%%%%%%%%%%%%%%%%%%%%%%%%%%%%%%%%%%%%%%%%%
-399A6%%%%%%%%%%%%%%%%%%%%%%%%%%%%%%%%%%%%%%%%%%%%%%%%%%%%%%%%%%%%%%%%%%%%%%
-415A6%%%%%%%%%%%%%%%%%%%%%%%%%%%%%%%%%%%%%%%%%%%%%%%%%%%%%%%%%%%%%%%%%%%%%%
-431A6%%%%%%%%%%%%%%%%%%%%%%%%%%%%%%%%%%%%%%%%%%%%%%%%%%%%%%%%%%%%%%%%%%%%%%
-447A6%%%%%%%%%%qQ%%%qQ%%%%Qj6Q%%%%qQ%%%%%%%%%%%%%%%%%%%%%%%%%%%%%%%%%%%%%%%
-462A6%%%%%%%%%%%%%%%%%%%%qQ%%%%%%%%%%%%%%%%%%%%%%%%%%%%%%%%%%%%%%%%%%%%%%%%
-478A6%%%%%%%%%%%%%%%%%%%%%%%%%%%%%%%%%%%%%%%%%%%%%%%%%%%%%%%%%%%%%%%%%%%%%%
-494A6%%%%%%%%%%%%%%%%%%%%%%%%%%%%%%%%%%%%%%%%%%%%%%%%%%%%%%%%%%%%%%%%%%%%%%
-510A6%%%%%%%%%%%%%%%%%%%%%%%%%%%%%%%%%%%%%%%%%%%%%%%%%%%%%%%%%%%%%%%%%%%%%%
-527A6%%%%%%%%%%%%%%%%%%%%%%%%%%%%%%%%%%%%%%%%%%%%%%%%%%%%%%%%%%%%%%%%%%%%%%
-543A6%%%%%%%%%%%%%%%%%%%%%%%%%%%%%%%%%%%%%%%%%%%%%%%%%%%%%%%%%%%%%%%%%%%%%%
-559A6%%%%%%%%%%%%%%%%%%%%%%%%%%%%%%%%%%%%%%%q%Q%%Q%q%%%%%%%%%%%%%%%%%%%%%%%
-575A6%%%%%%%%%%%%%%%%%%%%%%%%%%%%%%%%%%%%%%%%%%%%%%%%%%%%%%%%%%%%%%%%%%%%%%
-591A6%%%%%%%%%%%%%%%%%%%%%%%%%%%%%%qQ%%%%%%%%%%%%%%%%%%%%%%%%%%%%%%%%%%%%%%
-607A6%%%%%%%%%%%%%%%%%%%%%%%%%%%%%%%%%%%%%%%%%%%%%%%%%%%%%%%%%%%%%%%%%%%%%%
-623A6%%%%%%%%%%%%%%%%%%%%qQ%%qQ%%%%%%%%%%%%%%%%%%%%%%%%%%%%%%%%%%%%%%%%%%%%
-639A6%%%%%%%%%%%%%%%%%%%%%%%%%%%%%%%%%%%%%%%%%%%%%%%%%%%%%%%%%%%%%%%%%%%%%%
-655A6%%%%%%%%%%%%%%%%%%%%%%%%%%%%%%%%%%%%%%%%%%%%%%%%%%%%%%%%%%%%%%%%%%%%%%
-671A6%%%%%%%%%%%%%%%%%%%%%%%%%%%%%%%%%%%%%%%%%%%%qQ%%%%qQ%qQ%%%%%qQ%%%j6K4j6
-686HQ%%%%%%qQ%%%qQ%%%%%%%%%%%%%%%%%%%%%%%%%%%%%%%%%%%%%%%%%%%%%%%%%%%%%%%%%
-703A6%%%%%%%%%%%%%%%%%%%%%%%%%%%%%%%%%%%%%%%%%%%%%%%%%%%%%%%%%%%%%%%%%%%%%%
-719A6%%%%%%%%%%%%%%%%%%%%%%%%%%%%%%%%%%%%%%%%%%%%%%%%%qQ%%%%%%%%%%%%%%%%%%%
-735A6%%%%%%%%%%%%%%%%%%%%%%%%%%%%%%%%%%%%%%qQ%%%qQ%%%%%%%%%%%%%%%%%%%%%%%%%
-751A6%%%%%%%%%%%%%%%%%%%%%%%%%%%%%%%%%%%%%%%%%%%%%%%%%%%%%%%%%%%%%%%%%%%%%%
-767A6%%%%%%%%%%%%%%%%%%%%%%%%%%%%%%%%%qQ%%%%%%%%%%%%%%%%%%%%%%%%%%%%%%%%%%%
-783A6%%%%%%%%%%%%%%%%%%%%%%%%%%%%%%%%%%%%%%%%%%%%%%%%%%%%%%%%%%%%%%%%%%%%%%
-799A6%%%%%%%%%%%%%%%%%qQ%%%%qQ%%%%%%%%%%%%%%%%%%%%%%%%%%%%%%%%%%%%%%%%%%%%%
-815A6%%%%%%%%%%%%%%%%%%%%%%%%%%%%%%%%%%%%%%%%%%%%%%%%%%%%%%%%%%%%%%%%%%%%%%
-831A6%%%%qQ%%%%%%%%%%%%%%%%%%%%%%%%%%%%%%%%%%%%%%%%%%%%%%%%%%%%%%%%%%%%%%%%
-847A6%%qQ%%%%%%%%%%%%%%%%%%%%%%%%%%%%%%%%%%%%%%%%%%%%%%%%%%%%%%%%%%%%qQ%%qQ
-863A6%%%%%%%%%%%%%%%%%%%%%%%%%%%%%%%%%%%%%%%%%%%%%%%%%%%%%%%%%%%%%%%%%%%%%%
-879A6%%%%%%%%%%%%%%%%%%%%%%%%%%%%%%%%%%%%%%%%%%%%%%%%%%%%%qQ%qQ%%%%%%%%%%%%
-895A6%%%%%%%%%%%%%%%%%%%%%%%%%%%%%%%%%%%%%%%%%%%%%%%%%%%%%%%%%%%%%%%%%%%%%%
-911A6%%%%%%%%%%%%%%qQ%%%%%%%%%%%%%%%%%%%%%%%qQ%qQ%%%qQqQ%%%%%%%%%%%%qQ%%%%%
-927A6%%%%%%%%%%%%%%%%%%%%%%%%%%%%%%%%%%%%%%%%%%%%%%%%%%%%%%%%%%%%%%%%%%%%%%
-943A6%%%%%%%%%%%%%%%%%%%%%%%qQ%%%qQ%%%%%%%qQ%%%%%%%%%%%%%%%%%%%%%%%%%%%%%%%
-959A6%%%%%%%%%%%%%%%%%%%%%%%%%%%%%%%%%%%%%%%%%%%%%%%%%%%%%%%%%%%%%%%%%%%%%%
-975A6%%%%%qQ%%%%%%%%%%%%%%%%%%%%%%%%%%%%%%%%%%%%%%%%%%%%%%%%%%%%%%%%%%%%%%%
-991A6%%%%%%%%%%%%%%%%%%%%qQ%%%%%%%%%%%%%%%%%%%%%%%%%%%%%%%%%%%%%%%%%%%%%%%%
-1007A6%%%%%%%%%%%%%%%%%%%%%%%%%%%%%%%%%%%%%%%%%%%%%%%%%%%%%%%%%%%%%%%%%%%%%
-1023A6%%%%%%%%%%%%%%%%%%%%%%%%%%%%%%%%%%%%%%%%%%%%%%%%%%%%%%%%%qQ%%q%Q%%%qQ
-1039A6%%%%qQ%%%%%%%%%%%%%%%%%%%%%%%%%%%%%%%%%%%%%%%%%%%%%%%%%%%%%%%%%%%%%%%
-1054A6%%%%%%%%%%%%%%%%%%%%%%%%%%%%%%%%%%%%%%%%%%%%%%%%%%%%%%%qQqQ%%%%%%%%%%
-1070A6%%%%%%%%%%%%%%%%%%%%%%%%%%%%%%%%%%%%%%%%%%%%%qQ%%%%%%%%%%%%%%%%%%%%%%
-1086A6%%%%%%%%%%%%%%%%%%%%%%%%%%%%%%%%%%%%%%%%%%%%%%%%%%%%%%%%%%%%%%qQ%%%%%
-1102A6%%%%%%%%%%%%%%%%%%%%%%%%%%%%%%%%%%%%%%%%%%%%%%%%%%%%%%%%%%%%%%%%%%%%%
-1117A6%%%%%%%%%%%%%%%%%%%%%%%%%%%%%%%%%%%qQ%%%%%%%%%%%%%%%%%%%%%%%%%%%%%%%%
-1133A6%%%%%%%%%%%%%%%%%%%%%%%%%%%%%%%qQ%%%%%%%%%%%%%%%%%%%%q%%Q%%%%qQ%q%Q%%
-1149A6%%%%qQ%%%%%%%%%%qQqQqQ%j6J6Q%q%Qj6Q%%%%%qQ%%qQ%%qQ%%%%%%%%%%%%%%%%%%%
-1164A6%%%%%%%%%%%%%%%%%%%%%%%%%%%%%%%%%%%%%%%%%%%%%%%%%%%%%%%%%%%%%%%%%%%%%
-1180A6%%%%%%%%%%%%%%%%%%qQ%%%%%%%%%%%%%%%%%%%%%%%%%%%%%%%%%%%%%%%%%%%%%%%%%
-1196A6%%%%%%%%%%%%%%qQ%%%%%%%%%%%%%%%%%%%%%%%%%%%%%%%%%%%%%%%%%%%%%%%%qQ%%%
-1212A6%%%%%%%qQ%qQ%%%%qQ%%%%%%%%%%%%%%%%%%%%%%%%%%%%%%%%%%%%%%%%%%%%%%%%%%%
-1227A6%%qQ%%%%%%%%%%%%%%%%%%%%%%%%%%%%%%%%%%%%%%%%%%%%%%%%%%%%%%%%%%%%qQqQ%
-1243A6%%%%%%%%%%%%%%%%%%%%%%%%%%%%%
-1250A6
##$OBSERVED MULTIPLETS=	(I, X, Y, Hs, Vs, An, H, C, N, (J))
$$ I: Multiplet Index
$$ X: Strt Coordinate
$$ Y: End Coordinate
$$ Hs: Horizontal Chemical Shift
$$ An: Normalised Integral Area
$$ H: Hydrogens
$$ C: Category
$$ N: Name
$$ (J): Coupling Constants
(1, 88.209000594795057282, 88.330194107247180568, 88.269597351021118925, 2, 2, s, 1&comma;2)
##$OBSERVED MULTIPLETS AREAS=	
(1, 1.7167192335881615861)
##$OBSERVED MULTIPLETS PEAKS=	(I, X, Y)
$$ I: Multiplet Peak Index
$$ X: Peak x Position
$$ Y: Peak Intensity
(1, 88.269597351021118925, 0.16513879597187042236)
##$PREDICTED PEAKS=	(X Y T A)
(88.260513883517830891,  , 3.9300000000000001599, <1>)
(88.260513883517830891,  , 3.9300000000000001599, <2>)
##$PREDICTEDCOUPLINGCONSTANTS=	J(A,B)	$$ (Hz)
245.64(1, 1)
245.64(2, 2)
##END=		$$ NMR SPECTRUM
##TITLE=	Predicted 13C NMR Spectrum
##JCAMP-DX=	6.0	$$ MestReNova 17.0.0-41178
##DATA TYPE=	NMR PEAK TABLE
##DATA CLASS=	PEAK TABLE
##BLOCK_ID=	4
##ORIGIN=	Mestrelab Research S.L.
##OWNER=	ctheodore
##CROSS REFERENCE=	NMR SPECTRUM: BLOCK_ID=3                                     
##.OBSERVE FREQUENCY=	125
##.OBSERVE NUCLEUS=	^13C
##NPOINTS=	1
##FIRSTX=	88.269597351021118925
##LASTX=	88.269597351021118925
##XFACTOR=	1
##YFACTOR=	1
##FIRSTY=	0.16513879597187042236
##XUNITS=	PPM
##YUNITS=	ARBITRARY UNITS
##PEAK TABLE=	(XYW..XYW)
88.269597351021118925,0.16513879597187042236,0.012119351245212333507
##$MNOVA/PEAK_DATA_TABLE=	(T,F,A,ST,SP,APT,APC)
$$ Complementary to PEAK TABLE
$$ T: Type
$$ F: Flags
$$ A: Annotation
$$ ST: Shape Type
$$ SP: Shape Parameter
$$ APT: Attached Peaks Type
$$ APC: Attached Peaks Count
Compound,None,,0,0,0,0
##END=		$$ NMR PEAK TABLE
##END=		$$ LINK
