##TITLE=	ethyne 1h
##JCAMP-DX=	6.0	$$ MestReNova 17.0.0-41178
##DATA TYPE=	LINK
##BLOCKS=	4    
##ORIGIN=	Mestrelab Research S.L.
##OWNER=	ctheodore
##$MNOVA/METADATA=	(DOCUMENT,BASE64)
eyJuYW1lIjoiL1VzZXJzL2N0aGVvZG9yZS9Eb2N1bWVudHMvY2xhc3Nlcy9OTVIgZXhwZXJpbWVudC9
naXRodWIgZmlsZXMvZXRoeW5lL2V0aHluZSAxaC5tbm92YSIsInBhZ2VzIjpbeyJpdGVtcyI6WyIxIi
wgICAgICAgICAgICAgICAgICAgICAgICAgICAgICAgICAgICAgIjMiICAgICAgICAgICAgICAgICAgI
CAgICAgICAgICAgICAgICAgIF19XX0=
##TITLE=	
##JCAMP-CS=	3.7	$$ MestReNova 17.0.0-41178
##BLOCK_ID=	1
##ORIGIN=	Mestrelab Research S.L.
##OWNER=	ctheodore
##$MNOVA/METADATA=	(ITEM,BASE64)
eyJhbmdsZSI6MC4wLCJwb2ludHMiOlt7IngiOjUzMjEuMCwieSI6NTgzNS4wfSx7IngiOjU1MDkuNjI
xODg2MzA3NjIzLCJ5Ijo1ODM1LjB9LHsieCI6NTUwOS42MjE4ODYzMDc2MjMsInkiOjU5ODkuMDI4OD
A5Mzc3MTU1fSx7IngiOjUzMjEuMCwieSI6NTk4OS4wMjg4MDkzNzcxNTV9LHsieCI6NTMyMS4wLCJ5I
jo1ODM1LjB9XSwieiI6MS4wfQ==
##NAMES=	
##ATOMLIST=	
$$ AN	AS	NH
	1	C	1
	2	C	1
##BONDLIST=	
$$ AN1	AN2	BT
	1	2	T
##MAXRASTER=	32768
##XY_RASTER=	
$$ AN	X	Y	Z
	1	-32767	18915	0
	2	32767	-18915	0
##END=		$$ JCAMP-CS
##TITLE=	Predicted 1H NMR Spectrum
##JCAMP-DX=	6.0	$$ MestReNova 17.0.0-41178
##DATA TYPE=	NMR PEAK ASSIGNMENTS
##DATA CLASS=	ASSIGNMENTS
##BLOCK_ID=	2
##ORIGIN=	Mestrelab Research S.L.
##OWNER=	ctheodore
##CROSS REFERENCE=	STRUCTURE: BLOCK_ID=1                                     
NMR SPECTRUM: BLOCK_ID=3                                     
##.OBSERVE FREQUENCY=	500
##.OBSERVE NUCLEUS=	^1H
##NPOINTS=	2
##XUNITS=	PPM
##YUNITS=	ARBITRARY UNITS
##PEAKASSIGNMENTS=	(XYWA)
(1.9130826354774093101, 0.080950394272804260254, 0.00075134547777466753615, <1>)
(1.9130826354774093101, 0.080950394272804260254, 0.00075134547777466753615, <2>)
##END=		$$ NMR PEAK ASSIGNMENTS
##TITLE=	Predicted 1H NMR Spectrum
##JCAMP-DX=	6.0	$$ MestReNova 17.0.0-41178
##DATA TYPE=	NMR SPECTRUM
##DATA CLASS=	XYDATA
##BLOCK_ID=	3
##ORIGIN=	Mestrelab Predictor, Modgraph NMRPredict Desktop
##OWNER=	ctheodore
##NUMDIM=	1
##$MNOVA/METADATA=	(ITEM,BASE64)
eyJhbmdsZSI6MC4wLCJheGVzIjp7IngiOnsibWF4IjoxMi41MDAwNzgxMjU0ODgyODUsIm1pbiI6MC4
wMDAxOTA3MzYwNTUzODE1OTYxNH0sInkiOnsibWF4IjowLjA4OTA0NTQzNDI1ODg3ODIzLCJtaW4iOi
0wLjAwODA5NTA0MDEwNjcyMzcyNX19LCJwb2ludHMiOlt7IngiOjUzMjEuMCwieSI6NTgzNS4wfSx7I
ngiOjg3MjIuMCwieSI6NTgzNS4wfSx7IngiOjg3MjIuMCwieSI6ODIwOC4wfSx7IngiOjUzMjEuMCwi
eSI6ODIwOC4wfSx7IngiOjUzMjEuMCwieSI6NTgzNS4wfV0sInoiOjAuMH0=
##.OBSERVE FREQUENCY=	500
##.OBSERVE NUCLEUS=	^1H
##.SOLVENT NAME=	Methanol-d4
##.PULSE SEQUENCE=	
##.ACQUISITIONMODE=	SIMULTANEOUS (DQD)
##$ORIGINAL FORMAT=	Predictor
##$MNOVA/SCALES_VERSION=	9
##$PARAMETER FILE=	(parameters, ASCII, , 0)
$$ <?xml version="1.0" encoding="utf-8"?>
$$ <PredictorParameters>
$$     <Title>Predicted 1H NMR Spectrum</Title>
$$     <Origin>Mnova: NMR Prediction</Origin>
$$     <Name>Mestrelab Predictor, Modgraph NMRPredict Desktop</Name>
$$     <Version>1.7, 1.22 (5.076)</Version>
$$     <Nucleus>1H</Nucleus>
$$     <Solvent>Methanol-d4</Solvent>
$$     <From>0</From>
$$     <To>12.5</To>
$$     <Frequency>500</Frequency>
$$     <LineWidth>0.75</LineWidth>
$$     <Size>65536</Size>
$$     <DEPT>0</DEPT>
$$     <ProtonatedCarbons>0</ProtonatedCarbons>
$$     <ExcludeLabile>true</ExcludeLabile>
$$     <FastPrediction>0</FastPrediction>
$$     <ProtonDecoupled>0</ProtonDecoupled>
$$     <Reference/>
$$     <Options>
$$         <Settings>
$$             <Predictor Name="Mestrelab Predictor">
$$                 <Settings>
$$                     <Model>/Applications/MestReNova.app/Contents/Resources/data/1H.mbst</Model>
$$                 </Settings>
$$             </Predictor>
$$             <Predictor Name="Modgraph NMRPredict Desktop">
$$                 <Settings>
$$                     <Algorithm hoption="2" hsolvent="1" usnucleus="1">Fast Increments</Algorithm>
$$                     <JsAlgorithm>Fast Increments</JsAlgorithm>
$$                     <NMRSOAPDIR>/Applications/MestReNova.app/Contents/Resources/NMRPredict</NMRSOAPDIR>
$$                     <NMRTEMPDIR>/private/var/folders/3f/5b3_td5j7k3f1lyt31390d3jfxj842/T/NMRPredict-1574477954</NMRTEMPDIR>
$$                     <NMRUSDATABASEDIR>/Users/ctheodore/Library/Application Support/Mestrelab Research S.L./MestReNova/NMRPredict/NMR1HDatabase</NMRUSDATABASEDIR>
$$                     <Databases>ABCDEFGHIJKLMNOPQRSTUVWXYZ</Databases>
$$                 </Settings>
$$             </Predictor>
$$         </Settings>
$$     </Options>
$$     <MoleculeID>{14b8f7fa-1759-4d90-a60b-e6c9064561d0}</MoleculeID>
$$ </PredictorParameters>
$$ 
##XUNITS=	HZ
##YUNITS=	ARBITRARY UNITS
##FIRSTX=	6250
##LASTX=	0.095367431640625
##DELTAX=	-0.095367431640625
##XFACTOR=	1
##YFACTOR=	3.769546482269639708E-11
##FIRSTY=	1.3449716895763685898E-08
##MINY=	-1.2064975407621858494E-10
##MAXY=	0.080950394272804260254
##NPOINTS=	65536
##XYDATA=	(X++(Y..Y))
6250C57%%%%%%%%%%%%%%%%%%%%%%%%%%%%%%%%%%%qQ%%%%%%qQ%%%%q%Q%qQ%%%%%q%Q%%%%%q
6243C49%%Qq%%%Qq%%%Qq%%%%%%%%%%%%%%%%%%%%%%%%%%%%%%%%%%%%%%%%%%%%%%%%%%%%%%%
6237C49%%%%%%%%%qQ%%%%%%%%%%%%%%%%%%%%%%%%%%%%%%%qQ%%%qQ%%%%%%q%QqQ%q%Q%j6%Q
6230C41%%%J6qq%Q%q%qJ6q%%%%Qq%%%%%%%%%%%%%%Qq%%%%%%%%%%%%%%%%%%%%%%%%%%%%%qQ
6224C41%%%%%%%%%%%%%%%qQ%%%%%%qQ%%%%%%%%%%%%%%%%q%Q%%%q%%%Qq%QqQqQ%%q%%%%%%%
6217C33%%%Qq%%%%%%%%%%%%%%%%%%%%%%%%%%%%%%%%%%%%%%%%%%%%%%%%%%%%%%%%%%%qQ%%%
6211C33%%%%%%%%%%%qQ%%%qQ%qQ%%%qQ%%%%%%%%%qQ%%qQq%QqQq%Q%%q%Q%%qQqQq%QqQ%q%Q
6204C33q%%%%%%%%%%%%%%%%%%%%%%%%%%%%%%%%%%%%%%%%%%%%%%%%%%%%%%%%%%%%%%%%%%%%
6198C25%%%%%%%%%%%%%%%%%%%%%%%%%%%%%qQ%%q%Q%qQqQqQqQq%%QqQ%q%%%%%%%%%%%%%Qq%
6191C17%QqQq%%%%%%%%%%%%%%%%%%%%%%%Qq%%%%%%%%%%%%%%%%%%%%%%%%%%%%%%%%%%%%%%%
6184C17%%qQ%%%%%%qQ%%%%%%%%%%%%%%%%qQq%Q%j6Q%%Qq%Q%%%%%qQ%qQ%%%qQ%%%%%%%%%%%
6178C17%%qQqQ%%qQq%%%%%%%%%%%%%%%%Qq%%%%%%%%%%%%%%%%%%%%%%%%%%%%%%%%%%%%%%%%
6171C09%%%%%%%%%%%%%%%%%%%%%%%%%%%%%%%%%%%%%%%%%%%%%%%%%%%%%%%q%Qq%%QqQ%%q%Q
6165C09%%qQq%QqQ%q%%Qq%%Qq%%Qq%%Q%qQq%%%Qq%%%%%%%%%%%%%%%%%%%%%%%%%%%%%%%%%%
6158C01%%%%%%%%%%%%%%Qq%%%%%%Qq%%%%%%%%%%%%%%%%%%%%%%%%%%%%%%%%%%%%%%%%%%%%%
6152C01%%%%%%qQ%qQqQqQ%%%%q%Q%qQ%%%qQqQ%%%q%Qq%Qq%QqQq%QqQq%%%%%%%%%%%%%%%%%
6145B93%%%%Qq%%%%%%%%%%%%%%%%%%%%%%%%%%%%%%%%%%%%%%%%%%%%%%%%%%%%%%%%%%%%%%%
6139B93%%%%%%%%%%%%%%%%%%%%%%%%%qQ%q%%Q%%%qQ%%qQ%qQq%QqQ%q%QqQ%%%%%qQqQqqJ6%
6132B93qQq%%%%Q%qQ%%%%%%%q%Q%q%%Qq%Qq%%%Qq%Qq%%%%%%%%%%%%%%%%%Qq%%%%%%%%%%%%
6125B85%%%%%%%%%%%%%%%%%%%%%%%%%%%%%%%%%%%%%%%%%%%%%%%%%%%%%qQ%%%q%Q%%qQ%%%%
6119B85%%qQ%qQ%%%qQ%qQ%q%Qq%Q%qQ%q%Qq%Q%%q%Q%qQ%q%%%%Q%%q%%Q%q%%%%Q%q%%%Qq%%
6112B77%%%%%%%%%%%%%%%%%%%%%%%%%%%%%%%%%%%%%%%%%%%QqQq%%%%%%%%%%%%%%%%%%%%%%
6106B77%%%%%%%%%%%%%%%%%%%%%%%%%%%%%%%%%%%%%%%%%%%%%%%%%q%%Q%%%q%%Q%%%%qQ%%%
6099B77%%q%QqQ%%q%%%Qq%%%%Q%qQqQ%q%%Q%%%%q%%Qq%Qq%%%%%%%%QqQq%%%%%%%%%%%%%%%
6093B69%%%%%%%%%%%%%%%%%%%%%%%%%%%%Qq%%%%%%%%%%%%%%%%%%%%%%%%%%%%%%%%%%%%%%%
6086B69%%%%%%%%%qQqQ%%%%%%%%%qQ%q%QqQ%%%%%%%%%qQ%%%%%%%%qQ%%%%%qQq%%QqQ%qQqQ
6079B69%qQ%%qQqQqQ%%qQ%q%QqQq%%Qq%%%%%%Qq%%%%%%%%%%%%%%%%%%%%%%%%%%%%%%%%%%%
6073B61%%%%%%%%Qq%%%%%%%%%%%%%%%%%%%%%qQ%%%%%%%%%%%%%%%%%%%%%%%%%%%%%%%%%%%%
6066B61%%%%%%%%%%%%%%%%%%%%%%%%%%%%%qQ%%%%%%%qQ%qQqQ%%%q%Q%qQ%%%%%qQqQ%%qQ%q
6060B53Q%qQ%qQ%q%%Qq%%Qq%%%%Qq%%Qq%%%%%%%%%%%%%%%Qq%%%%%QqQq%%%%%%%%%%%%%%%%
6053B53Q%q%%%%%%%%%%%%%%%%%%%%%%%%%%%%%%%%%%%%%%%%%%%%%%%%%%%%%%%%%%%%%%%%qQ
6046B53%%%%%%%%%%%%%%%%qQ%%%%%qQ%%qQ%%%%%qQ%%qQ%%%qQ%%%%%qQ%%%%%%qQ%qQ%q%%%Q
6040B53%%%q%%Q%%%%%%%%%%qQqQq%Q%q%%%%%%%%%Qq%QqQq%%Q%qqK4%j6J6j6qQ%%q%qJ6%J6
6034B61qj6Q%Qq%Q%%q%%%%%%%%%%%Qq%Qq%%%%%%%%%%%%%%%%%%%%%%%%%%%%%%%%%%%%%%%%%
6027B45%%%%%%%%%%%%%%%qQ%%%%%%%%%%%%%%%%%%%%%%%%%%%%%%%%%%%%%%%%qQ%%qQqQqQqQ
6021B45qQ%%%%%%qQ%%%%%%qQqQ%%%qQq%Q%%%qQ%%qQqQq%Q%%q%Q%q%QqQ%q%Qq%%%%%%%%%%%
6014B37Q%q%%%%%%%%%%%%%%%%%Qq%Q%q%%Qq%%%QqQq%qJ6q%%Qq%%%%%%%%%%%%%%%%%%%%%%%
6008B37%%%%%%%%%%%%%%%%%%%%%%%%%%%%%%%%%%%%%%%%%%%%%%%%%%%%%%%%%%%%%%%%%%%%%
6001B37qQ%%%%%%%%qQ%%%%%%%%q%Q%%%%qQ%qQqQ%%%%%%%%%%%%%%%%%%q%Q%%qQ%q%Q%%qQq%
5995B29Q%%q%Qq%Q%qQqQ%qQ%%%qQqQq%Q%qQq%%%Qq%Qq%QqQq%%%%%%%%%%%%%%%%%%%%%%%%%
5988B29%%%%%%%%%%%%%%%%%%%%Qq%%%qQ%%%%%%QqQq%%%%%%%%%%%%%%%%%%%%%%%%%%%%%%%%
5981B29%%%%%%%%%%%%%%%%%%%%%%%%%%%%%%%%%%%%%%%%%%%%%%%%%%%%%%%%%%%%%%%%%%%%%
5975B29%%%%%%%qQ%qQ%qQ%%%qQ%%%%%q%Qq%%Q%q%Qq%Q%%qQ%%%qQ%%%%%%%%%%%q%Q%qQ%%q%
5968B21%%%Qq%%%%%%%%%%%%%%%%%%%%%%%%%%%%%%%%%%%%%%%%%%%%%%%%%%%QqQqQ%q%Qq%Qq
5962B21Qq%%%%%Qq%%%%%%%%%%%%%%%%%%%%%%%%%%%%%%%%%%%%%%%%%%%%%%%%%%%%%%%%%%%%
5955B21%%%%%%%%%%%%%%%%%%%%%%%%%%%%%%%%%%%%%%%%%%%%qQ%%%%%%%%%%%%qQ%%%%qQ%%%
5949B21%%%%%%%%qQ%%%%%%%%%q%Q%%q%%%%%%%%Q%q%Q%qQ%q%Qq%%Qq%%Qq%Qq%Qq%Q%%qQ%%q
5942B13QqQq%Qq%%%Q%%%qQqQ%%q%%%Qq%%%%QqQq%%%%%%%Qq%%QqQ%q%%Qqq%Q%Qq%%%%%%%%%
5935B13%%%%%%%%%%%%%%%%%%%%%%%Qq%%%%%%%%%%%%%%%%%%%%%%%%%%%%%%%%%%%%%%%%%%%%
5929B13%%%%%%%%%%%%%%%%%%%%%%%%%%%%%%%%%%%%%%%%qQ%qQ%%%%%%%%%%%%%%%%%%%%%%%%
5922B13%%%%%%%%%%%%%%%%%%%%%%%%%%%%qQ%%%%q%Q%%%qQqQ%qQq%%QqQ%%q%%%%%Q%%qQ%%q
5916B05%Qq%%%Qq%Q%qQ%q%Qq%%Q%q%%Qq%%%%J6k4J6%%qQq%%%%%%%Qq%%%%%%Qq%%%%%%%%%%
5909B05%%%%%%%%%%%%%%%%%%%%%QqQ%q%%%%%%%%%%%%%%%%%%%%%%%%%%%%%%%%%%%%%%%%%%%
5903B05%%%%%%%%%%%%%%%%%%qQ%%%qQ%%Qq%%%%%%%%%%%%%%%%%%%%%%%%%%%%%%%%%%%%%%%%
5896B05%%%%qQ%qQ%%%%%%%%%%%qQ%%%%%qQ%%%%%%%%%%%%%%%%%%%%q%Q%%%%%%%%%%%%%%%qQ
5890B05qQ%%qQqQ%%%q%J6q%qQ%q%%QqQ%q%%%QqQq%%Qq%Q%%%%%q%%%%Q%%%q%Q%%%qQqQ%%%q
5883A97Q%qQqQq%%%%Qq%%QqQq%%%%%%%%%Q%q%%%%%%%%%QqQq%%%%%%%%%%%%%%%%%%%%%%%%Q
5877B05q%Qq%%Q%q%%%%%%%%Qq%%%%%%%%%%%%%%%%%%%%%%%%%%%%%%%%%%%%%%%%%%%%%%%%%%
5870A97%%%%%%%%%%%%%%%%%%%%%%%%%%qQ%%%%%%%%%%%%%%%%%%%%%%%%%%%%%%%qQ%%%%q%Q%
5863A97%%%qQ%%%%%%%%%%%%%%%%%%%%q%Q%%%%%%%%%%%%qQqQ%%%%%%%%qQ%qQ%qQ%%qQq%%%Q
5857A97%%%%q%%%Q%%qQq%%QqQq%%%%%%%%%%QqQq%%Q%q%QqQ%%qQ%%qQq%%%Q%qQ%%qQ%q%Qq%
5850A89Qq%%%%%Qq%%Qq%%%%Q%qQq%Qq%%%%%%%%%Qq%%Qq%%%%%%%%QqQq%%%%%%%%%%%%%%%%%
5844A89%%%%%%%%%Qq%%%%%%Q%%qQq%%Q%q%qQ%qQQ%qQq%Qqj6J6%Q%q%QqQ%q%%%Qq%%%%%%%%
5837A89%%%%%%%%%%qQ%%%%%%%%%%%%%%%%%%%%%%%%%%%%%%%%%%%%%%%%%%%%%%%%%%%%%%%%%
5831A89%%%%%%%%qQ%%%%%%qQ%%%%%%%qQ%%%%%%%%%%%Q%q%%%%%%%%%%%%%%%%%%%%%%qQ%%qQ
5824A89%%%%qQqQ%%%%%%qQ%%%%%%qQ%%%%%%%%%%%%%%%q%Qq%Q%q%%%Q%%%%qQ%%%%%%%%%%q%
5818A81%%QqQqQq%QqQ%%q%%Qq%Qq%%%Q%q%QqQ%%qQ%%q%%%%%%%%%%%%%Qq%%%%%%%%%%%%%%%
5811A81%%%%%%%%%%%%%%%%%%%%%%Qq%%%%%%%%%%%%%%%%%%%%%%%%%%%%%%%%%%%%%%%%%%%%%
5804A81%%%%%%%%%%%%%%%%%%%%%%%%%%%%%%%%%%%%%%%%%%%%%%%%%%%%%%%%%%%%%%%%%%%%%
5798A81%%%%%%%%%%%%%%%%%%%%%%%%%%%%%%%%%%%%%%%%%%%%%%%%%%%%%%%%%%%%%%%%%%%%%
5791A81%%%%Qk4K4j6%Q%%%%%%%%%%%%%%%%%%%%%%%%%%%%%%%%%%%%%%%%%%%%%%%%qQ%%qQ%%
5785A81%qQq%Q%%%qQ%qQ%%%%%%%%%qQqQ%q%%%%%Q%%%%qQqQ%%%qQqQ%%q%Qq%Q%%%qQqQ%%qQ
5778A81q%Q%%%%qQqQ%q%%%%Q%q%%%%%%Qq%Qq%Qq%%%%%%Q%qQ%%q%%%%%%%%%Qq%%%%%%%%%%%
5772A73Qq%%%%%%%%%%%%%%%%%%%%%%%%%%%%%%%%%%%%%%%%%%%%%%%%%%%%%%%QqQ%q%%%%%%%
5765A73%%%%%%%%%%%%%%%%%%%%%%%%%%%%%%%%%%%%%%%%%%%%%%%%%%%%%%%%%%%%%%%%%%%%%
5759A73%%%%%%%%%%%%%%%%%%%%%%%%%%%%%%%%%%%%%%%%%%%%%%%%%%%%%%%qQ%%%%%%%%%%%%
5752A73%%%%%%%%qQ%%%%%%%%%%qQ%%%%%%%%%%%%%%qQ%%%%%%%qQ%%%%%%%%qQ%%%%%%qQ%%%%
5745A73%%%%%%qQ%q%QqQ%%%qQq%Q%q%%Q%%%%%%%%q%QqQ%%q%Qq%QqQ%%qQqQqQ%%%q%%Q%%q%
5739A65%%Qq%Q%q%Q%%%q%%%Q%q%%%%%%%Q%%q%%%%%%Q%q%Qq%QqQq%%%%%%%%Qq%%%%%%%%%%%
5732A65%%%%Qq%%%%%%%%%%Qq%%%%%%Qq%%%%%%%%%%%%%%%%%%%%%%%%%%%%%%%%%%%%%%%%%Qq
5726A65%%%%%%%%%%%%%%%%%%%%%%Qq%%%%%%%%%%%%%%%%%%%%%%%%%%%%%%%%%%%%%%%%%%%%%
5719A65%%%%%%%%%%%%%%%%qQQqq%QqQ%%%qQ%%%%%%%%%%%%%%%%%%%%%%%%%%%%%%%%%%%%%%%
5713A65%%%%%%%%%%%%%%%%qQ%%%%%%%%%%%%qQ%%%%%%%%%%%%%%%%%%%%%%%%%%%%%%%%%%qQq
5706A57Q%%qQ%%qQ%%q%QqQ%%%%%%%%%%%%%%%%%%%%%%%%%%%%%%%%%%%%%%qQ%%%%%%%%%%%%%
5699A65%%%%%%%%%%%%%%%%%%%%%%%%%%%%%%%%%%q%Q%q%Qq%%%%%%%%%%%Qq%Qq%%%%Q%qqQQ%
5693A65%%%%qQqQq%Q%%%%q%%%Q%%%q%Qq%Qq%%%%%Qq%%%%%%Q%qQqQq%%%%%%%%%%%%%%%%%%%
5686A57Qq%%%%%%%%%%%Qq%%%%%%%%%%%%%%%%%%%%%%%%%%%%%%%%%%%QqQq%%%%Qq%%%%%%%%%
5680A57%%%%%%%%%%%%%%%%%%%%%%%%%%%%%%%%%%%%%%%%%%%%%%%%%%%%%qQ%%%%%%%%%%%%%%
5673A57%%%%%%%%%%%%%%%qQ%%%%%%%%%%%%%%%%%%%%%%%qQ%%%q%QQq%%%%%%%%%%%%%%%%%%%
5666A57%%%%%%%%%%%%%%%%%%%%%%%%%%%%%%%%%%%%%%%%%%%%%%%%%%%%%%%%%%%%%%%%%%%%%
5660A57%%%%%%%%%%%%%%%%%%%%%%%%%%%%%%qQ%%%%%%%%qQ%qQ%%%%%%%%qQqQ%qQ%%%qQ%%q%
5653A49Q%%%%%%%%%%%%qQq%%%QqQ%qQ%%qQq%%Qq%Q%%%qQ%%%%%%%q%Q%qQ%%%%%qQ%%%qQ%%%
5647A57%qQqQ%q%%qK4%%j6QQj6J6j6Qj6qQL2K4n6qk4M8qqQQj6M0l2q%Q%J6k4J6qqQ%J6q%q
5642A49%%QqQqQq%Qq%%Qq%Qq%%%%%%QqQq%%%%Q%q%%%Q%q%QqQ%qQq%%%%%%%Q%%q%%%%%%%Qq
5635A49%%%Qq%%%%Qq%%%%%%%%%%Qq%%%%%QqQq%Qq%%%%%%%Qq%%%%%%Qq%%%%%%%%%%%%%%%%%
5629A49%%%%%%%%%%%%%%%Qq%Qq%%Qq%%%%%%%%%%%%%QqQq%%%%%%%%%%%%%%%%%%%%%%%%%%%%
5622A49%%%%%%%%%%%%%%%%%%%Qq%%%%Qq%Qq%%%%%%%%%%%%%%%%%%%%%%%%%%%%%%%%%%%%%%%
5616A49%%%%%%%%%%%%%%%%%%%%%%%%%%%%%%%%%%%%%%%%%%%%%%%%%%%%%%%%%%%%%%%%%%%%%
5609A49%%%%%%%%%%%%%%qQqQ%%%%%%%%%%%%%%%%%%%%%%%%%%%qQ%%%%%%%%%%%%%%%%%%%%%%
5602A49%%%%%%q%Q%%%%%qQqQ%%%%%%%%%%%%%%%%%%%%%%%%%%%%%%%%qQ%%%%%%qQq%Q%%%qQj6
5596A33J6%q%%%%Q%%Qqq%Q%qQ%q%%QqQ%qQq%Q%%%qQ%q%%%%%Q%q%Qq%Qq%%QqQ%qQ%q%Q%q%%
5589A41%Qq%Q%%%qQq%Q%q%%%%Q%%%%qQ%%%%%%q%%%%%QqQ%%q%%%%%%%%%%%%%Qq%%%Q%%q%Qq
5583A41%%%%%%%%%%%%%%%%%%%%%%%%%%%%%%%%%%%%%%%%%%%%%%%%%Qq%Qq%%%%%%%%%%%%%%%
5576A41%%%%%%%%%%%%%%%%%%%%%%%%%Qq%Qq%%%%%%%%%%%%%%%%%%%%%%%Qj6Q%%%%%%%%%%%%
5570A41%%%%%%%%%%%%%%%%%%%%%%%%%%%%%%%%%%%%%%%%%%%%%%%%%%%%%%%%%%%%%%%%%%%%%
5563A41%%%%%%%%%%%%%%%%%%%%%%%%%%%%%%%%%%%%%%%%%%%%%Qq%Qq%%%%%%%%%%%%%%%%%%%
5556A41%%%%%%%%%%%%%%%%%%%%%%%%%%qQ%%%%%%%%%%%%%%%%%%%%qQ%%%%%%%%%%%%%%%%%%q
5550A33Q%%%%%q%Q%%%%q%Q%%%%%%%%%%%Qqq%QqJ6q%%%%%%%QqqQ%%%q%%Q%%%%qQ%%%q%QqQ%
5543A41qQ%%%qQ%%qQ%%%%%%%%%%%%%%%%%%qQ%%%%%%%%%%%%%%%%%%%%qQqQ%%%%%%%%%%%%%%
5537A41%%%%%%%%%%%%%%%qQ%%qQ%qQ%%qQqQqQq%%%Q%%%qQqQ%%%%qQ%q%Qq%%QqQ%q%%Q%%q%
5530A33%%%Q%%q%%Qq%Qq%%Qq%%Qq%%Q%%%qQqQ%q%%%%%%%%Q%qQqQ%q%%Qq%Qq%Q%q%%%Qq%%%
5524A33%%%Qq%%%QqQq%%%%%%Q%%q%%%%%%Qq%QqQq%%%%Qq%%Q%q%%QqQq%%%%%%%%QqQqQq%Qq
5517A33Qq%Qq%%%%%Q%q%%%%%%%%%%%%%%%%%%%%%%%%%%%%%%%Qq%%%%%%%%%%%%%%%%%%%%%%%
5511A33%%%%%%%%qQ%%%%%%%%%%%%%%%%%%%%%%%%%%%%%%%%%%%%%%%%%%%%%%%%%%%%%%%%%%%
5504A33%%%%%%%%%%%%%%%%%%%%%%%%%%%%%%%%%%%%%%%%%%%%%%%%%%Qq%%%%%%Qq%%QqqQ%%Q
5497A41q%%%%%%%%%%%%%%%%%%%%%%%%%%%%%%%%%%%%%%%%%%%%%%%%%%%%%%%%%%%%%%%%%%%%
5491A33%%%%%%%%%%%%%%%%%%%%%%%%qQ%%%%%%%%%%%%%%%%%%%%%%%%%%%%%%qQ%%%%%%%%%%%
5484A33%%%%%%%%%%%%%%%%%%qQqQ%%%%%%%%%%%%%%%%%%%%%%%%%%qQ%qQ%%%%%%%%%%%%%%%%
5478A33%%%%%%%%%%%%%%%%%%%%%%%qQ%%%%%%%%%%qQ%%%%%%%%%j6J6%%%%%qQ%qQq%%Q%%q%%
5471A25Q%%%%qQ%qQ%%%%%%%%%%%%%%%qQ%qQ%qQqQ%%%%qQ%q%Q%%%%%%%%%%%q%%Q%qQ%%q%Qq
5465A25%%QqQq%QqQqQ%%%%qQ%%%%%%%%q%%%Q%q%%Q%qQ%qQ%%%%%%%q%Q%qQ%%qQq%%%%Qq%%%
5458A25%%%%Q%%qQqQq%Qq%%%Qq%%%%%%Qq%%%Q%q%QqQq%%%%Qq%Qq%%Q%q%Q%q%Qq%%%Q%qQq%
5451A25%Qq%%%%%%%%%Qq%%%QqQj6Q%Qj6%K4%Qj6Qj6J6j6q%Q%Q%qQq%%%%Qq%%%%Qq%%%%Q%q
5446A25%%%Q%q%%%%QqQq%%%%%%%%%%%%%%Qq%%%%%%Qq%%%%%%%%%%%%%%%%%%%%%%Qq%%%%%%%
5439A25%%%%%%%%Qq%%%%Qq%%%Qq%%%%%%%Qq%%%%%%%%%%Qq%%%%%%%%%%%%%%%%%%%%%%%%%%%
5432A25%%%%%%%%%%%%%%%%%%%Qq%%%%%%%%%%%%%%%%%%%%%%%%%%%%%%%%%%%%%%%%%%%%%%%%
5426A25%%%%%%%%%Qq%%%Qq%qQ%%%%%%%%%%%%%%%%%%%%%%%%%%%%%%%%%%%%%%%%%%%%%%%%%%
5419A25%%%%%%%%%%%%%%%%%%%%%%%%%%%%%%%%%%%%%%%%%%%%%%%%%%%%%%%%%%%qQ%%%%%%%%
5413A25qQ%%%%%%%%%%%%%%%%%%%%%%%%%%%%%%%%%%%%%%%%%%%%%%%%%%%%%%%%%%%%%%%%%qQ
5406A25%%%%%%%%%%%%%%%%%%%%%%%%%%%%%%%%%%%%%%%%%qQ%%%%%%%%%%%%q%Q%%qQqJ6j6Q%
5400A25%%%qQ%%%qQ%%%%%%qQ%%%%%%%%qQ%qQ%%%%%%%%%%%%%%%%%%%qQqQ%%%q%Qq%%QqQ%%q
5393A17Q%%%%%%%%%%%%%%%%%%%%q%Q%%%%%%%qQqQqQ%%qQ%%q%Q%%%%%%%%qQ%%qQ%qQ%%%qQ%
5387A25%qQq%Q%qQqQ%%%%%%%qQq%QqQ%%%%%%qQ%%%%qQ%%%%%%qQ%%%%qQq%Q%%q%%Q%qQ%q%Q
5380A25qQq%%%%%Q%%%%qQq%Q%%%qQq%%Q%%%%%%%%%%q%QqQq%%Q%q%QqQqQ%q%Qq%%%Qq%%%%%
5373A17%Q%q%Q%%q%QqQq%%%Qq%%%%%%%%%%%%Qq%%%%%%%QqQqQ%q%%%%%%%%%%%%%%%%%%%%Qq
5367A17%%%%%%Qq%%%Qq%%%%%%%%%%%%%%Qq%%%%%%%%%%%Qq%%%%%%%%%%%Qq%%%%%%Qq%%%%%Q
5360A25%q%QqQ%q%%%%%%Qq%%%%%%%%%%%%%%%%%%%%%%%%%%%%%%%%%%%%%%%%%%%%%%%%%%%%%
5354A17%Qq%%%%%%%%%%Q%q%%%%Q%%qqQ%Qj6Q%%%%Q%q%%%%%%%%%%%%%%%%%%%%%%%%%%%%%%%
5347A17%%%%%%%%%%%%%%%%%%%%%%%%%%%%%%%%%%%%%%%%%%%%%%%%%%%%%%%%%%%%%%%%%%%%%
5341A17%%%%%%%%%%%%%%%%%%%%%%%%%%%%%%%%%%%%%%%%%%%%%%%%%%%%%%%%%%%%%%%%%Qq%%
5334A17%%%%%%%%%%%%Qq%%%%%%%%%%%%%%%%%%%%%%%%%%%%%%%%%%%%%%%%%%%%%%%%%%%%%%%
5327A17%qQ%%%%%%%%qQ%%qQ%%qQ%%%%%%%%%%%%%%%%%%%%%%%%%%%%%%%%%%%%%%%%%%%%%%%%
5321A17%%%%%%%%%%%%%%%%%%%%%%%%%%%%%%%%%%qQ%%%%%%%%%%%%%%%%%%%%%%%%%%%%qQ%%%
5314A17%%%%%%%%%%%%%%%%%%%%%%%%%%%%%%%%%%%%%%qQ%%%%%%%%%qQ%%%%%%%%%qQ%qQ%%%%
5308A17%%%%%%qQ%%%q%Q%%%%%%%%%%%%qQqQ%%%%%%qQ%%%%%%%q%QqQ%%%%q%QqQ%%%%%qQ%q%
5301A09Q%%%qQ%%%%qQ%%%%%%%%%%%%%%%%%%%%%%%%%%%%%%%%%%%qQ%%qQ%q%Q%%%%%%%%qQ%%
5295A17%%qQqQ%%%qQ%qQ%qQqQ%%%qQ%%qQ%%qQ%q%Q%%%%qQ%%%q%Q%%q%%QqQ%%qQqQq%Q%%%%
5288A17%%%%%%%%%qQqQqQ%q%QqQqQ%%%q%%%QqQq%%%Q%qQ%%%qQqQqQ%q%QqQ%%%%%qQ%q%%%Q
5281A17q%%%%%%%%%%Qq%Q%q%%Qq%%Q%%q%Qq%Q%q%Qq%%%%Qq%%QqQq%%%%%%%%%Qq%%Qq%Q%q%
5275A09%Q%q%Q%qQ%qQq%%%%%%%%%%%%%%Qq%%%Qq%%Qq%%QqQq%Qq%%%%%%%%%%%%%%%%%%Qq%%
5268A09%%%%%%%%%%Qq%%%%QqQq%%Qq%%%%%QqQ%q%%%%%%%%%%%%%%%%%%%%%%%%%Qq%%%%%%%%
5262A09%%%%%%%%%%%%%%%%%%%%%%%%%%%%%%%%%%%%%%%QqQq%%%%%%Qq%%%%%%%%%%%%Qq%%Qq
5255A09%%Qq%%Q%k4J6%%K4j6qK4j6L2l2%j6QQq%qJ6q%%%Q%q%Qq%%%%%%%%%%%%%%%%%%%%%%
5249A09%%%%%%%%Qq%%%%%Q%q%%%%%Qq%%%%%%%%%%%%%%%%%%%%%%%%%%%%%%%%%%%%%%%%%%%%
5243A09%%%%%%%%%%%%%%%%%%%%%%%%%%%%%%%%%%%%%%%%%%%%%%%%%%%%%%%%%%%%%%%%%%%%%
5236A09%%%%%%%%%%%%%%Qq%%%%%%%%%%%%%%%%%%%%%%%%%%%%%%%%%%%%%%%%%%%%%%%%%%%%%
5230A09%%%%%Qq%%%%%%%%%%%%%%%%%%%%%%%%%%%%qQ%%%%%%%%%%%%%%%%%%%%%%%%%%%%%%%%
5223A09%qQ%%%%%%%%%%%%%%%%%%%%%%%%%%%%%%%%%%%%%%%%%%%%%%%%%%%%%%%%%%%%%%%%qQ
5217A09Qq%%%%%%%%%%%%%%%%%%%%%%%%%%%%%%%%%%%%%%%%%%%%%%%%%%%%%%%%%%%%%%%%%%%
5210A09%%%%%%%%%%%%%%%%%%%%%%%%%%%qQ%%%%%%%%%qQ%%%%%%%qQ%%%qJ6q%%%%%%%%%%%%%
5203A09%%%%%%%%%%%%%%%%%%%%%%%qQ%%%%%%%%%%qQ%%qQ%%%%%%%%%%%q%Q%qQ%%%%%%%%%q%
5197A01Q%%%%%%%%%%%%%%%%%%%%%qQqQ%%%q%Q%%%%%%%%%%q%Q%%%qQ%%%%%%qQ%%%%qQ%%%%%
5190A09q%Q%%%%q%Q%%%%%%%%%%%%%%%%%%%qQ%%%qQ%q%Q%q%Q%%%%%%%%%%%%%%%%%qQ%%qQ%%
5184A09qQ%%q%%Q%%qQ%%%%q%Q%%q%QqQ%qQqQq%%Qq%Qq%%%%Q%qQ%%%%%qQ%qQqQ%qQ%%%%%%%
5177A09%%qQq%QqQ%%%%%%q%Q%q%QqQ%q%QqQqQqQ%%qQ%%%%%%%%%%%%qQ%qQ%%%%%%%%qQ%%%%
5171A09%qQqQ%%q%Qq%%%%QqQq%%%%Q%q%%Q%q%%%%%%QqQ%q%%%%Q%q%%%%%%Qq%%%%%%%%%%%Q
5164A09%%q%Qq%Qq%%%%%%%%%%Q%q%Q%qQq%Qq%%Qq%%%%Qq%%%%%%Qq%%%%%%QqQ%%%q%Qq%Q%q
5157A01%%%%%%%%Qq%%%qJ6qQ%j6J6qQq%%%%%%%Qq%%%%%%QqQq%%%%%%%Q%qQq%%%%%%Qq%%%Q
5151A09qQq%%%%%%%%%Qq%%%%%%%%%Qq%%%%%%%%%%%%%%%%%%%%%%%%%%%%%%Qq%%%%%%Qq%%%%
5145A01%%Qq%%%%%Qq%%%%Qq%%%%%%%Qq%%%%%%%%%%%%%%%%%%%%%%%%%%%%%%%%%%%%%%%%%%%
5138A01%%%%%%%%%%%%%%%%%%%%%%%%%%%%%%%%%%%%%%%%%%%%%%%%%%%%%%%%%%%%%%%%%Q%q%
5131A01%%QqqQ%%%%%Qq%%%%%%%%%%%%%%%%%%%%%%%%%%%%%%%%%%%%%%%%%%%%%%%%%%%%%%%%
5125A01%%%%%%%%%%%%%%%%%%%%%%%%%%%%%%%%%%%%%%%%%%%%%%%%%%%%%%%%%%qQQq%%%%%%%
5118A01%%%%%%%%%%%%%%%%%%%%%%%qQ%%%%%%%%%%%%%%%%%%%%%%%%%%%%%%%%%%%%%%%%%%%%
5112A01%%%%%%%%%%%%%%%%%%%Qq%%%%%%%%%%%%%%%%%%%%%%%qQ%%Q%q%%%QqQq%%%%%%%%%%%
5105A01%%%%%%%%%%%qQ%%%%%%%%%%%%%%%%%%%%%%%%%%%%%%%%%%%%%%%%%%%%%%%%%%%%%%%%
5098A01%%%%%%%%%%%%%%%%%%%%%%%%%%%%%%%%%%%%%%%%%%%%%%%%%%%%%%%%%%%%%%%%%%%%%
5092A01%%%%%%%%%%%%%%%%%%%%%%%%%%%%%%%%%%%%%%%%%%%%%%%%%%%%%%%%%%%%%%%%%%%%%
5085A01%%%%%%%%%%%%%%%%%%%%%%%%%%%qQ%%%%%%%%%%%%%%%%%%%%%%%%%%%%%%%%%%%%%%%%
5079A01%%%%%%%%%%%%%%%%%%%%%%%%%%%%%%%%%%%%%%%%%%%%%%%%%%%%%%%%%%%%%%%%%%%%%
5072A01%%%%%%%qQ%%qQ%%%%qQ%%%%%%%%%%%%%%%%%%%%%%%%%%%%%%%%%%%%%%%%%%%%%%%%%%
5066A01%%%%%%%%%%%%%q%Q%%%%%%%%%%%%%%%%qQ%%qQ%%%%%%%%qQq%Q%%qQq%%%Q%qQ%qQ%%j6
5059H5J6q%%QQj6j6QK4q%qK4j6qQqQ%qQ%%%%qQ%%%%qQqQq%%Q%%qQ%qQqQ%%qQ%%%%qQ%%%%%
5053A01%%%%%%%%%qQ%qQ%%%%qQ%q%Q%%%%%%%%%%qQ%qQ%%%%%q%Q%%%qQ%q%Q%%%%qQ%%%%%%%
5046A01qQqQq%Q%qQqQ%qQqQqQ%%%%%qQ%%%%%q%QqQ%%%%%%qQ%%%%%%%qQq%Q%%%%qQ%%%%%%%
5040A01q%%%Qq%%%Qq%%%%Qq%%%%%%%%%QqQqQ%q%Q%%%%%%%%qQ%%%%%%q%%%Qq%QqQ%q%QqQ%%
5033A01%%%q%Q%%qQ%q%QqQ%%%%q%QqQ%%qQ%q%Qq%QqQqQ%%%q%Q%qQ%%qQq%Q%qQ%%qQ%q%Qq%
5027I3%%Q%q%%%%%%Q%qQq%%%%Qq%%Q%%q%%%QqQ%%%%q%%%%%Qq%Qq%%%%Q%%qQ%%qQq%%Q%q%%
5020I3%%%%Qq%%%%QqQqQq%%QqQq%%Qq%Q%q%%%%%%%QqQqQ%%q%%%QqQq%%Q%q%%Qq%%%QqQ%%q
5013I3%Qq%%%%%%Q%q%Qq%%%%%%%Qq%Qq%Q%qQq%%Q%q%%%Q%q%%%Q%q%%QqQq%%%%%Qq%%%%%%%
5007I3%%%%%%%QqQqQq%Q%%%q%QqQq%Qq%%%%%%%%%%%%%%%%%%%%%%%%%Qq%%%QqQ%q%%%%Q%%q
5000I3Qq%%Q%q%%%%%%%%Qq%QqQq%Qq%%%%%%%%%%%Qq%%%%%%%%%%%%%%%Q%q%%%%%%%%%%%%%%
4993I3%%%QqQq%%%%%%%%%%Qq%QqQq%Qq%Qq%%Qq%%%%%%%%%%%%%%%%%%%Qq%%%%%Qq%%%%%%%%
4986I3%Qq%%%%%Q%q%%%%%Qq%%%Qq%%%QqQq%%%%%%%%%%%%%%%%%%%%%%%%%%%Qq%%%%%%%%%%%
4980I3%%%%%%%%%%%%%%%%%%%%%%%%%%%%%%%%%%%%%%%%%%%%%%%%%%%%%%%%%%%%%%%%%%%%%%
4973I3%%%%Qq%%%Qq%%%%%%%%%%%%%%%%%%%%%%%%%%%%%%%%%%%%%%%%%%%%%%%%%%%%%%%%%%%
4966I3%%%%%%%%%%%%%%%%%%%%%%%%%%%%%%%%%%%%%%%%%%%%%%%%%%%%%%%%%qQ%Qqj6J6J6k4
4960H5%J6q%%Q%q%%%Qq%%%%%%%%%%%%%%%%%%%%%%%%%%%%%%%%%%%%%%%%%%%%%%%%%%%%%%%%
4954I3%%%%%%%%%%%%%%%%%%%%%%%%%%%%%%%%%%%%%%%%%%%%%%%%%%%%%%Qq%%%%%%%%%%%%%%
4947I3%%%%%%%%%%%%%%%%%%%%%%%%%%%%%%%%%%%%%%%%%%%%%%%%%%%%%%%%%%%%%%%%%%%%%%
4940I3%%%%%%%%%%%%%%%%%%%%%%%%%%%%%%%%%%%%%qQ%%%%Qq%%%%%%%%%%%%%%%%%%%%%%%%%
4934I3%%%%%%%%%%%%%%%%%%%%%%%%%%%%%%%%%%%%%%%%%%%%%%%%%%%%%%%%%%%%%%%%%%%%%%
4927I3%%%%%%%%%%%%%%%%%%%%%%%%%%%%%qQ%%%%%%%%%%%%%%%%%%%%%%%%%%%%%%%%%%qQ%%%
4920I3%%%%%%%%%%%%%%%%%qQ%%%%%qQ%%%%%%%%%%%%%%%%%%%%%%%%%%%%%%%%%%%%%%%%%%%%
4914I3%%%%qQ%%qQ%%qQ%%%%qJ6j6Q%%%%%%%%%%%%%%%%%qQ%%%%%%%%%%%%%%%%%%%%%%%%%%%
4907I3%%%%%%%%%%%%%%%%%%%%%%%%%%%%%%%%%%%%%%%%%%qQ%%%qQqQ%qQ%%%%%%%%%%%%%%%%
4900I3%%%%%%%%%q%Q%%%%%%%%%%%%%%%qQ%%%%%%qQ%%%%%%%%%%%%%%%%%%%%%%%%%%%%%%%%%
4894I3%%%%%%%%%%%%%%%%qQ%%%%%%%%%%%%qQ%%%%%%%%%qQ%%%%%%%%%%%%%%%%%qQ%%qQ%%Qq
4887I3%%qQqQqQ%%%%%%qQ%%%%q%Q%%q%%QqQ%%%%%%%%%%%%%qQ%%qQ%%%%%%%%%qQ%%%qQ%qQ%
4880I3%%%%%qQ%%%%%%%%%%%%%%qQqQqQ%q%%Q%%%qQ%q%%%%Q%%%%%qQ%%qQ%qJ6j6QqQ%%%%%%
4874I3%%%%qQ%%%%%%q%Q%qQ%q%Q%%%%%%%%%%%%qQ%qQ%%q%Q%q%Q%%q%Q%%qQ%%qQ%%%qQqQ%%
4867I3qQqQq%%%QqQqQ%qQ%%%%%%%qQ%qJ6j6%%Qq%J6q%J6k4%QQqj6K4m8M8j6qJ6%qqL2qq%q
4862H5QqQqJ6j6Q%q%Q%%%%%q%%%%%Q%q%Qq%%%Q%%%%%q%Q%%%%%%qQqQqQ%qQ%%q%%%Q%%%%qQ
4855I3q%%Q%%%%%q%%QqQ%qQ%%%%%%%qQ%q%%Qq%Q%%%qQ%%%%q%%Qq%%%QqQ%qQ%q%Q%q%QqQ%%
4848I3q%Q%%%q%Q%qQ%%qQ%%%%%%%%%%%%q%Q%%%%qQ%q%%Q%%%%%%%%%q%QqQ%%qQ%qQ%q%%%Q%
4842I3q%%%%%%%Q%%q%Q%qQ%%qQqQqQ%q%%%%%Q%q%%%QqQq%%%%%Q%q%%%%Qq%Qq%Q%%%%%%%qQ
4835I3%qQq%%%%Q%%q%%%%Qq%%%%%%Q%%qQq%%%%%%%%%%%%%%%Qq%%%Qq%%Qq%%%%%%%Qq%Q%q%
4828H5%Qq%%%%%%%%Q%q%Qq%%%%Qq%%Q%%q%%%Q%%q%Qq%%%Qq%%%%%%%%%%%%%%%%%%%%%%QqQq
4822H5%Q%q%Q%q%%%%%Qq%%%%%%%%%%%%%%%%%%%%%QqQq%%%%%%%%QqQq%%%%%%%%%%%%%%%%%%
4815H5%%%Q%%%%qQq%J6q%%q%%%%QqQqQq%%%%%%%%%%%%%%%%%Qq%%%%%%Qq%%Qq%%%%%Qq%%%Q
4809I3q%%Qq%%%%%%%Qq%%%QqQq%%%%%%%%%%%%%%Qq%%%%%Qq%%%%%%%%QqQq%Qq%Qq%%%%%%%%
4802H5%%QqQq%%%Qq%%%Qq%%Qq%%%%%%%%%%%Qq%%%%%%%%%%%%%%Qq%%%%%%%%%%%%%%%%Q%q%%
4795H5%%%%Qq%Qq%%%Qq%%QqQqQ%q%Qq%Qq%%%%%%%%%%Qq%%%%%Qq%%%%%%%qQqJ6q%Qq%%%%%%
4789H5%%%%%%Q%q%%%%%%%%%%%%%%%%%%%Qq%%%%%%%%%%%%%%%%%%%Qq%%%Qq%%%%%%%%%%%%%%
4782H5%%%%%%%%%%%%%%%%%%%Qq%%%%%%%%%%%%%%%%%%%%%%%%%Qq%%%%%%%%Qq%%%%%%%Qq%%%
4775H5%%%%%%%%%%%%%%%%%%%%%%%%%%%%%%%%%%%%Qq%%%%%%%%%%%%%%%%%%%%%%%%%%%%%%%%
4769H5%%%%%%%%%%%%%%%%%%%%%%%%%%%%Q%q%%qJ6j6J6%q%%%%%%%%%%%%%%%%%%%%%%%%%%%%
4762H5%%%%%%%%%%%%%%%%%%%%%%%%%%%%%%%%%%%%%%%%%%%%%%%%%%%%%%%%%%%%%%%%%%%%%%
4755H5%%%%%%%%%%%%%%%%%%%%%%%%qQ%%%%%%%%%%%%%%%%%%%%%%%%%%%%%%%%%%%%%%%%%%%%
4749H5%%%%%%%%%%%%%%%%%%%%%%%%%%%%%%%%%%%%%%%%%%%%%%%%%%%%%%%%%%%%%%%%%%%%%%
4742H5%%%%%%%%%%%%%%%%Qq%%%%%%%%%%%%%%%%%%%%%%%%%%%%%%%%%%%%%%%%%%%%%%%%%%%%
4735H5%%%%%%%%%%%%%%%%%%%%%%%%%%%%%%%%%%%%%%%%%%%%%%%%%%%%%%%%%%%%%%%%%Qq%%%
4729H5%%%%%%%%%%%%%%%%%%%%%%%%%%%%%%%%%%%%%%%qQ%%%%%%%%%%%%%%%%%%%%%%%%%%%%%
4722H5%%%%%%%%%%%%%%%%%%%%%%%%%%%%%%%%%%%%%%%%%%%%%%%%%%%%%%%%%%Qj6J6q%qQ%%%
4716H5%%%qQ%%%%%%%%%%%%%%%%%%%%%%%%%%%%%%%%%%%%%%%%%%%%%%%%%%%%%%%%%qQ%%%%%%
4709H5%%%%%%%%%%%%%%%%%%%%%%%%%%%%%%%%%%%%%%%%%%%%%%%%%%qQ%%%%%%%%%%%%%%%%%%
4702H5%%%%%%%%%%%%%%%%%%%%%%%%%%%%%%%%%%%%%%%%%%qQ%%%%%%%%%%%%%%%%%%%%%%%%%%
4696H5%%%%%%%%%%%%%%%%%%%%%%%%%%%%%%%%%%%%%%%%qQq%%Q%%%%%%%%%%%%%%%%%%%%%%%%
4689H5%%%%%%%%%%%%%%%%%%%%%%%%%%%%%%%%%%%%%%%%%%%%%%%%%%%%%%%%%%%%%%%%%%%%%%
4682H5%%%%%%%%%%%%%%%%%%%%%Qq%%%qQ%%%%%%%%%%%%%%%%%%%%%%%%%%%%%%qQ%%%%%%%%%%
4676H5%%%%%%%%%%%%%%%%qQ%%%%%%%%%%%%%%%%%%%%%%%%%%%%%%%%%%%%%%%%%%%%%%%q%Q%%
4669H5%%%qQ%j6QQ%%qqL2j6%q%Q%qqJ6%%%%%%Qq%%qQ%%%%qQ%%%%qQ%qQ%%%%%%%%%%%%%%%%
4663H5%%%%%%%%%%%%%%%%%%%%%%%%%%%%%%%%%%%%%%%%%%%%%%%%%%%%%%%%%%%%%%%%%%%%%%
4656H5%%%%%%%q%Q%%%%%%%%%%%%%%%%%%%%%%%qQ%%%%%qQ%%%%%%%%%%%%%%%%q%Qq%Q%%%%%%
4649H5%%%%%%%%%%%%%%%%%%%%%%%%%%%%%%%%%%%%%%%%%%%%%%%%%%%%%%qQ%%%%%%%q%Qq%%%
4643G7Q%%%%qQ%%%%%%%%q%QqQ%%%%%%%%%%%%%%%%%%%%%%%%%%%%%%%qQ%%%%%%%%%%%%%%qQ%
4636H5%%%%%%%%%%%qQ%%%%%%%%%%%%%%%%%%%%%%%%%%%%%%%%%%%%%qQq%QqQ%%%%%%%%%%%%%
4629H5%%%%%%%%%%%%qQ%qQ%%%%%%%%%%%%%%%%%%%%%qQ%%%%%%%%%%%%%%%%%%%%%%%%%%%%%%
4623H5%%%%%%%%%%%qQqQ%%%%%%%%%qQ%qQ%%q%%Q%qQqQ%Qq%%%qQqQ%%%qQ%%%%%qQ%%%%qQ%%
4616H5%%%%%%%%qQ%%qQ%%qQ%%%%%%qQ%%%%%%%%%qQqQ%%%qQ%qQ%%%qQ%%%%%%%%%%%%%%%%%%
4609H5%%%%%%%%%%%%%%%%%%%%%%%%%%qQqQqQ%%qQ%%%%%%q%Q%%%%%%%%%%%%%%%%%%%%%%%%%
4603H5%%%%%%%%qQ%%qQ%%%%%%%qQ%qQqQ%q%Qq%Q%%%qQ%%%%%%qQ%%%%q%%%%%%%%Qq%%Q%qQ%
4596H5%%q%%Q%qQ%qQq%%Q%%Qj6%%Q%%%q%QqQqQq%%%Q%qQ%%%%q%QqQ%%%%qQ%%%%%%%%%%%%%
4589H5%%%%%%qQ%%qQ%%%%%%%%%%%%%q%Q%q%Q%%q%Q%qQqQ%qQ%q%Q%%%%%%qQ%qQqQ%%%%%%%q
4583G7Q%%%%%qQ%%%%%%%q%Q%%qQ%qQqQqQ%%%%%%q%Q%%qQqQqQ%%q%%%%%%Q%%q%%Q%q%Qq%%%
4576G7%%Q%%qQ%%%%%%%%%%%%%%%%%%qQ%%qQq%%Q%qQ%%qQq%Q%q%Qq%%Q%q%%%QqQqQj6QQ%qQ
4569H5QqqQ%q%Q%%q%%Q%%%%%%%%%%%qQ%qQ%qQqQ%q%%%%%Q%q%%QqQq%%Q%qQ%q%Q%%%q%Q%q%
4563G7Q%%%%q%Q%%q%QqQq%Qq%Q%q%%%%QqQqQ%q%%%Qq%%%%QqQqQ%q%Qq%Q%%%%qQq%Q%%q%Qq
4556G7Q%%%qQqQ%q%Q%qQ%%qQ%%%%%%%%%%qQ%qQ%%%%%%%%%%%qQqQq%%%Q%q%QqQ%%qQ%qQ%%%
4549H5qQqQqQ%q%Q%q%Qq%%%%QqQq%%Qq%%%%Qq%%Q%q%%QqQ%%%q%Q%q%Qq%Q%%%%%q%%Q%qQq%
4543G7%%%%%%%%Q%%qQ%q%%Qq%%Q%qQ%q%%%QqQq%%%%QqQ%qQq%Qq%%%%%%%%%%%%QqQq%%%Qq%
4536G7Qq%QqQq%%%%%%%%%%%%%%%%%%%%%%Q%q%%%%%%%%Qq%%%QqQqQqQq%Qq%%%%%%%%%%%%%%
4529G7%%%%%%%%%%Qq%Q%q%%Qq%%%Qq%%%QqQ%q%Qq%%Qq%Q%q%%%%%%%Q%%%q%%QqQ%q%Q%qQq%
4523G7%Qq%%Q%qQ%%%qQj6J6%q%Q%qQqQqQ%%qQ%%%%q%Qq%Qq%%%%%%%Qq%%%%Qq%%%%%%%%%%%
4516G7%%%Q%%qQq%%%%%%%%%Qq%Qq%QqQq%%%%%%%%%%%%QqQq%%%Q%q%Q%qQqQ%qQqQ%q%QqQ%%
4509H5qQq%%%QqQ%q%%%QqQ%q%%%Qq%%Qq%%%QqQqQqQqQq%%%%Qq%%Q%q%Qq%%%%%%%%Qq%%Q%q
4503G7%%Qq%%%%%%Qq%Q%qQqQ%q%%Qq%%%Q%qQq%%%%%Qq%Qq%%Qq%%Qq%%Q%q%%QqQ%q%%qJ6q%
4496G7%%Qq%%%%%%%%%%%%%%%%%%%%%%Qq%%%%%%%%Qq%%%%%%%%%%Q%%q%%%%Qq%%%%%%%%%%Q%
4490H5q%Qq%Q%%q%%%%%%Q%q%%%%%%Qq%%%%%%%%%%%%%%%%%%%%%%%%QqQqQq%Qq%%%Qq%%%%%%
4483G7%%%%%%%%%%%%%%Qq%%%%%%%%%%%Qq%%Qq%%%Qq%%%%Q%q%Q%q%QqQqQ%q%Qq%%%%%Q%q%%
4476G7%%Qq%%Qq%%%%%%%%Q%q%Q%q%%%Q%qQq%qJ6%qqQ%J6k4K4qqJ6j6%Q%%j6%QQqQqQq%Q%q
4470G7%%Qq%%Qq%%%%QqQq%%%%QqQq%%%%%QqQq%%%%%Qq%QqQq%%%%%%%%%%%%%%Qq%%%%%%%%%
4463G7%%Q%q%%Qq%%%%Qq%%%%%%%%%Qq%%%Qq%%%%%Qq%%%%Qq%%%%%%%%%%%%%%%%%%%%%%%%%%
4457G7%%%%%Qq%%%%%%%%Qq%%%%%%%%%%%%%Qq%%Qq%%%%%%%%%%%%%%%%%%%%%%%%%%Qq%%%%%%
4450G7%%%%%%%%%%%%%%Q%q%%%Qq%%QqQ%q%%%%Qq%%%%%%%%%%%%%%Qq%%Q%q%%%%%%%%%%%%%%
4443G7%%%%%%%%%%%%%%%%%%%%%%%%%%%%%%%%%%%%%%%%%%%%%%%%%%%Qq%%%%%%%%%%%%%%%%%
4437G7%%%%%%%%%%%%%%Qq%%%%%%%%%%%%%%%%%%%%%%%%%%%%%%%%%%%%%%%%%%%%%%%%%%%%%%
4430G7%%%%%%%%%%%%%%%%%%%%%%%%%%%%%%%%%%%%%%%%%%%%%%%%%%%%%%%%%%%%%%%Qq%%%qQ
4423G7%%QqqQQ%qQqQq%%Qq%%%%%%%%%%%%%%%%%%%%%%%%%%%%%%%%%%%%%%%%%%%%%%%%%%%%%
4417G7%%%%%%%Qq%%%%%%%%%%%%%%%%%Qq%%%%%Qq%%%%%%%%%%%Qq%%%%%Qq%Qq%Q%q%%%%Qq%%
4410G7%Qq%QqQq%%%Qq%%%%%%%%%%%%%%%%%%%%%%%%%%%%%%%%%%%%%%%%%%Qq%%%Qq%Qq%%%%%
4403G7%%%%%%%%%%%%%%%%%%%%%%%%%%%%%%%%%%%%%%%%%%%Qq%Qq%%%%%%%%%%Qq%%%%%%%%%%
4397G7%%Qq%%%%%%%%%%%%%%%%%%%%%%%%%%%%%%%%%%%%%qQ%%%%%%%%%%%%%%%%%%%%%%%%%%%
4390G7%%%%%%%%%%%%%%%%%%%%%%%%%%%%%%Qq%%%%%Q%q%%%%%%%%%%%%%%%%%%%%%%%%%%%%%%
4383G7%%%%%%%%%%%%%%%%%%%%%%%%%%Qq%%%%%%%%%%%%%%%%%%%%%%%%%%%%%%%%%%%%%%Qq%%
4377G7%%%%%%%%%%%%%Qq%%Qq%J6j6J6qj6J6qqQ%%%%%%%%%%%%%%%%%%%%%%%%%%%%%%%%%%%%
4370G7%%%%%%%%%%%%%%%%%%%%%%%%%%%%%%%%%%%Qq%%%%%%%%%Qq%%%%%%%%%%%%%%%%%%%%%%
4364G7%%%%%%%%%%%%%%%%%%Qq%%%%%Qq%%%%%%Qq%%%%%%%%%%%%%%%%%%%%%%%%%%%%%%%%%%%
4357G7%%%%%%%%%%%%%%%%%%%%%%%%%%%%%%%%%%%%%%%%%%%%%%%%%%%%%%%%%%%%%%%%%%%Qq%
4350G7qQ%%qQ%%%%%%%%%%%%%%%%%%%%%%%%%%%%%%%%%%%%%%%%%%%%%%%%%%%%%%%%%%%%%%%%
4344G7%%%%%%%%%%%%%%%%%%%%%%%%%%%%%%%%%%%%%%%%%%%%%%%%%%%%%%%%Qq%Qq%%%%%%%%%
4337G7%%%%%%%%%%%%%%%%%%%%%%%%%%%%%%%%%%%%%%%%%%%%%%%%%%%%%%%%%%%%%%%%%%%%%%
4330G7%%%%%%%%%%%%%%%%%%%%%%%%%%%%%%%%%%%%%%%%%%%%%%QqQqQj6Q%Qq%%%%%Q%q%%%%%
4324G7%%%%%%%%%%%%%%%%%%%%%%%%%%%%%%%%%%%%%%%%%Qq%%%%%%%%%%%%%%%%%%%%%%%%%%%
4317G7%%%%%%%%%%%%%%%%%%%%%%%%%%%%%%%%%%Qj6Q%%%%%%%%%%%%%%%%%%%%%%%%%%%%%%%%
4311G7%%%%%%%%%%%%%%%%%%%%%%%%%%%%%%%%%%%%%%%%%%%%%%%%%%%%%%%%%%%%%%%%%%%%%%
4304G7%%%%%%%%%%%%%%%%%%%%%%%%%Qq%%%%%%%%%%%%%%%%%%%%%%%%%%%%%%%%%%%%%%%%%%%
4297G7%%%%%%%%%%%%%%%%%%%%%%%qQ%%%%%%%%%%%%%%%%%%%%%%%%%%%%%%%%%%%%%%%%%%%%%
4291G7%%%%%%%%%%%%%Qj6%Q%%%%%%%%%%%%%%%%%%%%%%%%%%%%%%%%%%%%%%%%%%%%%%%%%%%%
4284G7%%%%%Qq%%%%%%%%%%%%%%%%%%%%%%%%%%%%%%%%%%%%%%%%%%%%%%%%%%%%%qJ6qQq%j6J6
4278G7Q%q%%Qql2J6Q%QQq%%%%QqQq%%%%%%%%%%%%%%%%%%%%%%qQ%%%%%%%%%%%%%%%%%%%%%%
4271G7%%%Qq%%%%%%%%%%%%%%%%%%%%%%%%%%%%%%%%%%%%%%%%%%%%%%%%%%%%%%%%%%%%%%%Qq
4264G7%%%%%%%%%%%%%%%%%%%%%%%%%%%%%%%%%%%%%%%%%%%%%%%%%%%%%%%%%%%%%%%%%%%%%%
4258G7%%%%%%%%%%%%%%%%%%%%%%%%%%%%%%%%%%%%%%%%%%%%%%%%%qQqJ6qqQ%%%%%Qq%%%%%%
4251G7%%%%%%%%%%%%%%%%%%%%%%%%%%%%%%%%%%%%%%%%%%%%%%%%%%%%%%%%%%%%%%%%%%%%%%
4244G7%%%%%%%%%%%%%%%%%%%%%%%%%%%%%%%%%%%%%%%%%%%%Qq%%%%%%%%%%%%%%%%%%%%%%%%
4238G7%%%%%%%%%%%%%%%%%%%%%%%%%%%%%%%%%%%%%%%%%%%%%%%%%%%%%%%%%%%%%%%%%%%%%%
4231G7%%%%%%%%%%%%%%%%%%%%%%%Qq%%%%%%qQqQ%%qQ%%%%%%%%%%%%%%%%%%%%%%%%%%%%%%%
4224G7%%%%%%%%%%%%%%%%%%%%%%%qQ%%%%%%%%%%%%%%%%%%%%%%%%%%%%%%%%%%%%%%%%%%%%%
4218G7%%%%%%%%%%%%%%%%%%%%%%%%%%%%%%%%%%%%%%%%%%%%%%%%%%%%%%%%%%%%%%%%%%%%%%
4211G7%%%%%%%%%%%%%%%%%%%%%%%%%%%%%%%%%%%%%%%%%%%%%%%%%%%%%%%%%%%%%%%%%%%%%%
4204G7%%%%%%Qq%qQ%%%%%%%%%%%%%%%%%%%%%%%%%%%%%%%%%%%%%%%%%%%%%%%%%%%%%%qQ%%%
4198G7%%%%%%%%%%%%%%%%%%%%%%%%%%%%%%%%%%%%%%%%%%%%%%%%%%%%%%%%%%%%%qQ%%%%%%%
4191G7%%%%%%%%%%%%%%%%%%%%%%%%%%%%%%%%%%%%%%%%%%%%%%%%%%%%%qQ%%%%%qQ%%%%%%%%
4184G7%%%%%%%%%%%%%%%%%%%%%%%%%%%%%%%%%%%%%%%qQ%%%%%Q%q%%%qQ%qJ6q%qQ%Qq%%%%%
4178G7%%%qQ%%%%%%%%%%%%%%%%%%%%%%%%%%%%%%%%%%%%%%%%%%%%%%%%%%%%%%%%%%%%%%%%%
4171G7%%%%%%%%%%%%%%%%%%%%%%%%%%%%%%%%%%%%%%%%%%%%%Qq%%%%%%%%%%%%%%%%%%%%%%%
4164G7%%%%%%%%%%%%%%%%%%%%%%%%%%%%%%%%%%%%%%%%%%%%%%%%%%%%%%%%%%%%%%%%%%%%%%
4158G7%%%%%%%%%%%%%%%%%%%%%%%%%%%%%%Qq%%%%%%%%%%%%%%%%%%%%%%%%%%%%%%%%%%%%%%
4151G7%%%%%%%%%%%%%%%%%%%%%%%%%%%%%%%%%%%%%%%%%%%%%%%%%%%%%%%%%%%%%%%%%%%%%%
4144G7%%%%%%%%%%%%%%%%%%%%%%%%%%%%%%%%%%%%%%%%%%%%%%%%%%%%%%%%%%%%%%%%%%%%%%
4138G7%%%%%%%%%%%%qQ%%%%%%%%%%%%%%%%%%%%%%%%%%%%%%%%%%%%%%%%%%%%%%%%%%%%%%%%
4131G7%%%%q%Q%%%%%%%%Qq%%%%%%%%%%%%%%%%%%%%%%%%%%%%%%%%%%%%%%%%%%%%%%%%%%%%%
4124G7%%%%%%%%%%%%%%%%%%%%%%%%%%%%%%%%%%%%%%%%%%%%%%%%%%%%%%%%%%%%%%%%Qj6Q%%
4118G7%%%%%%%%%%%%%%%%%%%%%%%%%%%%%%%%%%%%%%%%%%%%%%%%%%%%%%%%%%%%%%%%%%%%%%
4111G7%%%%%%%%%%%%%%%%%%%%%%%%%%%%%%%%%%%%%%%%%%%%%%%%%%%%%%%%%qQ%%%%%%%%%%%
4104G7%%%%%%%%%%%%%%%%%%%%%%%%%%%%%%%%%%%%%%%%%%%%%%%%%%%qQ%%%%%%%%%%%%%%%%%
4098G7%%%%%%%%%%%%%%%%%%%%%%%%%%%%%%%%%%%%%%%%Qq%qQ%%qQ%%%%%%%%%%%%%%%%%%%%%
4091G7%%%%%%%%%%%%%%%%%%%%%%%%%%%%%%%%%%%%%%qQ%%%%%%%%qQ%%%%%%qJ6qQq%%%%%%%%
4084G7Qq%%QqqQ%%qQj6J6j6J6Qj6J6k4QqK4j6%K4qJ6n6P2m8p2N6P2k4qj6Qq%QqJ6k4%Q%qQ
4080G7%qJ6qQ%q%%%%%%q%Q%Qq%%qQ%%%%%%%%%%%%%%%%%%qQ%%%%%%%%%%%%%%%%%%%%%%%%%%
4073G7%%%%%%%%%%%%%%%%%%%%%%%%%%%%%%%%%%%%%%%%%%qQ%%%%%%%%%%%%%%%%%%%%%%%%%%
4067G7%%%%%%%%%%%%%%%%%%%%%%%%%%%%%%%%%%%%%%%%%%%%%%%%%%%%%%%%%%%%%%%%%%%%%%
4060G7%%%%%%%%%%%%%%%%%%%%%%%%%%%%qQ%%%%%%%%%%%%%%%%%%%%%%%%%%%%%%%%%%%%%%%%
4053G7%%%%%%%%%%%%%%%%%%%%%%%%%%qQ%%%%%%%%%%%%%%%%%%%%%%%%%%%%%%%%%%%%%%%%%%
4047G7%%%%%%%%%%%%%%%%%%%%%%%%%%%%%%%%%%%%%%%%%%%%%%%%%%%%%%%%%%%%%%%%%%%%%%
4040G7%%%%%%%%%%%%%%%%%%%%%%%%%%%%%%%%%%%%%%%%%%%%%%%%%%%%%%%%%%%%%%%%%%Qq%%
4033G7%Q%q%Qq%Qq%%%%%%%%%%%%%%%%%%%%%%%%%%%%%%%%%%%%%%%%%%%%%%%%%%%%%%%%%%%%
4027G7%%%%%%%%%%%%%%%%%%%%%%%%%%%%%%%%%%%%%%%%%%%%%%%%%%%%%%%%%%%%%qQ%%%%%%%
4020G7%%%%%%%%%%%%%%%%%%%%%%%%%%%%%%%%%%%%%%%%%%%%%%%%%%%%%%qQq%Q%%%%qQ%%%%%
4013G7%%%%%%%%%%%%%%%%%%%%%%%%%%%%%%%%%%%%%%%%%%%%%%qQ%%%%%%%%%%%%%%%%%%%%%%
4006G7%%%%%%%%%%%%%%%%%%%%%%%%%%%%%%%%%%%%%%%%qQ%%%%%%%%%%%%%%%%%%%%%%%%%%%%
4000G7%%%%%%%%%%%%%%%%%%%%%%%%%%%%%%qQ%%%%%%qQqQ%%%%%%%%%%%%%%%%%%%%%%%%%qQ%
3993G7%%%%%%%%%%%%%%%%%%%%%%%%%%%%%%%%%%%%%%%%%%%%%%%%%%%%%%%%%%%%%%%%%%%%%%
3986G7%%%%%%%%qQ%%%%%%%%%%qQ%%qJ6j6Q%%Qq%%%%%%%%%%Qq%%%%%%%%%%%%%%%%%%%%%%%%
3980G7%%%%%%%%%%%%%%%%%%%%%%%%%%%%%%%%qQ%%%%%%%%%%%%%%%%%%%%%%%%%%%%%%%%%%%%
3973G7%%%%%%%%%%%%%%qQ%%%%%%%%%%%%%%%%%%%%%%%%%%%%%%%%%%%%%%%%%%%%%%%%%%%%%%
3967G7%%%%%%%%%%%qQ%%%%%%%%%%%%%%%%%%%%%%%%%%%%%%%%%%%%%%%%%%%%%%%%%%%%%%%%%
3960G7%%QqqQ%%%%%Qq%%%%%%%%%%%%%%%%%%%%%%%%%%%%%%%%%%%%%%%%%%%%%%%%%%%%%%%%%
3953G7%%%%%%%%%%%%%%%%%%%%%%%%%%%%%%%%%%%%%%%%%%%%%%%%%%%%%%%%%%%%%%%%%%%%%%
3947G7%%%%%%%%%%%%%%%%%%%%%%%%%%%%%%%%%%%%%%%%%%%%%%%%%%%%%qQ%%qQ%%%%%%%%%%%
3940G7%%%%%%%%%%%%%%%%%%%%%%%%%%%%%%%%%%%%%qQ%%%%%%%%%%qQ%%qQ%%%%%%%%%%%%%%%
3933G7%%%%%%%%%%%%%%%%%%%%%%%%%%%%%%%%%%%%%%%%%%%%%%%%%%%%%%%%%%%%%%%%%%%%%%
3927G7%%%%%%%%%%%%%%%%%%%%%%%%%%%%%%%%%%%%%%%%%%%%%%%%%%%%%%%%%%%%%%%%%%%%%%
3920G7%%%%%%%%%%%%%%%%%%%%%%%%%%%%%%%%%%%%%%%%%%%%%%%%%%%%%%%%%%%%%%%%%%%%%%
3913G7%%%%%%%%%%%%%%%%%%%%%%%%QqqQQq%%%%%%%%%%%%%%%%%%%%%%%%%%%%%%%%%%%%%%%%
3907G7%%%%%%%%%%%%%%%%%%%%%%%%%%%%%%%%%%%%%%%%%%%%%%%%%%%%%%%%%%%%%%%%%%%%%%
3900G7%%%%%%Qq%%%%%qQ%%%%%%%%%%%%%%%%%%%%%%%%%%%%%%%%%%%%%%%%%%%%%%%%%%%%%%%
3893G7%%%%%%%%%%%%%%%%%%%%%%%%%%%%%%%%%%%%%%%%%%%%%%%%%%%%%%%%q%Q%qQ%Qq%%%qJ6
3887H5qq%Q%qQQ%qJ6j6%%qQ%%%%%%%%%%%%%%Qq%%%%%%%%%%%%%%%%%%%%%%%%%%%%%%%%%Qq%
3880G7%%%%%%%%%%%%%%%%%%%%%%%%%%%%%Qq%%%%%%%%%%%%%%%%%%%%%%%%%%%%%%%%%%%%%%%
3873G7%%%%%%%%%%%%%%%%%%%%%%%%%%%%%%%%%%%%%%%%%%%%%%%%%%%%%%Qq%%%%%%Qq%%%%%%
3867G7%%%%%%%%%%%%%%%%%%%%%%%%%%%%%%%%%%%%%%%%%%%%%%%%%%%%qQ%Qq%%%%%%%%%%%%%
3860G7%%%%%%%%%%%%%%%%%%%%%%%%%%%%%%%%%%%%%%%%%%%%%%%%%%%%%%%%%%%%%%%%%%%%%%
3853G7%%%%%%%%%%%%%%%%%%%%%%%%%%%%%%%%%%%%%%%%%%%%%%%%%%%%%%%%%%%%%%%%%%%%%%
3847G7%%%%%%%%%%%%%%%%%%%%%%%%%%%%%%%%%%%%%%%%%%%%%%%%%%%%%%%%%%%%%%%%%%%%%%
3840G7%%%%%%%%%%%%%%%%%%%%%%qQ%%%%%Qq%%%%%%%%%%%%%%%%%%%%%%%%%%%Qq%%%%%%%%%%
3833G7%%%%%%%%%%%%%%%%%%%%%%%%%%%%%%%%%%%%%%%%%%%%%%%%%%%%%%%%%%%%%%%%%%%%%%
3827G7%%%%%%%%%%%%%Q%%q%%%%%%%%%%%%%%%%%%%%%%%%%%%%%%%%%%%%%%%%%%%%%%%%%%%%%
3820G7%%%%%Qq%%%%%%Qq%%%%%%%%%%%%%%%%%%%%%%%%%%%%%%%%%%%%%%%%%%%%%%%%%%%%%%%
3813G7qQ%qQ%%%%%%%%%%%%%%%%%%%%%%%%%%%%%%%%%%%%%%%%%%%%%%%%%%%%%%%%%%%%%%%%%
3807G7%Qq%%%%%%%%%%%%%%%%%%%%%%%%%%%%%%%%%%%%%%%%%%%%%%%%%%%%%%%%%%%%Qq%%%%%
3800G7%%%%%%%%%%%%%%%%%%%%%%%%%%%%%%%%%%%%%%%%%%%%%%%%%%%%%%%%%%%%%%%%%%%%%%
3793G7%%%%%%%%%%%%%Qq%%%%%%%%%%Qq%%%%%%%%%%%%%%%%%%%Q%%%q%%%QqqQ%Qq%%%%%%%%%
3787G7%%%Qq%%%%%%%%%%%%%%%%%%%%%%%%%%%%%%%%%%%%%%%%%%%%%Qq%%%%%%%%%%%%%%%%%%
3780G7%%%%%%%%%%%%%%%%%%%%%%%%%%%%%%%%%%Q%q%Qq%%%%%%%%%%%%%%%%%%%%%%%%%%%%%%
3773G7%%%%%%%%%%%%%%%%%%%%%%%%%%%%%%%%%%%%%%%%%%%%%%%%%%%%%%%%%%Qq%%%%%%%%%%
3767G7%%%%%%%%%%%%%%%%%qQ%%Qq%Qq%%%%%Qq%%%%%%%%%%%%%%%%%%%%%Qq%%%%%%%%%%%%%%
3760G7%%%%%Qq%Qq%%%%%%%%%%%%%%%%%%%%%%%%%%%%%%%%%%%%%%%%%%%%%%%%%%%%%%%%%%%%
3753G7%%%%%%%%%%Qj6Q%%%%%%%%%%%%%%%%%Q%qQq%%%%%%%%%%%%%%%%%%%%%%%%%%%%%%%%%%
3747G7%%%Qq%%%%%%%QqQq%%%%%%%%%%%%%%%%%%%%%%%%%%%%%%%%%%%%%%%%%%%%%%Qq%Qq%qQ
3740G7qQ%qQ%%%%%%%%%%%%%%%%%%%%%%%%%%%%%%%%%%%%%%%%%%%%%%%%%%%%%%Qq%%%%%%Qq%
3733G7%%%%%%%%%%%Qq%%Qq%%%%Qq%%%%%%%%%%%%%%%%%%%%Qq%%%%%Qq%%%%%%Qq%Qq%%%%%%%
3727G7%%%%%%%%%%%%%%%%%%%%%%Qq%%%%%%%%%%%%%%%%%%%%%%%%%%%%%%%%%%%%%%%%%%%%%%
3720G7%%%%%%%%%%%%%%%%%%%%%%%%%%%%%%%%%%%%%%%%%%Qq%QqQ%q%%QqQq%QqQq%Qq%%%%%%
3713G7%%%%%%%%%%%%%%%%%%Qq%%%%%%%%%%%%%%%%%%Qq%%%%%%%%%%%%%Qq%%%%%%%%Q%q%%%%
3707G7%Qq%%Qq%%%%%%Qq%%%%%%%%%%%%%%%%%%%%%%%Qq%Qq%%%Qq%%%%%%%%%%%%%%%%%%%%%%
3700G7%%%%%Qq%%%%%%%%%%%%%%%%%%%%%%%%%%%%%%%%Qq%%Qq%%%%%%%%QqQq%%%%%Q%q%%%%%
3693G7Qq%%%Q%q%%%%%J6j6%Q%qJ6qqqQJ6j6Qq%%%Q%%q%%%%%Qq%%%Q%%qQqQqQqQ%q%%%%%%%
3687G7%%Q%q%%%Qq%%%%%%%%%%%%%%%%%%%%%%%%%%%%%%%%%%%QqQq%%Qq%%%%%Qq%%%%%%%Q%q
3680G7%%%%%%%%%%%Qq%%%%%%%%%%%%%%%%%%%%%%%%%%%Qq%%%%Qq%%Q%%q%%%%Qq%%%%Qq%%Qq
3674G7Q%%q%%%Qq%%QqQq%%QqQq%%%%%%%%%%Qq%%%%%%%%%%Q%%q%%%%%%Qq%%%QqQ%q%%Q%q%Q
3667H5%%qQ%qQq%Qq%%%Q%%q%%%QqQqQq%%%%%%%%%%%%%Qq%%QqQq%%%%%%%%%Qq%Qq%%%%Qq%Q
3660H5%qQ%q%%%Q%qQqQq%Q%%q%Q%q%%Q%qQ%q%Q%%q%%Qq%%%%%%%%%Qq%%%%Q%qQqQ%qQ%q%%%
3654G7Q%q%%Q%%%qQq%Q%%%q%QqQqQq%QqQq%%Qq%Qq%%%%%%%%%%%%Qq%%Qq%%%%%Q%q%%%%%%Q
3647H5q%%%%%%Qq%Qq%%Q%%q%Q%q%%%Qq%%%Qq%Q%qQ%%qQqQ%q%%%%%QqQqQ%%%%%%q%Q%%qQ%%
3640H5qQq%%%%QqQqQ%%q%%%%%%Qq%%%Qq%Qq%QqQ%%q%%%%%QqQq%%%%%%Qq%Q%q%%Qq%%%%%%%
3634G7%%%Qq%%%QqQ%qQq%%%Qq%Q%%qQq%%%Qq%%%%Qq%%QqQqQq%%%%%%%%%%%%%%Q%%q%%%%%%
3627G7%%%%%%%QqQ%%q%%Q%%qQq%%%%Q%qQ%%%q%%%%%%%Q%q%%Qq%%%%%%Qq%%%%%%%%%%%Q%%%
3620H5qQq%QqQq%Q%%q%Qq%QqQq%QqQ%Qq%%%q%Q%%q%%%%%Q%qQ%%%qQq%Qq%%%Q%%qQq%%%%Qq
3614G7QqQq%Q%qQq%%Qq%Qq%Q%qQ%%q%Qq%Qq%QqQ%%%%%%qQq%Q%%qQq%%%%%Qq%%Q%%%qQq%Q%
3607H5qQq%QqQ%qQqQqQq%Q%q%%Qq%%%%%%Qq%%%Qq%Q%%qQ%%q%Q%%%q%%Q%%qQ%%%%%q%Q%%%%
3600H5%%%q%%Qq%%Qq%Qq%%%Qq%%%%Q%q%%Q%%%%%%%%%qQ%%%%qQ%%%%%%q%Q%qQqQ%%%q%%Q%%
3594H5%Qj6j6K4%q%%%qJ6qQqQq%Q%q%%%%%%%Q%%%qQqQ%%%%qQ%%qQ%%qQ%%%%%qQ%q%Q%qQq%
3587G7QqQ%%%q%%%%%%%%%%Q%%q%QqQ%q%%%%%Q%qQq%Q%qQq%%%Qq%Qq%QqQ%%%%qQ%qQ%qQ%qQ
3581H5qQqQ%%qQ%%%%%%qQ%q%Q%q%%%QqQ%%qQ%q%Qq%Q%q%Q%%%%qQ%q%Q%qQ%qQqQ%%%%%q%Q%
3574H5%%%%%%%%%%%%%%%%%%%%qQ%%%%%%%%%%%q%Q%qQqQq%%Q%q%%Q%%q%Qq%QqQqQq%Q%%%qQ
3567H5%%%%%%%%qQ%%%%qQ%%%%%%%%%%%%%%qQ%qQqQ%%%qQq%Qq%Q%%%%%%%%qQ%%%%%%%%%%%%
3561H5%%%%%%%%%%%%%%qQ%%%%%%%%%%%%%%%%%qQ%%%%qQqQqQ%%%qQ%%%%qQqQ%%%%qQq%%%Qq
3554G7%%Q%%%qQ%%%%%%%qQ%%%q%%Q%qQ%%%%%%%q%Q%%%%%%%%%%%qQ%qQq%QqQ%%qQ%%qQ%%%%
3547H5%q%Q%%%q%%Q%%%qQq%%Q%%%%%qQQj6J6q%%%%qQ%qQ%%%%qQ%%%%%%%%%%%%%%%%%%%%%%
3541H5%%%%%%%%%%%%%%%%%%%%%%%%%%%%%%%%%%%%%%%%%%%%%%%%%%%qQ%%%%%%%%%%%%%%%%%
3534H5%%%%%%%%%%%%%%%%%%qQ%%qQ%%%%%%%qQ%%%%%%%%%%%%%%qQqQ%%%%%%qQ%%%%%%%%%%%
3527H5%%%%%%%%%%%%qQqQ%%%%%%%%%%%%%%%%%%qQ%%%%%%%%%%%%%qQ%%%%%%%%%%%%%%%%%%%
3521H5%%%%%q%QqQqQ%%%%%%%%%%%%%%%%%%%%%%%%%%%%%%%%%%%%%%%%%%%%%%%%%%%%%%%%%%
3514H5%%%%%%%%qQ%%%%qQ%%%%%%%%%%%%%%%%%%%%%%%%%%%%%%%%%%%%%%%%%%%%qQ%qQ%q%%Q
3507H5%%qQ%qQ%%%%%%%%%%%%%%%%%%%%%%%%%%%%%%%%%%%%%%%%%%%%%%%%%%%%%%%%%%%%%%%
3501H5%%%%%%%%%%%%%%%%%%%%%%%%%%%%%%%%%%%qQQq%qQ%%q%Q%%q%QqK4%qqqQQq%%%%%%q%
3494G7%Q%%%%%qQqQ%%%%%%%%%%%%%%%%%%%%%%%%%%%%%%%%%%%%%%%%%qQ%%%%%%%%%%%%%qQ%
3487H5%%%%%%%%%qQ%%%%%%%%%%%%%%%%%%%%%qQ%%%%%%%%%%%%%%%%%%%%%%%%%%%%%%%%%%%%
3481H5%%%%%%%%%%%%%%%%%%%%%%%%%%%%%%%%%%%%%%%%%%%%%%%%%%%%%%%%%%%%%%%%%%%%%%
3474H5%%%%%%%%%%%%%%%%%%%%%%%%%%%%%%Qj6%Q%%%%%%%%%%%%%%%%%%%%%%%%%%%%%%%%%%%
3467H5%%%%%%%%%%%%%%%%%%%%%%qQ%%%%%%%%%%%%%%%%%%%%%%%%%%%%%%%%%%%%%%%%%%%%%%
3461H5%%%%%%%%%%%%%%%%%%%%%%%%%%%%%%%%%qQ%%%%%%%%%%%%%%%%%%%%%%%%%%%%%%%%%%%
3454H5%%%%%%%%%%%%%%%%%%%%%%%%%%%%%%%%%%%%%%%%%%%%%%%%%qQ%%%%%%%%%%%%%%%%%%%
3447H5%qQ%%%%%%qQ%%%%%%%%qQ%%%%%%%%%%%%%%%%%%%%%%%%%%%%%%%%%%%%%%%%%%%%%%%%%
3441H5%%%%%%%%%%%%%%%%%%%%%%%%%%%%%%%%%%%%%%%%%%%%%%%%%%%%%%%%%%%%%%%%%%%%%%
3434H5%%%%%%%%%%%%%%%%%%%%%%%%%%%%%%%%%%%%%%%%%%%%%%%%%%%%%%%%%%%%%%%%%%%%%%
3427H5%%%%%%%%%%%%%%%%%%%%%%%%%%%%%%%%%%%%%%%%%%%%%%%%%%Qq%%%%%%%%%%%%%%%%%%
3421H5%%%%%%%%%%%%%%%%%%%%%%%%%%%%%%%%%%%%%%%%%%%%%%%%%Qq%%%%%%%%%%%%%%%%%%%
3414H5%%%%%%%%%%%%%%%%%%%%%%%%%%QqQq%%%%%%%%%%%%Qq%%%%%%%%%%%%%%%%%%%%%%%%%%
3407H5%%%%%%%%%%%%%%%%%%%%%%%%%%%%%Q%q%Q%q%%%%%%%%%%%%%%%%%%%%%%%%%%%%%%%%%%
3401H5%%%%%%%%%%%QqQq%%%%%%Q%qqQ%%qK4j6%%Qj6J6q%%%%%%%%%%%%%%%%%%%%%%%%%%%%%
3394H5%%%%%%%%%%%%%%%%Qq%%Qq%%%%%%%%%%%%%%%%%%%%%%%%%%%%%%%%%%%%%%%%%%Qq%%%%
3388H5%%%%%Qq%%%%%%Qq%%%Qq%%%%%%%%%%%%%%Q%q%%%%%%%%%%%%Qq%%%%%%%%%%%%%%%%%%%
3381H5%%%%Qq%%%%%%%%%%%%%%%%%%%%%%%%%%%%%%%%Q%q%%%%%%%%%%%%%%%%%Qq%%%Q%q%%%%
3374H5%%%%%%%qJ6%q%QqQq%%%%Qq%%%Qq%%%%%%%%%%%%%Qq%%Qq%%%%Qq%%%%%%%%Qq%%%%%%%
3368H5%%%%%%%%%%%%%%%%%%%%%%%%%%%%%%%%%%%%%%%%%%%%%%%%%%%%%%Qq%%%QqQq%%%%%%%
3361H5%%%%%%%%%%%%%%%%%%%%%%%%%%%%%%Qq%%%%%%%%%%%%%%%Q%q%%Qq%%Qq%%%%%%%%%Q%%
3354I3q%%%%%Q%qQ%%q%QqQ%q%%%Qq%Qq%%%%QqQ%%q%%%%%QqQq%%QqQqQqqQQqQ%q%Qq%%%Qq%
3348H5%Qq%%Qq%%%Qq%%%%%Qq%%%%%%%%%%%%%%%%%QqQq%%%%Q%%q%%%%%%%%%%QqQqQq%%%Qq%
3341H5%%%%%%%%%%%%%%%%%%%%%Qq%%%%%Qq%%%%%%QqQ%qQq%%%%%Qq%%%%%%%%%%%%%%%QqQ%q
3334H5%%%Q%q%%QqQ%qQ%qQ%q%%Qq%%Qq%%%%%Qq%%Qq%%%%%%%%%%%%%%%%Qq%%Q%%%q%%%%Q%%
3328I3%%%%%%%qQ%q%Qq%%%%%%%%%%Q%%qQq%%%%%%%%Qq%Qq%%Q%%%%q%Q%%%q%Q%q%Q%%%qQ%q
3321H5%%Q%q%%%%QqQqQ%%%%%%%%%qQ%qQ%q%%%%%%Q%%%%%%%%%qQqQ%%%%qQ%%qQq%%Q%qQ%q%
3314H5Q%%qQq%%%%Qq%QqQqQqQq%%%Q%qQq%%QqQqQqQ%qQ%%%q%Qq%%%Qq%Q%%%qQ%qQqQ%qQ%q
3308H5%Q%q%Qq%%Q%q%Q%%qQ%%%%q%%%Q%%%%qQ%%%%%q%Q%q%%Q%q%QqQq%Q%%q%%QQqq%%%Q%j6
3301G7J6q%%J6m0L2qQ%qj6K4%%qQj6J6q%%%J6j6QqQqQ%q%%%%Q%%%%%%%%%q%%%%Q%qQ%%%%%
3295I3%qQ%q%QqQ%qQ%%qQ%q%Q%qQ%q%%%Q%q%%QqQ%%qQ%%%q%QqQ%%%%%%%%qQ%%%%%%qQ%%q%
3289H5Q%%%%%%%%qQqQqQ%%%%%%%%%%%%%%qQ%%qQq%Qq%Q%%%%%qQ%qQ%%%%qQ%%qQ%%qQqQ%%%
3282I3%%%%qQ%%%%qQ%%%qQ%%qQq%Q%%%%%%%%q%%%%%%QqQ%qQq%Qq%Q%%%%%%%%%%%%%%qQ%%q
3275H5Qq%%Qq%%Q%%%%%qQ%qQ%qQ%%qQ%%%qQqQ%%%%%%%%%%%%%%%%%%%%%%qQ%%%%%%%%%%%%%
3269I3%%%%%%%%%%%%qQ%%%%%%%%%%%%%%%%%%%%%%%%%%%%%%%q%Q%%QqqQ%%%%%%%%%%%%%%%%
3262I3%%%%%%%%%%%%%qQ%%%%%%%%%%%%%%qQ%%%%%%%%%%%%%%%%%qQq%Q%%%%%%%%%%%%%%%%%
3255I3%%%%%%%%%%%%%%%%%%%%%%%%%qQqQ%%%%%%%qQ%%qQ%%%%%%%%qQqQ%%qQ%%%%%%%%%%%%
3249I3%%%%%%%%%%%%%%%%%%%%%%%%%%%%%%%%qQ%%%%%%%%%%%%%%%%%%%%%qQ%%%%%%%%%%%%%
3242I3%%%%%%%%%%%%%%%%%%%%%%%%%%%%qQqQ%%%%%%%%%%%%%%%%%%%%%%%%%%%%%%%%%%%%%%
3235I3%%%%%%%%%%%%%%%%%%%%%%%%%%%%%%%%%%%%%%%%%%%%%%%%%%%%%%%%%%%%%%%%%%%%%%
3229I3%%%%%%%%%%%%Q%q%%%Qq%%%%%%%%%%%%%%%%%%%%%%%%%%%%%%%%%%%%%%%%%%%%%%%%%%
3222I3%%%%%%%%%%%%%%%%%%%%%%%%%%%%%%%%%%%%%%%%%%%%%%%%%%%%%%%%%%%%%%%%%%%%%%
3215I3%%%%%%%%%%%%%%%%%%%%%%%%%%%%%%%%%%%%%%%%%%%%%%%%%%%%%%%%%%%%%%%%%%%%%%
3209I3%%%%%%%%%%%%%%%%%%%%%%%%%%%%%%%%%%%%%%%%%%%%%%%%%%%%Qq%%%%%%%q%%%Q%%Qq
3202I3%%%%%%%%%%%%%%%%%%%%%%%%%%%%%%%%%%%%%%%%%%%%%%%%%%%%%%%%%%%%%%%%%%%%%%
3195I3%%%%%%%%%%%%%%%%%%%%%%%%%%%%%%%%%%%%%%%%%%%%%%%%%%%%%%%%%%%%%%%%%%%%%%
3189I3%%%%%%%%%%%%%%%%%%%%%%%%%%%%%%%%%%%%%%%%Qq%%%%%%%%%%%%%%%Qq%%%%%%%%%%%
3182I3%%%%%%%%%%%%%%%%%%%%%Qq%%%%%Qq%Qq%%%Q%q%%%%Q%%%q%Qq%%%%%%%%Qq%Qq%%%%%%
3175I3%%%%Qq%%%Qq%%%%%%%Qq%%%%Qq%%%%%%%%%%%%%%%%%%%%%%%%%%%%%%%%Qq%%%%%%%%%%
3168I3%%%%%%%%%%%%%%%%%%%%%Qq%%%%%Qq%%%%%%%%%Qq%%%%%%%%%Qq%%%%%Q%%qQq%%%%%%%
3162I3%%%%%%%%%%%Q%q%%%%%%%QqQq%%%%QqQ%q%%Q%qQ%%%%qQqQqQqQqQ%%q%%%%%%%%%%%%%
3155I3%%%Qq%%%%%Q%qqJ6q%%Qq%%%%%Qq%%%%Qq%%%%%%%%%Qq%%Q%q%QqQ%qQqQq%%%Qq%QqQq
3149I3QqQq%%%Q%qQ%%qQqQ%qQq%%%%%%%%%%%%%%%Qq%%%%%Qq%%%%Qq%%%Qq%%%%%%Qq%Q%%qQ
3142A01q%QqQqQq%%%%QqQ%qQ%%q%QqQq%%%%%%Qq%%%%%%%%%%Qq%%%%%Q%%q%%%%Qq%Qq%%QqQ
3135A01%q%Q%%q%%Q%%qQqQ%qQ%qQ%%q%%%QqQqQ%q%%Q%q%%%%QqQq%Qq%Q%%qQ%%%%%%Qqq%%%
3129I3%Qq%QqQ%%%%q%Q%%qQqQ%qQ%%%%qQqQ%qQ%q%Q%%qQ%%%%%%qQ%%%q%Q%q%Q%q%Q%%q%Q%
3122A01%q%Q%q%Qq%Q%%%%%%qQ%%%qQ%%%%%%%%%%%qQqQ%%%%qQ%%%qQq%Qq%Q%q%Q%qQqQ%%%%
3115A01%%q%Q%%%%%qQ%%%qQ%qQ%%q%Q%qQqQqQ%qQ%%%%qQq%%QqQ%%%%%%%%%%%qQ%%%qQ%%%%
3109A01%%%%%%q%Q%%%%qQ%%%%q%Qq%Q%%%%q%QqJ6j6%Q%J6l2%J6q%Q%%j6J6qQ%%%q%%QqQ%%
3103A01%%q%QqQ%q%Q%%%%%%qQ%%%%%%%%%%%%%%%%%%%%%qQqQ%%%%%%%%%%%%%%%%%%%%%%%%%
3096A01%%%%%%%%%%%%%%%%%%%%%%%%qQ%%qQ%%%%q%%Q%%%%%%%%%%%%%%%%%%%%%%%%%%%%%%%
3090A01%%%%%%%%%%%%%%%%%%%%%%%%%%%%%%%%%%%%%%%%%%%%%%%%%%%%%%%%%%%%%%%%%%%%%
3083A01%%%%%%%%%%%%%%%%%%%%%%%qQ%%%%%%%%%%%%%%%%%%%%%%%%%%%%%%%%%%%%%%%%%%%%
3077A01%%%%%%%%%%%%%%%%%%%%%%%%%%%%%%%%%%%%%%%%%%%%%%%%%%%%%%%%%%%%%%%%%%%%%
3070A01%%%%%%%%%%%%%%%%%%%%%%%%%%%%%%%%%%%%%%%%%%%%%%%%%%%%%%%%%%%%%%%%%%%%%
3063A01%%%%%%%%%%%%Qq%%%%%%%%%%%%%%%%%%%%%%%%%%%%%%%%%%%%%%%%%%%%%%%%%%%%%%%
3057A01%%%%Qq%%%qJ6qqQ%qQ%%%%%%%%%%%%%%%%%%%%%%%%%%%%%%%%%%%%%%%%%%%%%%%%%%%
3050A01%%%%%%%%%%%%%%%%%%%%%%%%%%%%%%%%%%%%%%%%%%%%%%%%%%%%%%%%%%%%%%%%%%Qqq
3044I3Q%%%%%%%%%%%%%%%%%%%%%%%%%%%%%%%%%%%%%%%%%%%%%%%%%%%%%%%%%%%%%%%%%%%%%
3037A01%%%%%%%%%%%%%%%%%%%%%%%%%%%%%%%%%%%%%%%%%%%%%%%%%%%%%Qq%%%%%%%%%%%%%%
3031A01%%%%%%%%%%%%%%%%%%%%%%%%%%%%%%%%%%%%%%%%%%%%%%%%Qq%%%%%%%%%%%%%%%%%%%
3024A01%%%%%%%%%%%%%%%%%%%%%%%%%%%%%%%%Qq%%%%%%%%%%%%QqQq%%%%%Qq%%QqQq%%%%%%
3017A01%%%%Qq%%%%%%Qq%%%%%%%%%%%%%%%%%%%%Qq%%%%%%%%%%%%Qq%%%%%Qq%QqQ%%q%%%%%
3011A01Qq%%%%%%%%%%Qq%%%Qq%QqQ%q%%%%%%%Q%%q%%%Q%q%J6j6Q%q%Q%%%%q%Q%q%%Q%%qQ%
3004A09q%Qq%%%Qq%%%%Qq%%%%QqQ%q%%%Qq%%%%%%Qq%%%%%%%Qq%%%%%%Qq%%%%Q%q%Qq%Qq%%
2998A01%Q%%%q%%%QqQ%qQ%%%%qQqQ%q%QqQ%%q%%%%%%%%%%%Qq%%%%%Q%q%Q%q%%QqQ%%%%%%q
2991A01%Q%qQ%qQ%%q%Q%%%%q%Q%%qQq%%%%QqQ%%qQq%QqQ%%%qQqQq%Q%%%%%%%%%%qQ%%%%%%
2985A09qQqQ%%%%%%qQ%qQ%qQq%Q%q%%%QqQq%%%Q%%qQ%qQ%%%%qQ%%q%Q%qQqQq%Q%%%%%%qQ%
2978A09%%%%%%%%%%%%q%%%QqQ%%%%%%qQqQ%qQ%%%%qQ%%%qQ%%%%q%Q%%%qQ%%qQ%%qQ%%%q%Q
2972A09qQ%qQ%%%%%%%%%qQqQ%qQ%%qQ%%%%qQ%%%%%%%%%%%%%%qQqQ%%%%%%%qQ%%%%%%qQ%%%
2965A09%%%%%qQ%%%%%%%%%%%%%%%%%%%%%%%%%%%%%%%%%%%%%%%%%%%%qQ%%qQ%%qQ%%qQqQqQ
2958A09%%%%%%%%%%%%qQ%%%%%%%%%%%%%%%%%%%%%%qQ%%%%%%%%%qQ%%%%%%%qQ%%%%%%%%%%%
2952A09q%Q%%%%%qQ%%%%%%%%%%%%%%%%%%%%%%%%%%%%%%%%%%%%%%%%%%%%%%%%%%%%%%%%%%%
2945A09%%%%%%%%%%%%%%%%%%%%%%%%%%%%%%%%%%%%%%%%%%%%%%%%%%%%%%%%%%%%%%%%%%%%%
2939A09%%%%%%%%%%%%%%%%%%%%%%%%%%%%%%%%%%%%%%qQ%%%%%%%Qq%%%%%%%%%%%%%%%%%%%%
2932A09%%%%%%%%%%%%%%%%%%%%%%%%%%%%%%%%%%%%%%%%%%%%%%%%%%%%%%%%%%%%%%%%%%%%%
2925A09%%%%%%%%%%%%%%%%%%%%%%%%%%%%%%%%%%%%%%%%%%%%%%%%%%%%%%%%%%%%%%%%%%%%%
2919A09%%%%%%%%%%%%%%%%%%%%%%%%%%%%%%%%%%%%%%%%%%%%%%%%%%qQ%%%%%%%%%%Qq%%%%%
2912A09%%Qq%%%%%%%%Qj6J6qQq%QqQ%j6%j6K4qL2k4QqQqQqQ%q%Q%j6Q%%qQ%%%%%Qq%%%%%%
2907A09%Qq%Q%q%%%%%%Qq%%%%%%%%%Qq%%%Qq%%%%%%%Qq%%%%%%%%%%%%%%%%%%%%%%%%%%%Qq
2900A09%%%%%%%Qq%%%%%%%%%%%%%%%%QqQq%%%%%%%%%%%%%%%Qq%%%%%%%%%%%%%Qq%%%QqQ%%
2893A17%qQqQqQq%%%%%%%%%%%%%%Qq%Qq%%%%%%%%%%%%%%%%%%Qq%%%Qq%%%%%%%%%Qq%QqQqQ
2887A17%q%%%Qq%%%Qq%Q%q%%%%Qq%%%Qq%Qq%%%QqQ%%q%%Q%%q%%%%%%%%%%%Q%q%%Q%%qQ%%q
2880A09QqQ%q%Q%%%%%q%Q%qQ%q%Q%%q%%%%%%%Qq%%%%Q%qQq%Q%%%q%Q%%%%%%q%Qq%Q%%%qQ%
2874A17qQq%%%%Q%%%%qQq%%%Q%%%q%%%%Qq%Q%qQ%q%QqQ%%q%Q%%%%%%%q%Q%%%qQ%%%%qQ%%%
2867A17%%q%QqQ%%%%q%QqQ%%%%%qQ%%%q%QqQ%%%%%%qQ%%%%%%%q%Qq%%%Q%q%%Q%%%%%q%%Q%
2860A17%%%q%%%Q%%%%%%%%%%%%%%%%%%%%%%%%%%%%%%%%%%%%%%%%%%%%%%qQ%%%%%%qQ%%%%%
2854A17%qQ%%%%%%%%%qQ%%%%%%%%%%%%%%%%%%%%%%%%%%%%%%%%%%%qQ%%%%%%%qQ%%%%%%%%%
2847A17%%%%%%%%%%%%%%%%%%%%%%%%%%%%%%%%%%%%%%%%%%%%%%%%%%%%%%%%%%%%%%%%%%%%%
2841A17%%%%%%%%%%%%%%%%%%%%%%%%%%%%%%%%%%%%%%%%%%%%%q%J6q%qQ%%%%%%%%%%%%%%%%
2834A17%%%%%%%%%%%%%%%%%%%%%%%%%%%%%%%%%%%%%%%%%%%%%%%%%%%%%%%%%%%%%%%%%%%%%
2828A17%%%%%%%%%%%%%%%%%%%%%%%%%%%Qq%%%%%%qQ%%%%%%%%%%%%%%%%%%%%%%%%%%%%%%%%
2821A17%%%%%%%%%%%%%%%%%%%%%%%%%%%%%%%%%%Qq%%%%%%%%%%%%%%%%%%%%%%%%%%%%%%%%%
2814A17%%%%%%%%%%%Qq%%%%%%Qq%%qJ6j6J6j6%QqJ6q%%%%%%Qq%%%%%%%%%%%%%%%%Qq%%%%%
2808A17%%%%%%%%%%%%%%%%%%%%%%%%%%%%%%%%Qq%%%%%%%%%%%%%%%%%Q%q%%%Qq%%%%%%%%%%
2802A17Qq%%%%%%%Qq%%%Qq%%%%Q%q%%%Q%q%%%%%Qq%%%%%%%%%%%%%%%%%%Qq%%%%Qq%%%%%%%
2795A17%%%%%%%%%%%%%Q%qQ%%qQ%q%%%Qq%%%%%QqQqQq%Qq%%%Qq%%Qq%QqQ%%%q%Q%qQ%%q%%
2789A17%%Qq%QqQ%qQqQq%%%%%%%%Q%q%Qq%%%Q%%%q%%Q%%qQ%q%Q%%%q%Q%q%Q%qQ%qQ%%%%qQ
2782A25%%qQ%qQq%%Q%%%%qQ%%%q%Qq%Qq%%Q%%%qQ%qQqQ%%q%Q%%%%qQq%%Q%%%%qQqQqQqQqQ
2775A25%q%%Q%qQqQq%Q%%qQ%%q%Q%%qQ%%%%%%qQqQ%%qQ%q%Q%%%%%qQ%%%%%%%%%%%%qQqQ%%
2769A25qQqQqQqQ%%%%%%%%%%%%%%qQqQ%%%%%qQ%%%%%qQ%%%%%%%%%%%%%%%%q%J6j6Q%q%Q%%
2763A25%qQ%qQ%%%%%%%%%%%%%%%%%%%%%%%%%%%%%%%%%%%%%%%%%%%qQ%%%qQ%%%%%%%%%%%%%
2756A25%%%%%%%%%%%%%%%%%%%%%%%%%%%%%%%%%%qQ%%%qQ%%%%%%%%%%%%%qQ%%%%%%%%%%%%%
2749A25%%%%%%%%%%%%%%%%%%%%%%%%%%%%%%%%%%%%%%%%%%%%%%%qQ%%%%%%%%%%%%%%%%%%%%
2743A25%%%%%%%%%%%%%%%%%%%%%%%%%%%%%%%%%%%%%%%%%%%qQ%%%%%%%%%%%%%%%%%%%%%%%%
2736A25%%%%Qq%%%%%%%%%%%%%%Qq%%%%%%%%%%%%%%%%%%%%%%%%%%%%%%%%%%%%%%%%%%%%%%%
2730A25%%%%%%%%%%%%%Qq%%%%Qq%%%Qq%%%%%%%Qq%%%%%%%%%%%%%%%%%%Qq%%%Qq%Q%q%%%%%
2723A25%%%%%%%%%%%%%%%Qq%%%%%%%%%Qq%Qq%%%%%%%Qq%%%%%%%%%%%Q%%q%%%%%%%%%%Qq%%
2716A25%Q%%q%%%Q%%%j6QqJ6qQj6J6qJ6j6J6%j6%Q%q%%%QqQq%%%%%%%%%%QqQq%%%%Q%q%%%
2711A25%Q%q%Qq%%%Qq%%Qq%%Qq%Q%%q%%%%%%%%%%%Q%%q%%%%%Qq%%QqQq%%%Qq%Q%qQ%%%%%%
2704A33qQqQ%qQ%%%q%QqQ%%q%Q%qQqQqQqQ%%%%%q%QqQ%%%qQqQqQ%%qQ%%%%%qQ%%%%%%q%Q%
2697A33%qQ%qQ%%%%%%%%%%%%%%%%%%%%%%q%QqQqQqQ%%%%q%Q%%%%q%Q%%%%%%%%%%%%qQ%%%%
2691A33%%%%%%%%Qj6Q%%%%%%qQ%%%%%%%%%%%%%%%%%%%%%%%%%qQqQ%%%%qQ%%%%%qQ%%%%%%%
2684A33%%%%%qQ%%%%%%%%%%%%%%%%%%%%%%%%%%%%%%%%%%%%%%%%%%%%%%%%%%%%%%%%%%%%%q
2678A25Q%%%%qQ%%%%%%%%%%%%%%%%%%%%%%%%%qQ%%%%%%%%%%%%%%%%%%%%%%%%%%%%%%%%%%%
2671A33%%%%%%%%%%%%%%%%%%%%%%%%%%%%%%%%%%%%%%%%%%%%%%%%%%%%%%%%q%%%QQqQ%q%%%
2665A33%%%%%%%%%%%%%%%%%%%%%%%%%%%%%%%%%%%%%%%%%%%%%%%%%%%%%%%%%%%%%%%%%%%%%
2658A33%%%%%%%%%%%%%%%%%%%%%%%%%Qq%%%%%%%%%%%%%%%%%%%%%%%%%%%%%%%%%%%%%%%%%%
2652A33%%%%%%%%%%%%%%%%%%%%%%%%%%%%%%%%%%%%%%%%%%Q%q%%%%QqQ%q%Q%%q%%%%%%%%%Q
2645A41qQq%%%%%Qq%%%%%%%%%%%%%Qq%Q%qQq%%Q%%q%QqQ%q%%Q%q%%%%Qq%%%Qq%%%%Qq%Qq%
2638A33%%Qq%Q%q%%%Qq%%%%%%QqQqQqQq%QqQqQ%qQq%%QqQq%%%QqQ%qQq%Q%qQq%%%%QqQ%%%
2632A41%%%q%Q%%q%Q%%%qQ%%q%%%%Qq%Q%q%%Qq%Q%%qQ%%%%%qQ%qQ%%%%%qQqQ%%q%Q%%%%%%
2625A41%qQ%%%%qQ%%%%%qQ%%%%%%%%%%%%qQ%%%%%%%%%%%%%%%%%%qQ%%%qQq%Q%%%%qQqQqQ%
2619A41%%%%%qQq%%%Q%qQqQqJ6qQqqqQ%%Q%%%%%%%qQqQ%%%%%%%%%%%%%%%%%%%%%%%%%%%%%
2612A41%%%%%%%%%%%%%%%%%%%%%%%%%%%%%%%%%%%%%%%%%%%%%%%%%%%%%%%%%%%%%%%%%%%%%
2606A41%%%%%%%%%%Qq%%%%qQ%%%%%%%%%%%%%%%%%%%%%%%%%%%%%%%%%%%%%%%%%%%%%%%%%%%
2599A41%%%%%%%%%%%%%%%%%%%%%%%%%%%%%%%%%%%%%%%%%%%%%%%%%%%%%%%%%%%%%%%%%QqQ%
2592A49q%%Q%q%%%%%%Qq%%%%%%%%Qq%%%%%%%%%%%Qq%%%%%%%%%%%%%%%%%%%%%%%%Qq%%%%%%
2586A41%%%%%%Qq%%%%%%%%%%%%%QqQq%%%Qq%%%%%%%%%%%%%%%%%%%%%%Q%q%%Q%q%%%%%%%%%
2579A41%Qq%%%%Qq%%%%Q%%q%%%Qq%%%QqQq%%%Q%%q%%%Q%qQq%%Qq%%%%Q%%q%%Qq%Qq%%Q%qQ
2573A49q%QqQ%qQ%q%Q%%qQ%qQ%%%q%%Q%qQ%qQqQ%%%%%%%q%QqQqQ%%%%%%%q%Q%qQ%qQ%%qQ%
2566A49%%%%qQ%%%%qQ%%%%%%%%qQ%%%%%%qQ%%%%q%Q%%%%q%%Q%%%%%qQ%%%%%%%%%%%%%%qQ%
2559A49%%%%%%%%%%%%%%%%%%%%%%%%%%%%%%%%%%%%%%%%qQ%%%%%%qQ%%%qQ%%%%%%%%%%%%%%
2553A49%%%%%%%%%%%%qQ%%%%%%%%%%%%%%%%%%%%%%%%%%%%%%%%%%%%%%%%%%%%%%%%%%%%%%%
2546A49%%%%%%%%%%%%%%%%%%%%%%%%%%%%%%%%%%%%%%%%%%%%%%%%%%%%%%%%%%%%%%%%%%%%%
2540A49%%%%%%%%%%%%%%%%%%%%%%%%%%%%%%%%%%%%%%%%Qq%Q%q%%%%%%%%%Qq%%%%%%%%%%%%
2533A49%%%%%%%%%%%Qq%%%%%%Qq%%%%%%%%%%%%%%%%%%%%%%%%%Q%%%%%%%%%qQq%%%Qq%%%%%
2527A49QqQq%QqQqQ%%%q%%Q%%qQq%%Q%q%%%Q%qQqQq%%%%Qq%QqQq%%QqQq%%%%Q%qqJ6j6Q%%
2520A49QqJ6m0J6M0Qqm0L2j6QqQQql2K4l2J6QQq%%Qq%J6qQj6QqQqQj6J6qQqQ%%%%qQ%%%%%
2515A57%%%%%qQ%%%%%q%Q%%%q%Qq%%%%%Qq%%%%QqQ%qQqQq%QqQqQ%%%qQ%%%%%%%%%%%%%%%%
2508A57%%%%qQ%%qQ%%%%%%%%%%%%%%%%%%%%%%%%%%%%%%%%%%%%%%%%%%%%%%%%%%%%%%%%%%%
2502A57%%%%%%%%%%%qQ%%%%%%%%%%%%%%%%%%%%%%%%%%%%%%%%%%%%%%%%%%%%%%%%%%%%%%%%
2495A57%%%Qq%qQQq%qQ%%%%%%%%%%%%%%%%%%%%%%%%%qQ%%%%%%%%%%%%%%%%%%%%%%%%%%%%%
2489A57%%%%%%%%%%%%%%%%%%%%%%%%%%%%%%%%%%%%%Qq%%%%%%%%%%%%%%%%%%%%%Qq%%Qq%%Q
2482A65%q%%%%%Qq%%%%%%%%%%%%%%%%%%%%%%%%%%%%%%%%%%%%%%%%%%%%%%%%%%%%%%%%Qq%Q
2476A65q%%%%%%%%%%QqQq%%%%%%%Qq%Q%q%%%%%%%%%Q%qQqQqQ%%%q%qQQq%Qj6Q%Q%%qQ%%qQ
2469A65q%%%Q%q%%%%%%%%%%%%%%%%QqQ%%qQ%%qQ%%%%qQ%%%%%%%%%qQ%%%q%Q%%%%%%%%%%qQ
2462A65%%%qQ%%%%qQ%%%%qQ%%%%%%%%%%%%%%%%%%%%%%%%%%%%%%%%%%%%%%%%%%%%%%%%%%%%
2456A65%%%%%%%%%%%%%%%%%%%%%%%%%%%%%%%%%%%%%%%%%%%%%%qQ%%%%%%%%%%%%%%%%%%%%%
2449A65%%%%%%%%%%%%%%%%%%%%%%%%%%%%%%%%%%%qJ6j6Q%%%%%%%%%%%%%%%%%%%%%%%%%%%%
2443A65%%%%%%%%%%%%%%%%%%%%%%%%%%%%%%%%%%%%%%%Qq%%%%%%%%%%%%Qq%%Qq%%%%%%%%%%
2436A65%%%%%%%%%%%%%%%%%%%%%Qq%%%%Qq%%%Qq%%%%%%%%%%%%%%%%%%%%Qq%%%Q%q%%Qq%%Q
2430A73qQq%%%Qq%%%%%%%%Q%qQq%%Qq%%Q%%qQqQq%%%QqQ%qQqQ%%%%%%q%%%%%Qq%Qq%Q%qQq
2423A65QqQ%%q%Q%%q%Q%%q%%j6J6qQ%%%Qq%Q%q%Q%q%Qq%Q%qQq%%Q%qQ%%%%%%%%%%%%%%%%%
2417A73%%%%%%%%%%%%%%%qQ%%%%%%%%%%%%%%%%%%%%%%%%%%%%%%%%%%%%%%%%%%%q%Q%%%%%%
2410A73%%%qQ%%%%qQqQ%%%%%%%%%%%%%%%%%%%%%%%%%%%%%%%%%%%%%%%%%%%%%%%%%%%%%%%%
2404A73%%%%%%%%%%%%%%%%%%%%%%%%%%%%%%%%%%%%%%Qq%%%%%%%%%%%%%%%%%%%%%%%%%qQ%%
2397A73%Q%q%%%%%%%%%%%%%%%%%%%%%%%%%%%%%%%%%%%%%%%%%%%%%%Qq%%%%%%%%%%%%%%%%Q
2390A81q%%Qq%%%%Q%qQ%q%%%%%Qq%%Q%%%q%%%%%%%%%%%%%%%%%%%Qq%%Q%%qQ%%%%%%q%Q%%q
2384A73%QqQq%Qq%%Qq%QqQ%qQqQqQ%q%QqQq%%%Q%qQq%%%Q%qQ%qQ%qQqQ%qQqQ%qQ%%%qQ%%q
2377A73Q%%%%%%%%%q%Q%qQ%%%%qQ%%qQ%qQ%%%%%%%%qQ%%qQ%%%%%j6QQ%%%%%%%qQ%qQ%%%%%
2371A81%%%%%%%%%%%%%%%%%%%%%%%%%%%%%%qQ%%%%%%%%%%%%%%%%%%%%%%%%%%%%%%%%%%%%%
2364A81%%%%%%%%%%%%%%%%%%%%%%%%%%%%%%%%%%%Qq%%%%%%%%%%%%%%%%%%%%%%%%%%%%%%%%
2358A81%%%%%%%%%Qq%%%%%%%%%%%%%%%%%%%%%%Qq%%Qq%%%%Qq%%%%%%%%%%%%%%%%Qq%%%%%%
2351A81%%Q%q%%%%%%%%%%%Qq%Q%qQ%%qQq%%Qq%%Qq%Q%q%Q%%qQ%%%%q%%%%QqQ%qQq%Q%%%%%
2345A89%%qQqQ%%qQ%qQ%%qQ%%%q%QqQ%%qQ%%%%%%qQ%%%%%%%%%%%%%%%%%qQ%q%Q%%qQ%%%%%
2338A89%q%Q%%%%%%%%%%%%%%%%qQQj6Q%%%%%%%%%%%%%%%%%%%qQ%%%%%%qQ%%%%%%%%%%%%%%
2331A89%%%%%%%%%%%%%%%qQ%%%%%%%%%%%%%%%%%%%%%%%%%%%%%%%%%%%%%%%%%%%%%%%%Qq%%
2325A89qQ%%qQQqqQ%%j6K4j6J6%%%q%%%%%Qq%%%%%%Qq%%%%%Qq%%%%%%%%%%%%%%%%%%%%%%%
2319A89%%%%%%Qq%QqQq%QqQq%%%%%%%%%Qq%%Qq%QqQq%Q%%qQ%%q%%Qq%%%%%%%%%Qq%%%Q%%q
2312A89Q%qQ%q%Q%q%%QqQ%%qQ%%q%Qq%Qq%%%Q%%q%%%%Q%%%q%Q%%%%%%q%Q%%%%%%q%Q%%%%%
2306A97%%%qQ%%%%qQ%%qQ%qQqQ%qQ%%%%%%%%%%%qQ%%%%%%%%%%%%%%%%%%%%%%%%%%%%%%%%%
2299A97%%%%%%%%%%%%%%%%%%%%%%%%%%%%%%%%%%%%%%%%%%%%%%%%%%%%%%%%%%%%%%%%%%%%%
2292A97%%%%%%%%%%%%%%%%%%%%%%%%%%%%%%%%%%%%%%%%QqQ%%q%%%%%Qq%%QqQ%%qQq%%%%%%
2286A97%%%Qq%%%%%%%%%%%%%%Qq%%%%Qq%%%%%%%%%%%%Qq%%%%%%Qq%%Q%qQqQq%%%%QqQq%Qq
2279A97%%%Qq%Q%q%QqQqQ%%%%qQqQ%%%%%%%%%%qQ%%%%%%q%Q%qQq%Q%%qQqQqQqQqQ%%%%qQq
2273A97Qq%Q%%%%%%qQ%qQ%qQ%%%%%%%%%%%%%%%%%qQ%%%%%qQqQ%%%%%%%%%%%%%%%%%%%%%%%
2266B05%%%%%%%%%%%%%%%%%%%%%%%%%%%%%Qq%%qQ%%%%%%%%%%%%%%%%%%%%%%%%%%%%%%%%%%
2259B05%%%%%%%%%%%%%%%%%%%%%%%%%%%%QqQq%%%%%%%%%%%%%%%%Qq%%%%%%%%Q%q%%%%%%%%
2253B05%%%%%%Q%q%Qq%QqQq%%Q%q%Q%qQq%%%QqQq%Qq%QqQqQq%%%%%Qq%%Q%qQq%%%Qq%Q%q%
2246B05%QqQ%%qQqQ%%%%%%%%%%%%%%%%%%%qQ%%%%%%%%%%%%%%%%%%%%%%%%%%%%%%%%%%%%%%
2240B13%%%%%%%%%%%%%%%%%qQ%%%%%%%%%%%%%%%%%%%%%%%%%%%%%%%%%%%%%%%%%%%%%%%%%%
2233B13%%%%%%%%%%%%%%%%%%%%%%%%%%%%%%%%%%%%%%%%%%%%%%%%%%%%%%%%%%%%%%%%%Q%q%
2227B13%QqqQ%%Qq%%Q%qQq%QqQq%%%Qq%Qq%%%%%%%Qq%%Qq%Qq%Qq%%%Qq%%%%QqQqQqQqQ%q%
2220B13Qq%Q%%%%%q%Q%%%qQ%q%QqQ%%%q%%%%%QqQ%qQ%%%%%%%%%qQ%%%%%%%%qQ%%q%Q%%qQ%
2213B21%%%%qQ%q%Q%%%%%%%%%%%%%%%%%%%%%%%%%%%%%%%%%%%%%%%%%%%%%%%%%%%%%%%%%%%
2207B21%%%%%%%%%%%%%%%%%%%%%%%%%%%%%%%%%%%%%%%%%%%%%%%%%%%Qq%%%%%%%Qq%Qq%%%%
2200B21%%%%%%%%%%%%%%%%%%%%%%%%%%%%%%%Qq%%%%%%%%%QqQq%Qq%Q%q%%%Qq%QqQ%q%%%%Q
2194B29%%%%q%%%Q%%%q%%QqQ%%qQ%%%%%qQ%%%%%qQqQ%%%%%qQQq%%%%qQ%%%%%%%%qQ%%%%%%
2187B29%%%%%%%qQ%%%%%%%%%%%%%%%%%%%%%%%%qQ%%qQ%%%%%%%%%%%%%%%%%%%%%%%%%%%%%%
2180B29%%%%%%%%%%%%%%%%Qq%%%%%qQ%%%%%%%%qQ%%%%%%Qq%%%%%%%%%Qq%%Qq%Qq%%%%%%%%
2174B29%%%Qq%%%%%%%%%%%%%Q%q%Q%%qQ%q%Q%q%Q%%qQq%QqQ%qQq%%Q%%%%%qQqQ%%%qQ%%%%
2167B37qQ%qQ%%%%%%%%%%%%%%%%%qQ%%%%%%qQqQ%%%%%%%%%%%%%%%qQ%%%%%%%%%%%%%%%%%%
2161B37%%%%%%%%%%%%%%%%%%%%%%%%%%%%%%%%%%%%%%%%%%%%%%%%%%%%%%%%%%%%%%%%%%%%%
2154B37%%%%%%%%%%%Qq%%Qq%%Qq%%%%%%%%%%%%%%%%%%%%%%%%%%%%%%%Qq%%%%%%%%%%%%%%Q
2148B45q%Qq%QqQq%QqQ%%qQ%%%%%%%q%Q%%%%%%qQq%Q%%%%q%Q%%%%%%qQ%%%%%qQ%%%%%%%%%
2141B45qQ%%%%%%%%%%%%%%%%%%%%%%%%%%%%%%%%%%%%%%%%%%%%%%%%%%%%%%%%%%%%%%%%%%%
2134B45%%%%%%%%%%%%%%%%%%%%%%%%%%%%%%%%%%%%%%%%%%Qq%%%%%%%%%%%J6k4J6qQj6%J6m0
2128B13M8qqQqj6QQqQ%%%Qq%%%%%%%%%%Q%%q%Qq%QqQ%qQ%q%Qq%%Q%%%%%%%%%q%Q%q%%QqQ%
2122B53%%%%%%%%%%%qQ%%%qQ%%%%q%%%%%QqQ%%%%%%%%%%%%%%%qQ%qQ%%%qQ%%%%%%qQ%%%%%
2115B53%%%%%%%%%%%%%%%%%%%%%%%%%%%%%%%%%%%%%%%%%%%%%%%%%%%%%%%%%%%%%%%%%%%Qq
2109B53%%%%%Q%q%QqQq%%%%%%%%%%%%%%%%%%Qq%%%%%%Q%%qQ%%%q%Q%qQqQq%Q%q%Qq%QqQ%q
2102B53Q%qQ%%qQ%qQqQqQ%%%%%%%%qQqQ%%%%%%%%%%%%%%%%%%%%%%%%%%%%%%%%%%%%%%%%%%
2096B61%%%%%%%%%%%%%%%%%%%%%%%%%%%%%%%%%%%%%%Qq%%%Qq%%%%%%%%%%%%%%%%%%%%%%%%
2089B61%Qq%%%%%%%%%%%%%%%%%%%%%%%Qq%%%%Qq%%QqQqQq%%Qq%%Q%q%Qq%%Q%%q%%Q%%%%q%
2082B61Q%qQ%%qQ%%%%qQ%%%qQ%%qQqQ%q%Q%qQ%qQ%%qQ%%%%%%%%%%%%%%%%%%%%%%%%%%%%%%
2076B69%%%%%%%%%%%%%%%%%%%%%%%%%%%Qq%%Qq%%%%%%%%%%%%%%%%%%%%%%%%%%%%%%%%%%%%
2069B69%%%Qq%%%%%%%%%%%%%Qq%%Q%q%%%%%%Qq%Qq%%%QqQq%Q%qQqQq%QqQ%%%%%%q%QqQ%qQ
2063B77qQ%%%%%%%%%%%%%%%%%%%%%%%%%%%%%%%%%%%%%%%%%%%%%%%%%%%%%%%%%%%%%%%%%%%
2056B77%%%%%%%Qq%qQ%%%%%%%%%%%%%%%%%%%%%%%%%%%%%%%%%%%%%%%%%%%Q%%%%%%%%q%%Qq
2050B77%%%%%%%Q%%q%%%Qq%%Q%qQq%QqQ%q%%QqQq%%Q%qQ%%%%%%%%%%%%%%%%%%%%%%%%%qQq
2043B77Q%%%%%%%%%%%%%%%%%%%%%%%%%%%%%%%%%%%%%%%%%%%%%%%%%%%%%%%%%%%%%%%%%%%%
2036B85%QqQq%%%%%%%%%Qq%%Q%%qQ%%%q%%Q%%q%QqQq%QqQqQ%q%%%%%%Qq%QqQj6QJ6j6%Q%q
2030B85Q%%%qQq%Qq%QqQqQ%%%%%%%%qQ%%%%%%%%%%%%%%%%%%%%%%%%%%%%%%%%%%%%%%%%%%%
2024B93%%%%%%%%%%%%%%%%%%%%%%%%%%%%%%%%%%%%%%%%%%%%%%%%%Q%q%%%%%Qq%%%%%%%%%%
2017B93%%%%%%%QqQq%Qq%Q%%%qQ%%q%%Q%qQ%q%Qq%Q%%q%%%%%%QqQqQqQqQ%%%qQqQ%%%%%%%
2010C01%%%%%%%%%%%%%%%%%%%%%%%%%%%%%%%%%%%%%%%%qQ%%Q%qQq%%%%%Qq%%%%%%%%%%%%%
2004C01%%%Qq%%%%%%Qq%%%%%%%%%%%Qq%Qq%Q%qQ%q%Qq%%%%Q%q%%Qq%Q%qQqQ%qQqQ%%%q%%Q
1997C09qQqQ%%%%qQ%%%%%%%%%%%%%%%%%%%qQ%%%qQ%%%%%%%%%%%%%%%%%%%%%%%%%%%%%%%%%
1991C09%%%%%%%%%%%%%%%%%%%%%%%%%Qq%%%%%%%%%%%%%%%%%%%%%%QqQ%%%%%%%%%%qQqQ%%%
1984C17%%%%%%%%%%%%qQ%%Qj6QqQq%Q%%qQ%%%%%%%%%%qQ%qQ%%%%%%%%%%%%%%%%%%%%%%%%%
1978C17%%%%%%%%%%%%%%%%%%%%%%%%%%%%Qq%%%%%%%%%%%%%%%Qq%%%%%%%%%Q%q%%Qq%Qq%%%
1971C17QqQq%Q%%%%%%%qQ%%qQ%%qQ%%%%%%%%%%%%%%%%%%%%%%%%%%%%%%%%%%%%%%%%%%%%%%
1964C25%%%%%%%%%%%%%%%%%%%%%%%%%%%%%%%%%%%%%%%%%%%%%%%%%%%%%%%%%%%%%%%Qq%Qq%
1958C25%Q%%qQ%q%%%QqQ%qQq%Q%%%%%%qQqQ%%%qQ%qQ%%%%qQ%%%%%%%%%%%%%%%%%%%%%%%%%
1951C33%%%%%%%%%%%%%%%%%%%%%%%%%%%%%%%%%%%%%%%%%%%%%%%%%%%%%Qq%%QqQq%%Q%q%Qq
1945C33%%QqQ%q%%%Q%q%%Q%qQ%%%qQ%%%%%%%%%%%%%%%%%%%%%%%%%%%%%%%%%%%%qQ%%%%%%%
1938C41%%%%%%%%%%%%%%%%%%%%%%%%%Qq%%%%%%%%%%%%Qq%%%%qQQj6Q%QqJ6%q%q%J6j6%QqQ
1932C49%qQq%%%QqQ%%%%%%%qQqQqQ%%%%%%%%%%%%%%%%%%%%%qQ%%qQ%%qQ%%%%%%%%%%%%%%%
1925C49%%%%%%%%%%%%%%%%%%%%%%%%%%%%%%%%%%%%%%%%Qq%%Qq%Qq%%Q%q%%Q%q%Q%qQ%%%%%
1919C57%q%Q%%%%qQ%%%%%%%%%%%%%%%%%%%%%%%%%%%%%%%%%%%%%%%%%%%%%%%%%%%%%%%%%%%
1912C57%%%%%%%%%%%%%%%%%%%%%%%Q%q%%Q%q%%Qj6J6%q%%%%%%%Qq%%Q%%q%%Q%%%%%%%%%%%
1906C65%%%%qQ%%%%%%%%%%%%%%%%%%%%%%%%%%%%%%%%%%%%%%%%%%%%%%%%%%%%%%%%%%%%%%Q
1899C73q%%%%%%%Qq%%%%%%%%%%%%Qq%Q%q%%Qq%Q%qQqQ%%%%q%%QqQ%%%%%%%%qQ%%%%%%%%%%
1893C73%%%%%%%%%%%%%%%%%%%%%%%%%%%%%%%%%%%%%%%%%%%%%%%%%%%%%%%Qq%%Q%%qQ%%%qQ
1886C81%%%qQq%Q%%q%%Q%qQ%qQ%%%qQqQ%%%%%%%%%%%%%%%%%%%%%%%%%%%%%%%%%%%%%%%%%%
1879C81%%%%%%%%%%%Qq%Qq%%%%%Qq%%%%%%%%Q%q%%%Q%qQq%%%%Qq%%%Qq%Q%qQ%%%qQ%%qQ%%
1873C89%%qQ%%%%%%%%qQ%%%%%%%%%%%%%%%%%%%%%%%%%%%%%%%%%%%%%%%%%%%%%%%%%%Qq%%%
1866C89%Q%q%QqQqQ%qQ%%%%%qQ%%%%%%%qQqQ%%%%%%%%%%%%%%%%%%%%%%%%%%%%%%%%%q%Q%%
1860C97%%%%%%%%%%%%%%%Qq%%%%%%%%%%%%Q%qQq%Qq%QqQ%qQ%%%%%%qQ%%%%%%qQ%q%Q%%qQ%
1853D05%%%%%%%%%%%%%%%%%%%%%%%%%%%%%%%%%%%%%%%%%%%%%%%%%%%%%%%%%%qQQq%%Qq%%%
1847D05%%%QqQq%Qq%%%%%QqQqQqQqQ%%%%qQqQ%%%%qQ%%%%%%%%%%%%%%%%%%%%%%%%%%%%%%%
1840D13%%%%%%%%%%%%%%%%%%%%%%%%%%Q%q%Qq%%%Qq%%QqQ%qJ6k4Q%Q%%q%QQqqQ%%qQ%%qQ%
1834D21%%%%%%%%%%%%%%%%%%%%%%%%%%%%%%%%%%%%%Qq%%%%%%%%%%%%%%%%%Q%%q%%%%%%%Q%
1827D29%%%qQ%%qQ%%%%%%%%%%%%%%%%%%%%%%%%qQ%%%%%%Qq%%%%%%%%%%%%%%%%%%%%%%%%%%
1820D29%%Q%%%%%%%q%Q%qQq%Q%%%%%qQ%%%%%%%%%%%%%%%%%%%%%%%%%%%%%%%%%%%%%%%%%%%
1814D37%%%%%%%%%%%%%%%%%%%%%Qq%QqQ%%qQ%%%qQq%%Q%qQ%%%%qQ%%%%%%%%%%%%%%%%%%%%
1807D45%%%%%%%%%%%%%%%%%%%%%%%%%Qq%%%%%%%%%Q%q%%%%%Qq%Q%q%%QqQ%qQ%%%%%%%%%%%
1801D53%%%%%%%%%%%%%%%%%%%%%qQ%%%%%%%%%%%%%%%%%%%%%%%%%%%%%%%%%%%%Q%qQq%QqQ%
1794D61q%Qq%%%Qq%Q%%qQ%%qQ%%%%%qQ%%%%%%%%%%%%%%%%%%%%%%%%%%%%%%%%%%%%%%%%%%Q
1787D69q%%%Qq%J6%j6Qq%%QqQ%%%%%%%%%%%%%%%%%%%qQ%%%%%%%%%%%%%%%%%%%%%%%%%%%Qq
1781D69%%%%%%%%%%%%%%%%%%%QqQq%%Q%%qQq%Q%%%%%%%%%%%%%%%%%%%%%%%%%%%%%%%%%%qQ
1775D77%%%%%%%%%%%%%%%%%%%%%%%%%%%Q%%qQ%qQ%%%qQ%%%%%%%%%%%%%%%%%%%%%%%%%%%%%
1768D85%%%%%%%%%%%%%%%%%%%%%%Q%qQq%%QqQqQ%%%%%%q%%%QqQq%Q%%%qQ%%Qq%%%%%%%%%%
1761D93%%%%%%%%%%%%%%%%%%%%%%%%%QqQ%%qQqQ%qQ%qQq%QqQ%qQ%%%qQq%%Q%%%%%%%%%%%%
1755E01%%%%%%%%%%%%%%%%%%%%%Qq%%%%%%%%%%%Qq%%%Q%%q%%Q%%%qQqQ%qQqQ%%%%%%%%%%%
1748E09%%%%%%%%%%%%%%%%%%%%%%%%%%%%%%%%%%%%QqQqQqQ%%%qQ%%%%q%Q%%%%%%%%%%%%%%
1742E17%%QqQqQq%%%%%%%%%%%qQ%%qQ%%%QqqJ6Qqj6J6%Ql2L2n6L2QQq%J6j6%J6j6Q%q%QqQ
1736E25qQ%%QqqQ%%%%%%%%%%%%Qq%%%%%%%%%%%Qq%%QqQ%q%%%%%%QqQ%%%%%%%%%%%%%%%%%%
1729E33%%%%%%%%%%%%%%%%%%%%%%%%%%%%%%%%Qq%%%Q%qQqQ%q%Q%%%%%%%%%%%%%%%%%%%%%%
1723E41%%%%%%%%%%%%%%%%%%%%%%%%%%%%%%%%%%Qq%Q%%qQq%Q%%%%%%%%%%%%%%%%%%%%%%%%
1716E49%%%%%%%%%%%%%%%%%%%Q%q%QqQqQ%%%qQ%%q%%QqQ%%%%%%%%%%%%%%%%%%%%%%%%%%%%
1710E57%%%%%%%Qq%%%Qq%%%%Q%%%qQ%q%Q%%qQ%%%%%%%%%%%%%%%%%%%%%%%%%%%%%%%%%%%%%
1703E65QqQq%%%%Qq%%%Q%%q%Qq%Q%%%%%%%%%%%%%%%%%%%%%%%%%%%Qq%Qq%%%%Qq%%Qq%Q%%%
1697E81%%%%q%Q%qQ%%%%%%%%%%%%%%%%%%%%%%%%%%%%%%%Qq%%%%Qq%QqQq%Q%%%%%%%%%%%%q
1690E81Q%%%%%qQq%%%J6j6Q%%%%%%%Q%q%QqQqQ%qQqQq%%%Q%qQ%%%%qQ%%%%%%%%%%%%%%%%%
1684E97%%%%%%%%%%%%%%%Q%qQ%q%Q%%%%%%%%%%%%%%%%qQ%%%%%%%%%%%%%%%%%%%%Qq%%%%%%
1677F05%%QqQ%qQ%%%%%%%%%%%%%%%%%%%%%%%%%%%%%%%%%%%%%%%%%%%%%Q%q%QqQ%%qQ%%%%%
1670F21%%%%%%%%%%%%%%%%%%%%%%%%%%%%%%%QqQ%qQqQ%%%%%%%qQ%%%%%%%%%%%%Qq%%%%qQ%
1664F29%%%%%%%Qq%%%%%%%%%QqQqQ%q%Q%%%%%%%%%%%%%%%%%%%%%%%%%%%Qq%%%%%%%%Qq%%Q
1657F45qQ%%%qQqQ%%%%%%%%%%%%%%%%%%%%%%Qq%%QqQqQ%%%qQ%q%%Q%qQqQ%%%%%%%%%%%%%%
1651F53%%%%%%%%%%%%%%%%Qq%Q%%%%%%qQ%%%%%%%%%%%%%%%%%%%%%%%%%%%%%%%%%%%%%%Qq%
1644F61QqQ%%%%%%%%%%%%qQ%%%%%%%%%%%%QqQq%%%Q%q%Q%%q%Q%q%QqQq%%%Q%%%%%%%%%%%%
1638F77%%%%%%%%%%%Qq%%%%Q%%%%%%%%%%%%%%%%%%%%%%%%%%%%%%%%Qq%Q%q%%%%%%%Q%qQ%%
1631F93%qQ%%%%%%%%%%%%%%%%%%%%%%%%%%%%Q%q%%%QqQqQ%%%%q%Q%%%%%%%%%%%%%%%%%%%%
1624G01%%%Qq%%%%%%%QqQ%qQ%qQ%%%%qQ%%%%%%%%%%%%%Q%q%%%%Q%%%%%%%%%%%%%%%%%%%%%
1618G17%%%%%%%%%%%%%%Qq%%%%%Q%qJ6j6Q%%%%%%qQ%%%%%%%%%%%%%%%%%%Qq%Qq%%%%%Q%%%
1611G33qQ%%%%%%%%%%%%%Qq%%%Qq%%%QqQqQ%qQqQ%%%%%%%%%%%%%%%%%%%%%%%%%%%%%%Qq%Q
1605G49q%QqQ%%qQ%q%Q%%%%%%%%%%%%%%%%Qq%%%Q%qQ%qQ%%%%%%%%%%%%%%%%%%%%%%%%%%%%
1598G57%%%Qq%Qq%Q%%%%%%%%%%%%%%%%%%%%%%%%%%%%Qq%%%%QqQ%%%%%%%%%%%%%%%%%%%%%%
1592G73Q%%j6%QQ%%%qQqQ%%%%%%%%%%%%%%%%%%%%%%%%%%%Qq%Qq%Q%%%%%%%%%%%%%%%%%%%%
1585G89%%%%%%%%%%%%%%%QqQqQqQ%%%%%%%%%%%%%%%%%%%%QqQqQq%Q%%%%%%%%%%%%%%%%%%%
1579H05%%Q%qQq%Q%%%q%Q%%%%%%%%%%%%%%%%%%%%%Qq%Qq%QqQq%Q%%%qQ%%%%%%%Qq%%%%%Q%
1572H29q%%%QqQ%%%%%%%%%%%%%%%%%%%%%%%%QqQq%%%%Q%%%qQ%%%%%Q%q%%Qq%%Qq%Qq%Q%%q
1565H37%%%%Q%%%qQ%%%%%%%%%%%%%%%%QqQqQ%%%%%%%%%%%%%%%%%%%%%%%%%%%%%%QqQqQqQ%
1559H61%%%%%%%%%%%%%%%%%%%%%%Q%q%%Qq%Q%%%%%%qQ%%%%%%%%%%%%Q%qQqQ%%%%%%%%%%%%
1552H77%%%%%%%%%%Qq%%%Q%%%%%%%%%%%%%%%%%%%%Q%q%%%%Q%qQ%%%%%%%%%%%%%%%%%%QqQ%
1546I01qQ%%%qQ%%%qQ%%%%%%%%%%%%QqQq%J6j6QQqqK4k4Q%%%%%q%Q%%%%%%%%Qq%%%%QqQqQ
1540I17%%%%%%%%%%%%%%%%%%%%%%%Q%%%qQ%%%%%%%%%Qq%%%%Qq%Qq%Q%%%%%%%%%%%%%%%%%%
1533I33%%%%Q%q%Q%%%%%%%%%%%%%%%%%%%%%Qq%Q%%%%%%%%%%%%%%%%%%%%%Qq%%Q%qQ%%%%%%
1526I57%%%%%%%%%%%%%Qq%QqQ%%%%%%%%%%%%%%%Qq%%%%%Q%%%%%%%%%%%%%%%%%%%%%%Q%%%%
1520I81%%%%%%%%%%%%%%%%%%Q%qQq%%%Q%%%%%%%%%%%%%%%%%%Q%%%qQ%%%%%%%%%%%%%%%%Qq
1513I97%%Q%%%%%%%%%%%%%%%%%%%Q%qQ%%%%%%%%%%%%%%%%%QqQq%%%Q%qQ%%%%%%%%%%%%%%%
1507A021%%%Q%%%%%%%%%%%%%%%%%%Qq%Qq%Q%%%%%%%%%%%%%%%Q%q%%QqQ%%%%%%%%%%%%%%%Q
1500A053%%qQ%qQ%%%%%%%%%%%%%Qq%Q%%%%%%%%%%%%%%Qq%%%%%%%Q%%qQqQ%%%%%%%%%%Q%q%
1494A069qQQ%qQ%%Qq%%%%%%%%%Q%%%%%%%%%%%%%%%%%%%%%%%%Q%%%%%%%%%%%%%%%QqQ%qQ%q
1487A093Q%%%%%%%Qq%Q%%%%%%%%%%%%%%%%%%%%Q%q%%%%%Q%%%%%%%%%%%%%Q%%%%qQ%%%%%%%
1481A125%%%%%%%%Q%qQ%%%%%%%%%%%%%%%%%Q%%%%%%%%%%%%%%%%QqQ%%%%%%%%Q%q%%%%%%Qq
1474A149Q%qQ%%%%%%%%%%%%%QqQ%%%%%%%%%%%%%%Qq%Q%%qQ%%%%%Qq%%Qq%%%%%%Q%%%%%%%%
1468A181%%%%%%%%%Q%%%%%%%%%%%Q%q%%Q%%%%%%%%%%%%%%%%%%Q%%%%%%%%%%%%%%%%%%Q%%%
1461A213%%%%%%%%%%%%%Q%%%%%%%%Qq%%%Q%%%%%%qQ%%%%%QqQ%qQ%%%%%%%%%%%%%%%%%%Q%%
1455A245%%%%%%%%%%%%%%%Q%%%%%%%%%%%%%%QqQqQ%%%%%%%%%%Q%%%%%%%%%%%%%%%%QqQ%%%
1448A277%%%%%%%%%%Qq%Q%qQ%%%%Qq%%Q%q%%%Q%%q%QQq%Qq%%%Q%%qQ%%%%%%%%%%Q%%qQ%%%
1442A309%%%%%%%%%%Q%%%%%%%%%%%%%Q%%%%%%%%%%Qq%%%%%%Q%%%%%%%%%%%Q%%%%%%%%%%%%
1435A341QqQqQ%%%%%%%%%%%%%%Q%%%%%%%Qq%%%QqQ%qQ%%%%%%%%%%%Q%%%%%%%%%%%QqQ%%%%
1429A381%%%%%%%%%%QqQ%%%%%%%%Qq%%Q%%%%%%%%Qq%%%Q%%%%%%%%%%Qq%QqQ%%%%%%%%%Q%q
1422A413Q%%%%%%%%%%%%Q%%%%%%%Qq%Qq%%%%Q%%%%%%%%Q%qQ%%%%%%%%%%Q%%%%%%%%%%%%%%
1416A453%Q%%%%%%Qq%Q%qQ%qQ%%%%%QqQ%%%%%%%%%%%%%%%Q%%%%%%%%%%%%%Q%%%%%%%%Q%qQ
1409A501%%%%%%%%%Qq%Q%%%%%%%%%Q%qQ%%%%%%%%QqQ%%%%%%%%%%Q%%%%%%%%%%%%Q%%%%%%%
1403A541%Qq%Qq%Q%%%%%%%QqQ%qQ%%%%%%%%%Q%%%%%%%%%%QqQ%%%%%%%%%%%%Q%%%%%%%%%%Q
1396A589%%qK4qq%%Qq%Q%%%%%%%%Q%%%%%%%%%%Q%%%%%%%%%%Q%%%%%%%%%%%%Q%%%%%%%Q%%%
1390A637q%Q%%%%%%%QqQ%%%%%%%Qq%Q%%%%%%%%%Q%%%%%%%%%Q%%%%%%%%%%Q%%%%%%%%%%Q%q
1383A677%%%Q%%%%%Q%%%%%%%%%Q%%%%%%%%%%%Q%%%%%%%QqQ%%%%%%Q%%%%%%%%%Qq%QqQ%%%%
1377A733%%%QqQ%%%%%%%%Q%qQ%%%%%%Q%%%%%%%%%Q%%%%%%%%Q%%%%%%%%%Q%j6J6%%%%Qq%Q%
1371A789%%%%%%Qq%Q%%%%%%Q%%%%%%%%QqQ%%%%%%%Q%%qQ%%%%%%QqQ%%%%%%%Q%%%%%%%QqQ%
1364A845%%%%%%%Q%%%%%%%Q%%%%%%%%%Q%%%%%%%Q%q%Q%%%%%QqQqQqQ%%Q%%qQ%%%%Q%%%%%%
1358A901%%Q%%%%%%%%Q%%%qQ%%%Q%%%%%%%%%%%Q%%%%%%Q%%%%%%%QqQ%%%%%%%Q%%%%Q%%%%%
1351A965%%%Q%%%%%%%%%Q%%%%%%Q%%qQ%%%Qq%%%K4l2QqQK4j6J6qj6L2j6QqQJ6k4Q%Q%q%%%
1346B013Q%%%QqQ%%%%%%%%Q%%%%Q%%%%%%%%%%Q%%%%%%Q%%%%%%Q%%qJ6qQ%%qQ%%%QqQ%%%%%
1339B085%Q%qQ%%%%%Q%%%%%%Q%%%%%%Q%%%%%%Q%qQqQ%%%%Q%%%%%Q%%%%%%%Q%%%%%%Q%%%%Q
1333B165q%Q%%%%%%Q%%%%%%%Q%%%%%%Q%%%%%QqQ%%%%Q%%%%%%%Q%%%%%%%Q%%%%%QqQ%%%%%Q
1326B237%%%%%Q%%%%%%QqQ%%%%%Q%%%%%%Q%%%%%%QqQ%%QqQ%%%%Q%%%%QqQ%%%%%%%Q%%%%%%
1320B309Q%%%%%QqQ%%%%Q%%%%%Q%%%%%Q%%%%%Q%%%%%%%Q%%%%Q%%%%%%%Q%%%%%Q%%%%%%Q%%
1313B397%%Q%%%%%%Q%%%%QqQ%%%QqQ%%%Q%%%%%%%Q%%%%Q%%%%%QqQ%%%Q%%%%%%%Q%%QqQ%%%
1307B485%%Q%%%%%%Q%%%%Q%%%%%Q%%%%Q%%%%%QqQ%%%Q%%%%Q%%%%%Q%%%%%%QqQ%QqQ%%%%Q%
1300B581Qq%Q%%%Q%%%%%QqQ%%%%Q%%qQ%Q%%%%Q%%%%%Q%%%%%%Q%%%Q%%%%Q%%%Q%%%%%%Q%%%
1294B677%Q%%%%Q%%%%Q%%%%QqQqQ%%Q%%%%Q%%QqQ%%%%Q%%%%Q%%%%Q%%%%Q%%%%%Q%%%Q%%%%
1287B781%Q%%%Q%%%Q%qQ%QqQ%%%Q%%%%Q%%%%Q%%%%Q%%%%Q%%%%%%Q%Q%%%%Q%%%%%Q%%%%Q%%
1281B893%Q%%QqQ%%%Q%%%Q%%%%%Q%%%Q%%%Q%%%%%Q%%%%%Q%%Q%%%Q%%%%Q%%%%Q%%%Q%%%%Q%
1274C013%Q%%%%QqQQ%%%%Q%%%%%Q%%%Q%%%%Q%%QqQ%%Q%%Q%%%%%Q%%%Q%%%Q%%%Q%%%%Q%%Q%
1268C141%%Q%%%%%Q%%%Q%%%Q%%Q%%%Q%%%%Q%%%Q%%%Q%%%Q%%%%Q%%Q%%%%Q%%Q%%%%Q%%%Q%%
1262C269Q%%%Q%%%Q%%%%Q%%Q%%Q%%%%Q%Q%%%Q%%%%Q%%Q%%%%Q%%Q%%%Q%%%Q%%Q%Qq%Q%%Q%%
1255C413%Q%%%Q%Q%%%%Q%%Q%%Q%%%Q%%%%Q%Q%%%%Q%Q%%%%Q%Q%%Q%%Q%qQQ%%%qJ6qQ%%%QQ%
1249C565%%Q%Q%%%%Q%%%Q%Q%%Q%%Q%%Q%qQ%Q%%Q%%%Q%%Q%%Q%%Q%%%Q%%%Q%Q%%%Q%%Q%%Q%%
1242C725%Q%Q%%Q%%%Q%%Q%%Q%%Q%%%Q%%Q%%Q%%%Q%Q%%Q%Q%%%Q%%%Q%%%Q%Q%Q%%%Q%%Q%%Q%
1236C901%Q%%%Q%Q%%Q%%Q%%Q%Q%%%Q%%Q%Q%%%Q%%Q%Q%%%Q%Q%%Q%%Q%%%Q%Q%%Q%Q%%Q%%Q%%
1229D085Q%%Q%Q%%Q%%Q%%Q%Q%%%Q%Q%%Q%Q%%%Q%%Q%Q%Q%%%Q%%QQ%%%QQ%Q%%%Q%%Q%Q%%Q%%
1223D285Q%Q%Q%%%Q%Q%%Q%Q%%Q%Q%%Q%%Q%Q%%Q%%QQ%%%QQ%%Q%%Q%Q%%Q%Q%Q%%Q%%Q%Q%Q%%
1216D501Q%Q%%%Q%Q%Q%Q%Q%%Q%Q%%Q%Q%%Q%Q%%QQ%%Q%Q%Q%Q%%Q%Q%%Q%Q%%Q%QQ%%Q%Q%%Q%
1210D733Q%Q%%QQ%%Q%Q%Q%Q%Q%%Q%Q%Q%Q%Q%Q%%QQqQQ%Q%%Q%Q%Q%Q%Q%Q%Q%%QQ%%QQ%%Q%Q
1203D989%Q%Q%Q%Q%Q%Q%Q%%J6qQQ%%Q%%QJ6qJ6%qJ6%Q%Q%%Q%Q%Q%QQ%Q%Q%%QQ%Q%%Q%QQ%Q
1197E245%Q%Q%QQ%%QQ%Q%%QQ%Q%Q%Q%Q%QQ%%Q%Q%QQ%Q%Q%Q%Q%QQ%Q%QQ%Q%Q%Q%Q%Q%QQ%Q%
1191E533Q%QQ%Q%QQ%Q%Q%Q%QQ%Q%QQ%Q%Q%Q%QQ%Q%Q%QQ%Q%QQ%QQ%%QQ%QQ%Q%QQ%Q%QQ%QQ%
1184E853Q%QQ%Q%QQ%QQQ%%QQ%Q%QQ%QQ%%QQQ%QQ%QQ%Q%QQ%QQ%QQ%QQ%QQ%QQ%Q%QQ%QQ%QQ%
1178F197QQ%QQQ%QQ%Q%QQ%Q%QJ6%%QQQ%QQ%QQ%QQQ%Q%QQQ%QQQ%QQQ%QQ%Q%J6%Q%J6%Q%QQ%
1171F557QQQ%QQQ%QQ%J6%Q%QQQQ%QQQ%QQ%QQQQ%QQQ%QQQ%QQQQ%QQQ%QQQ%QQQ%QQQQ%QQQ%Q
1165F965QQQ%QQQ%J6%QQQQQ%Q%J6%QQQQQ%QQQQQ%QQQQ%QQQQQQQ%QQQ%QQQQQQ%QQQQQQQ%QQ
1159G405QQQQ%J6%QQQQQQQ%QQQQQQQQQQ%QQQQQQQ%QQQQQQQQQQQQ%QQQQQQQQQ%J6QQ%J6%QQ
1153G877%J6J6%J6qQQJ6Q%J6J6%%J6%J6QQQQQQQQ%J6QQ%J6Q%J6QQQ%QJ6QQQQQQQQQQQQQQQ
1147H325QJ6%QQQQQJ6QQQQQQQQQQQQQQQJ6QQQQQQQQQQQJ6QQQQQQQJ6QQQQQQQQJ6QQQQQQJ6
1141H861QQQQQQQJ6QQQQJ6Q%J6QJ6%J6QQQQJ6QQQQQQJ6QQQJ6QQQQJ6QQQJ6QQQQJ6QQJ6QQJ6
1136I397QQQQQJ6QQQJ6QQJ6QQQQJ6QJ6QQQJ6QQJ6QQQJ6QQJ6QQQJ6QQJ6QJ6QQQJ6QQJ6QJ6Q
1131I941QQJ6QJ6QQJ6QQJ6QJ6QQJ6J6QQJ6QQQJ6J6QQJ6QJ6QQJ6QJ6QJ6QJ6QJ6QJ6QQJ6QJ6
1126A0485QQJ6QJ6J6QQJ6QJ6QJ6QJ6J6QQJ6J6QQJ6J6QJ6QJ6QJ6QJ6QJ6QJ6QJ6J6QJ6QJ6QJ6
1122A1029J6J6QQJ6J6QJ6QJ6J6QJ6J6QJ6J6QJ6QJ6QJ6J6QJ6J6J6QJ6J6QJ6J6QJ6J6QJ6J6Q
1118A1565J6J6QJ6J6J6QJ6J6J6QJ6J6J6QJ6J6QJ6J6J6QJ6J6J6J6J6QJ6J6J6J6J6QJ6QJ6J6
1115A2101J6J6J6QK4QJ6J6J6J6J6J6QJ6J6J6J6J6J6QK4QJ6J6J6J6J6J6J6J6J6J6QJ6K4QJ6
1111A2661J6J6J6J6J6J6J6J6J6J6J6J6J6J6J6J6QK4J6J6J6J6J6J6J6J6J6J6J6J6K4QK4J6J6
1108A3229J6J6J6J6J6J6K4QK4J6J6J6J6J6J6K4J6J6J6J6J6J6J6K4J6J6J6J6K4J6J6J6J6K4
1105A3813J6J6J6J6K4J6J6K4J6J6K4QJ6K4J6K4J6J6K4J6K4J6J6J6J6K4J6K4J6J6K4J6J6K4
1101A4437J6J6K4J6J6K4K4J6J6J6K4K4J6J6K4J6K4J6K4J6K4J6J6K4K4J6K4J6K4J6K4J6K4J6
1098A5101K4J6K4J6K4J6K4K4J6K4J6K4K4J6K4K4K4J6K4J6K4J6K4K4J6K4K4K4J6K4K4J6K4K4
1095A5821K4J6K4K4J6K4K4K4K4J6K4K4K4J6K4K4K4J6L2J6K4K4K4K4K4J6L2J6K4K4K4K4K4K4
1092A6589K4K4K4K4J6K4K4L2J6K4K4L2J6K4K4K4L2J6K4K4K4K4K4L2K4K4K4K4K4K4K4K4L2K4
1088A7413K4K4K4K4L2K4K4K4K4L2K4K4K4K4L2K4K4K4L2K4K4K4L2K4K4L2K4K4L2K4L2K4L2K4
1085A8301K4L2K4K4L2K4L2K4L2K4K4L2K4L2K4L2K4L2K4L2L2K4L2K4L2K4L2L2K4L2L2K4L2K4
1082A9253L2L2L2K4L2L2K4L2L2L2K4L2L2L2K4L2L2K4L2L2L2L2L2L2K4L2L2L2L2L2K4M0L2L2
1079B0293L2L2L2L2L2K4M0L2L2L2L2L2L2L2L2L2M0L2L2L2L2L2M0K4M0L2L2L2L2M0L2L2M0L2
1075B1413L2M0L2L2M0L2L2M0L2L2M0L2M0L2M0L2M0L2L2M0M0L2M0L2M0L2M0L2M0M0L2M0L2M0
1072B2629M0M0L2M0M0M0L2M0M0L2M0M0M0M0L2M0M0M0M0M0L2M8L2M0M0M0M0M0M0M8L2M0M0M8
1069B3957L2M8M0M0M0M0M8L2M8M0M0M0M8M0M0M0M8M0M0M8M0M0M8M0M8M0M8M0M0M8M0M0N6M0
1066B5397M8M0M8M0M8M0M8M8M0M8M8M8M0M8M8M8M0M8M8M8M0N6M0M8M8M8M8M8M8M8M8M8M8M8
1062B6973M8M8M8M8N6M8M8M8M8N6M8M8M8N6M8M8N6M8M8N6M8N6M8N6M8N6M8N6N6M8M8N6N6M8
1059B8701N6N6N6M8N6N6N6M8N6N6N6N6N6N6N6N6N6M8O4M8O4M8O4N6N6N6N6N6O4N6N6O4N6N6
1056C0605O4N6O4N6N6N6O4N6O4O4O4N6N6N6P2M8Q0O4M0P2P2N6O4O4O4O4N6O4O4O4O4O4O4P2
1053C2709N6P2O4O4O4O4P2O4O4P2O4O4P2O4P2O4O4P2P2O4P2P2O4P2P2P2O4P2P2P2P2P2P2P2
1049C5029P2P2P2P2P2P2P2P2Q0P2P2P2Q0P2Q0P2P2Q0P2Q0Q0P2Q0P2Q0Q0Q0P2Q0Q0Q0Q0Q0Q0
1046C7605Q0Q0Q0Q0Q0Q0Q0Q8Q0Q0Q8Q0Q0Q8Q0Q8Q0Q8Q8Q0Q8Q8Q0Q8Q8Q8Q8Q8Q0R6Q8Q8Q8Q8
1043D0477Q8Q8R6Q8Q8R6Q8R6Q8Q8R6R6Q8R6R6Q8R6R6R6R6R6Q8J04R6R6R6R6J04R6R6J04R6
1040D3493R6J04R6J04R6J04J04J04R6J12R6J12R6J04J12J04J04J04J04J04J12J04J12J04J12
1038D6093J04J04J20J12J04J12J12J12J12J12J12J12J12J12J20J12J20J12J12J20J20J12J20
1035D8693J20J20J12J20J20J20J20J28J20J20J20J20J28J28J20J20J28J28J28J20J36J20J28
1033E1517J28J28J36J20J36J28J36J28J36J36J28J36J36J36J36J36J36J36J44J28J44J36J44
1031E4605J36J36J44J44J44J44J36J52J36J52J52J36J52J44J52J44J52J44J52J60J44J52J52
1029E7965J52J60J52J60J52J60J52J60J52J60J60J60J68J60J60J60J68J60J68J68J68J60J68
1027F1653J68J68J76J68J68J76J68J76J76J68J76J76J76J84J76J76J84J76J84J84J84J76J92
1024F5709J84J84J92J84J92J84J92J84K00J84K00J92J92K00K00J92K00K00K00K00K00K00K08
1022G0173K00K08K08K00K16K08K08K08K16K08K16K16K16K16K16K16K24K16K24K24K24K24K24
1020G5109K24K24K32K32K32K32K32K32K32K32K40K40K40K40K32K48K48K40K48K48K48K48K48
1018H0581K56K48K56K56K56K56K56K64K64K56K64K64K72K64K72K64K72K80K72K72K80K72K88
1016H6685K80K80K80K88K80K96K80K96K96K88K96K96K96K96L04L04L04L04L04L12L12L04L12
1013I3493L20L12L20L20L20L28L20L28L20L36L28L36L28L44L36L36L44L36L52L44L52L44L52
1011A01149L60L52L60L60L52L68L68L68L68L76L68L76L76L84L76L84L84L92L92L84L92M00
1009A09389L92M08M00M00M08M16M08M16M16M08M32M16M32M24M32M32M32M32M48M40M40M48
1007A18669M56M48M56M56M64M64M64M64M72M80M72M80M80M96M72M96M88N12M88N04N04N04
1005A29189N12N12N28N12N28N20N28N36N36N44N36N52N44N52N60N60N60N68N68N76N76N76
1003A41173N84N92N84O00O00O00O08O08O16O16O16O32O24O40O32O48O40O48O56O64O56O72
1001A54909O64O80O80O88O88O88O96P04P12P12P12P28P20P36P36P36P52P44P60P60P68P68
999A70741P76P84P92P92P92Q08Q08Q16Q24Q24Q32Q40Q40Q48Q64Q56Q72Q72Q80Q88Q96Q96R04
996A90045R12R20R28R28R36R52R52R60R68R76R84R84J000J000J008J024J024J032J040J048
994B09621J056J064J080J080J088J096J112J112J128J128J144J144J160J160J184J184J200
993B28741J208J216J216J240J248J248J264J280J280J296J304J320J320J344J344J360J376
991B50605J376J392J408J416J432J440J456J464J472J496J504J512J528J544J552J576J576
990B75749J600J608J624J640J648J664J688J696J712J728J744J752J776J792J808J816J840
988C04885J856J872J896J904J928J936J968J976K000K016K040K048K072K096K112K136K160
986C38901K176K192K216K240K264K280K304K328K352K376K400K424K440K472K504K520K544
985C78933K576K592K632K648K680K712K736K760K800K816K856K880K920K936K984L000L040
983D26501L080L104L144L168L208L248L280L320L352L392L432L464L504L552L584L624L672
982D83629L720L752L792L848L888L928L984M024M080M120M168M232M272M320M384M432M480
980E53053M544M600M648M712M776M832M888M960N016N080N144N216N280N352N416N496N560
978F38573N640N712N784N864N952O016O112O192O272O360O456O536O632O728O816O912P016
977G45573P120P216P320P424P536P656P752P872P992Q112Q232Q360Q488Q608Q752Q872R024
975H81909R160R296R448R600R752R904J0072J0224J0400J0560J0736J0912J1104J1280J1472
974A035829J1664J1864J2064J2272J2488J2704J2920J3152J3392J3616J3864J4120J4376J4632
972A218957J4896J5176J5456J5752J6040J6352J6656J6976J7304J7640J7984J8336J8704J9072
971A455301J9456J9840K0256K0664K1088K1528K1976K2440K2920K3400K3904K4432K4952K5504
970A767661K6072K6648K7248K7864K8496K9160K9816L0528L1248L1968L2752L3528L4344L5184
968B192517L6056L6944L7880L8832L9824M0840M1912M3000M4136M5312M6528M7792M9096N0448
967B791117N1864N3312N4832N6400N8032N9720O1496O3320O5216O7208O9272P1424P3656P5992
966C672861P8424Q0960Q3608Q6376Q9264R2280R5432R8736J02192J05808J09600J13568J17744
964D926853J22112J26704J31528J36608J41944J47568J53488J59728J66304J73256J80608
963F566701J88360J96584K05272K14496K24272K34648K45680K57424K69896K83216K97400
962I183949L12576L28776L46120L64712L84648M06064M29096M53904M80656N09544N40791
961A3740836N74633O11376O51288O94743P42152P93960Q50689R12936R81376J056815J140169
960B2750973J232480J334992J449136J576639J719432J879960K060954K265822K498602K764152
959D1533142L068423L418649L823857M295056M846141N494587O262570P178625Q279502R613524
958I7814076J1244392J3257576J5768818J8937004K2983570K8220776L5095543M4254880N6643677
957C44220312P3642162R7234807J30120873J75409448K34749098L02006089L48728530L10920289
957B017031608J30452039j30452039l10920289l48728530l02006089k34749098j75409497
956F45218105j30120873r7234709p3642211n6643652m4254930l5095542k8220752k2983545
955A57021891j8937029j5768793j3257588j1244405r613505q279521p178606o262601n494575
954F0985268m846141m295056l823842l418674l068413k764152k498592k265832k060954j879951
953C0063661j719441j576639j449136j334992j232488j140161j056815r81384r12928q50689
952A7808988p93950p42152o94753o51288o11368n74648n40784n09544m80656m53904m29096
951A1326845m06064l84648l64712l46120l28784l12568k97408k83208k69904k57416k45672
950G830341k34656k24272k14496k05272j96584j88360j80600j73264j66312j59728j53480
949E733317j47568j41944j36600j31544j26704j22112j17736j13568j09600j05808j02192
948D377941r8736r5440r2272q9264q6376q3608q0960p8424p5992p3664p1416o9272o7208o5224
947C250085o3320o1488n9728n8024n6408n4824n3320n1856n0448m9096m7792m6528m5312m4136
946B507805m3000m1904m0848l9824l8832l7880l6944l6048l5192l4344l3528l2744l1984l1240
944A993493l0520k9824k9152k8504k7864k7248k6648k6064k5512k4952k4424k3912k3400k2912
943A622557k2448k1976k1528k1088k0664k0256j9848j9456j9072j8696j8336j7992j7632j7304
942A346261j6976j6656j6352j6040j5744j5464j5176j4904j4632j4368j4120j3864j3624j3384
940A134957j3152j2920j2704j2488j2272j2064j1864j1664j1472j1280j1096j0920j0736j0560
939I69765j0400j0232j0056r912r752r592r456r296r160r016q880q752q608q488q352q240
937H21573q104p992p880p760p648p528p432p320p216p120p008o920o824o720o632o544o440
936F98485o368o280o184o112o016n952n864n792n704n640n560n496n416n352n280n216n144
934F01109n080n016m952m896m832m776m712m648m600m544m480m432m376m328m280m216m168
933E22773m128m080m024l976l936l880l848l800l752l712l672l632l584l552l504l464l432
931D58797l392l352l320l280l248l208l168l144l112l064l048l008k976k944k912k880k856
929D05885k824k792k760k736k712k680k656k624k592k576k544k528k488k472k448k424k400
928C61629k368k352k328k312k280k264k240k216k200k168k160k128k120k088k080k056k032
926C24237k016k000j976j960j944j928j904j888j880j856j832j824j808j792j776j752j744
924B92357j728j712j696j680j672j648j640j624j608j600j576j568j560j544j528j512j504
923B64957j496j472j464j456j440j424j424j408j392j376j376j360j344j336j336j312j304
921B41237j296j280j280j264j248j248j232j224j216j208j200j184j176j168j160j144j144
920B20565j136j120j120j096j104j088j080j080j056j064j048j040j040j016j024j008j008
918B02437r92r92r76r76r68r60r52r44r44r28r28r20r12r04q96q96q88q80q72q72q56q56q56
916A81269q40q40q32q24q24q16q08q00q00p92p92p76p84p68p68p60p52p52p44p44p36p36p20
914A63261p28p12p12p04p04p04o88o96o80o80o72o72o72o56o64o48o56o40o48o32o32o32o32
911A47797o16o16o16o08o08o00o00o00n84n92n84n76n76n76n76n60n60n60n60n52n44n52n44
909A34437n36n36n36n28n28n20n20n12n20n04n12n04n12m88n04m80m96m96m80m80m80m80m72
907A22813m64m72m64m64m56m64m56m48m48m56m40m40m40m40m32m32m32m24m32m16m24m24m08
905A12637m16m16m08m00m08m00m00m00m00l92l92l84l92l84l84l84l76l76l76l76l68l68l68
903A03669l68l60l60l60l60l52l60l44l52l52l44l44l44l44l44l28l44l36l28l28l28l28l28
900I5733l20l28l20l20l20l12l12l12l12l12l12l04l04l04l04k96l04k96k96k96k96k88k88
898H8677k96k80k88k88k80k88k72k80k80k80k72k72k72k80k64k72k64k64k72k56k64k64k64
896H2365k56k56k56k56k56k56k48k48k48k48k48k48k40k48k40k40k40k40k40k32k40k32k40
894G6709k24k32k32k32k32k24k24k24k24k24k24k24k16k24k16k16k16k16k16k16k08k16k08
892G1621k08k16k08k00k08k08k00k08k00k00k00k00k00k00j92k00k00j92j92j92j92j92j92
889F7021j92j84j92j84j92j84j84j84j84j84j84j84j76j84j76j76j84j76j76j76j68j76j76
887F2845j68j76j68j68j76j60j76j68j68j60j68j68j60j68j60j60j60j60j60j68j52j60j60
885E9053j52j60j52j60j52j60j52j52j52j52j52j44j52j52j52j36j44j52j52j44j44j52j36
883E5597j52j36j52j28j44j44j44j36j44j36j36j36j44j28j44j36j28j36j36j36j28j36j28
881E2429j28j36j28j28j36j28j28j28j28j28j20j28j28j28j20j28j20j20j28j20j20j20j28
878D9525j20j20j20j20j12j20j20j20j20j12j20j12j20j12j12j12j20j12j12j12j12j12j12
876D6861j12j12j12j12j04j12j12j04j04j12j04j12j04j04j04j04j04j12j04j04j04j04j04
874D4397r6j04j04r6j04r6j04r6j04j04r6r6r6j04r6r6r6r6r6r6r6r6r6r6q8r6r6r6r6q8r6
871D1381q8r6q8q8r6q8q8r6q8r6q0q8r6q0q8q8r6q0q8q8q8q8q0q8q0q8q8q0q8q0q8q0q0q8
868C8413q0q0q0q8q0q0q0q0q0q0q0q0q0q0q0p2q0q0q0p2q0q0q0p2q0p2p2q0q0p2p2q0p2p2
865C5757p2q0p2p2p2p2p2p2p2q0p2p2o4p2p2p2o4p2p2p2p2o4p2p2o4o4p2p2o4o4p2o4p2o4
861C3365p2o4o4o4p2o4o4p2n6p2o4o4o4o4o4o4n6o4p2n6p2n6o4p2n6n6q0n6n6o4m8o4o4n6
858C1205o4n6o4n6o4o4n6n6n6o4n6n6o4n6n6n6o4n6n6n6n6n6n6o4m8n6n6n6n6n6n6n6n6n6
855B9245n6n6m8n6n6n6n6m8n6m8n6n6m8n6n6m8n6m8n6m8n6m8n6m8m8n6m8n6m8m8m8n6m8n6
852B7461m0n6m8m8m8m8n6m8m8m8m8m8m8m8m8m8m8m8m8m8m0n6m0m8m8m8m8m0m8m8m8m0m8m8
848B5845m8m8m0m8m0m8m8m0m0m8m8m0m8m0m8m0m0m8m8m0m0m8m0m0m8m0m0m0m8m0m0m8m0m0
845B4365m0m0m8m0m0m0m0m0m0m8m0l2m8m0m0m0m0m0m0m0m0m0l2m0m0m0m0m0m0l2m0m0m0m0
842B3005m0l2m0m0l2m0m0m0l2m0l2m0m0m0l2l2m0m0m0l2l2m0l2m0l2m0l2m0l2m0l2m0l2l2
839B1765m0l2l2m0l2m0l2l2m0l2l2m0l2l2l2m0l2l2l2l2m0l2l2l2l2l2l2m0l2l2l2l2l2l2
835B0613l2m0k4l2l2l2l2l2l2l2l2l2l2l2l2k4m0l2k4l2l2l2l2k4m0k4l2l2l2k4l2l2l2k4
832A9557l2k4l2l2l2l2k4l2l2l2k4l2k4l2l2k4l2k4l2l2l2k4k4l2l2k4l2k4l2k4l2k4l2k4
829A8573l2k4k4l2k4l2k4l2k4k4l2k4l2k4k4l2k4k4k4l2k4k4l2k4k4l2k4k4k4k4l2k4k4k4
826A7669l2k4k4k4l2k4k4k4k4k4l2k4k4k4k4k4k4k4k4l2j6k4l2k4k4k4k4k4k4k4k4k4k4k4
822A6821k4k4k4k4k4k4k4j6l2j6k4k4k4k4k4k4j6l2j6k4k4k4k4k4j6l2j6k4k4k4j6k4k4k4
819A6037k4j6k4k4k4j6k4k4k4j6k4k4k4j6k4k4j6k4k4j6k4j6k4k4k4j6k4j6k4k4j6k4j6k4
816A5309j6k4k4k4j6k4j6k4j6k4j6k4j6k4j6k4k4j6k4j6j6k4j6k4j6j6k4k4j6k4j6k4j6j6
813A4629j6k4k4j6j6k4j6j6k4k4qk4j6k4j6j6k4k4qj6k4j6j6k4k4j6k4qj6k4j6j6k4j6j6k4
809A3949j6j6j6k4qj6k4j6k4qk4j6j6k4j6j6j6j6k4j6j6j6j6k4j6j6j6j6j6j6j6k4j6j6j6
806A3341j6j6j6j6j6j6j6k4j6j6j6j6j6j6j6j6j6j6j6j6j6j6j6j6j6j6j6j6j6j6j6j6j6j6
803A2789j6j6j6j6j6j6j6j6j6j6j6qj6j6j6k4qj6j6j6j6j6j6j6qj6j6j6j6j6j6j6j6qj6j6
799A2237j6j6j6j6qj6j6j6j6qj6j6j6j6qj6j6j6j6j6qj6j6j6qj6j6j6j6qj6j6j6j6qj6qj6
796A1693j6qj6j6j6qj6j6qj6j6j6qj6j6qj6j6qj6j6qj6j6qj6j6qj6j6qj6qj6j6qj6j6qqk4
792A1141qj6qj6j6qj6qj6j6qj6qj6j6qj6qj6qj6qj6qj6j6qqj6j6qj6qj6j6qqj6qj6qj6qj6
788A0597qj6qj6qj6qj6qj6qj6qqj6qqj6qk4Qk4qj6qj6qqj6qj6qj6qqj6qj6qj6qqqj6qj6qq
783A0053j6j6qqj6qqqj6qqj6qqj6qqj6qqj6qqj6qqj6qqj6qqj6qqj6qqj6qqqj6qqqqj6qqj6
778I509qqqj6qqj6qqqqj6qqqj6qqqj6qqqj6qqqqj6qqj6qqqqj6qqqqqqj6qqqqj6qqqqqj6qq
773H957qqqqqj6qqqqqj6qqqqqqqqj6%j6qqqqqj6qqqqqqj6%j6%j6qqqqqqqqqqj6qqqqqqqqq
767H429qj6%qj6qqqqqqqqqqqqqqqqqqj6%qqj6%qqqj6%qqqqqqqqqqj6%j6%j6%qq%qj6qqqq%
761G949l2Qqqj6Qqqj6q%j6%j6%j6%qqqqqqqqqq%j6qq%qqqq%j6%j6%qqqqqqqqq%qqqqqqqqq
756G493%qqq%j6qqq%j6%qqqqq%qqqqq%j6%qqqq%qqqq%qqqq%j6q%qqqq%qqqq%qqqqq%qqq%q
749G061qj6%q%qqqq%qqqq%qqqq%qqqqq%q%qqqq%qqqq%qqqq%qq%qqq%qqq%qqqq%qq%qqq%qq
743F637qq%qq%qqq%qq%qqq%q%qqq%qqq%qqq%qq%qqq%qq%qqq%qq%qq%qqq%q%qq%qqqqQj6%q
736F253%j6%%j6%q%qq%qq%qq%q%qq%qqq%qq%q%qqq%q%qq%q%qqq%qq%q%qq%%qq%qqq%q%q%q
730E909q%qq%qq%qq%q%q%qq%qq%q%qq%q%qq%q%q%qq%q%q%qq%q%q%qqq%%q%qq%qq%q%qq%%q
723E581q%qq%q%q%q%q%qq%q%q%q%q%qq%q%q%qq%%qq%q%q%q%qq%q%q%q%q%q%q%q%q%qq%q%%
717E285qq%qq%q%%q%qq%%q%q%qq%%qq%q%q%q%%q%qq%q%q%q%%%j6%%qq%q%q%%qq%%%j6Qj6%
710E013%q%q%q%q%q%q%q%q%%q%q%q%q%q%%qq%%q%q%q%qqQq%q%q%q%q%q%q%q%%q%q%q%q%%q
704D757q%%%qq%q%q%%q%q%q%%%qq%%q%q%%q%q%q%%qqQqq%q%q%%q%q%q%%q%q%%q%q%%qq%%q
697D517%%q%q%%q%q%%q%q%q%%q%%q%q%q%%%q%q%q%%q%q%q%%q%%q%q%q%%q%q%%q%%%q%q%q%
691D301q%%q%q%%%%j6%%qQq%%j6%%q%%%q%qQj6%%q%%q%%q%%q%q%qQq%q%%q%%q%q%%q%%q%q
684D101%%q%%q%%q%%q%%q%q%%q%%q%qQq%q%%q%%q%q%%%q%q%%q%%%q%q%%%q%q%%%q%%q%%q%
678C917%q%q%q%%%q%%%q%q%%q%%q%%q%%q%%%q%%q%q%%q%%%q%%q%%q%%q%%%q%%%q%%q%%q%%
671C741q%%q%%q%%q%%%q%%q%%q%%%q%%q%%q%%q%%%q%q%%qQq%q%%%q%%%q%%q%%q%%q%%%q%%
665C573qQqq%Qj6%%%%%qQj6Qq%%q%%q%%q%%qQq%%q%%q%%q%%%q%%%q%%%q%%q%%q%%%q%%%q%
658C421%%q%%%q%q%%%%q%%%q%%%q%%q%%q%%%%q%%q%%%%q%q%%%%q%%%q%%q%%%q%%%%q%%q%%
652C277q%%%%qqQq%%%%q%%q%%%%q%%%q%%%q%%%q%%%%q%%%q%%%q%%q%%%%q%%q%%%%%q%q%%%
645C141%q%%%%q%%q%%%%q%%%q%%%q%%%%q%%%q%%%q%%%%q%%%q%%%q%%%%%q%%q%%%q%%%q%%%
639C013%q%%%q%%%%q%%%q%%%%%q%%%q%%%%q%%%q%%%qQq%%q%%%%%q%%%q%%%%%q%q%%%%%q%%
632B893%q%%%%%q%%%%q%%%q%%%%q%%%%q%%%qQq%%q%%%%q%%%%%q%%%q%%%%q%%%%qQq%%q%%%
625B781%%q%%%%%q%%%q%%%qQq%%%%q%%%%q%%%%q%%%%q%%%%q%%%q%%%%%q%%%%%q%%%q%%%%%
619B677q%%%%q%%%%%q%%qQ%q%%%q%%%%%%q%%%%%q%%%qqQ%qQqQq%%q%QqqQ%%q%%%q%%%%q%%
612B573%%q%%%%%q%%%%%%q%%%%%q%%%%q%%%qQq%%%%q%%%%%q%%%%%%q%%%%q%%%%%q%%%%%qQ
606B485q%%%%q%%%%q%%%%%q%%%%%%qQq%%%q%%qQ%q%%%%%%q%%%%q%%%%%q%%%%%%q%%%qQqQq
599B389%%%q%%%%%q%%%%%q%%%%%qQq%%%%%q%%%%%q%%%%%%q%%%%%q%%%%%%q%%%%%%q%%%%%q
593B301%%%%%%%q%%%%%q%%%%%%qqQQqj6Q%Qqq%QqQq%%%q%%%%%%q%%%%%%%%%q%%%%%q%%%%%
586B229%q%%%%%q%%%%%%q%Qq%q%Qq%%%%%%q%%%%%%q%%%%%%%q%%%%%q%%%%%%%q%%%%qQ%q%%
579B149%%%%q%%%%%%q%%%%%%%q%%%%%%q%%%%%%q%%%%%%%q%Qq%qQq%%%%%%qQ%q%%%%%q%%%%
573B077%%%q%%%%qQ%%q%%%%%q%Qq%%%%qQ%q%%%%qQq%Qq%%q%%%%%%%%qQq%%Qq%q%%%qJ6j6J6
566B021qj6QK4qk4QqJ6j6QqqJ6%qqQ%q%Qq%%%%q%%%%%%%q%Qq%%q%Qq%%%%%%%q%%%%%%qQq%
560A949%%%%%%q%Qq%%qQq%%%%%qQ%q%%%%%%q%%%%%%%%qQ%q%%%%%qQq%%%%%%%%q%%%%%%%%q
554A885%%%Qq%%q%%%%%%%qQq%%%%%%%qQq%%%%%qQ%q%%%%%%%%%q%%%%%%%q%%%%%%%q%%Qq%%
547A829%%%%q%%%%%%%%%%q%%%%%%%%%%qQq%%%%%q%%%%%%q%%%%%%%%%%%q%%%%%q%Qq%Q%qQq
541A773%qQ%q%%%%%%%%%%%q%%%%q%%%%%%%%%%%%q%%%%%%%qQq%%%%%%%%%q%%%%%%%%%q%%%%
534A717%%%%%%%%q%%%%%%%%q%Qq%%%%%%%q%%%%%%%%%%q%%%%%%%q%%%%%%%%%%%%q%%Qq%%%%
528A669%%%q%%%%%%%%%q%%%%%%%%%%qQ%q%%%%%%q%%%%%%%%%q%%%%Qq%%%%%%%qQq%%%%%%%%
521A621qQq%%%%%%%%%%%%q%%%%%%%%q%%%%%%%%%%qQq%%Qqq%%%Q%q%%%%%%%%q%Qq%%%%%%%%
514A573%qQq%%%%%%%q%Qq%%%%%%%%%%%%qQq%%%%%%%qQqQq%%%%%%%%%%q%%%%%%%%%qQq%%%%
508A525%%%%%%qQqQq%%%%%%%%q%QqQq%%%%%qQ%%q%%%%%%%qQqQ%q%%%%%%%q%%%%%%Qq%%%%%
501A485%%%q%Qq%%%%%%q%Q%%q%%%%%%%qQqQq%%%%%%%%%q%%%%%%%%%%%qQq%%%%%%%%%%%%%%
495A445%q%%%%%%%%%%%qQq%%%%Qq%%%%%q%%%%%%%%%%%qQq%%%%%%%%%qQ%%q%%%%%%%%%%%%%
488A405%%q%%%%%%%%%%%qQqQq%%%%%%%%qQ%q%%%%%%%%%%%qQq%%%%%%%%%%%%%qQ%q%%%%%%%
482A365%%%%%%q%%%%%%%%%%%%%q%%%%%%%%%%%%%qQq%Qq%%%%%%%%%%%%qQq%%%%%%%%%q%%Qq
475A325%%%QqqQ%%%%q%%%%%%%%%%%%%%%%q%%%%%%%%%%%%%%%qQ%q%%%%%%%%%%%%qQq%Qq%%%
468A293q%%%%%%%%%%%%%%%%%%%%%%%%q%%%%%%%%%%%%%%%qQ%q%%%%%%%%%%%%%q%%%%%%%%%%
462A261%%%q%%Qq%%Qq%%%%%%%%%qQq%%%Qq%%%%%%%%%q%%%%%%%%%%%%%qQ%qQ%qQq%%%%%%%%
455A229%qQ%%qQ%%%q%%%%%%%%%%%q%%%Qq%%%%%%%%%%%q%%%%%%%%%%qQ%%%%%%q%Qq%%%%%%%
449A197%%%%%%q%%%%%%%%%%%%%%%%%%%%%q%%Qq%%%%%%%qQqQ%%q%%Q%q%%%%%%%qQ%qQq%%Qq
442A165%%%%%%%%qQ%qQq%QqQq%%%%%%%%qQ%qQqQ%q%%%%%%%qQ%%%%%%%%q%%%%%%%%%%%%%%%
435A141%q%%%%%%%%%%%%%%%%%%q%%%%%%%%%%%%%%%%%%%%qQq%%%%%%%%%%%%%%%q%Q%q%Qq%%
429A109%%%%%%%%%%%%%%%q%%%%%%%%%%%%%%%%%%%qQ%q%%%%%%%%%%%%%%%%%q%%%%%%%%%%%%
422A085%%%%qQq%%%%%%%%%%%%%%%qQqQQqq%QqqQ%%%%%%%%%%%qQ%%%%q%%%%%%%%%%%%%%%%%
416A061%qQ%%q%%%%%%%%%%%%%qQ%%%%%q%%%%%%%%%%%%%%%%%%qQq%%%%%%%%%%%%%%%%%%%%%
409A037qQ%q%%%%%%%%%%%%%%%%%%%%%q%%%%%%%%%%%%%%%%%%%%qQq%%%%%%%%%%%%%%%%%%%q
403A005Qq%%%%%%%%%%%%%%%qQ%%%%%%%%qQq%Qq%%%%%%%%%%%%%%qQ%%%q%%%%%%%%%%%%%%%%
396I89%q%Q%q%Qq%Qq%%%%%%%%%%%%%%%%%%%%%q%%%%%%%%%%%%%%%%%%qQq%%%%%%%%%%%%%%%
389I65%%%%%qQqQq%Qq%%%%%%%%%%%%%%%%%%%%%%%%q%%%%%%%%%%%%%%%%%%%q%Qq%%Qq%%%Qq
383I41QqQq%%%%%%%%%%%%%%q%Qq%QqQq%%%%%%%%%%%%%%%%%%qQq%%%%%%%%%%%%%%%%%%qQq%
376I17Qq%%%%%%%%%%%%%%%%%%qQ%%%%%qQ%q%%Qq%QqQq%%%%%%%%j6J6q%%qL2k4QQj6%%J6j6
370I01%Q%q%%%%qQ%%qQ%%%%qQ%%%q%QqQq%%%%%%%%%%%%%%%%%%%%qQ%q%%%%%%%%%%%%%%%%%
363H85%%%%%%%%%%%qQqQqQq%%%%%%%%%%%%%%%%%%%%%%%%%%%%q%%%%%%%%%%%%%%%%%%%%qQq
357H61%%Qq%%%%%%%%%%%%%%%%%%%%%%%%%%%%qQq%%%%%%%%Qq%%%%%%%%%%%%%%%%%%q%%%%%%
350H45%%%%%%%%%%%%%%qQ%%%qQqQ%q%Qq%%%%%%%%%QqqQ%%%%%%%%q%%%%%%Qq%%%%%%%%%%%%
343H29%%%%%%%%%%%%qQ%qQ%%q%%%%%Qq%%%%%%%%%%%%%%%%qQ%qQqQq%%%%%%%%%%%%%%%%%%%
337H13%%%%%qQ%%%%%q%%%Q%q%%%%%%%%%%%%%%%%%%qQ%%%%%qQqQq%%%%Qq%%%%%%%%%%%%%%%
330G97qQ%%%%%%q%%%%%Qq%%%%%%%%%%%%%%%%%%%%%%%%%q%%Q%q%%%%%%%%%%%%%%%%%%%qQ%%
323G81%qQq%%Q%%%%%%%j6QQq%%%QqQq%%%%%%%%%%%%%%q%%Q%%q%Qq%%%%%%%%%%%%%%%%%%%%
317G65%%%%qQ%%%%q%%%%%%%%%%%%%%%%%%%%%%%%%%%%%%%%%%%%%qQq%%%Qq%%%%%%%%%%%%%%
310G49%qQqQ%%%%%%qQ%%qQqQ%q%Qq%%Qq%%%%%%%%%%%%%%%%%%%%%%qQqQ%%%%qQq%%%Q%q%%%
303G33%%%%%%%%%%%%%%%%%%%%%%%qQqQqQ%%q%%%%%%%%%%%%%%%%%%qQ%%%qQqQqQ%%qQq%%%%
297G17%%%%%%%%%%%%%%%%%%%%%%%%%qQ%%%%%q%%%%Q%q%%%%%%%%%%%%%%%%%%%%%%qQ%%%qQq
290G01QqQq%%%%%%%%%%%%%%%%%%%%%%%%%%%%%qQ%%%%%%qQq%Qq%%Qq%%%%%%%%%%%%%%%%%%%
283F93%%%%%%%%%%%%%%qQqQq%%%Q%qQq%%%%%%%%%%%%%%%%%%%%%%%%%%%%%%%%%qQqQ%qQq%%
277F77%Qq%%%%%%%%%%%%%%%%%%%%%%%q%Q%%%q%qJ6%Qj6%%QqQ%qQqQq%%%%%%%%%%%%%%%%%%
270F69%%%%%%%%%%%qQ%q%%Qq%%%%%%%%%%%%%%%%%%qQ%%%%%%%%qQqQqQ%%%%%%%%q%Q%q%%%%
263F53%%%%%%%%%%%%%%%%%%%%%%%qQqQqQqQ%%%%%qQ%%%%%%q%%%%%Qq%%%%%%%%%%%%%%qQ%%
257F45%%%%%%%qQqQ%qQ%%q%%%%%%%%%%%%%%%%%%%%%%%%%%%%%%%%%%%%%%%%qQ%%q%%%%%%Qq
250F29%%%%%%%%%%%%Qq%%Qq%%%%%qQ%%%%%%%%%%%%%%%%%%%%q%%Q%q%%%%%%%%%%%%%%%%%%%
243F21%%qQ%%%%%qQqQ%%q%%%%%%%Qq%QqQ%q%%%%%%%%%%%%%%%%%%%%%%qQ%%%qQ%qQ%%qQq%Q
237F13%q%Q%q%Qq%%%%%%%%%%%%%%%%%%%%%%%%%%%%%%%%%%%%%%%%q%%%Qq%QqQq%%%%%%%%%%
230E97%%%%%%%%%%%%%%%%%%%%%qQ%%%%%%%%q%Q%%%q%%Qq%%Qq%Q%qQq%%%%%%%%%q%%Q%%%%%
223E89%%%%qQ%%%qQ%%%%%%%%qQ%%%q%%%%%%%%%%%%%%%%%%%%%%%%%%%%%%%q%Q%%%%%%%%%%%
217E81%%%%%%qQqQ%q%%%%%%%%%%%%%%%%%%%%%%%%%%%%%%%%%%%qQ%%%%qQ%q%Q%qQqQ%%q%%Q
210E73%q%%%%%%%%%%%%%%%%%%%%%%%%%%%%%%%%%%%%%%qQ%%q%Q%qQ%%%q%%%Q%q%%%%%%%%%%
203E57%%%%%%%%%%%%%%%%%%%%%%%%%%%qQqQ%qQ%qQ%q%%Q%qQq%Qq%%%%%%Qq%%%Qq%%%%%%%%
197E49%%%%%%%%%%%%%%%%%%%qQ%%%%%%%%qQ%qQ%q%%%QqQq%Qq%%%%%%%%%%%%%%%%%%%%%%%%
190E41%%%%%%%%%%%%%%%%%qQ%%q%%%QqQq%%QqQq%%%%Qq%%%%%%%%%%%%%%%%%%%%%%%%%%%%%
183E33%%%%%%%%%%%%%qQqQ%%q%Q%q%%%%%%%%Q%q%%%Qq%%%%%%%%%%%%%Q%q%%%%qQQq%%%Qj6
177E17QQq%qQQq%q%%%qql2M0%QQq%J6k4QQj6QQ%q%%Q%q%%%Qq%%%%%Qq%qQ%%%%%%%qQ%%%%%
171E17%%%%%%%%%%%%qQ%%qQq%%Q%%q%Q%qQq%%%%%%%%%%%%%%%%%%%%%%%%%%%%%%%qQ%%%%%q
164E01Q%%%%%%qQqQ%q%%%QqQ%q%%%%%%%%%%%%%Qq%%%%%%%%%%%%%%%%%%%%%%%%%%%%%%%qQq
157D93%Qq%Q%%%qQ%%qQ%%%q%%%%Q%%%qQq%%%%%%%%%%%Qq%%%%%%%%%%%%%%%%%qQ%%%%%q%Qq
150D85Q%q%QqQ%%%qQ%%%q%%%Q%%q%%QqQq%%%Qq%%%%%%%%%%%%%%%%%%%%%%%%%%%%%%%%%%%%
144D85%%qQ%%%%%%%%%%%%%%%qQqQ%%%q%Qq%%%%%%%%%%%%%%%%%%%%%%%%%Qq%%%%%%%%%%%%%
137D77%%%%%%%%%%%%%%%%%%%%%qQ%%qQqQ%qQ%%q%%%%%%Qq%%Q%q%Qq%%%Qq%%%%%%%%%%Qq%%
130D69%%%%%%%%%%%%%%%%%%%%%%%qQ%%%%%%%qQ%%%%%qQ%q%Q%%q%%Qq%%%%%%%%%%%%%%%%%%
124D61%%%%%%%%%%%%%%%%%%%%%%%%%%%%%%%%%%%%qQq%Q%%qQqQ%%%%%%%%%q%Q%qQq%%%%%%%
117D53%%%%%%%%%%%%%%%%%%%%%%%%%%%%%%%%%%%%qQ%qQ%%%%%%%%%%%%%%%%q%Q%%q%Qq%Qq%
110D45Qq%%Q%q%%%%%%%%%%%%%%%%%%%%%%%%%%%%%%%%%%%%%%%%%%%%%%%%%%%%%%%qQqQ%q%%
104D37%QqQ%%%%%q%%%%%Q%%qQ%q%%%Q%qQq%%Qq%%%%%%%%%%%%%%%%%%%%%%%%%%%%%%%%%%%%
97D37%%%%%%%%%%%%%%%%%%%%%%%%%%%%%%qQ%%q%Q%%%%q%%%%Qq%%%%%%%%%%%%%%%%%%%%%%%
90D29%%%%%%%%%%%%%%%%%%%%qQ%%%%%%%%%%%%%%%qQ%q%%Q%%%qQ%%%q%%%%%%QqQq%%%%Q%q%
84D21%%%%%%%%%%%%%%%%%%%%%%%%%%%%%%%%%%%%%%%%%%%%%%%qQ%qQ%qQ%qQ%j6QQqQ%Qq%%%
77D21qQ%%q%%%%Qq%Q%q%%%%%%%%%%%%%%%%%%%%%%%%%%%%%%%%%%%%%%%%%%%%%%%%%%%%%%%%
70D13%%%%%%%%%%%%%%q%%QqQqQq%%%%%%%%%%%QqQq%%%%%%%QqQq%%%%%%%%%%%%%%%%%%%%%%
63D05%%%%%%%%%%%%%%%%%%%%%%%%%%%%%%%%qQ%%%%qQqQ%%q%%%Q%%%qQq%Q%%%%%%qQq%%%%%
57C97QqQ%q%%%%%%%%%%%%%%%%%%%%%Qq%%%qQ%%%%%%%%%%%%%%%%%%%%%%%%%%%%%%%%%%%%%%
50C97%%%%%%%%%%qQ%%%qQqQq%Qq%%Q%q%Q%q%%%%%%%%%%%%%%%%%%%%%%%%%%%%%%%%%%%%%%%
43C89%%%qQ%%%%%%%%%%%%%%%%%qQ%%%%%qQ%%%%%%%%qQqQ%qQ%qQqQqQqQ%%qQqQq%%%%%%%%%
36C81%Qq%%%%%%%%%%%%%%%%%%%%%%%%%%%%%%%%%%%%%%%%%%%%%%%%%%%%%%%%%%%%%%%%%%%%
29C81%%q%%%QqQ%%qQ%%q%Q%qQqQ%%q%Qq%%Qq%%%%%%%%%%%%%%%%%%%%%%%%%%%%%%%%%%%%%%
23C73%%%%%%%%%%%%%%%%%%%%%%%%%%%%%qQ%%%%%%%%%%%%%%%%%%%%%%qQq%%Q%%%%q%%%%%%%
16C65%%%%%%%%%%%%%%%%%%%%%Qq%%%%%%%%%%%%%%%%%%%%%%%%%%%%%%%%%Qq%%%%%%%%%%%%%
9C65%%qQ%%%%%%%%%%%%%%%%%%%%%%%%%%%%%%q%Q%%%qQ%qQ%%q%Q%q%%%%%Qq%%%%Qq%Qq%%%%
2C57%%%%%%%%%%%%%%%%%%%%%%%
0C57
##$OBSERVED MULTIPLETS=	(I, X, Y, Hs, Vs, An, H, C, N, (J))
$$ I: Multiplet Index
$$ X: Strt Coordinate
$$ Y: End Coordinate
$$ Hs: Horizontal Chemical Shift
$$ An: Normalised Integral Area
$$ H: Hydrogens
$$ C: Category
$$ N: Name
$$ (J): Coupling Constants
(1, 1.8950825229767060964, 1.9310827479781125238, 1.9130826354774093101, 2, 2, s, 1&comma;2)
##$OBSERVED MULTIPLETS AREAS=	
(1, 1.0017877600136146921)
##$OBSERVED MULTIPLETS PEAKS=	(I, X, Y)
$$ I: Multiplet Peak Index
$$ X: Peak x Position
$$ Y: Peak Intensity
(1, 1.9130826354774093101, 0.080950394272804260254)
##$PREDICTED PEAKS=	(X Y T A)
(1.9131487000306857116,  , 0.10000000000000000555, <1>)
(1.9131487000306857116,  , 0.10000000000000000555, <2>)
##$PREDICTEDCOUPLINGCONSTANTS=	J(A,B)	$$ (Hz)
##END=		$$ NMR SPECTRUM
##TITLE=	Predicted 1H NMR Spectrum
##JCAMP-DX=	6.0	$$ MestReNova 17.0.0-41178
##DATA TYPE=	NMR PEAK TABLE
##DATA CLASS=	PEAK TABLE
##BLOCK_ID=	4
##ORIGIN=	Mestrelab Research S.L.
##OWNER=	ctheodore
##CROSS REFERENCE=	NMR SPECTRUM: BLOCK_ID=3                                     
##.OBSERVE FREQUENCY=	500
##.OBSERVE NUCLEUS=	^1H
##NPOINTS=	1
##FIRSTX=	1.9130826354774093101
##LASTX=	1.9130826354774093101
##XFACTOR=	1
##YFACTOR=	1
##FIRSTY=	0.080950394272804260254
##XUNITS=	PPM
##YUNITS=	ARBITRARY UNITS
##PEAK TABLE=	(XYW..XYW)
1.9130826354774093101,0.080950394272804260254,0.0015026909555507423667
##$MNOVA/PEAK_DATA_TABLE=	(T,F,A,ST,SP,APT,APC)
$$ Complementary to PEAK TABLE
$$ T: Type
$$ F: Flags
$$ A: Annotation
$$ ST: Shape Type
$$ SP: Shape Parameter
$$ APT: Attached Peaks Type
$$ APC: Attached Peaks Count
Compound,None,,0,0,0,0
##END=		$$ NMR PEAK TABLE
##END=		$$ LINK
