##TITLE=	1h
##JCAMP-DX=	6.0	$$ MestReNova 15.1.0-38027
##DATA TYPE=	LINK
##BLOCKS=	3    
##ORIGIN=	Mestrelab Research S.L.
##OWNER=	ctheodore
##$MNOVA/METADATA=	(DOCUMENT,BASE64)
ewogICAgIm5hbWUiOiAiL1VzZXJzL2N0aGVvZG9yZS9Eb2N1bWVudHMvY2xhc3Nlcy9OTVIgZXhwZXJ
pbWVudC9naXRodWIgZmlsZXMvcHJvcGFuZS8xaC5tbm92YSIsCiAgICAicGFnZXMiOiBbCiAgICAgIC
AgewogICAgICAgICAgICAiaXRlbXMiOiBbCiAgICAgICAgICAgICAgICAiMiIsICAgICAgICAgICAgI
CAgICAgICAgICAgICAgICAgICAgICAgIAogICAgICAgICAgICAgICAgIjEiICAgICAgICAgICAgICAg
ICAgICAgICAgICAgICAgICAgICAgIAogICAgICAgICAgICBdCiAgICAgICAgfQogICAgXQp9Cg==
##TITLE=	
##JCAMP-CS=	3.7	$$ MestReNova 15.1.0-38027
##BLOCK_ID=	1
##ORIGIN=	Mestrelab Research S.L.
##OWNER=	ctheodore
##$MNOVA/METADATA=	(ITEM,BASE64)
ewogICAgImFuZ2xlIjogMCwKICAgICJwb2ludHMiOiBbCiAgICAgICAgewogICAgICAgICAgICAieCI
6IDU1MTIuOTQxNzY5MjI5NDY5LAogICAgICAgICAgICAieSI6IDYwMDUuNTMwNDgxNjc5MDM2CiAgIC
AgICAgfSwKICAgICAgICB7CiAgICAgICAgICAgICJ4IjogNTgwNC4zNDMxOTczMTUwNjMsCiAgICAgI
CAgICAgICJ5IjogNjAwNS41MzA0ODE2NzkwMzYKICAgICAgICB9LAogICAgICAgIHsKICAgICAgICAg
ICAgIngiOiA1ODA0LjM0MzE5NzMxNTA2MywKICAgICAgICAgICAgInkiOiA2MTM1LjY4NDg1MzI5Mjg
wNwogICAgICAgIH0sCiAgICAgICAgewogICAgICAgICAgICAieCI6IDU1MTIuOTQxNzY5MjI5NDY5LA
ogICAgICAgICAgICAieSI6IDYxMzUuNjg0ODUzMjkyODA3CiAgICAgICAgfSwKICAgICAgICB7CiAgI
CAgICAgICAgICJ4IjogNTUxMi45NDE3NjkyMjk0NjksCiAgICAgICAgICAgICJ5IjogNjAwNS41MzA0
ODE2NzkwMzYKICAgICAgICB9CiAgICBdLAogICAgInoiOiAxCn0K
##NAMES=	
##ATOMLIST=	
$$ AN	AS	NH
	1	C	3
	2	C	2
	3	C	3
##BONDLIST=	
$$ AN1	AN2	BT
	1	2	S
	2	3	S
##MAXRASTER=	32768
##XY_RASTER=	
$$ AN	X	Y	Z
	1	1220	4553	0
	2	16994	-4553	0
	3	32768	4553	0
##END=		$$ JCAMP-CS
##TITLE=	Predicted 1H NMR Spectrum
##JCAMP-DX=	6.0	$$ MestReNova 15.1.0-38027
##DATA TYPE=	NMR SPECTRUM
##DATA CLASS=	XYDATA
##BLOCK_ID=	2
##ORIGIN=	Mestrelab Predictor, Modgraph NMRPredict Desktop
##OWNER=	ctheodore
##NUMDIM=	1
##$MNOVA/METADATA=	(ITEM,BASE64)
ewogICAgImFuZ2xlIjogMCwKICAgICJheGVzIjogewogICAgICAgICJ4IjogewogICAgICAgICAgICA
ibWF4IjogMS4zMzg5MzU5MTA1NTczMDA0LAogICAgICAgICAgICAibWluIjogMC40ODUxNzE3MTM3Nz
U5NDU1CiAgICAgICAgfSwKICAgICAgICAieSI6IHsKICAgICAgICAgICAgIm1heCI6IDAuMTAzMjY0M
jQwMTQ4MzczNTYsCiAgICAgICAgICAgICJtaW4iOiAtMC4wMDkzODc2NTA4NjQ2MjQxNDcKICAgICAg
ICB9CiAgICB9LAogICAgInBvaW50cyI6IFsKICAgICAgICB7CiAgICAgICAgICAgICJ4IjogNTMyMSw
KICAgICAgICAgICAgInkiOiA1ODM1CiAgICAgICAgfSwKICAgICAgICB7CiAgICAgICAgICAgICJ4Ij
ogODcyMiwKICAgICAgICAgICAgInkiOiA1ODM1CiAgICAgICAgfSwKICAgICAgICB7CiAgICAgICAgI
CAgICJ4IjogODcyMiwKICAgICAgICAgICAgInkiOiA4MjA4CiAgICAgICAgfSwKICAgICAgICB7CiAg
ICAgICAgICAgICJ4IjogNTMyMSwKICAgICAgICAgICAgInkiOiA4MjA4CiAgICAgICAgfSwKICAgICA
gICB7CiAgICAgICAgICAgICJ4IjogNTMyMSwKICAgICAgICAgICAgInkiOiA1ODM1CiAgICAgICAgfQ
ogICAgXSwKICAgICJ6IjogMAp9Cg==
##.OBSERVE FREQUENCY=	500
##.OBSERVE NUCLEUS=	^1H
##.SOLVENT NAME=	Methanol-d4
##.PULSE SEQUENCE=	
##.ACQUISITIONMODE=	SIMULTANEOUS (DQD)
##$ORIGINAL FORMAT=	Predictor
##$MNOVA/SCALES_VERSION=	9
##$PARAMETER FILE=	(parameters, ASCII, , 0)
$$ <PredictorParameters>
$$  <Title>Predicted 1H NMR Spectrum</Title>
$$  <Origin>Mnova: NMR Prediction</Origin>
$$  <Name>Mestrelab Predictor, Modgraph NMRPredict Desktop</Name>
$$  <Version>1.5, 1.20 (5.076)</Version>
$$  <Nucleus>1H</Nucleus>
$$  <Solvent>Methanol-d4</Solvent>
$$  <From>0</From>
$$  <To>12</To>
$$  <Frequency>500</Frequency>
$$  <LineWidth>0.75</LineWidth>
$$  <Size>65536</Size>
$$  <DEPT>0</DEPT>
$$  <ProtonatedCarbons>0</ProtonatedCarbons>
$$  <ExcludeLabile>1</ExcludeLabile>
$$  <FastPrediction>0</FastPrediction>
$$  <Reference/>
$$  <Options>
$$   <Settings>
$$    <Predictor Name="Mestrelab Predictor">
$$     <Settings>
$$      <Model>/Applications/MestReNova.app/Contents/Resources/data/1H.mbst</Model>
$$     </Settings>
$$    </Predictor>
$$    <Predictor Name="Modgraph NMRPredict Desktop">
$$     <Settings>
$$      <Algorithm usnucleus="1" hoption="2" hsolvent="1">Fast Increments</Algorithm>
$$      <JsAlgorithm>Fast Increments</JsAlgorithm>
$$      <NMRSOAPDIR>/Applications/MestReNova.app/Contents/Resources/NMRPredict</NMRSOAPDIR>
$$      <NMRTEMPDIR>/private/var/folders/dg/bd8f0rkj6d580ljy0vql02cjfxj842/T/NMRPredict-1574477954</NMRTEMPDIR>
$$      <NMRUSDATABASEDIR>/Users/ctheodore/Library/Application Support/Mestrelab Research S.L./MestReNova/NMRPredict/NMR1HDatabase</NMRUSDATABASEDIR>
$$      <Databases>ABCDEFGHIJKLMNOPQRSTUVWXYZ</Databases>
$$     </Settings>
$$    </Predictor>
$$   </Settings>
$$  </Options>
$$  <MoleculeID>{86fa3d37-f024-4669-864f-78b64dc1ae1a}</MoleculeID>
$$ </PredictorParameters>
$$ 
##XUNITS=	HZ
##YUNITS=	ARBITRARY UNITS
##FIRSTX=	6000
##LASTX=	0.091552734375
##DELTAX=	-0.091552734375
##XFACTOR=	1
##YFACTOR=	5.0605217956329179679E-11
##FIRSTY=	1.8638102972090564435E-07
##MINY=	8.6555127509768681193E-09
##MAXY=	0.108673878014087677
##NPOINTS=	65536
##XYDATA=	(X++(Y..Y))
6000C683%q%%%%%q%%%%qQ%q%%%q%%qQq%%%%qQq%%q%%%%%%%q%%%%%q%%%%qQj6QQq%%%qqQ%q
5994C587%%%qQqQq%%%%q%%%%qQq%%%%%q%Qj6%%%%%qQ%q%%%q%Qq%%q%%%%%%q%%%%%q%Qq%%%
5988C507qQqqQq%%%%%q%%%qQ%%qQq%qQq%%%%q%%%%qQq%%%q%Qq%%%%%q%%%%%%q%%%qQq%%%q
5982C411Qq%%%q%%%%%%%q%%%%qQ%%q%%%q%%%%%%%q%%qQ%q%%%%q%%%%%%%q%%%%q%%%%%%qQq
5975C331%%%%%q%%%%%%%q%%%%q%%%%%%%q%%%%%q%%%%%qQq%%%%%qQq%%%%%q%%%q%%%%qQqQq
5969C251%%%%%%%%q%%qQq%%%%q%%%%%%q%%%%%%%%q%%Qq%%%%q%%%%%%%q%%%%%%%q%%%%qQq%
5963C179%%qQ%q%%%q%%%%%%%q%%%%%%q%Qq%%%q%%%%%%q%%%%%%%%%q%%%%%%%q%%%%%%q%%%%
5957C107q%%%%%%%%q%%%%%qQq%Qq%%%%q%%%%%%qQq%%%%%q%%%%%%%q%%%%%%%%%q%%%qQq%%%
5950C035%%%q%%%%%qQ%q%%%%qQq%%%%qQqQq%%%qQ%%j6Q%%q%Q%q%qQ%%%%q%%%%%%%q%%%%%%
5944B971%q%%%%%qQq%%%%q%%%%%%%%%q%%%qQq%%%%%%qJ6j6Qq%qQqQ%%qQq%qQ%q%%%%%%%%q
5938B899%%%%%%%q%%%%%%%q%%%%%%qQq%%%qQ%q%%%Qq%%%q%%%%%%%q%%%%%%qQ%qQq%qQ%%%q
5932B835%%%qQ%%q%%%%%%%%qQq%%%%%%%q%%%%Qj6Q%%qQq%%%%q%%%%%%%q%%%%%%%%q%%%%%%
5926B779%%%q%%%%%qQ%%q%%Qj6%Q%%%q%%%%%q%%%%%%%%%%q%%%%%%%%q%%%%%%%%%q%%%%%%q
5920B715%%%%%%%%%%qQq%Qq%%q%%%Qq%Qqq%%QqQj6Q%%%qQ%q%%%%qQq%%%%%%qQq%%%%%%qQ%
5914B667qQ%q%%%qQ%%%%q%%%qQ%q%%%%%qQ%q%%%%%%%qQq%%%%q%%%QqqQ%q%Q%qQqQq%%qQ%%
5907B611q%Qq%%%%%qQq%%%%%%%q%%qQ%%%%qQ%q%%%qQ%q%Qq%%%%%%%q%%%Qq%%%qQq%%%qQq%
5901B547QqJ6q%q%%%%%%q%%%%%%%qQ%q%%%%%%q%Q%q%%%%%%%q%%%%%%%%%qQqQq%%%%%%%%%%
5895B507%%q%%q%%Qq%Q%%k4K4k4L2k4%QqqJ6j6J6q%qQq%Qq%%%Qq%q%%%%qQ%qQqQq%%%%%q%
5889B451%Qq%Qq%qQ%%%qQ%q%%%%%%qQqQq%%%%q%%%QqQq%%%q%QqQ%q%%%%qQ%qQq%%%%%%%q%
5883B403Qq%%%%q%%Qq%%%%Q%q%%%q%Qq%%%%%%%qQqQq%%%%%%%qQq%%%%%%%%%q%%%%%%%%qQ%
5877B363%%q%%%%%q%%Q%q%%%qQ%%%q%%%%%%%%%%%qQq%Q%q%%%%%q%Qq%%%%%%%%q%%%%%%%%%
5871B315%qQq%Qq%%%%qQ%qQqQq%%%%qQ%q%%%%%%%%%%%%q%%%%%%%%q%%%%%%%%%%%%q%%%%%%
5865B267Qq%q%%Q%%q%%%%%%%%%%%q%%%%%%%%%%%qQqQq%%%%%qQqQq%%%%%%%%q%%%%%Qq%%%q
5858B219%%Qq%%%qQ%%qQq%%%%%%%%%%%%%q%%%%%%%%%%%%%qQ%q%%%%%qQ%%%q%Qq%%qQ%%%%q
5852B179%%%%%%%%%q%%%%%%%%%%%%%%%q%%%%%%%%%qQ%%q%%%%%%%%%qQ%q%%J6j6qQ%j6QQ%%
5846B147%q%Qq%%%%%%qQ%%q%%%%%%%%%%q%Qq%%%%%%%%%%%%q%%%%%%q%QqQq%Qq%%%%%qQ%%%
5840B107q%%%%%Qq%%%q%%%%%%%%%%%%%%q%%%%%%%%%%%qQ%%q%%%%%%%%%q%%%%Qq%%%%%%%%%
5834B067%q%Qq%%%%%%%%%%q%%%%%%%%%%%q%Q%qQq%%%%%qQ%qQq%QqQq%%Qq%%%%qQq%%%%%%%
5828B027%%%q%%%Qq%%%%%%%%%%q%%Qq%%%%%%%%%%q%%Qq%%%%%Qq%%q%Qq%Q%q%%%%%%%%%qQq
5821A987%%%%%%%qQ%%q%Q%q%Qq%%%%%%%%%q%%%%%%%%%%q%QqQ%q%%%%%%%qQ%%%%%%qQqQq%%
5815A955%%%%%%%%%%q%%%%%%%%%%%%q%%%%%%%%%%%qQ%%q%%%%%%%%%q%%Q%%q%%%%%%%%%%%q
5809A915Q%qQqQq%Qq%%%%%%%%q%%%%%Qj6Q%%%%%qQ%%q%%%%%%%%%%qQ%q%%%%%%%%%%%%qQ%q
5803A883%Qq%%%%%%%%%qQ%%%%%qQq%%%%qQq%Q%%%j6QQj6Q%%Qq%%q%QqQq%%%%%%%%%%%qQ%%
5797A859q%%Qq%%%%%%Qq%%%q%%%%%%%%%%%%%%%%%%qQq%Qq%%%%%%%%%%%qQq%%%%%%%%%%%qQ
5790A827qQ%q%%%%%%%%%%%%qQqQ%%%%q%%%%%Qq%%%%%%qQ%%%qQq%%%qQqQ%%%%q%%%%%%%%%%
5784A795%%qQqQ%q%%%%%%%%%%%qQ%%%qQ%q%%%%%%%%%%%qQqQq%%%%%%%%%qQqQq%%QqQqQq%%
5778A763%%%%%%qQqQq%%%Qq%%%%qQ%%qQq%%Q%%q%%%%Qq%%qQ%%qQq%%%%%%%%%qQ%q%%Q%q%%
5772A731%%%%%%%%%%%%qQqQ%q%%%%%%%%Qq%%%%qQ%%qQq%%%%%%%%%%%%%%%qQ%q%%%%%%%%%%
5766A707%qQ%q%Qq%%%%%%%%%%%%%%%%qQq%%%%%%%%%%%%%%qQ%%%%q%%Qq%%Qq%%%%%%%%q%%%
5759A675%%%%%%%%%%%%%%%%qQq%%%%%%%%qQ%%%%q%%%%%%%Qq%%%Qq%%%%%qQ%qQ%q%%%Qj6Qq
5753A643Q%q%Q%%%%%q%%Q%q%%Qq%%%%qQ%%%%%q%%%%%%%%%%%%%%%%qQ%q%%%%%%QqQq%%%%%%
5747A627%%q%Q%qQq%%qQ%%%%%%%%%%%%%%%qQ%q%%%%%%%%%%%%qQqQq%%%%%%%%%%%%%%q%Q%q
5741A595%%%Q%%q%%%%%%%%%%%%%%%q%QqQq%%%%%%%%%qQ%%%%q%Qq%Qq%%%%%%%%q%Q%%qQqQ%
5734A579q%Qq%Qq%%%%%%%%%%%%%%%q%%%%%%%%%%qQ%%%%qQqQq%Qq%Qq%%%%Qq%%%qQ%q%%QqQ
5728A555q%%%%%%%%%qQ%%%%%%%%qQ%q%Qq%%%%%%%%%q%Q%qQqQ%q%%%%%%%%%%%%%%%qQ%%%q%
5722A523%Qq%%%%%%%%%%%%%qQ%q%%%Q%q%%%%Qq%%%%%%%%%%%qQq%Q%q%%%%%%%%%%%%%%%%%q
5716A499%Q%q%%%qQq%QqQq%%Qq%%qQJ6qqQ%%qQ%j6Q%%Qj6J6j6Q%%%q%%Qq%%%%%%%%%Qq%%%
5710A483%%qQ%%%qQqQ%%q%%QqQqqQqQ%%%%%q%J6j6%Qj6%qQk4%%QL2k4%J6qQk4K4j6J6QQk4
5705A459q%QQq%Qq%%%q%QqQ%qQ%%%qQ%%%%%%qQ%qQq%%%%%%%%qQ%%qQ%qQ%%q%qQQq%%%%q%J6
5699A451j6QqQq%%Qq%qJ6q%%%%%Qq%%%%%%Qq%qQ%qQq%%QqQq%Qq%%%Q%q%%%%qQq%%Qq%%Qq%
5693A419%%%%%%%%%%%qQ%%%%qQq%%%%Qq%%%Qq%Qq%%%%%%%%q%%Qq%QqQq%%%%%%%%%%%%%%%%
5686A403q%%%Q%q%Qq%%%%%%%%%%%%%%%%q%QqQq%%%%QqqQQq%%Qq%%%%%%%%q%%%%%%%%%%%%%
5680A379%%%%%%qQ%%qQ%%%%q%%Q%q%%%%%%%%%%%%qQ%%%%%qQqQqQq%%%%Qq%%%%%%%%%qQ%q%
5674A355%Qq%%Qq%%%%%%%%%%%%%%%qQ%%%%%q%Q%q%%%%%%%%%Qq%%%%%%%%%%%%%%%qQq%Qq%%
5668A339%%%%%%%%%%%%%qQ%%%%%qQqQ%%q%%%%%%%%%%%%%%%%%%%q%Q%qQ%q%%%%%%%%%%%%%%
5662A323%%%%qQ%q%Qq%Qq%%%%%%%Qq%%Qj6J6j6J6%q%%%%%%q%Q%%q%Qq%%%%%%%%%%%%%%%q%
5656A299Q%%%%%q%%%%%Qq%%%%%%%%%%%%%%%%%%q%%Q%qQq%QqqQ%%%%%%%%%%%%%%%%%qQ%qQ%
5649A291%%%q%%%%Qq%%%%%%%%q%Q%%%%%q%QqQq%%%%Qq%%%%%%%%%%%%%qQqQ%q%Qq%%%Qq%%%
5643A267%%%Qq%%%%%qQ%%qQq%Q%%%qQq%%%%%%%%%%%%%%%%%%%%%%%%qQ%%%%q%%%%%%%%%%%%
5637A251%%%%%%%%qQ%%q%Qq%%Qq%Qq%%%%%%%%%%%%%%%%%%qQq%%Q%qQq%%QqQq%%%%%%%Qq%%
5631A235%%%%qQ%%%%qQqQqQqQ%%q%Qq%%%%%%%%%%%%%%%%qQqQqQ%qQq%%%%%%%%%%%%%%%%%%
5625A219%%%%%%q%Q%qQqQ%%q%%%%%%%%Qq%%%%%%%%%%%%%qQ%%%q%Q%%q%%%%%%%%%%%%%%%%%
5618A203q%Q%%%q%Q%%%%%q%%%Qq%Qq%QqQq%%%%%%%qQ%%%%%%qQ%%qQqQq%%%%%%q%Q%Qq%qK4
5612A203k4qL2k4QqQ%%%%qQ%%%%q%%%%%%%%%%%%%%%%%%%%qQ%%%%qQ%qQ%qQqQq%%%%%%%%%%
5606A171%qQ%%qJ6q%%q%%%Q%qQqQqQq%%%%%%%%%%%%%%%%%%%Qj6Q%%%%%%%%%qQ%qQqQqQq%%
5600A155%%%%%%%%%%qQ%%%%%%%%%%%%q%%%%%%%%%%%%%%%%qQqQ%%%%%%%%%%%%qQ%%%%qQ%qQ
5594A147q%Qq%%%%%%%%%%%%%%%%%%%%%%%%%%qQq%%%Qq%%%%%%%%%%%%%%qQ%%%%%%%%qQ%q%%
5588A123Qq%Q%q%%%%%%%%%%%%qQ%%%%%%%%%%%%%%%%%%%qQ%q%%%%%%%%Qq%%%%%%%%%%%%q%Q
5582A115%qQq%%%Qq%%%%%%%%%%%%%%%%%%%%%qQ%%%%%qQ%%qQq%%%%QqQqQ%q%%%%%%%%%%%Qq
5575A099%%%%%%%%%%%q%%Q%%%%%%q%%Q%q%Qq%%Q%q%Q%q%%%%%%%%%%q%Q%%qQ%%%q%%QqQq%%
5569A083Qq%%%%%%%%%%%%%%%%%%%%%%%%%%%%%qQqJ6qqQq%%Q%%qQ%q%%Qq%%qQ%%%%%%%qQ%q
5563A067Q%%q%%Q%qQqQqQq%%qQ%%%%%%%%%%%%%%%%%%%%%%qQ%%%%%%%%%q%Qq%Qq%%%%%%%%%
5557A059%%%%%%%%%qQ%%%%%%qQ%qQq%%%%Q%q%%Qq%%qQ%%%%%%%%%%%%%%%%%%%%%%qQ%%q%%%
5550A043%QqQ%q%%%%%%%%%%%%%%%%%%%%%qQqQ%%%%%qQ%qQ%q%%%%Qq%%%%%%%%%%%%%%%%%%%
5544A035%%%%qQqQ%%q%Q%%%%%%q%%%QQq%q%Qq%%%%%Q%q%Qq%%%%%%%%%%%%%%%q%Q%%qQq%%Q
5538A027q%%Qq%%%%%%%%%%%%%%%%%%%%qQ%%%%qQ%%%%q%%%Qq%Qq%%%%%%%%%%%%%%%%%%%%%%
5532A011%%%%%qQ%%%%%q%Q%%q%%Qq%%QqQ%qQq%%%%%%%%%%%%%qQ%%%%qQqQqQ%qqJ6q%%Q%q%
5526I95%QQj6%%%%%%%Qq%%%%Qq%%%%%%%%%%%%%%%%%%%%%%%%%%%q%Q%q%QqQq%%%%%Qq%%%q%
5519I79QqQ%QqJ6j6qqJ6qQk4J6QQj6Qq%Q%q%%Qq%%%%%%%%%%%%%%Qj6Q%%%%%%%%%%%%%q%Q%
5514I79qQ%%%q%%%%%%%%%%%%%%%qQQq%%q%%Q%%q%Q%%%%%qQqQ%%qQ%q%%%%%%%QqQq%%%%%%%
5507I63%%%%%Qq%%%%%%%%%%%%%%%%%%%qQq%QqQ%%%%q%%%%%%%%Qq%Qq%%%%%%%%%%%%%%%%%%
5501I55%%%%%%%q%QqQ%%%%q%QqQq%%%%%%%Qq%%%%%%%%%%%%%%%%%%%%%%qQ%%%%qQ%%q%%%Q%
5495I47q%%%%%%%%%%%%%%Qq%%%%%%%%%%%%%%%%%%%%%%%%%q%%%Q%qQq%QqQq%%%%Q%q%%%Qq%
5488I31%%%%%%%%%%%%%qQ%qQ%%q%Q%%%%qQq%%%Q%%%q%%%%%%%%%%%%%%qQqQ%%%%%%qQ%%%%%
5482I23%qQ%%%%%%%%q%%%%%Q%q%Qq%%Qq%%%%%%%qQ%%%%%%%%%%%qQ%%%%%%q%Q%%%%%%%q%%%
5476I07%Qq%%%Qq%%Qq%Qq%%%%%%%%%%%%%%%%%%%%qQqQqQ%q%QqQ%qQ%%qQ%q%%%%%%%%%%%%%
5470H99%%%%%%%%%%%%%%%%%%%%%%%%%%%%%qQ%%qQ%q%Q%%qQ%qQq%%Qq%%%%%qQQq%%%Qq%%%%
5463H91%%%%%%%%%qQ%%%%%%%%%qQq%%Qq%QqQ%%q%%Q%%q%Qq%%%%%%Qq%%%%%%%%%%%%%%%%qQ
5457H83%%%q%Q%q%%%%%%%QqQ%qQq%%%%%%%%%%%%%%%%%%%%%%%%%%%%%%%%q%QqQqQ%q%QqQq%
5451H67%%%%%%%%%%Qq%%%%%%%%%%%qQ%Qq%%%%%%%%%%qQ%%%qQ%%%qQ%qQ%qQq%Qq%QqQq%%%%
5444H59Qq%%%%%%%%%%%%%%%%%%%%%%%Qq%%%%%%%qQq%%Q%qQ%qQ%%q%%%%Qq%%%%Qq%%%%%%%%
5438H51%Qq%%%%%%%%%%%qQ%%%%%%%%qQ%q%QqQqQ%q%%Qq%Qq%%%%%%Qq%%%Qq%%%%%%%%%%qQ%
5432H43%%Qq%%%%%%%qQ%%qQ%%%qQ%%qQ%q%%Qq%%%%%Qq%%%%%%%%%%Qq%%%%%%%%qQ%%%qQ%%q
5425H27%%Q%%%j6J6qQ%q%%%%Q%%qQ%qQ%%%q%%%%%%%%%%%%%Qq%%%%%%%%%%%%%%%%%%%%%%%%
5419H27%%%%%%%%%%q%%%%QqQ%%qQqQq%QqQ%q%%%%%%%Q%q%%%%%%%qQ%%%%%%qQ%%qQqQ%%%%%
5413H19%%%qQ%%q%%Q%%%qQqQ%%%q%%%%%%%%%%%%%%%%%%%%%%%%%Qq%%%%%%%%%%%%%qQ%qQ%%
5407H11qQ%%%qQ%%%qQqQqQqQq%Q%q%Qq%QqQq%%%%%%%%%%%%%%%%qJ6q%%%%%qQqQ%qQQq%%qQ
5400H03%%%qQ%qQq%%Qq%QqQq%QqQqQqQq%%Qq%%%%%%%%%%%%%%%%%%qQ%%%%%%%qQqQ%qQ%%%q
5394G87Q%qQqQqQ%%%q%%Q%qQ%q%%Qq%%%%%%%%%%QqQq%%%%Q%q%qQ%%%%%%%%%%%%%%%%%%%%%
5388G87%q%QqQq%%%Q%qQ%q%%Qq%%Q%q%%%Qq%%%qQ%%%Qq%%%%%%Q%q%%%%%%%%%%%%%%%%%%qQ
5381G79%%%%%%%qQ%%%qQq%%Q%q%Q%q%QqQq%%%%%Qq%QqQ%%%qqQ%%%%%%%%%%%%%%%%%%%%%%%
5375G71%%q%Q%%%%%qQ%%%%q%Q%%%%q%%%%Qq%%%%%%Qq%%%%%%%%%%%%%%%%q%Q%%%%%%%%%qQ%
5369G63%%%%%%qQ%%%qQq%%%%%%%%%%Qq%%Qq%%%%%%%%%%Qq%%%%%%%qQ%%%%%%%%%%%%%%%%%%
5362G55%%%%%%%%%%%%qQq%Q%%%q%Qq%%%%%%%%%%%%%%%%%%%%%%%%%%%%%%%%%%%%%%%%%%%%%
5356G47%%qQ%%%%%%%%%%%%Qq%%qQq%Q%q%Q%q%%%%Q%q%%%%%%%Qq%%%%%%%%%%%%%%%%%%%%%%
5350G39%%%%%%%qQ%%%%%%%%%qQ%%%%%%%%%qQqQ%%q%QqQ%%%q%%%Qq%%Qq%%%QqQq%%%%%%%%%
5343G31%%%%%%%%%%%%%qQ%qQ%%%qQqQ%%qQqQ%%%q%Q%%%%q%QqQ%qQ%q%qQQq%qJ6%q%%Q%qQq
5337G23Qq%%Qq%%Q%qQq%%%%%%%%%%%%%%%%%%%%%%qQ%qQ%%%%%qQqQq%%Q%qQ%j6QJ6%qqJ6k4
5331G07%%J6%k4L2j6Q%q%%%%%Qq%qJ6%j6Q%%%%%%%Qq%%%%%%%%%%%%%%%%%%qQ%%%%%%%q%%%
5326G07Q%q%%QqQ%%q%qK4q%q%Qq%%qQ%Q%q%Qq%%qQ%%qQQq%%%%%%%%%%%%%%%%%%qQQq%%%qQ
5319G07qQqQq%Q%qQqQ%%%%qQ%%q%Qq%%Qq%%%%%%%%%%Qq%%%%%Qq%%%%%%%%%%%%%%%%%%%%%%
5313F99%%%%%%%%qQ%%%%%%%%%qQ%%%qQqQ%%%qQ%qQ%%%qQq%%%Qq%%Qq%%Qq%Qq%%%%%%%%%%%
5307F91Q%q%%%%%%%%%%%%%%%%%%%%%%%qQ%%%%%%%%%%%%%%%%qQ%%%%%%q%Q%%%qQq%Q%%qQq%
5300F83Q%%%qQq%%%Q%%qQqQq%%%%Qq%Qq%%%%%%%%%%%%%%%%%%%%%%%qQ%%%%%%%%%%%%%%%%q
5294F75Qq%QqQq%Q%%%%q%%Qq%QqQq%%%QqQ%q%%%%%%%%%%%%%Qq%%Qq%%%%%%%%%%%%%%%%%%%
5288F75%%%%qQ%%%%%qQ%%qQ%qQ%q%%Qq%%Qq%%QqQq%QqQ%qQqQq%%Qq%%%%Q%q%%%%%%%%%%%%
5281F67%%%%%%%%%%%%%%%%%%%%%%%%%%%%%%%%%%qQq%%Q%%qQ%q%Q%%%q%%%%Q%%%%%%%%%q%Q
5275F67q%%%%%%%%%%%%Qq%%%%%%%%%Qq%%%Qq%%%%%%%%%%%%%%%%qQqQqQ%%%q%Q%%qQ%qQ%%%
5269F59q%%%%%Qq%Qq%%Q%q%QqQq%%%%%%%%%%%%%%%%%%%%%%Qq%%%%%%%%%%%%%%qQ%%%%%%qQ
5262F51%%%%%%%%%%%%%%q%%%%Q%qQ%q%QqQqQqQq%Qq%Q%%%qQ%%q%QqQ%qQq%%%%Qq%%%%%%%Q
5256F51q%%%%%%%%%%%%%%%%%%%%%%%%%%%q%Q%%%%%%%qQ%%%%qQ%%qQ%%qQ%%%q%QqQ%qQ%q%%
5250F35Qq%%Q%%%qQqQq%%%%Qq%Qq%%%%%%%%%%%%%%%%%%%%%qQ%%%%%Qq%%%%%%%%qQ%qQ%%%%
5243F35%qQqQ%%%%%%%%%%%%qQ%%%%%qQ%%%%qQ%%q%%QqQ%%q%%%QqQqQqQq%Qq%qQ%%%qJ6qqJ6
5237F35qqJ6qQq%%%%%%%qQ%%%%%%%%%%%%%%%%%%%%%%%%%%%%%%%%%qQ%%%%qQ%%%%qQq%%Q%%
5231F27%q%Q%%q%%%%%%%Qq%Qq%%%%%%%%%%%%%%%%%%%%%%%%%%%%%%%%%%%%%%%qQ%%Qq%%%%%
5225F19%%%qQ%%%%%qQqQ%%%%%%qQ%qQ%%qQ%%q%%%%Qq%Q%%q%%%%%%%Qq%Qq%Qq%%%%%%%%%%%
5218F11%%%%%%%%%%%%%%%%%%%%%%%%%%%%%qQ%%%%%%%%%qQ%%%%%%%qQ%%%%%%%qQ%%q%Qq%%Q
5212F11q%Qq%%%Q%q%%%%%%%%%%%%%%%%%%%%%%%%%%%%%%%%%%Qq%%%%%%%%%%Qq%%%%%%%%%%q
5206E95Q%%%%%%%qQ%%%%%%qQ%%%qQ%%qQq%%%%Q%%%q%QqQ%%q%%%Q%q%QqQqQ%q%Q%%%qQ%q%%
5199E95%%QqQq%%%%%%%%%%%Q%q%%Qq%%%%%%%%%%%%%%%%%%%%%%%%%%%%%%%%%%%%%%%%%%%%%
5193E95%qQ%%%q%%QqQ%%%%q%Q%%%%qQqQqQ%qQq%%Qq%%%Qq%%%Qq%%%%%%%Qq%%Q%q%%Qq%%%%
5187E87%%%%%%%%%%%qQ%%%%%%%qQ%%%%%%%%%%%%%%%%%%%%%%qQ%%%%%qQqQ%%qQ%%%%%%qQ%q
5181E79QqQ%q%%%%%Qq%%%%%Qq%%%%%%Qq%Q%q%%%%%%%%%%%%%%%%%%%%%%%%%%%%%%%%%%%%Qq
5174E79%qQ%qQ%%%%%%qQqQ%%%%%%%%%%%%qQqQ%%qQ%%qQ%%%%q%Q%%%%%%%%%%qQ%%%%q%QqQq
5168E71%Qq%%%%%Q%%qqQ%qQ%%%%%%%%%%%%%%%%%QqqQ%%%%%%%%%%%%%%%%%%%%%%%%%%%%%%%
5162E71qQ%%%%qQ%%%%%%%%qQq%Qq%Qq%%%QqQq%%Q%qQq%Qq%Q%q%%%%Qq%Qq%%%Qq%%Qq%Q%qQ
5155E71qQq%%Qq%%%%%%%%%%%%%%%%%Q%q%%%%%%%Qq%%%qQqQ%%%%%Qj6Q%%%%qQq%Q%%qQq%Q%
5149E63%%%%%%%qQ%qQ%%%qQ%qQ%%%%%%%%%%q%%%%%%%Qq%%Qq%%Qq%Qq%%J6j6%Q%%qqJ6%%qQ
5143E63q%%%%%%%%%%%%%%%%%Qq%%%%%%%%%%%%%%%%%%%%%%%qQ%q%Q%%%%qQ%%%%%%%q%Q%%%%
5137E55%%%%q%Q%%qQq%%Qq%QqQq%%%%%%%%%%%%%%Q%q%%%Qq%Qq%QqQqQq%%%%%%%%Qq%%%%%%
5130E47%%Qq%%%%%%%%%%%%%%%%%%%%%%%%%qQ%q%Q%qQ%%%%%%qQ%%%%%%qQ%%%%qQ%%%%%%%%%
5124E47%%%%%%%%%%%%%%%%%q%Qq%%Q%q%%%%%%QqQq%%%QqQq%%%%%%%%Qq%%%Qq%%%%%%%%%%%
5118E39%%%%%%%%%%%%%%%%%%%%%%%%%%%%%%%%qQ%%qQqQ%%%%%%q%%Q%%%%%%qQqQ%%%%%%%q%
5111E31%%%%%%Qq%%%%%%%%%%%%%Qq%%%%%Qq%%%%%%Qq%%%%%%Qq%%%%%%%%%Qq%Qq%%%%%%%%%
5105E31%%%%%%%%%%%%qQ%%%%%q%Q%%%%%%%%%%%%%%%%%%%%%qQ%%%qQqQ%%%%q%%QqQ%%qQ%qQ
5099E31qQ%%%%%%%qQ%%q%%QqQ%%qQ%%%%q%%%%Q%%%q%%%Qq%%%%%Q%q%%%%%%%%%%%%%%%%%%%
5092E23%%Qq%%%%%%%%%%%%%qQ%%%%%%%%%%%%q%Q%%%%%%%%%%%%%%%%%%%%%%qQ%%qQ%%qQ%%q
5086E15QqQ%%qQ%%%%%%%%q%Qq%%%%%%%%%%%%%%%%%Qq%%%%%%%%%%%%%%%%%%%%%%%%Qq%%Qq%
5080E15%%%%%%%%%%%%%%%%%Qq%%%%%%%%%%%%%%%%%qQ%%%%%%%qQ%%%%%%q%%%Q%%%q%Q%q%Q%
5073E15%qQ%%q%%Q%%%qQq%%Q%%%q%Q%%q%Q%q%%Qq%QqQ%qQq%Q%%q%%QqQq%Qq%QqQq%%%%%%%
5067E07%%%%Q%%q%%%%Qq%%%%%Qq%%%%%%%%%%%%%%%%%%%%%%%%%%%%%%%%Qq%%%qQ%%%%%%%%%
5061E07%qQ%%qQ%%qQqQq%%Q%q%%%Q%qQ%%%%%qQ%qQq%QqQq%%%%%Qq%%Qq%%Q%qQ%q%QqQq%%Q
5055E07q%%%%%Qq%%%Qq%%%%%%%%%%%%%%%%%%%%%%%%%qQ%%%%%%%QqJ6qq%QqQ%qqQ%%%%qQ%%
5048D99%q%Q%%qQ%%%%%%%%%%%%%q%Q%%qQqQ%%%%q%Q%%%%%qQqQ%qQ%%%%%%qQ%q%%QqQqQq%%
5042D91Q%%qQqQqQqQ%%qQq%%Q%q%Q%q%%Qq%%%%%%%%%%Q%%q%Qq%%%QqQ%q%%%%%%%%%%%%%%%
5036D91%%%%%%%%%%%%%%%%%%%%%%%%%%%%%%%%%%%%%%%%%%%%qQ%%%%%%%%%%%%%%%%%%qQ%%%
5029D91qQ%q%Q%%qQ%q%%%Qq%Qq%%Q%%qQ%%qQ%qQqQq%Qq%Qq%%%%Q%%%qQq%%%%%%%%%%%Q%qQ
5023D91%q%%%%%%%%%%%%%%%Qq%%%%%%%%%%QqQq%%%%%%%%%%%%%%%%%%%qQ%%%%%%%%%%%%%%%
5017D83%qQ%%%%%%qQ%%%%%%%%%%%%%%%%%%%%%%q%Qq%%Q%q%Q%%qQ%qQ%%%%q%Q%%qQ%qQ%%q%
5010D75%Qq%qQ%Qq%%%%%%%%%%%%Qq%%%Qq%%%%%%Qq%%%%%%%%%%%%%%%%%%%%%%%%%%%%%%%%%
5004D75%%%%%%%%%%qQQq%%Qq%%%%%qQ%q%Q%%%%%%%%%%%%%%%%%qQ%%%%%%%%%%%%%%%%q%Q%%
4998D75%qQ%%%%%%%qQq%Q%%%%qQqQ%%q%Q%%%q%%QqQq%Qq%%%%%Q%q%Qq%%Qq%%%%%%Qq%%Qq%
4991D67%%QqQq%%%%%%%%%%%%%Qq%%%%%%Q%q%%%%%%%%%%%%%%%%%%%%%%%%%%qQ%%%%%%%%%%%
4985D67qQ%%%%qQ%%%%%%%qQqQ%%%%%q%Q%%%%%q%Q%qQ%%q%Q%q%Q%%qQ%%%%%%%%%qQQj6%%%%
4979D59%QqQqQq%%%%%%%Q%q%%%Qq%Qq%%%%%%%%%%%%%%%QqQ%q%%%%%%%%%Qq%%%Q%q%%Q%q%%
4973D59%%%Qq%%%%%Qq%Qq%%%Qq%%%%%%%Qq%%%%%%%%%%%%%qQ%%%%%%%qQqQ%%%%%qJ6j6Q%%q
4966D51J6q%%q%%%Q%%%J6j6qQ%Qq%q%j6K4Qq%%qqQQj6J6%%%q%J6Ql2Q%%qQ%Qj6Q%QqQ%%qQ
4961D59qQq%%QqQ%q%%Qq%%%QqQ%q%Q%%qqQ%%%%%Qq%qQqQJ6j6%J6%q%Q%qk4J6M0m0J6qK4qk4
4956D51j6L2k4J6qQ%j6%Q%QQqqJ6qj6J6qQj6%Q%%QqQq%qQ%Qq%%qQ%qQ%%%%%%qQ%%%%%%%%%
4950D51Qj6QqQQq%QqJ6l2%J6QqQk4Q%QQj6QQk4J6Qk4Q%Qj6J6q%Q%%%qQq%QqQq%Q%q%%Q%q%
4945D43QqQ%q%QqQq%Qq%%Qq%%%%QqQq%QqQqQqQqQ%%q%%Qq%%%%Qq%%%%%%Qq%%%%%%%%%%%%%
4938D43%Qq%%%%%%Qq%%%%%%%%%%%Qq%Qq%%%%%%%qQ%%%%%%%%%%%%%%%%%%%%%%%%qQ%%%%%%%
4932D43%%%%%%%qQq%Q%%%%%%%%%%%%%qQqQ%%q%Q%%%%q%%%Q%%%%q%Q%qQqQq%Q%qQ%qQ%%%q%
4926D35QqQq%%%%Qq%Qq%%Qq%QqQ%q%QqQq%%%%%QqQqQq%%%Qq%Qq%%%%%%%%%%%Q%q%QqQq%%%
4919D35%%%%%%%%%%%%%%%%%%%%%%%%%%%%%%%%Qq%%%qQQj6Q%%%%%%%%Qq%%%qQ%%%%%%%%%%%
4913D35%%%%Qq%%%%%%%%%%%%%%%%%%%%%qQqQ%q%%%QqQq%%%Q%qQ%qQ%%%%%%%q%QqQ%%%qQ%%
4907D35%%q%Q%qQ%qQq%Q%%%q%%Q%qQ%qQq%%%Q%q%%%%%Qq%%%%%%%%%%%%%Qq%QqQq%Qq%%%%%
4901D27%%Qq%%%%%%%%Qq%%%%%%%%%%%%%Qq%%%%qQ%%%qQ%%%%%%%%%%%%%%%%%%%%%%%%%%%%%
4894D27%%%%%%qQ%%%%%%%%%%%%%qQqQqQ%%%%%%%q%%%QqQ%%%%%q%Q%%%qQ%%%%%%%%%%qQ%%%
4888D27%qQqQ%%q%%Q%%%q%Qq%%QqQq%Q%%%q%%%QqQ%%q%Q%q%%%%%%%%%%%%%%%%%%%%%%%%%%
4882D19%%%%%%%%%%%%%%%%%%%%%%Qq%%%%%%%%%%%%%%%%%%%%%%%%%%%%%%%%%%%%%%%%%%%%%
4875D19%%%%%%%%%%%%%%%%qQqQ%qQqQqQ%%%%%%%%%%%%%%%%qQqQ%%%%q%Qq%QqQ%Qq%qQ%q%Q
4869D19q%%Q%qQ%%%%%qQ%%%%%%qQ%%q%%Q%qQq%%%Q%q%QqQq%Q%q%%Qq%%QqQqQq%%%%%%Qq%%
4863D11%qJ6qQqQ%q%%%%Q%q%%Qq%%Qq%%%%%Q%q%%%%%%%%%%%%%%%%%%%%%%%%%%%%%%%%%%%%
4857D11%%%%%%%%Qq%%qQQq%%%%%%%%%%%%%%%qQ%Qq%%%%%Qq%%%%%%%%%%%%%Qq%%%%%qQ%%%%
4850D11%%%%qQqQ%%%%%%%%qQ%%%%%%qQ%%%%%%%%qQ%qQ%%%%q%Q%%%%%qQ%qQqQ%q%Qq%Q%qQq
4844D03QqQq%%%Q%qQ%q%QqQqQq%%Qq%%%%%%%Qq%QqQq%Qq%%%%%%Q%q%%%%%%%%Qq%%Q%%qQq%
4838D03%%%%%%%%%%%%%%%%%%%%%%%%%%%%%%%%%%%%%%%%%%%%%%%%%%%%%%Qq%%%%%%%%%%%%%
4831D03%%%%%qQ%%%%%%%%%%%%%%%%%%%%%qQ%qQ%%%%%%%%qQqQqQ%%%%%%%%qQ%%%%%%qQ%%%%
4825D03%qQ%%%q%Q%%%%qQ%qQqQ%qQq%Q%qQq%%Q%q%Qq%%%Q%qQ%qQqQ%%%q%Q%%q%%%%Q%q%%%
4819C95%%%Qq%%%Q%qQq%%%QqQ%%%qQqQq%%Qq%QqqQ%%%Qq%%%%%%%%%%%%%%%%%%%%%%%%%%%%
4812C95%%%%%%%%%%%%%%Qq%%%%%%%%%%%%%%%Qq%%%%%%%%%%%%%%%%%%%%%%%%%%%%%qQ%%%%%
4806C95%%%%%%%%%%%%%%%%%%%%%%%%qQqQ%%%%%%%%%%%q%Q%%%qQ%qQ%%q%QqQ%%%%q%Qq%Qq%
4800C87%%%%Qq%Qq%%Q%q%Q%qQ%%%qQq%Qq%QqQq%%Q%%qQ%q%QqQ%q%%%Q%%%%qQq%%Q%q%%%%%
4793C87%%%%qQ%%Q%j6J6qQqqQ%%%%%%%%%%%%%Qq%%%%%%QqQ%q%%%%%%%%%%%%%%Qq%%%%%%%%
4787C87%%%%%%%%%%%%%%%%%%%%%%%qQqQ%%%%%%%%%%%%%%%%%%%%%%qQ%%%%%%%%%%%%%%%%%%
4781C87%%qQ%q%%Q%%%qQqQ%%%%%%%%%qQ%%%%%%%%%%%%qQq%Q%qQ%%%%Qq%%qQ%%%qQqQ%%q%%
4775C79Q%%%q%QqQ%%%%q%%%%%%Qq%%%%%%QqQq%QqQ%qQ%qQq%%%QqQ%qQ%qQqQq%Q%Qk4%J6j6
4769C71QQq%%%%%%qQ%Qj6Q%%%Qq%Qq%%%%%%%%%%%%%%%%%%%%%%%%%%%%%%%%%%%%%%%%%%Qqq
4762C71Q%%%%%%q%Qq%Q%%%qQ%qQ%%%%%%%%%%%qQ%%%%%%%%%%%%%%%%%%%%Qq%%%%%%%%%%qQ%
4756C79%%qQ%%qQ%%qQ%q%Q%%q%QqQ%%%%%%%%%%qQ%%%%qQ%%qQ%qQ%qQ%qQ%%%%%%%%qQ%q%Qq
4750C71%%%Q%%%q%%QqQqQq%%Q%%%qQq%Qq%%Q%%%%%q%Q%%qQ%q%%Q%qQ%qQ%q%QqQqQqQ%q%Q%
4743C79q%%%%%Qq%%%%%%%Qq%Qq%%Qq%Qq%%Qq%%%%%%%%%%%%%%%%%%%%%%%Qq%%%%%%%%%%%%%
4737C71%%%%Qq%%%%%%%%%%%%%%%%%%%%%%%%%%%%%%%%%%%%qQqQ%%qQ%%%%%%%%%%qQ%%%%qQ%
4731C71%%%%%%%%%%%%%%%%%%%qQ%%%%qQqQ%%%%%%qQ%%%%%%%%%%%%%%%%%%%%%%%%q%%QqQ%q
4724C63Qq%QqQ%q%%Q%qQ%%qQqQq%Qq%%Q%%%j6%Q%QqQ%%%qQqQ%%%%%%qQq%%%%Q%%%%qQq%%%
4718C63Q%%%qQqQ%q%Qq%%QqQq%%%%QqQq%%%%QqQq%%%%%%%%%%%%%%%%%%%%QqQq%%%%%%%%%%
4712C63%%Qq%%%%%%%%%%%Qq%%%%Qq%%%%%%%%%%%%%%%%%%%%qQ%%%%%%%%%%%%%%%%%%%%%%%%
4706C63%%%%%%%%%%%%%%%%%%%%%%%%%%%%%%%%%%%%%%%%%%%%%%%%%%%%%%%%%%%%%%%%%%%%%
4699C63%q%QqQq%Q%qQ%qQ%%%%qQ%%%%%%%%%%%%%%%%%%%qQ%%qQqQ%%%%%qQ%%%%%qQqQ%%%%%
4693C63%q%Qq%%%%Q%%%q%%%QqQ%%q%Q%qQ%%qQqQq%%Q%qQq%%Q%qQqQq%Q%%%%qQq%%%Qq%Qq%
4687C55Q%%q%%QqQq%%%%%Qq%%%%%%%Qq%%%%QqQq%%%%%%QqQq%Q%q%%Qq%%%%%%%Q%%%q%%%%Q
4680C63%q%%%%%%%%%Q%q%%%%%%%%%%%%%%%%%%%%%%%%%%%%%%%%%%qQ%qQ%%%%q%QQqqJ6qQj6
4674C47QQ%qQq%%%%%qQQq%%%%%%%%%%%%%%%%%%%%%%%%%%%%%%%%%%%%%%%%qQqQ%%%%%%%%qQ
4668C55%%%Qq%%%%%%%qQ%%%%qQ%%%%%qQ%%%%%%%qQ%qQq%%QqQqQ%%qQ%%qQ%q%%Qq%%%Qq%%%
4661C47%Q%qQ%%%%%%qQ%%%%%%q%Q%q%QqQ%qQqQq%%%%Q%q%%%%%%%%%%%%%%Qq%%%Qq%%%%%%%
4655C47%%%%%%%QqQq%%%%%%%%%%%%%Q%q%%%%%%%%%%%Q%qQ%%q%%%%%%%%%%%%%%%%%Qq%%%%%
4649C47%%%%%%%%%%%%%%%%%%%%%%%%%%%%%%%%%%%%Qq%%%%%%%%%%%%Qq%%%%%%%%%%%%%%%%%
4643C47%%%qQ%Qq%%%%%%%%%%%%qQ%%%%%qQqQ%%%%%%%%qQ%Qj6Q%%%%%%%%%%%%%%%%%%%%%qQ
4636C47%%%%%%%%%%%%%%%%%qQqQq%%Qq%Q%qQ%qQq%QqQ%%%qQ%%%qQ%%qQ%%%%%qQ%%%q%QqQ%
4630C47%qQ%q%%Q%%qQ%%%qJ6j6%%%%%%QqQq%%Qq%%%%%%%Qq%%%QqQ%q%%%QqQ%q%%%Qq%%%%%
4624C39%Qq%%QqQq%%%%%%%%Qq%%Qq%QqQq%QqQq%%%%%%%%%%%%%%%%%%%Qq%%%%%%%%%%%%%%%
4618C39%%%%%%%%%qQ%Q%q%Qq%%%%%%%%%%%%%%%%%%%%%%%%%%Qq%%%Qq%%%%%Qq%%%%%%%%%%%
4611C39%%%%%%%%%%%Qq%%%%%%%%%%%%%%%%%%%%%%%%%%%%%%%%%%%%%%%%%%%%%%%%%%%%%%%%
4605C39%%qJ6j6QqQqJ6j6Qq%Q%%%%%%qQ%%%%%qQqQ%%%%%%%%%%qQ%%qQqQ%qQ%%%%%%%%%%%%
4599C39%%%qQ%%%%%q%%Q%q%%%Q%%%%%%%qQqQqQq%%Q%%q%Q%q%Q%qQq%Q%%q%%%%Q%%%qQ%%qQ
4593C39%Qq%qQ%%%%qQ%q%%%%%%QqQq%Q%q%%%%%%Qq%Qq%%QqQq%q%Q%Q%qQqQj6J6q%%Q%qQ%q
4587C31%%Q%q%QqQq%QqQqQq%%%%%QqQq%%%%%%Qq%%%%Qq%%Qq%%%qJ6qQj6J6qQ%k4J6%k4K4K4
4581C55j6J6qk4QQqQq%%%%%%Q%%q%Qq%%%%%%%%%%%%%%%%%%%%%%%%%%%%%%%%%%%%%%%Qq%%%
4575C31%%%%%%qQqQ%q%QqJ6%j6Q%qQ%QqQ%q%%%qQ%%%%%%%%%%%qQ%%%%%qQ%%%qQ%Qq%%%%%%
4569C31%%%%%%%%%qQ%%q%QqQ%%%%%%%%%%%%q%Q%%%%%q%%Q%%%%q%Q%qQq%%Q%%%%qQqQ%q%Q%
4562C31q%Q%%%%%q%%%Q%%%%%qQ%%%%q%%%%Q%%%q%Q%qQq%%%Qq%%%Qq%Q%qQq%%Q%q%%%%%%%Q
4556C31qQq%%%%%%QqQq%%Q%%qQqQq%Qq%Qq%%%%%%%%%%%%%%%%%%%%Qq%%%%%%%%%%%Q%%%q%%
4550C23%%%%%Qq%%%%%%%%%%%%%%%%%%%%%%%%%%%%%%%%%%%%%%%%%%%%%%%%%%%%%%%%%%%%%%
4543C23%%%%%%%%Qq%%%%%%Qq%%%%%%%%%%qQ%%%%%%%%%%%%%%%%%%%%%%%%%%%%%%%%%%%%%%%
4537C23%%%%%%%%qQ%%%%%%%%%%%qQ%%%%%%qQqQQq%%%%qQ%%%%%%%%%%%%%%%qQ%%%%%%%%%%%
4531C23%%%%%%%qQ%%%qQqQ%%%qQ%%%qQ%%qQ%%%qQ%%%%%qQ%%%%%%%%%%qQ%%%%%%%%%%%qQqQ
4524C23%%%%%%qQqQ%qQ%q%%%Q%qQq%%%Qq%Q%q%%Qq%%Q%%%qQqQ%qQq%Q%%%%qQ%%qQ%qQ%%%%
4518C23%qQqQ%%%%q%Qq%%%%%Qq%%%%QqQ%qQq%%%%%%Qq%Q%q%%%%%%%%%%%%%%%%%%%%Q%q%%Q
4512C23qQ%q%Q%%q%Q%%q%Q%qQ%q%%%Qq%%%%%%%%Q%q%%%%%%Q%qQq%%%%%%%%%%%%%%%%%%%%%
4505C15%%%%%%%%%%%%%%%%%%%%%%Qq%%%Qq%%%%%%%%%%%%%%%%%%%%%Qq%%%%%%%%%%%%%%%%%
4499C15%%%Qq%%%%%%%%%%%%%qQ%%%%%%%%%%%%%%%%Qq%%%%%%%%%%%%%%%%%%%%%%%%%%%%%Qq
4493C15%%%Qq%%%%%%%%%%qQ%%%%%%%%%%%%%%%%%%%%%%%%%%%%%%%qQqQqQ%%qqQQq%J6j6%Q%
4487C15%%%%%qQ%%qQ%%%%%%%%%%%qQ%%%q%%Q%%%%%qQqQ%%%%%%%%%qQ%%%%qQ%%q%%QqQ%q%Q
4480C15qQ%%%%%%%%qQqQ%qQqQ%qQ%qQqQ%%qQ%%qQ%qQ%qQqQqQqQq%%Qq%Q%%%%%qQq%%Q%%q%
4474C07Qq%%QqQq%%%%%Q%q%Qq%%Q%q%%%%%Q%q%%%%%%%QqQq%Q%q%%Qq%Qq%%Qq%QqQ%q%%%%Q
4468C15qQq%%%Q%qQ%q%%%%%%Qq%Qq%Qq%%%%Qq%%%%%%%%%Qq%%%%%%%%%%%%%Qq%%Qq%%%%%%%
4461C07%%%%%%%%%Qq%%%Qq%%%%%%%%%%%%%%%%%%%%%%%%%%%%%%%%%%%%%%%%%%%%%%%%%%%%%
4455C07%%%%%%%%%%%%%%%%%%%%%%%%%%%%%%%%%%%%%%%%%%%%%%%%%%%%%%%%%%%%%%%%%%%%%
4449C07%qQ%qQq%Q%%%%%%%%qQ%%%%%%%%%%%%%%%%%%%%%%%%%%%%%%qQ%%%%%%%%%%%%%%%%%%
4443C07%%%q%Q%%%%%%qQ%%qQ%Qqq%%Q%%q%Q%%%%%qQ%%q%QqQ%%%q%Q%%%%%%%qQqQ%%%qQqQ%
4436C07%qQ%%%qQ%q%Q%%q%Q%%%%%%qQ%%%%q%Q%q%%%%%%%%%Q%qQ%q%%%Qq%%Q%%qQ%q%%%Q%q
4430B99Q%qQqQ%%qQqQqQq%%Qq%%%%Qq%QqQqQ%qQqQ%qQ%%%q%%%%%Qq%%Q%qQ%qQq%Q%qQ%qQ%
4424C07q%%%Qq%QqQq%%%%%%%Qq%%%%%Qq%%%%%%%%%%%%%%QqQq%%%Qq%Qq%%%%%%%Q%q%%%%%%
4417B99%%qJ6j6QQqQq%%%%%%%%%Qq%%%%%%%%%%%%%%%Qq%%%%%Qq%Qq%%%%%%%%%%%%%%%%%%%
4411B99Q%q%QqQqQq%%%%%%%Qq%%%%%%%%%%%%%%%%%%%%%%%%%%%%%Qq%%%%%%%%%%%%%%%%%%%
4405B99%%%%%%%%%%Qq%%%%%%%%%%%%%qQ%%%%%%%q%QQq%%qQ%qQ%%%%%%%%%%%%%%%%%%%%%%%
4398B99%%%%%%%%%%%%%%%%%%%%%%%%%%%qQ%%%%%%%qQ%%%%%%q%%Q%%qJ6j6%J6k4J6qQ%q%Qq
4393B91QqQ%qQ%qQ%qQqQ%%%%%%%%%%%%%%%qQ%qQ%%qQ%qQ%%%%%%%%%%%qQqQ%%%%%%%qQq%Qq
4386B91%Q%%%%%qQq%Qq%Q%%%%%%%%%qQqQ%qQqQq%Qq%Q%q%%Qq%%%QqQ%%q%Q%%qQ%%%%%%%%%
4380B99qQ%q%%%Q%%%%%%%%%qQ%%%%%%%%%%%%qQ%%%%%%%%q%Q%qQq%%Qq%%%QqQ%q%%%Qq%%Q%
4374B99%%%%q%QqQqQqQqQ%%q%%%Q%qQqQqQ%%%%qQ%%%%qQ%%%%qQq%%QqQ%%q%%%%Q%%q%%Qq%
4367B91%%%%%%%%%%%%%Qq%Qq%%%Qq%%%%%%%%%Qq%%%%Qq%%%%%%%%%%%%%%%%%%%%%Qq%Qq%%%
4361B91%%%%Qq%%%%%%%%%%%%%%Qj6Q%%%%%%%%%%%%%%%%%%%%%%%%%%%%Q%q%%%%%%%%%%%%%%
4355B91%%%%%qQ%%%Qj6Q%%%%qQ%%%%%%%%%%%%%%%%%%%%%%%%%%%%%%%%%%%%%%%%%%%%%%%%%
4349B91%%%qQ%%%%%%%%%q%%Q%%%QqqQ%qQ%Qq%q%Q%qQ%%%%qQ%%%%%%%%%%%%%%%%%%%%%%%%%
4342B91%%%%%%%%%%%%%q%Q%%%qQ%q%%Qq%%QqQqQ%q%Q%%%%%%%%%%%%%%%%qQqQ%%%%%%%%%%%
4336B91q%Q%%%qQqQ%q%Q%qQ%%qQqQ%qQ%qQ%qQ%q%%Qq%%%%Q%q%%%Q%%%%%%%%%q%%Q%qQ%qQ%
4330B91%qQq%%QqQ%qQ%qQ%qQ%%%%%%%%qQ%%qQ%qQqQ%q%%%%QqQq%Qq%%%Qq%%Qq%Q%qQ%%q%Q
4323B91q%%%%QqQq%Qq%%%%%Qq%Qq%QqQ%qQqQqQ%%q%%Q%q%%%%%%Q%q%%QqQq%%Q%qQqQqQ%%q
4317B83%%%%%Qq%QqQq%%%%%%%%%%%%%%%%Qq%%%%%%%%%%%%Q%q%%%%%%%%Qq%%%%%%%%%%Qq%%
4311B83%%%Qq%%%%Qq%%%%%%%%%%%%Qq%%%Qq%Qq%%%%%%%%%%%QqQq%%%%%%%Qq%%%Qq%%Qq%%%
4304B83%%%%%%%%%%%%%%%%%%%%%%%%%%%%%%%%%%%%%Qq%%%%%%q%%%QqJ6%q%%%Qj6Q%%%%%%%
4298B83%%%%%%Qq%%%%%%%%%%%%%%%%%%%%%%%%%%%%%%%%%%%%%%qQ%%%%%%%%Qq%%%%%%%%%%%
4292B83%Qq%%%%%%%%q%Q%%%%qQ%%%%%q%QqQ%%qQ%%%qQ%%%%%%%%%qQ%%%%%%%%%%%%%%%%%%%
4286B83%%%%%%%%%%%%%%%%%%%%%%%qQ%%%%%%%%%%%qQ%%qQ%%%%%%%%%%%%%%%qQqQ%%%%%%qQ
4279B83%%%%qQ%qQ%%%%%%%%qQqQq%Q%%%%qQqQ%%qQ%%%qQ%%%%%qQq%%QqQq%%Q%%%%%q%Q%q%
4273B75Qq%%QqQ%%%%%%%qQqQ%qQq%Q%q%QqQqQ%%qQ%%%%qQ%q%Q%%%%q%QqQqQq%%Qq%%Q%q%Q
4267B83q%Q%q%%Qq%%%%%%%%%Qq%%Q%%qQ%%%q%Qq%%%Q%qQqQqQq%%Qq%%Q%%%%%%%q%Q%%qQ%q
4260B75Qq%%%Qq%%Qq%QqQqQ%qQq%%%%%%%%%%%%%%%%Q%qQq%%%%%%Qq%%%%Qq%%%%%Qq%%%Qq%
4254B75Qq%%%Q%qQqqQ%%%%Q%q%Q%q%%%Qq%%%%%%%Qq%%%%%%%%%%%%%%%%%%%%%%%%%%%%%%%%
4248B75%%%%%Qq%%%%%%%QqQq%%%%%%%%Qq%%%qQ%%%%%%%%%%%%%%%%%%%%%%%%%%Qq%%%%%%%%
4241B75%%%%%%%%Qq%%%%%%%%%%%Qq%%%%%Qq%%%%%%%Qq%%%%%%%qQ%%%%%%%%%%%%%%Qq%%Qq%
4235B75%%%%Qq%%%%%%%%%%%%%%%%%%%%%%Qq%%%%%%%%%%%%%%%%%%%%%%Qq%%Qq%%qQ%%%qQ%%
4229B75%%%%%%%%%%%%%%qQ%%%%%Qq%%%%%%Qq%%%%%qQ%%%%%%%%%%qQ%%%%%%%%%%%%%%%%%q%
4222B67%Q%%%qQ%%%%%%%%%%%qQ%%%%%%%%%%%%%%%%%%%%%%%%%%%%%%%%%%%q%QqQ%%q%%Q%%%
4216B75%qQ%%%q%Q%%%qQ%%qQQqqQ%%%J6j6q%QQj6Qj6J6q%Q%%%Qq%qQ%%%qQ%%qQ%%%%%%%%%
4210B75%%%%%%qQ%%q%Q%%%%%%%qQ%%%%%qJ6q%q%%QqQ%%j6K4l2qL2J6qk4%%J6K4m8%L2q%qJ6
4205B83j6%QqQ%qQ%%%%%%%%%%%%%%%%%%qQ%%%%q%Q%%%%%%%%%qQ%qQqQ%qQq%J6q%qQq%%QQq
4199B75qQQ%%j6J6qqQq%%%Q%qQqQqQ%%qQ%%%%qQ%q%Q%qQ%%%%q%%QqQ%qQ%%q%%Qq%Qq%Q%%%
4193B75%%%%%q%QqQ%%q%%Qq%Q%q%%Q%qQq%%Q%q%%Q%q%%%Q%q%%%%Qq%%%QqQ%%%q%%%%%%%%Q
4186B75q%%%%%Q%q%Q%%q%%%%%%Qq%%Qq%%QqQq%%%%%%%%%%%Q%qQq%%Q%q%QqQq%%%%QqQq%%%
4180B67%%%%QqQq%%Qq%%%QqQ%q%%%%%%%%%%%%%%%%%%%%%%%%%Qq%%%%%%%%%QqQq%%Q%qQqQq
4174B67%Qq%%Qq%%%%%%%%%%%%%%Qq%%%%%Qq%%QqQq%%%%%%%%%%%%%%%%%%%%%%%%%Qq%%%%%Q
4167B75q%%%%%%%%%Qq%%%%%%%%%Qq%%%%%Qj6Q%%%%%%%%%%%%%%%%%%%%%%%%%%%%%%%%%%%qQ
4161B67%%%%%%%%%%%%Qq%QqQq%%%%%%Q%q%Qq%%%%%%%%%%%%%%%%%%%%%%%%%%%%%%%%%%%%%%
4155B67%%%%%%Qq%qQ%%%%%%%%%%%%%%%%%%%%%%%%%%%%%%%%%%%%%%%%%%%%%%%%%%%%%%qQ%%
4149B67%%%%qQ%%%%Qq%%%%%%%%%%Qq%%%%%%%%%%%%qQ%%%%%%%%%%%%%%%%%%%%%%qQ%%%%%%q
4142B59Q%%qQ%%%%%%%%%%%%%%%%%%%%%%%%%%%%%%%qQ%%%%qQ%%%%%%%%%%%%%%%%%%qQ%%%%%
4136B67%%Qq%q%Qq%Q%qQ%qQ%%%%%%%%%qQ%%%%q%Q%%q%Q%%qQ%%qQ%%%%%%%%%qQ%q%QqQqQ%%
4130B67%%%%%%%q%Q%%%%qQ%%%%%%%%%%%%%%q%Q%qQ%%%%%%%qQ%%%%%%qQ%%%%%%qQ%%%%qQ%%
4123B67%%qQq%QqQ%%%%%%%%%qQ%q%%QqQ%%qQ%%%%%%qQ%q%%Qq%Q%%qQ%%q%Q%qQ%%%qQ%%qQ%
4117B67%%%%%%%%q%Q%q%%Q%%qQ%%qQq%%%%%Qq%Q%%%qQ%q%%Q%%%%%j6J6%%q%qQQ%qQ%%%qQq
4111B59Qq%Q%q%Q%qQ%qQq%Q%q%QqQ%q%Qq%%Q%qQqQq%%Q%q%QqQq%%%%Q%qQqQ%q%Qq%Qq%%Q%
4104B67q%Q%%qQq%%Q%q%Q%%qQqQ%q%%QqQ%q%%%Q%qQq%%%%%%%%%Qq%%Qq%%Qq%Qq%%%%%%%Qq
4098B59%Qq%%Q%%q%%Q%qQ%q%%%%%%Qq%%%%Qq%%%%Q%q%QqQq%%%%%%%%Qq%%%%%%%%%Qq%%%%%
4092B59%%Qq%Qq%%%%%%%%%%%%%%%Q%q%Qq%%Qq%%%%%%%%Qq%%%%%%%%%%%%%%%%%%%%%%%%%%%
4086B59Qq%%%%%%%%%%%%QqQq%%%%%%%%%%%%%%%%%%%%%%%%Qq%%%%%%%%%%Qq%%%%%%%%%%%%%
4079B59%%%%%%%%%%%%%%%%Qq%%%%%%Qq%%%%%%%%%%%%%%%%%%%%%%%%%%%%%%%%%%%%%%qQ%%%
4073B59%qQ%%%%%%%%%%%%%%%%Qq%%%%%%%%%%%%%%%%%%%%%%%%%%%%%%%%%%%%%%%%%%%%%%%q
4067B51Q%%%%%qQ%%Qq%qQ%%QqQq%%%%%%%%%%%%%%%%%%%%%%%%%%%%%%%%%%%qQ%%%%%%%%%%q
4060B51QqQ%%%%%%%%qQ%%%%Qq%Qq%Qq%%%%%%%%%%%%%%%%%%%%%%%%%%%%%%%%%%%%qQ%%%%%Q
4054B67qqQ%%%%%%%%%%%%%qQ%%%qQ%%%qQ%%%%%%%%%%%%%%qQQq%%%%%%qQ%qQQj6%Q%Qq%%%%
4048B59%%%%%%%qQ%%%%%%%q%%Q%q%QqQ%%%qQ%%qQ%%qQ%%%%%qQqQ%%%%qQqQ%%%%%%qQ%%Qq%
4041B59%%qQq%Q%%q%Q%%qQ%%q%QqQ%qQqQqQqQqQ%qQ%qQ%%%%%%%%%qQ%%%%qQ%%%qQq%%Qq%Q
4035B59%%qQqQ%q%%Q%%q%QqQqQ%qQqQ%%%%qQ%%qQ%%qQ%%%%%qQ%q%Q%%%qQ%%%%%%%%%%%%qQ
4029B59qQqQq%Qq%%Q%%q%QqQ%%qQ%%qQ%%qQ%q%%%QqQq%Q%q%%%%%Qq%QqQq%Q%%%%%%%%%%%q
4022B51Q%%%%%qQqQ%qQ%%%%qQ%qQq%Qq%%%QqQ%%%q%QqQk4J6%QQk4qK4q%Qq%J6j6%%%%QqQ%
4017B59qQqQ%qQ%q%Qq%%Q%qQqQ%%q%%%%%%%%Qq%%%QqQq%%QqQq%QqQq%%%%%%Qq%Qq%%%QqQq
4010B51%Q%qQ%q%%%%Qq%%QqQq%%%%%Q%q%QqQq%%%%%%Qq%%Q%%q%%%%%Q%q%%%%%%%%%%%%%%%
4004B51Q%%q%Q%%q%Qq%%%%%%%QqQq%QqQ%qQqQq%%Q%qQq%%%%Qq%Qq%%%%%Q%q%%%Qq%Q%q%%%
3998B51Qq%%%%%%QqQ%%q%%%%%QqQq%%QqQ%%%q%%%%%%%%QqQqQq%%Qq%%%%%%%%Qq%Qq%%%Qq%
3991B51Qq%QqQq%%%%%QqQq%%%%%%%%%%%%Qq%%%%%%Q%qQ%%qQqQq%%%%%%Qq%Qq%%%%%%%%%%%
3985B51%%%%%%%%%%Q%q%Qq%Qq%%%%%%%%%%%%%%%%%%%%%%%%%%Qq%%%%%%%Qq%%%%%%%Qq%%%%
3979B51%%%%%%%%%%%%%%%%%%%%%%%%%%%%%%%%%%%%%%%%%%%%%%%%%%%%%%%%%%%%%%%%%Qq%%
3972B51%%%%%Qj6QQj6Q%%%%%%%%%%%%%%qQ%%%%%%%%%%%%%%%%%%%%%%%%%%%%%%%%%%%%%%%%
3966B51%%%%%%%qQ%%%%%%%%%%qQ%%%%%%%Qq%%%%%%%%%%%%%%%%%%%%%%%%%%%%%%%%%%%%%%%
3960B51%%%%%%%%%%%qQ%%Qq%%%%%%%%%%%%%%%%%%%%%%%%%%%%%%%%%%%%%%%%%%%%Qq%%%%%%
3954B51%%%%%Qq%%%%%%%%%%%%%%%%%%%%%%%%%%%%%%%%%%%%%%%%%%%%%%qQ%%%%%qQqQ%%%%%
3947B51%%%%%%%%%%%%%%%%%%%%%%%%%%%%%%%%%%%%%%%%%%%%%%%%%%qQ%%qQ%%%%qQ%q%%Q%%
3941B51%%%%%%%%%qQ%%%%%%%%%qQ%%%%qQ%%%%%%%%%%qQ%%%%%%%qQqQ%%%q%Q%%%%%%%%%qQq
3935B43Q%%%qQq%QqQ%q%QqQqQq%Q%%%%%Qq%%%qQ%%qQq%Qq%Q%%%%qQ%%q%Q%%%q%%%Q%%%qQq
3928B43%Q%%%%%%qQqQ%qQqQq%%%Q%qQ%%q%Qq%%%J6qq%QQ%j6q%QQq%Q%%qQqQ%q%QqQqQ%qQ%
3922B51%%q%%%Q%%qQ%%qQ%%%%%%%q%QqQ%qQqQ%q%Q%%%%%%qQ%%%qQ%%%%qQ%%%qQ%%%%%%%%q
3916B43QqQq%%%QqQ%%%%%%%%%%%%%qQ%q%%Q%qQq%%%Q%%%%%%%%%%qQqQqQ%%%%%%%%qQqQ%%q
3910B43%%Q%%%qQqQ%qQqQ%qQ%qQ%%%q%%%Q%%%%%%%%%%%%%%qQq%%%%Q%qQ%qQ%qQ%qQq%Qq%Q
3903B51qQq%%QqQqQq%%%%QqQ%q%Qq%%Qq%QqQ%%%%qQ%%%%%q%%Q%%%qQ%q%Q%q%Q%%%%qQ%%q%
3897B43QqQqQqQ%%q%%QqQq%%%%%%%%%QqQq%%Q%qQ%%qQ%%%qQ%%%qQ%%%%q%Q%q%Q%%q%%Q%q%
3891B43Qq%Qq%Q%qQq%QqQ%%qQqQ%q%%QqQ%qQq%Qq%%Q%qQ%qQqQqQqQq%Qq%Q%q%%Q%%qQ%qQq
3884B43%Qq%Q%qQ%qQq%%%%%QqQq%%%%%%Qq%%Qq%Q%q%%Qq%%%%%%%%QqQq%%%%%%%Qq%%%QqQ%
3878B51qQ%%qQ%qQ%qQ%q%%%%%Qq%QqQ%%q%%Q%q%Qq%Q%q%%%%QqQq%%%%%%Qq%%%%%%%%Q%%q%
3872B43%Q%%q%%%%%%%%Q%q%%%%%QqQ%qQ%q%Qq%%%%%%%%%%%%%%%%Q%q%%%%Q%q%Qq%%Q%qQ%%
3865B51%qQ%%q%%Q%q%Qq%%%Q%q%%%%%%%%%Qq%%%%%%Q%q%%Qq%%%Qq%%Qq%%%%%Q%qQ%%q%Q%q
3859B43%%%Qq%%Qq%Qq%%%%%%%%Qq%Q%q%%%%%%%%%QqQq%Q%q%QqQ%%%q%%%Q%q%%%%%%%%%%%%
3853B43Q%q%Q%%%%%q%%Qq%%%%Qq%%%%%%%%%Qq%QqQq%%%%%%%%%Qq%%QqQq%Q%%q%%Qq%Qq%%Q
3846B51%q%Q%qQq%Q%%%q%Q%q%%%Qq%%%%%%Qq%%%Qq%Qq%Q%q%%%%%%%Qq%%qJ6q%%Qq%%%%%%%
3840B43Qq%%Q%qQq%%%%%Q%qQ%%Qq%qQqqQQqQqQq%%%Qq%%%%%%%%%%%%%%%%%%%%%%%%%%%%%%
3834B43Qq%%%%%%%%Qq%%%Q%qqJ6%Ql2K4%q%%Qj6K4qj6QqQ%Qj6J6qQq%Qq%qJ6q%%%%%%%%%%
3828B43%%%%%%%%%%%%%%%%%%%Qq%%%%%%%%%%%Qq%%%%%%%%%qJ6j6K4k4Q%Q%qqQ%%%Qq%%%Qq
3823B43%%%%%%%%%%%%%qQ%%%%%%%%%%%%%%%%qQ%%%%%Qq%%%%%%%%%%%%%%%%%%%%%%%%%%%%%
3816B43%%%%%%%%%%%%%%%%%%Qq%%%%%%%%%%%%%%%%%%%%%%%%%%%%%%%%%%%%%%%%%%%%%%%%%
3810B43%%%%%%%%%%%%%%%%%Qq%Qqq%QQq%%%Qq%%%%%%%%%%%%%%%%%%%%%%%%%%%%%%%%%%%%%
3804B43%%%%%%%%%%%%%%%%%%%%%%%%%%%%%%%%%%%%%%%%%%%%%%%%%%%%%%%%%%%%%%%%%qQ%%
3797B43%%%%%%%%%%%%q%Q%%%%%%%%%%%%%%%%%%%%%%%%%%%%%%%%qQ%%%%%%%%%%%%%%%q%QqQ
3791B43%%%%%%%%%%%%%%%%%%%%%%%%%%%%%%%%%%%%%%%%%%%%%%%%%%%%%%%%%%%%%%%%%%qQ%
3785B43%%%Qq%qQ%%%qQ%q%Q%%%%%%%%%%%%%%%%%%qQ%%%%%%%%%%%%%%%%%%%%%%%%%%%%%%%%
3778B43%%%%%%%%%%%%%%%%%%%%%%qQ%%%%%%%%%%%%%%%%%%%%%%qQ%%%%%%%%%Qq%%%qQ%%%%%
3772B43%%%%%%%%%%%qQ%%%%qQ%%%%%%%%%%%%%%%%%%qQ%%%%%%%%%%%%%%%%%qQ%qQ%%%%qQ%%
3766B43%%%%%qQ%%%qQ%%%%%%%%%%%%%%%%%%%%%%%%qQ%%%%%%%%%%%%%q%Q%qQ%qQ%%%%%qQ%%
3759B43%qQqQ%%%%%%%%q%Q%%%%%%%%%%%%%%%%%%%%%qQ%%%%qQ%%%%%%%qQ%%%%%%%%qQ%q%%Q
3753B43qQ%%%%%%%%%%%%%%%%%%%%%%%qQ%%%qQ%qQ%%%%qQ%%qQ%%%qQ%%%%%%%%%%qQ%%%%%%%
3747B43%%%%q%QqQ%qQ%%%%qQqQqQq%Q%qQq%Q%q%Q%%%%%qQ%%%%%%%%%qQ%%%%qQqQ%%%%%%%%
3740B43%%%%%%%%%q%Q%qQ%%%%%%%%q%Q%qQqQQq%q%QqQj6QQqQqQq%Q%%%qQ%%%%%%%q%Q%%%%
3734B43qQqQ%%%%%%%%%%%%%qQq%Q%%%%%qQ%%qQ%%qQ%qQ%%%%%%%%qQqQ%%%%q%%%Q%%%%%%%%
3728B43%qQ%%qQ%%%%q%%QqQ%%%qQ%qQ%%%%qQ%%%%%%%%%q%Q%q%QqQ%%q%%Q%q%%%QqQqQqQ%%
3722B43qQ%%q%QqQ%%%%qQqQ%qQ%%%qQqQqQ%%q%QqQqQq%Q%qQ%%%qQqQq%Q%%qQq%Q%qQqQ%%q
3715B35%Qq%QqQqQq%Q%qQ%qQq%%Q%%%%%%%q%%Q%q%%Q%qQ%qQqQq%Qq%QqQ%%%%qQ%%q%Q%%%%
3709B43%%%qQqQ%%%%%%%%%%%%q%Q%qQ%%%%q%%%%%Q%qQ%%qQ%%qQq%%QqQqQqQ%qQqQ%%%%qQ%
3703B43%%%qQ%%%%%%%%%qQ%%%%%%%%%%qQ%%q%%QqQ%%%%qQ%qQ%qQqQ%q%Q%q%Q%qQqQqQ%%%q
3696B35%QqQqQ%%%%%%%%%%qQ%%%%%%%%%qQ%%%%%%%%%%qQq%%Q%%%%%%%qQq%%%%%%Qj6QQq%%
3690B35%Q%qQq%%%Qq%%%%Q%%qQqQqQ%%%q%Qq%Qq%Q%q%%Q%%qQ%%%qQ%qQ%qQqQqQ%%qQqQqQ%
3684B43%q%%Q%q%%%%%%%QqQq%Q%qQq%Qq%Qq%%Qq%%Q%q%%%%%QqQ%qQqQ%%%qQ%qQqQq%QqQqQ
3677B43%%%qQq%%%QqQq%Q%%%%%%%q%Qq%%%Q%q%%qQ%%%Qj6%J6Qj6%%%%%%%Q%%%qQqQ%q%Q%q
3671B35%%%Q%%q%%%%QqQ%%%qQq%QqQ%%%qQ%%%%%q%%Qq%%Q%%%%%q%Qj6%K4q%q%Qq%QqQ%q%%
3665B35%QqQq%%Q%%q%%%%Q%%qQq%%Q%%q%QqQqQ%q%Q%%%q%Qq%Q%%%%qQq%%%Q%qQ%%%q%Q%%%
3659B43qQ%qQqQq%Q%%%%qQq%QqQqQq%Qq%%%%QqQ%%%qQqQq%Q%q%%QqQ%q%QqQq%%QqQ%qQ%%q
3653B35%%%%QqQqQ%%q%Q%q%%Q%q%%QqQ%%qQ%%q%%%Q%qQq%QqQ%%%q%QqQqQ%%%q%Q%q%%Qq%Q
3646B43q%Q%q%Qq%Qq%%QqQ%qQ%qQ%%k4K4j6J6%j6J6%j6J6%qQqQq%%%%Q%q%%%QqQ%%q%%%%%
3641B35Qq%%%QqQq%Q%%%%%qQq%%Qq%%Qq%Q%qQqQqQq%%Qq%Q%%q%QqQq%Q%qQqQ%%%%%%%%%qQ
3634B43%qQ%q%Qq%%Qq%Qq%QqQq%Q%qQq%Q%%%q%%Qq%%Qq%%%%Qq%Q%%%%%q%%%%Q%%q%%QqQ%q
3628B35%%Qq%Q%%%%qQ%q%%Qq%QqQqQ%q%%Qq%QqQ%%qQ%%qQq%%QqQqQq%Qq%Q%q%Q%%%q%%QqQ
3622B43%q%Qq%%Q%%q%%%QqQqQq%Q%%%qQqQq%QqQ%q%%%%Q%q%%%Qq%Q%q%%%%%%%%%QqQqQ%q%
3615B35%%%Qq%%%Qq%%%%Qq%%%%Qq%%%%%%Q%q%%%%Qq%%Q%q%%%%%%%%%%%%%%%%%%%%%%%%%%%
3609B35Qq%%%%%Q%q%Qq%Qq%%Q%q%%%%%%%%%%%%%%%%%%%%%%%%%%%%%%Qq%%%%%%%%%%%%%%%%
3603B35%%Qq%%%%Qq%QqQ%q%%%%%%%%%%%%%%%%%%%%%%%%%%%%%%%%%%%%%%%%%%%%%Q%%%q%QQ
3596B51j6%%Qq%%%%%Q%%qQq%%%%%%Qq%%%%%%%%%%%%%%%%%%%%%%%%%%%%%%%%%%%%%%Qq%%%%
3590B35%%%%%%Q%%q%Qq%%Q%q%%Qq%%%%%%%%%%Qq%%%%%%%%%%%%%%%%%%%%%%%%%QqQq%%%%%Q
3584B43qQq%%%%%%%%%%%%%%%%Qq%%%%%Q%q%%%%%QqQq%%%%%Qq%%%%Qq%QqQq%%%QqQ%q%%%%%
3578B35Qq%%%%%%%%%%%%%%%%%%%%%%%%%Qq%%%%%%%%%%%%%Q%q%Qq%Q%q%%%Q%q%%Qq%%%%%%Q
3571B43%q%%%%%%%%%%%%%%%%%Q%q%Qq%Q%%%q%Qq%Qq%Q%qQq%%%%%%Q%q%%%%%%%%%%QqQ%q%%
3565B35%%Qq%%%%%%Qq%%%%%%%%%Q%%%q%%%%Q%qQqQqQ%%%q%%%%Q%qQq%%%%%%QqQq%%%%%Qq%
3559B35%%%%%QqQq%Qq%Qq%%Qq%%Q%%q%QqQq%%%%%%%%%%%%%Q%q%%%%%%Qq%%%%Q%q%%%%%%%Q
3552B43q%%%%QqQ%q%Qq%%Q%qQq%Q%%%Qqj6Q%Qq%%%%%QqQq%%%%%%Qq%Qq%%%%%%%%%%%%%%%%
3546B35Qq%%%Qq%%QqQ%%%q%Qq%QqQq%%%Q%qQq%%%%%%%%%%%%%Qq%%%%Qq%%%%%%%%%%%%%%%%
3540B35%%%Q%q%%%Qq%%%%%Q%q%%%QqQ%q%Qq%%%%Qq%%%%%%%%%%%%%%%qQ%%%%Qq%%%%%%%%%%
3533B35%%%Qq%Qq%%%%%%Qq%%%Q%q%%%%%%Qq%%%%%%%%%%Qq%%%%%%%%%%%%%%%%%%%%%%%%%%%
3527B35%%%QqQ%%q%%%%%%%%%%%%%%Qq%%%%%%Qq%%Qq%%%%%%%Qq%Qq%%%%%Qq%%%%%%%%%%%%%
3521B35%%%%%%%%%%%%%%Qq%%QqQq%%%%%%%%%%%%%Qq%%%%Q%q%Qq%%%%%%%%%%%%%%Qq%Qq%%Q
3515B43q%%%%%%%Q%q%%%%%Qq%%%%%%%%%%Qq%%%Qq%%%QqQ%%%%q%Qq%%%Q%q%%%%%%Qq%Qq%%%
3508B35Qq%%%%Q%q%%Q%q%%%Qq%%%Qq%%Qq%%%Qq%%%QqQqQq%%%%%Q%q%%%Q%qJ6qqQ%%j6J6%q
3502B35%%%%Qq%%%Q%%q%Q%%qQqQq%Qq%%%%%%%%%%%%Q%q%%%Q%%%%%q%%Q%%%q%%%Qq%QqQq%%
3496B35Q%qQq%%%QqQq%%%%%Qq%Q%q%%%%%%%%%%%%%%%Qq%%%%%QqQqQqQ%%%q%Qq%Qq%%%Qq%%
3490B35%Qq%Qq%%%%%%QqQ%q%%%%%%%%%%%%Qq%%%Qq%%%%%%%%%%%%%%%%%%%%QqQ%q%Q%q%%%%
3483B35%%%%%%%%%Qq%%Qq%%%%%Qq%%%Q%q%Qq%%Qq%%%%%%%%%%Qq%%%%%%%%%%%%%%%%%%Qq%%
3477B35%%Qq%%%%QqQq%%%%Q%q%%%%%QqQ%%q%Q%q%Q%qQ%%qQq%Qq%Q%q%Q%qQ%qQq%%%%Qq%%%
3471B35%Q%%qQq%%%%Q%%q%%%%%%Qq%%%Qq%%%%%%Qq%%QqQ%%q%%%Qj6J6%qQqQqQqQq%Qq%QqQ
3464B43%qj6J6Q%q%j6%J6Q%m8L2%J6l2J6%QQ%q%%%qQQq%Q%%q%%%%%%%%%QqQq%%Qq%%%Q%q%
3459B35%QqQ%%qQqQq%%%qK4q%j6K4j6j6J6J6k4M0j6j6J6QL2m8O4q0%n6M0J6J6q%Q%q%QqQj6
3454B27Q%%%%%QqQ%j6J6qQq%%%Qq%%%%%Qq%%Q%q%Qq%Q%q%Qq%%%%QqQqqQQqJ6J6m0L2m8K4j6
3449B19J6J6%j6QJ6j6%qQ%qQj6J6qJ6q%%%%q%%%Qq%%Qq%%%qJ6%Qqq%%QqQq%%%Qq%Qq%%Qq%
3443B35QqQqQqQ%q%QqQ%%%q%Qq%%%%%Q%%q%Qq%Qq%Q%q%%Q%q%Qq%%%Qq%Q%%%qQ%qQ%qQqQq%
3437B35%%%%Q%%qQ%qQq%Q%q%%%Qq%%%%%%%%%%%%%%%%%%%%%%%%%Qj6Q%%Qq%%Qq%%Q%q%QqQ%
3431B43qQqQq%Qq%Qq%%Qq%%Q%q%%%Qq%%QqQ%q%%%%%%%%%%%%%%%%%%%%%Qq%%%%Qq%%%%Qq%%
3425B35%Qq%QqQqQ%q%Qq%%%%%%%%Qq%%%Qq%%Qq%%%Q%%qQq%%Q%qQ%qQ%%q%%Qq%%Q%q%Qq%Qq
3418B35%Q%q%%%%Q%q%%%Qq%QqQq%Q%q%%%QqQ%qQq%Qq%%%%%%%%%%Qq%Qq%%Qq%%%%%%%%%%%%
3412B35%%%%Qq%%%%%Q%q%Qq%%Q%q%QqQ%qQq%%%QqQqQq%%%%%Qq%%Q%q%%%%%%%%%%%%%%%%%%
3406B35%%Qq%%%%%%%%%%%%%%Qq%%%%%%Qq%Qq%%%%%%%%%%%%%Qq%Qq%%%%%Q%q%QqQq%%%%Qq%
3399B35%%%%%Qq%%%%%%%%%%Qq%Q%q%Q%q%%Qq%%%%%%Qq%%%%%%Qq%Q%qQ%%qQq%%%%%Qq%%Qq%
3393B35Q%q%%%%Qq%%Qq%%Qq%%%%QqQq%QqQq%Qq%QqQq%%%%%%%%%Q%q%%%%%%Qq%%%%%%Qq%%%
3387B35Qq%%Qq%%Q%q%%%%%%%%%%%%Q%q%%%Qq%QqQq%Qq%%Q%%%q%%%Qq%Qq%%%%Q%%q%%%%Q%q
3380B35Q%q%%Qq%%%Qq%%%%%%%%%%%%%%QqQ%q%Qq%%Q%qQ%%qQq%%%Q%q%%%QqQ%q%%Q%%q%%%%
3374B35%QqQ%q%%Q%%%%q%%%%%%%%%%%%%%%%%Qq%%%%%%Qq%%Qq%QqQqQ%%%%q%Q%%%q%%%%%%Q
3368B43%q%%Qq%Qq%%Q%qQq%%%Q%q%Q%qQq%%%%%%%%%%%%%%Qq%%%%Qq%QqQqQ%%qqQ%Q%q%Q%%
3361B43qQ%%%q%%%%Qq%%%Qq%Qq%%%%%Q%%q%Qq%Q%%qQq%QqQ%qQq%%Qq%%Qq%%Q%qQ%%%%qQ%q
3355B35%Q%%%%q%%%Qq%Qq%Qq%%Q%q%%QqQ%%q%%%%Q%%%%%%%%%%%%%%qQqQq%%Q%%%%q%%Q%%q
3349B35Q%%%%%%qQqQqQ%%%%qQ%%%%%%%%%q%Q%q%Q%q%Q%q%Q%%%%qQ%%%%%%%q%%%%QqQ%qQ%%
3342B43%qQ%q%%Q%q%QqQ%%%qQ%%%%q%Q%%%q%Qq%%Q%%q%Q%%qQ%%%q%Qq%%%%%%Qq%%%Q%qQqQ
3336B43%q%Q%%%qQ%%%qQq%%QqQ%q%Qq%%%%QqQ%%qQ%%q%Q%q%Qq%%%QqQ%q%%Qq%%Qq%Q%%q%Q
3330B43%%q%%Q%%%%q%Q%%%%%%qQ%%qQqQq%%Q%%q%%%%%Qq%%%Qq%Qq%%Q%%%q%Q%qQq%Qq%Q%%
3323B43q%%%%%Qq%Qq%Q%%%%%%qQqQ%%%q%Qq%%%Qq%%%%Q%q%%%%%%%%%%%%%%%Qq%Q%%%%%%%q
3317B35%Q%%q%%%%%%Q%qQ%%%%qQqQ%q%QqQ%qQq%Q%q%%%%%Qq%%Q%q%Q%%qQq%Q%%%q%%%Q%qQ
3311B43q%Q%%%qQ%%%qQq%Q%%%%q%%Q%%%%qQ%%%qQ%q%%%Q%qQqQqQ%%%q%QqQ%%q%%Q%qQqQ%%
3305B43%%%qQ%%qQ%%%%%%qQ%%%%%qQ%qQ%%%%%%%%%%qQqQ%%%%qQ%q%Q%qQqQqQq%QqQ%q%Q%%
3298B43qQ%%%%%%%%%%%%%%%%qQ%%%%%%%%qQ%%%%%%%%%%%%%%%%%%%%%%qQqQ%%q%Q%%%%%%%q
3292B35%%QqQqQ%%qQqQ%%%%%%q%Q%%%%%%%%%%%%%%%%%%%%%%%%%%%%%%%%%%%%%%%%%%%%%%%
3286B43%%%%%%%%%%%%%%qQ%%%%qQ%%%%%%%%%%%%%%%%qQ%%%%%%%%qQ%q%Q%%%%%Qq%%%%%%%q
3279B35QqQ%%%%qQqQ%q%QqQ%qQ%%%%%%%qQ%%qQqJ6j6Q%%qQqQ%%%%%%qQ%%%%q%QqQ%%qQ%%%
3273B43%%%%q%Q%q%QqQ%%%%qQqQ%%%%%%%%%%%%%%%%Qj6%QQq%%%%qQqJ6j6%QqQqQ%%%q%QqQ
3267B43%%%%q%%Q%%%%%%qQqQ%%%%%qQqQ%%%%%%qQ%%%%%qQ%%%%%%%%%%%%%Qq%%Qj6Q%%QqQq
3261B43%qQ%%%%%qQ%%%qQq%Q%%%qQ%qQ%qQqQ%%%%%%%%%%%%qQ%%%%%%%%%%%%%%%%%%%%%%%%
3255B43%%%%%%%%%%%%%%%%%%qQ%%qQ%qQ%%%%%qQ%%%%%%%%%qQ%%%%%%%qQ%%%%%%%%%%%%%%%
3248B43%%%%%%%%%%%q%Q%%%%qQ%%%qQ%%%%%%%Qq%%qQqQ%%%%%%%%%%%%%%%%%%%%%%%%%%q%Q
3242B43%%%%%%%%%%%%%%%%%%%%%%%%%%%qQq%Q%qQ%%qQ%qQ%%%%%%%%%%%%%%%%%%%%%qQ%%%%
3236B43%%%%%qQ%%%%%%%%%%qQ%Qq%%%%%%Qq%%%%%%%%%%qQqQ%%%%%%%%%%%%%%%%%%%%%%%%%
3229B43%%%%%%%%%%%%%%%%%%%%%%%%%%%%%%%%%%%%%%%%%%%%%%%%%%%%%%%%%%%%%%%%%%qQ%
3223B43%%%%%Qj6Q%qQqQ%%Qq%%%%%%qQ%%%%%%%%%%%%%%%%%%%%%%%%%%%%%%%%%%%%%%%%%%%
3217B43%%%%%%%%%%%%%%%%%%%%%%%%%qQ%%%%%%%%%%%%%%%%%%%%%%%%%%%%%%%%%%%%%%%Qq%
3210B43%%Qq%%%%Qq%%%%%%%%%%%%%%%%%%%%%%%%%%%%%%%%%%%%%%%%%%%%%%%%%%%%%%Qq%%%
3204B43%%%%%%%%%%%%%%%%%%%%%%%%%%%%%%%qQ%%%%%%%%%%%%%%%%%%%%%%%%%%%%%%%%%qQ%
3198B43%%%%%qQ%%Qq%%%%%%%%%%%%%%%qQ%%%%%%%%%%%%%%%%%%%%%%%%%%%%%%%%%Q%q%%%%%
3191B43%%%%%%%%%%%%%%%%%%%%Qq%%%%%%%%%%%%%%%qQ%%%%%%%%%%%%%%%%%%%%Qq%Q%q%%%%
3185B43%%%%%%%%%%%%%%%%%%%%%%%%%%%%%%%%%%%Qj6QQqQq%qQ%%%%%%Qq%%%%%%%%%%%%QqQ
3179B51q%Qq%%%Qq%%%%%%%Qq%%%%%%%%Qq%%Qj6%Q%%Qq%%qQ%QqqJ6%j6J6%q%%%%%%Q%q%%Qq
3173B43%%%%%Q%q%%%%%%Q%qQqQq%%%%%%%%%%Qq%QqQ%q%%%%%%%%%%%%%Qq%Qq%QqQq%QqQqQ%
3167B51q%%%%%%%%Qq%%%%%%%Qq%%%%%%QqQ%qQqQq%%%%%Q%qQqQqQ%%q%%%Qq%%%%%Qq%%%Q%q
3160B43%%Q%q%%Qq%Qq%Qq%%%%%%Q%qQq%%%%%%%QqQ%qQq%%Q%q%%Qq%%%%%%Q%q%Qq%%%%%%Qq
3154B43%%%%%%%%Qq%%%%QqQq%%%%%%Q%q%%%%Qq%%%%%%%%Qq%Q%%%%q%%%Q%%q%%%QqQ%q%Qq%
3148B43%%Qq%%%Qq%%%%Q%%%%q%%%%%Qq%Qq%%%Qq%%%%%%%Qq%Qq%QqQqQ%q%QqQ%%%%%%qQ%%q
3141B43%%QqQ%%%%qQ%%%%qQ%%%%%%q%Q%%%%qQ%q%Q%%%%q%Q%%%%q%QqQ%qQ%qQ%%%qQ%%%%%q
3135B43Q%%q%Q%qQqQq%Q%q%Q%%q%QqQ%q%%%%QqQq%%QqQqQ%%qQqQqQq%Q%%%%%qQ%q%Q%%%%q
3129B43Q%qQqQ%%%%qQ%qQ%%%qQq%%%%%Qq%%Qq%Q%%%q%%Q%q%%%%%%%Qq%Qq%%%%%%QqQqQqQ%
3122B51qQ%q%Q%%q%Q%%%%qQqQ%qQq%%%Qq%Qq%%%Qq%Q%%%%%qQ%%qQqQ%%q%%Qq%Qq%%%Qq%%%
3116B43QqQ%qQ%qQq%%%Q%qQ%%qQ%%%%qQ%%%q%%Qq%Q%q%%Qq%%Qq%%%%QqQ%qQ%%%qQqQ%%%%q
3110B43%Q%%%%q%%QqQ%%%qQ%qQ%%%%%%%%%%%%%%%qQ%%%%%qQq%Q%%%%%%qQqQ%qQ%%%qQ%%qQ
3103B51%%qQ%qQ%qQqQ%%%qQ%%%%%%%%%%%%%%%%%%%%%%%%%%%%qQ%%%%q%%Q%%%%%%%%%q%%Q%
3097B51qQ%%%qQ%%%%%%q%QqQ%%%q%Q%%%%%%%%%%%%%%%%%%%%%%%qQ%Qq%%qQ%%%%%%qQqQqQ%
3091B51%qQ%%%%%%qQ%%%%%%%%%%%%qQ%%%q%Q%q%Q%qQ%%%qQ%qQ%%%qQ%%%%%%%%q%Q%%%%%%%
3085B51qQ%%%%%%%%%%%qQ%qQ%%qQqQQq%qQ%j6Q%qJ6k4M0j6j6J6k4K4J6qqQqqQ%qQ%%%%qQq
3079B43Q%%%qQ%%%%%%%%%%%%%%%%%%%%%%%%%%%%%%%%%%%%%%%%%%q%Q%qJ6q%%%%qQ%%%Qq%%
3073B51Qj6Q%qQ%Qj6Q%%%%%%%%%%%%%%%%%%%%%%%%%%%%%%%%%%%%%%%%%%%%%%%%%%%%%%%%%
3067B51%%%%%%%%%%%%%%%%%%%%%%%%%%%%%%%%%%%%%%%%%%%%%%%%%%%QqQq%%%%%%%%%%%%%%
3060B51%%%%%%%%%%%%qQ%%%%%%%%%Qq%%%%%%%%%%%%%%%qQ%%%%%%%%%%%%%%%%%%%%%%%%%%%
3054B51%%%%%%%%%%%%%%%%%%%%%%%%%%%%%%%%%%%%%%%%%%%%%%%%%%%%%%%%%%%%%%%%%%%%%
3048B51%%%%%%%%%%%%%%%%%%%%%%%%%%%%%%%%%%%%%%%%%%%%%%%%%%Q%q%%%%%%%%%%%%%%%q
3041B43Q%%%%%%%%%%%%%%%%%Qq%%%%%%%%%%%%%%%%%%%%%%QqQq%Qq%%%%%%%%%%%%%%%%%Qq%
3035B51%%%%%Qj6QQ%qQqqQ%%%%%%%%%%%Qq%%%%%%%%%%%%%%%%Qq%%%%Qq%QqQqQq%Q%%q%Q%q
3029B51Q%q%Qq%%Qq%%Q%q%%%%%%%Qq%%%%%%%%%QqQqQq%%%Qq%%%%%%%Qq%%Q%q%%%%Q%q%Qq%
3023B51%%%%QqQ%%q%%Q%qQq%%%%%%QqQ%qQqQ%%%%q%QqQqQ%q%Q%q%%%QqQ%qQq%Qq%QqQqQ%%
3016B59%q%%%%%Q%%qQq%%%%%%QqQqQqQ%%qQq%%%Qq%Qq%%%%%Q%%qQ%%qQ%%%%%q%Q%%qQqQq%
3010B51Qq%Q%%%q%%%QqQ%%qQqQ%%%%%%%qQq%%QqQq%%%%Qq%%%%%%Qq%Q%%q%Qq%Q%q%%QqQ%%
3004B59qQ%q%%Q%qQqQ%%%qQ%qQ%q%QqQ%qQqQqQ%qQ%q%Q%%qQ%%%qQ%q%%%%%QqQqQ%qQ%q%Qq
2997B51Q%q%%QqQ%%%q%Q%qQ%qQ%%q%Q%%qQ%%%%%%%%%%qQ%%qQ%%q%Q%%%%%%qQqQ%%qQq%Qq%
2991B51%%%%Q%%qQq%%QqQ%q%%%Q%qQ%%%%qQqQ%%qQq%Q%qJ6k4J6Qj6%Q%%q%QqQ%qQ%q%QqQq
2985B51%%Q%q%Q%qQq%%%Qq%QqQ%%%qQq%%%%%%%%%Qq%QqQ%q%Q%%%%q%%QqQ%%q%%QqQ%%%%%q
2979B51%Qq%Q%%%%%%%q%Q%qQ%qQ%%qQ%q%Q%%%%q%Q%q%Q%%%qQ%%%qQ%q%%Q%qQ%qQ%%%%%%%%
2972B59%%%%%%%%qQ%%%%%%%%%%%%qQ%%%qQ%%%%%%%%%%%%%%%%%%%%%%%%%%%%%%%%%%%%%%%q
2966B51QqQ%%%%%%%%q%Q%%%%%%%%%%%qQ%%%%%%%%%%%%%%%%%%%%%%%%%%%%%%%%%%%%%%%%%%
2960B59%%%%%%%%%%%%%%%%%%%%%%%qQ%%%%%%%%%%%%%%%%%%%%%%%%%%%%%%%%%%%%%%%%%%%%
2953B59%%%qQ%%%%%%%%qQ%%qQ%%%%%%%%%%%%%%%%%%%%%%%%%%%%%%%%Q%q%%%%%%%%%%%%%%q
2947B51Q%%%%%qQ%%%%%%qQ%%%%%%%%%%%%%%%Qq%%%%%%Qq%%%%%%%%%%%%%%%%%%%%Qq%Qq%%Q
2941B67qQqqJ6q%%%qQ%%%%%%%%%Q%q%%%%%%%%%%%%%%%%%%%%%%Q%q%%%%%%%%%%%%%%%%%%%%
2935B59%%%%%%%%%%%%%Qq%%%%Qq%%%%%%%%%Qq%%%%%Qq%%%%%%%%%%%%%%%%%%%Qq%%%%%%%%%
2928B59%%%%%Qq%%%%%%%%%%%%%%%Qq%Qq%%%%%%%%%%Qq%%%Qq%%%%%%%%qQ%%Qq%%%%%%%%%%%
2922B59%%QqQq%%%%%%%%%%%Qq%Qq%%%%%%%%%Qq%%%QqQqQ%%%qQ%%%%%q%%Q%qJ6j6%Q%%%%q%
2916B59%%Q%q%QqQqQ%q%%QqQ%q%%Qq%%%%%%%%%%Q%q%%%Q%q%%QqQqQq%QqQqQqQqQ%%q%%%%%
2910B59J6j6%QqQq%%%%QqQ%q%%%%%Qq%%%Qq%%%%%%Qq%Qq%%Q%q%Q%%qQqQ%%q%Q%%q%Q%q%Q%
2903B67%%%%%%%q%%Qq%%Qq%%%Qq%Q%%%q%%Qj6J6q%%Qq%Q%%q%%%QqQ%%q%%%QqQq%Q%%qQqQ%
2897B67%%%%%%%%%%%%%%%%q%Q%%qQq%%QqQqQq%%%Qj6%Q%QqQ%qQk4K4%qQqQqQqQ%%qQqQ%%%
2891B67%%%%%%qQ%%%%%%%%%%%%%%%%%%%%%%%%%%%%%qQ%%%%%%%%qQ%qQqQ%qQq%Qq%Qq%Q%qQ
2885B67qQqQ%%%%%%%qQq%%QqQ%%qQ%%qQ%%qQ%%%%qQ%%%%%qQ%%%%%%%%qQ%%%%%%%%%%%%%%%
2879B67%%%%%%%%%qQ%%%%%%%%%%q%Q%qQ%%%%%qQ%%%%%%%%qQqQ%%qQ%qQ%q%QqQqQ%q%Q%qQ%
2872B67qQ%%%%%%%%%%%%%%%%q%QqQqQ%%%%%%%%%%%%%%qQ%%%%%%%%%%%%%%%%%%%%qQ%qQ%%%
2866B67%%qQ%%%%%%%%%%%%%%%%%%%%%%%%%%%%%%%%%%%%%%%%%%%%%%%%%%%%%%%%%%%%%%%%%
2860B67%%%%%%%%%%Qq%%%%Qq%%%%%%%%%%%%%%%%%%%%%%%%%Qq%Qq%%Qq%%Q%qQq%%Qq%%%%%%
2853B67%%%%%Q%q%%%Qj6J6q%%%%%Q%qQ%q%%%%%%%%Qq%%%%%%%%%%%%%Q%q%%%%Q%q%%%%%%Qj6
2847B59Q%%Qj6QqQQqQqQ%%q%Q%q%%%%Q%%q%Q%%q%%%%%Qq%%%%Qq%%%%%%%%%Q%q%%%Q%%%q%%
2841B67%%Q%q%Qq%Q%%qQ%%q%%%%%%%%%%%%%%QqQ%%q%%Q%%%qQqQ%qQqQq%%%%%%%%%%%%%Q%q
2835B67%%%%Q%%q%Q%%%qQ%qQ%%%%qQq%%Q%q%%%%%%Qq%Q%%%%%qQ%q%QqQ%%%qQ%q%Q%%qQqQq
2828B67%Qq%Q%qQqQq%Qq%%%Q%qQq%Q%q%%%Q%%qQq%%Q%%qQq%%QqQ%%q%%Q%q%J6qqQq%%Q%%q
2822B67Q%%%%%%%%qQ%%%qQ%%q%Q%q%Q%qQ%%%%%%%%%%%qQ%q%%Q%q%Q%q%Qq%%%Q%q%%%Q%%qQ
2816B75qQ%%%%q%Q%%qQ%%%%%%%%qQ%%%qQ%%%%%%%%%%%%%%%%%%%q%QqQ%%q%%QqQqQqQ%%%%q
2809B67Q%q%QqQ%%%%%%qQ%%%%%%qJ6q%%qQqJ6q%%%%%%qQ%%%qQ%%%%%%%%%%%%%%%%%%qQ%%%
2803B75%%qQ%qQ%%%%%%%%%qQqQ%%qQ%Qq%%%%%%%%%%q%Q%qQqQ%%%%%%%%%%%%%%%%%%%%%%qQ
2797B75%%%%%%%%%%%%%%%%%%%%%%%%qQ%%%%%%%%%%%%%%%%%%%%%%%Qj6Q%Qq%%%%%%%%%%%%%
2791B75%%%%%%%%%%%%%%%%%%%%%%%%%%%%%%%%%%%QqQq%%%%%%%%%%%%%%%%%%%%%%%%%%%%%%
2784B75%qQ%%%%%%%qQ%%%%%%%%%%%%%%%%%%%%%%%%%%%%%%%%%%%%%%%%%%%%%%%%Qq%%%%%%%
2778B75%%%%%%%%%%%%%%%%%qQ%%%%%%%%Q%q%Qq%%%%%%%%%%%%%Qq%%Qq%Q%q%%%%%%%%%%Qq%
2772B75%%%%%Qq%%%%%%%%%%%%%%%%%%%%%%%%%%%%%%%%%%%%%%%%%%%%%QqQq%Qq%QqQq%%%%%
2766B75%%%%Qq%%%%Q%%%q%%Qq%%%Qq%%%%%%%%%%%%Qq%%%%%%%Qq%%Qq%%QqQ%%%%%qQ%qQqQ%
2759B83q%Qq%Q%q%%%%QqQq%%Qq%%%%%Qq%Qq%%%Q%qQ%%%q%%Q%q%%Q%%%%qQqQ%%qQq%Qq%%%%
2753B75%Q%q%Q%q%Qq%Qq%%%%%Qq%Qq%%%%%%%%%%%Q%q%Qq%Q%%%%%qQ%%qQ%%qQ%%qQ%%%%%%q
2747B75Q%%%%%%%%%%%%%%%%%%%%qQq%Q%qQ%%%qQqQ%%qQqQ%%%%qQ%qQ%%%qQ%%%qQ%qQ%%%qQ
2740B83qQqQ%%%%%%%%%%%%%%%%%%%%%%%%%%%%%%%qQ%%qQ%qQ%%%%%%%%%%%%%%%%%%q%Q%%%%
2734B83%%%%%%%%%%%%%%%%%%%%%%%%%%%%%%%%%%%qQqQ%%qQ%%%%qQ%%%Qj6Q%%%%%%%qQ%%%%
2728B83%%%%%%%%%%%%%qQ%%%%%%%%%%%%%qQ%%%%%%%%%%Qq%%%%%%%%%Qq%%%q%Q%qQ%%%%%%%
2721B83%%%%%%%%%%%%%%%%%%%%%%%%%%%%%Qq%%%%%%qQ%%%%%%%%%%%%%%%%Qq%Q%q%Q%qQq%%
2715B83qJ6j6Q%%QqqJ6qqQ%qJ6j6J6qK4k4q%Q%qJ6%%%qqQQq%%%%%%%%%%%%%%%%%%%%%%%%Q
2710B91qQ%%q%%QqQq%Q%qQqQ%q%Qj6Q%q%QJ6qq%J6k4L2%m8O4l2qQL2m0qQ%%Qj6Q%J6j6%Qq
2704B83Q%q%%%%%%%%%%Qq%%%%%%Qq%Q%q%%Q%%%q%%Q%qQ%%%%q%%Q%q%%%%Q%q%%%J6j6QqQqQ
2698B91%q%Qq%%QQj6%QqQq%%%Qq%%%Qq%QqQ%%qQ%q%%%J6q%%%q%Q%q%Q%%q%%QqQ%qQ%qQq%%
2692B83Qq%%QqQqQ%q%%%%Q%qQq%%%QqQ%%%%qQ%%qQ%%%%q%Q%qQ%%q%%%%%Qq%%QqQqQ%%qQ%%
2686B91%%q%Q%%%%%qQ%%qQqQq%Q%qQ%%%%%q%%Q%%qQ%qQ%q%Q%%qQ%%%%%%qQ%%%q%Q%qQ%%%q
2680B83Q%%qQ%%%%qQ%%%%%%qQ%%qQ%%%q%Q%%%%%%%qQ%qQ%qQqQ%%%qQ%%%%qQ%%%%%%%%%%%%
2673B91%%%%%%%%%qQ%%%qQ%qQ%%%%qQ%%qQ%%%%%%%%%%%%%%%%%%%%%%%%%%%%%%%%%%%%%%%%
2667B91%%%%%%%%%%%%%%%%%%%%%%%%%qQ%%%%%%%%%%%%Qq%%%%%%%%%%%%%%%%%%%%%%%%%%%%
2661B91%Qq%%%%%%%qQ%%%Qq%qQ%QqQq%%%Qq%%%%%%%%%%%%%%%%%%%%%%%%%%%%%%%%%%%%%%%
2654B91%%%%Qq%%%%%%QqQqQqQq%%%%%%%%%%Qq%%%%%%%%Qq%%%%%%%%%%Qq%%%%%%%%%%%%%%Q
2648B99qQ%qQqQqQq%Q%q%%%Q%q%%%%%%%%%%%%%%%%%%%%%%%%%%%Qq%%Qq%%%%%%%%%%Q%q%Qq
2642B91%%Q%q%Q%%qQqQ%qQ%q%QqQ%q%Q%q%%Qq%%Q%qQ%qQ%%qQqQq%%Qq%%%Q%%qQ%qQq%Q%%q
2635B91Q%%%%%%qQ%%%%%%qQqQ%%%%%%%%%%%%q%%%%%Q%qQqQ%%%%qQ%%%qQq%%Q%%%%%%%qQqQ
2629B99%%%%%%%%%%%%qQqQ%%qQ%%%%%%qQ%%%%%%%%qQ%%%q%%Q%%%%%%%%%%Qj6Q%%%%q%Q%%%
2623B99%%qQ%%qQ%%%%qQ%%%qQ%%%qQ%%%%%qQqQ%qQ%%%%Qq%%%%%%%%qQ%%%%%%%%%%%%%%%%%
2616B99%%%%%%%%%%%%qQ%qQ%%%%%%%%%%%%%%%qQ%%Qqq%QqQ%qQqK4qq%Qq%%Qq%%Qj6Q%%%%%
2610B99%q%Q%%%%%%qQ%%%%%%%%%%%%Qq%%%%%%%%%%%%%%%%%%%%%%%%QqQq%%Qq%Qq%%%%%%%%
2604B99%%%Qq%%%%%%%%%%%%%%Qq%%%Qq%Qq%%Qq%%%%%%%%%%%%%%%%%%%%%%Q%%%%qQqQqQ%%q
2598B99%%Qq%%%%Qq%%%%Q%q%%%%%%Qq%Qq%Qq%%Qq%%%%Qq%%%%%Qq%%Qq%%Qq%%%Qq%%%%%QqQ
2591C07q%%%Qq%Q%%%%%qQq%%%%%Q%q%%QqQqQqQqQq%%Qq%%%Q%%%qQq%Qq%Qq%QqQqQq%Q%q%%
2585B99%Q%%%%%qQ%%%qQqQq%%%%%%%%Qq%Qq%Q%%%q%%QqQ%%%q%Q%%%%qQqQ%%%%%q%Q%%%%%%
2579C07%%%%%%%qQ%%%%%%qQ%%%%%%%qQ%%%%%%qQ%%%%%%%%%%%%%%%%%%%%%%%%%%%%q%Q%%%%
2572C07%qQ%%%%%%qQqQ%%%%%%%%%qQ%%%%%%%%Qq%%%%%%%%%%%%%%%%%%%%%%%%%%%%%%%%%%q
2566B99Q%qQqJ6qqJ6j6Q%qQqQ%%%%%%%%%%%%%%%%%%%%%%%%%%%%%%%%%%%%%%%%%%%%%%%%%%
2560C07%%%%%%%%%%%%%Qq%%%%%%%%%%%%%%%%%%%%%%%%%%%%%%Qq%Q%q%Qq%%%%%%%%%Qq%%qQ
2554C07Qq%%%Q%q%%%%%Qq%%%%%%%%%Qq%Q%qQqQqQq%%Qq%Qq%Qq%%QqQq%%%%QqQq%%%Q%%q%Q
2547C15q%%Q%%q%%Q%%%%qQqQ%%q%Q%qQq%%%%%%%Q%%qQ%%%%qQ%qQqQ%q%%Q%%qQ%qQ%%%qQq%
2541C07Q%q%%Q%qQ%%q%QqQ%%%%%%%qQ%%%q%Q%%qQ%q%Q%%%%%%%%%qQ%%%qQ%%%%%%%%%%qQqQ
2535C15%%%%%q%Q%%%%%qQqQ%%%%%%%%%%%%%%qQ%%%%%%%%%%%%%%%qQqQ%qQ%qQ%%%%%%%%%%%
2529C15%%%%qQ%%%%%%%qQ%%%%%%%%%%%%%%%%%%Q%q%QqQq%%%%%%%%%%%%%%%%%%%%qQ%%%%%%
2522C15Qq%%%%%%%%%%%%%%%%%%%%%%%%%%%%%%%%QqQj6QqJ6qj6J6%%%Qj6%Q%Qq%qQ%%%%%%%
2516C15%%%%%%%%%Qq%%%%%%%%%%%%Qq%%%%%%%%%%%%%%%Qq%%%%Qq%qQ%qJ6j6J6q%%Qq%%%Q%
2510C23qQ%q%%%%%%%%%Qq%%%%%%Qq%%%%%%Q%q%%Qq%QqQq%%%%%%Qq%%%%%%%%%Qq%%Qq%%%%%
2504C15%%QqQq%%%Q%qQq%%%Q%q%Qq%%Q%q%%Qq%Q%q%QqQq%Q%%%q%QqQq%Qq%%Q%%q%%QqQ%%q
2498C15%%%%Q%%%q%Q%%%qQ%%q%Q%%%qQ%qQqQ%%%%%qQ%%qQ%%qQ%qQ%%%%%qQ%%%%%qQ%%%%%%
2491C23%%%%%%%%%%%%%%%%%%%%qQ%%%qQ%%%%%%%%%%%%%qQ%%%%%%%%%%%%%%%%%%%%%%%%%%%
2485C23%%%%%%%%%%%%%%%%%qJ6q%%%%%%%%%%%%%%%%%%%%%%%%qQ%%%%%%%%%%%%%%%%%%%%Qq
2479C23%%%%%%%%%%Qq%%%Qq%%%%%%%%%%%%%%%%%%%%%%%%%%%%%%%%%%%%%%%%%%%%%%qQqQ%%
2472C23%%Qq%%QqqQ%Q%%q%Qq%Q%qQq%Qq%%Qq%%%%%%%%%%%%%%%%%%%%%%%%%%%%%%%%%%%%%%
2466C23%Qq%Qq%Q%qQqQq%Q%%%qQq%%QqQq%Q%q%Q%qQqQq%%Qq%Q%q%%Qq%Qq%%%QqQqQq%%%%%
2460C23Q%%%%%qQqQ%%q%%%%Q%%q%%Qq%Q%qQ%%%%%%qQ%qQ%q%%Q%qQ%qQ%%%%qQ%%%qQ%%%%%%
2454C31%%%%%qQ%%%%qQ%%%%%%%%%%%%%%%%%%qQ%%%%%%%%%%%%%%%qQ%Qq%%%q%Q%Qq%%%%%%%
2447C31%%%%%%%%%%%%%%%%qQ%%%%%qQ%%%%%%%%%%%%%%%%%%%%%%%%%%%QqQq%%%%Qq%%%%%%%
2441C31%%%%%Qq%%%%%%%%%%%%%%%%%%%%%%%%%%%%%%%%%%Qq%%%%%%%%%Q%%q%%%%%%%%%Qq%%
2435C31QqQq%%QqQqQqQq%%Q%q%Q%q%%Qj6Q%%%%%%qQQqQq%%Qq%%%%QqQqQq%QqQ%q%%%%QqQq
2428C31Qq%%Q%%q%%QqQq%%%QqQqQ%%q%Q%%%%qQ%%q%%qQK4k4QQqq%%Q%q%Qq%%%Q%%%%qQqQ%
2422C39%qQ%%q%%Q%q%%%%%Qq%Q%qQ%qQ%qQ%%%%%%%%%%%%%%q%Q%qQ%%%qQqQ%%%qQ%%qQ%%%%
2416C39%%%%%%%%qQ%%qQ%%%%%%%%%%qQ%%%%%%%%q%Q%%%%%%%%%%%%%%%%%%%%%%%%%%%%%%%%
2410C39%%%%%%%%%%%%%%%%%%%%%%%%%qQ%%%%Qq%%%%%%%%%%%%%%%%%%%%%%%%%%%%%%%%%%%%
2403C39Qq%%%%%%%%%%%%%%%%%Q%qQq%Qq%%%QqqQ%%%%%%%%%%%%%%%%%%%Qq%%%%%%%%%%%%%%
2397C39%%%%%%%%%%%%%%%%%%QqQqQqQq%%Q%%%qQqQ%q%%%%%%%%%%%%%%Q%%q%QqQq%Qq%%%%Q
2391C47%%q%%%Qq%%Q%q%Qq%%QqQqQ%%%%%%qQ%%%%%%%%%%%%%%qQq%%QqQ%q%Q%qQq%%Qq%%%%
2384C39Q%%qQ%%q%%Q%%%q%%QqQ%%%%qQ%%%%qQqQq%%QqQqQ%%%%%%%%%%%%%%%%qQ%%%%%Qj6Q
2378C47%%%%%%%qQ%%%%%%%%%%%%%%%%%%%%%%%%%%%%%%%%%%%%%%%%%%%%%%%%%%%%%%%%%%%Q
2372C55q%%%%%%%Qq%%%%%%Qq%%%%%%%%%%%%%%%%%%%%%%%QqQq%%%%%%%%%%%%%%%qQ%%%%%%Q
2365C55q%%%%%%%%%%Qq%%Qq%%Qq%%%%%%%%%%%%%%%Qq%%%%%%%%%Qq%%Q%q%%Q%qQq%%%%Q%%q
2359C47%Q%qQ%%qQ%qQ%%q%Q%%%%qQqQ%%%qQ%qQqQ%q%%%Qq%Qq%QqQq%%Qq%Qq%Q%q%%%%Q%%%
2353C55%%%qQ%qQ%%q%Q%%%%%%%%%%%qQqQ%qQ%%%%%%q%Q%%%qQ%qQ%%%qQ%%%qQqQ%%%%%%%qQ
2346C55%%%%qQ%%%%%%%%qQ%%%%%%%%%%%%%%%Qj6Q%%%%%qQqQ%%Qq%%%%%%%%%%%%%%%%qQ%%%
2340C55%%Qq%%%QqQ%j6Q%Qq%QqQq%qQqQQj6J6%qQqQq%%%%%%%%%%%%%%%%%%%Qq%%%%%%Q%q%
2334C55%%%%Qq%Qq%%%Qq%%QqQqQ%%qqQ%Qqq%qK4%l2K4K4Ql2j6qJ6%J6%qQj6J6q%%%%%%%%Q
2329C63%%%qQq%Q%%qQ%q%Q%%%%%%qQ%%%%q%Q%%%%%%qQ%%%%q%%Q%%%qQj6J6%qQqQqQ%%%%%q
2323C55%%%%Q%%%%%%%%%%%%qQqQ%%%qQ%%%%%%%%qQ%%%%%qQ%%%%qQ%%%%%%qQ%%%%%%%%%qQ%
2316C63%%%%%%%%%%%%%%%%%%%%%%q%Q%%%%qQ%%%%Qq%%%%%%%%%%%%%%%%%%%%%%%%%%%%%%%%
2310C63%%%%%%%%%%%%%%%%%%%%%%%Qj6Q%%qJ6q%%%Q%%q%%QqQq%%%Q%q%%%%%%%%Q%q%%Qq%%
2304C63%%Qq%%%Qq%%%%%%%%%%%%%%%Q%q%%%%Q%qQqQqQ%q%%Q%q%Q%%qQqQ%%%qQ%%q%%QqQqQ
2298C71q%Q%qQqQ%%%%q%Q%%%%qQq%%QqQqQ%qQ%%%%%%%%%qQ%%%%%%%%%%%%%%qQ%%%%%%%qQ%
2291C71%%%%%%%q%Q%%qQ%%%%%%%%%%%%%%%%%%%%%%qQ%%%%%%%%%%%%%%%%%%%%qQ%%%%%%%Qj6
2285C63Q%%qQ%%qQqJ6qqJ6q%%%%%%%%%%%%%%%%%%%Qq%%%%%%%%%Qq%QqQq%%Qq%%%%%%%%%%%
2279C71%%%%%%%%%%%%%%%%%%%Qq%%%%%%Qq%%%%%Q%q%%%%%Qq%Q%%%qQ%%%qQ%%qQq%Q%%%q%Q
2273C79%q%%Qq%%%%%%%%%%%%%%%%%%%%Qq%Q%%qQq%Q%%q%Q%%qQ%%q%Q%%q%Q%%%%%%%qQ%%%q
2266C71%QqQ%%%%%%%%%%%%%%%%%%%%%qQ%%%q%Q%%%%%%qQ%%%%%q%Q%qQ%%%%%%%%%Q%q%q%Q%
2260C79%%qQ%%%%%%%%%Qq%%%%%%%%%%%%%%%%%%%%%%%%%%%%%%%%%%%%%%%%Qq%%%%%Q%q%%%%
2254C79%Qq%%%%%%%%%%%%%%%Qq%%%%Qq%%%Qq%Qq%Qq%%%%%Q%q%%%%%%%%%%%%%Qq%%Q%qQqQ%
2247C87q%%Q%%%%%q%%Q%%q%%%%Q%%%%qQ%Qj6Q%%%qQ%%q%%Q%q%%Q%q%QqQqQqQ%%%q%Q%qQqQ
2241C87qQqQ%%%qQ%%%qQqQ%%%%%%%%%qQ%%Qj6%QqJ6j6QQj6QqQqJ6q%%Qq%%%%%%%%%%%%%%%
2235C87%%%%qQ%%%%%%%%%%%%%%%%%%%%qQ%%%%%Qq%%%%%%%%%%qJ6qqQ%%Qq%%%Qq%%%%%%%%%
2229C87%Q%q%%%%%%%%%%%%%%%%%%%%%%%%%%%Qq%%%Qq%Qq%%%%Qq%%%%QqQq%%%Qq%Q%q%Qq%Q
2223C95%%q%%Qq%%%Q%qQqQq%%%%%%%%Q%qQq%%%%Qq%QqQ%%%%%%%%%%%%%%%%%qQ%%%%%%qQ%%
2216C95%%%%%%%%%%%%%qQq%Q%%qQ%qQ%qQ%%qQ%%qQ%%%%%%%qQ%%%%%%%%%%%%%%%qQ%%%%%%%
2210C95%%%%%%%%%%%%%%%%%%%%%%%%%%%%%%%%%%%%%%%%%%%%%%%%%%%%%%%%%%%%%%%%%%%%%
2204C95%%%%%%%%%qQ%%%%QqQq%Qq%Q%q%%%%%%%%%%%Q%q%QqQ%%%qQ%%q%%Qq%%%%Q%%q%%%Q%
2197D03q%%%%%%QqQqQq%%%%Q%%%%%%qQ%%%%%%%q%Q%%qQ%%%%%%%%%%%%%%%%%%qQ%%%%qQ%%%
2191D03qQ%qQ%%q%Q%%%%q%Q%%%%%%%%qQq%Q%%%qQ%%%%%%%%%%%%%%%%%%%%%%%%%%%%%%%%%%
2185D03%%%%%%%%%%%%%%%%%%%%%%%%%%%%%%%%%%%%%%%%%Qq%%%%%Qq%%Qq%%%%%%%%%%%QqQq
2178D03%%%Q%q%Qq%%%%%%Q%q%%%%%Q%qQq%Qq%Qq%Qq%%%QqQ%qQ%qQ%qQ%q%Q%qQ%%%qQq%Q%%
2172D11q%%%%%Q%%%%%%%qQ%%%qQq%QqQ%%%q%%%Q%q%%Q%%%qQqQ%%qQ%%%Q%qQqQ%qq%QQq%%%
2166D11%qQ%%%%%%%%%%%%%%%%%%%%%%%%%%%%%%%qQ%%%%%%%%%%%%%%%%%Qq%%Qq%QqQq%%%qQ
2159D11%QqQq%%%%%%QqQq%%%%Qq%%%%%Q%q%%%%%%%%%%%%Q%q%%%%Qq%%%Q%%q%%%%Q%qQq%Qq
2153D11Qq%%%%QqQ%q%Q%%%qQq%QqQ%q%Q%qQ%%qQ%%%%%qQ%%%%qQ%%%%%%qQ%%%%%%%%%%%%%%
2147D19qQ%%qQ%%q%Q%%q%Q%%%qQ%%%%%%%%qQqJ6%k4L2k4Q%j6K4qqQQq%%qQ%Qq%%%%%%Qq%%
2141D19%%%%Qq%%%%%%%%%%%%%%%%%%%%%%%%%%%%%%%%%%%%%%%Qq%%%QqQq%%Q%qQq%Qq%%QqQ
2135D27q%%Qq%%%%Q%q%%QqQqQqQq%%Q%qQ%q%QqQq%QqQ%%%%q%%Q%%%%%%%%%qQ%qQ%%%qQ%%%
2128D27%qQ%%%qQ%%%%%%%%%qQ%%%qQ%%%%%%%%%%%%%%%%qQ%%%%%%%%%%%%%%%%%%%%%%%%%%%
2122D27%%%%%%%%%%%%%%%%%%%%%%qQ%%%qQ%%%%%%%%%%%%%%%%%%%%%%%%%%Qq%Qq%%%%Qq%%Q
2116D35qQ%q%%%%%%Q%q%%%%%%%%%Qq%%%%%%Qq%%%%%%%Q%qQq%QqQ%q%%%%%QqQq%QqQ%%%%%q
2109D27Q%%%qQqQ%qQ%%%%%qQq%Q%%%%%%qQ%q%QqQ%%q%QqQ%qQ%%%%%%%%%%%qQ%%%%%%%%%%%
2103D35%%%%%%Qq%%%%%%%%%%%%%%%%%%%%%%%%%%%%%%%%%%%%%%%%%%%%%Qq%%%%%Qq%%Qq%Qq
2097D35J6qq%%Q%%qQ%%qQq%Q%qQq%Q%qQ%%q%Qq%Q%%q%%QqQqQqQqQqQ%%qQ%%%%%%%%%%%%qQ
2091D43qQ%%%qQ%%%%%%%qQ%%%%qQ%%%%%%%%%%%%%%%%%%%%%%%%%%%%%%%%%%%%%%%%%%%%%%%
2084D43%%%%%%%%%Qq%%%%%%%%%%%%%%%%%%%%%%%%%%%%Qq%Q%q%%Qq%Q%q%%Qq%Q%qQ%q%%%Qq
2078D43Qq%%%QqQqQ%qQ%qQq%Q%%q%Q%%%%%%qQ%%%%%%q%%Q%q%Q%qQ%Qj6Q%qQ%%%%q%Q%%%%q
2072D43QqQ%%%%%%%%%%%%%%%%%%%%%%%%%%%%%%%%%%%%%%%%%%%Qq%%%%%%%%%%%%%%Qq%%%%Q
2065D59q%%%%%%%%%%%%%%%%%Qq%Qq%%%%%%%Q%q%%%%QqQq%%Q%qQ%%q%%%%%%Qq%%%%%Q%%qQ%
2059D59%qQ%%q%Q%qQq%Q%qQqQq%QqQ%q%%Q%%%%qQ%q%%Q%%q%%QqQ%%%%%%%qQ%%%%%%%%%%%%
2053D59%qQ%qQ%%%%%%%%%%%%%%%%%%%%Qq%qQq%J6j6J6q%q%%%Q%qQ%%qQ%%%%%%%%%%%%%%%%
2047D59%%%%%Qq%%%%%%%%%Q%q%%%Q%qQq%Qq%QqQq%%%%%%%%%QqQq%%%%%%%%%%Qq%Q%q%Q%%q
2040D59%QqQ%%q%%QqQ%%q%Q%%qQq%Q%%q%QqQ%qQ%%%%%q%Q%%%%%%%%%%%%%%%%%%%%%%%%%%%
2034D67%%%%%%%%%%%%%%%%%%%%%%%%%%%%%%%%%%%%%%%%%%%%%%%%%%%%%%%%%%%%%%%%%%%%%
2028D67%%%%%%%%%%%%%%%%QqQqQq%%%%%%Q%q%Q%q%%%%Q%%%qQ%%%%%%%%%qQq%%%Q%%%qQq%Q
2021D75q%Q%q%%Q%%%%%%q%%%%Q%%%%%%%%%%%%%%%%%qQ%%%%%%%qQ%%%%%%%%%%%%%%%%%%%%%
2015D75%%Qq%%%%%%%qQ%%qQqQ%%%%%%%%%%%%%%%%%%%%%%%Qq%%%%%%%QqQqQq%%%%%%%%%Q%q
2009D75%Q%q%%%%%Qq%%%Qq%Qq%%Qq%Qq%%%Q%qQ%qQ%%qQqQ%%qQ%%%%%%%%qQ%%%%%%%%q%Q%q
2003D75%Q%qQ%%%%%qQ%%%%%%%%%%%%%%%%%%%%%%%%%%%%%%%%Qq%%%%%Qq%%%%%%%%%%%%%%%%
1996D83%%%%%%%%%%Qq%%%%Q%q%Qq%%%Q%%%%qQqQ%%%%%%qQ%%qQ%%%%q%%Q%qQ%%qQ%%%%%%%q
1990D83%Q%qQqQq%Q%%%%%%%qQ%%%%%%%%%%%%%%%qQQq%qQ%%%%%%%%%qJ6q%Qq%%%%%%%%%%%%
1984D91%%%%%%%%%%%%%%%%%%Qq%%%Q%q%%%%%%%Qq%%%%%Qq%%QqqQQq%%%Qq%%%Qq%%%%%Qq%Q
1977D99%q%%Q%qQ%%%q%QqQ%qQ%%q%%%%Q%%%%%%%qQ%%%qQ%%%%%%%%qQ%q%Q%%%%%%%%%%%%%q
1971D91%Q%%%qQ%%%%%%%Qq%%%%%Qj6Q%%qQ%qQq%Q%QqQqqJ6q%QqQ%j6Q%%Qq%%%%%%Qqq%Q%Q
1965E07%j6%QQ%%j6J6%q%qK4k4L2m0QJ6j6Q%J6q%%q%Q%qQ%%%q%%%Qq%QqQq%QqQ%%%%%%%%q
1960D99Q%%qQ%q%Q%qQ%QqqQq%QQj6QQq%j6J6Ql2M8k4QQql2qM8k4qL2Qk4qQ%qJ6q%%J6k4qQ
1955D99QQ%q%qQq%QQ%q%%Qq%Qq%%%%QqQq%%%%%%%%Qq%%%Qq%%Q%q%%%%%QQqQqQQj6q%j6K4q
1949E07j6K4q%%Q%%%q%K4k4J6j6QqQ%q%J6q%%%qQ%%%%q%Q%%%%Qq%%qQ%%qQqQ%%%%%%%%%%%
1943E15%%%%%%%%%%%%%%%%%%%%%Qq%%%Qq%%%Qq%%%%%%%%Q%q%%Q%qQ%%q%%%%%%%%%QqQq%%%
1937E15%%%Q%qQ%qQ%%q%Qq%%Q%q%Q%qQ%%%%q%%%Q%qQq%QqQ%%%qQ%%qQ%%%%%%%%qQ%%%%%%%
1930E23%%%qQ%%%%%%%%%%%%Qq%%%%%%%%%%%%%%%%%%%%%%%%%%%%%%%%%%%%%%%%Q%q%%%%%Qq
1924E23%QqQq%%%%Qq%Q%%%qQqQ%%q%Q%q%Q%qQqQ%q%%%Q%q%QqQqQ%q%QqQ%%%%%qQ%%%%%%%%
1918E31%%%%%%%%%%%%%%%%%%%%%%%%%qQ%%%%%%%%%%%%%%%%%QqQq%%%%%%%%Qq%%%%%%%%%%%
1911E31%Qq%%%%%%%%%Qq%%QqQ%%%q%Q%qJ6j6Qq%%Qq%%Qq%%Q%qQ%q%%%Q%qQq%%Q%%%qQ%%%%
1905E39%%%%%%%%%%%%%%%%%%%%%%%%%%%%%%%%%%Qq%%%%%%%%%%%%%%%%%%%%%%%%Qq%%%%Qq%
1899E39%%Qq%%%Qq%Q%%%qQqQ%q%QqQq%Qq%%%Q%%%%qQqQ%%%%%%%%%%%qQ%%%%%%q%Q%qQ%%%%
1892E47%%%%%%%%%%%%%%%%%%%%%%%%%%%%%Qq%%%%%%%%%%%%%%%Qq%%%%%%%Q%q%QqQqQq%%%Q
1886E55%qQ%%qQqQ%q%QqQq%%%QqQ%qQq%Q%%%qQ%%%%qQ%%%%%%%%qQ%%%%qQ%%qQ%%%%%%%%%%
1880E55%%qQ%%%%%%%%%%%%%%%%Qq%%%%%%%%%%%%%%%%%%%Qq%%%%%%Qq%%%%Q%qQqQ%%%q%%Qq
1874E55%%Q%q%QqQqQ%q%Q%%%%%qQ%qQqQ%%%%qQ%%qQ%%%%qQqQqQq%QqQ%%qQ%%qQ%%%%%%%%%
1867E63%%%%%%%%%%%%%%%%%%%Qq%Qq%%%Qq%%%%QqQqQq%Qq%%Qq%Q%q%%Q%qJ6q%qQ%%q%%Q%q
1861E63Qq%%QqQ%%q%%Qq%Q%%%%%%%%%%%%%%%%%%%%%%%%%%%%%%qQ%%qQ%%%%Qq%%%%%QqQq%%
1855E71%Qq%%%%%%%%%%%%%%%%%Qq%%%%%%%%Qq%%QqQqQq%%QqQq%Q%%%%%q%Qq%Q%%qQ%qQ%%%
1848E79%%%%%%%%%%%%%%%%%%%%%%%%%%%qQ%%%%%Qq%%%%%%%%%%%%%Qq%%%Q%q%%%%%Qq%%%%%
1842E79%%Qq%%%%%%%Q%q%Q%qQ%qQq%QqQ%qQqQq%Q%%%%%q%QqQ%%%qQ%qQ%%q%Q%%%%%%%%%%%
1836E87%%qQ%%%%%%%%%%%%%%%%%%%%%%%%%%QqQq%%%%%%%%%%%%%%QqQq%%%%%%%%%%%%%%%%%
1829E87%%Qq%%%%Q%q%%%QqQ%%qQqQ%%%%%qQ%%%%%%%qQ%%%%%%%%%%%%%%%Qq%%%%%%%%%%%%%
1823E95%%%qQ%qQqQ%%%%%%%%%%%%%%%%%%%%%Qq%%%%%%%%%Q%qQ%%qQ%qQ%%%qQqQqQqQ%%%%q
1817E95QqQq%Qq%%%Q%q%Q%%%%%Qq%%%%q%Q%%%%%%%%%%%%%%%%%%%%%%%%%%%%%%%%%%%Qq%%%
1810F03%%%%%%%%%%QqQq%%%%%%Q%q%Q%q%%QqQ%%%%%%%%qQ%%%%qQ%q%Q%%%%%%%%%%%%%%qQ%
1804F11%qQ%%qQ%%%%%%%%%%%%%%%%%%%%%%%Qq%%%%%%%%QqQ%q%QqQqQ%%q%Qq%%%Qq%%Q%%%%
1798F19qQ%%qQ%%q%Q%qQq%Q%%%%%%%%%%%%%%%%%%%%%%%%%%%%Qq%%%%%%%%%%Qq%Q%q%qQQq%
1792F19%%Qq%%%%%%%%QqQq%%QqQ%q%%%Qq%Q%%qQ%%q%%%Q%%%%q%%QqQ%%%%%%%%%%%%%%%%%%
1785F27Q%q%%%%%%%%%%%%%%%%%%%%%%%%%%%%%%%%%%%%%%%%%%%%%%%%%Q%q%Q%q%%Qq%Q%%%%
1779F35%qQqQ%%%%%%%%%%%%qQq%Q%qQ%%%%%q%Q%qJ6q%%%%%%%%%%%%Qq%%%%%%%%%%%%Q%q%%
1773F35%Qq%Q%%q%%%Qq%%QqQqQq%%%%Q%%q%Qq%Q%%qQq%qJ6Qqq%QqQqQqQ%Qj6Q%%%%%qQ%%%
1767F43qQ%%%%%%%%%%%%%%%%%Qq%%%%%%%%%%%%Qq%%Q%q%Qj6Q%%Qq%%%%%%%Qq%%%Q%%q%Qq%
1760F43%%%%Q%%%%%%qQ%%%%%%%%q%QqQ%%%%%%%%%%%%%%%%%%%%%%%%%%%%%%%%%%%%%%%Qq%%
1754F51%%%%Q%q%%Q%q%%%%Qq%%%QqQq%%Q%%qQ%q%Q%%%%qQq%Q%%%%%%%%%%%%%%%%%%%%%%%%
1748F59%%%%%%%%%%%%%%%%Qq%%%%%Qq%%QqQq%%QqQ%%q%QqQqQ%%%%q%%QqQqQqQ%%%%qQ%%%%
1741F67%%q%Q%%%%%%%%%%%%%%%%%qQ%%%%%%%Qq%%%qQ%%%%%%%%QqQq%%%%QqQ%qQq%%QqQ%%%
1735F75%%qQq%Q%%qQqQ%%%%%%qQ%%qQ%%%%%%%%%%%%%%%%%%%%%%%qQ%Qq%Qq%%%%Qq%Qq%%%%
1729F75%%%%%Qq%%Q%q%%%Q%%q%%%Qq%%Q%qQ%%%%q%Q%%qQ%%qQ%%%%%%%%%%%%%%qQ%%%%%%%Q
1722F91qQqQ%%q%Qq%%Q%q%%Qq%%%%%Qq%%%QqQqQ%%q%%Q%qQ%qQqQ%%q%Qq%Q%%%%%%%%%qQ%%
1716F91%%%%%%%%%%%%%%%%%%%%%%%%%%%%%%%%%%%%%%%%%%Qq%%Q%q%%Qq%%%%%Qq%QqQq%%Qq
1710F91Q%qQq%%%Qq%%Q%%%%%%%%qQQq%%%%%%Qq%%%%%%%%%%%%%%%Qq%%%Q%%q%Qq%Qq%%%%%%
1703F99%Qq%%%%QqQq%Q%qQ%%qQ%%qQ%q%Q%%%%%qQ%%%%%%%%%%%%%%%%%%%Qq%%Q%qQqQq%%%%
1697G07%%%%%%%%%%Q%qQq%%%QqQq%Q%%%%%qQq%%Q%qQ%%%%%%%%%%%%%%qQ%%%%%%%%%%%%%%%
1691G15%%%%%%%%%%%%%%%%%%Qq%Qq%%%%%%Q%qQ%%q%Q%q%Q%%%%%%%%%%%%%%qQ%%qQqQ%%%%%
1684G23%%%%%%%%%%%%qQ%%%%%%%q%Q%%%Q%q%Qq%%%QqQqQ%qQqQq%%Qq%%Qq%QqQ%%%%%%%%%%
1678G31%%%%qQ%%%%%%%%%%%%%%Qq%%qJ6q%%%%%%qJ6qQ%qQqQq%%Qq%Q%qQq%%%Q%%qQ%%qQ%%
1672G39%%%%%%%%%%%%%%%%%%%%%%%%%%%%%%%%%%%Qq%%%%Q%%%%qQq%Qq%Q%%%q%Q%q%QqQqQ%
1666G47%%%%%qQ%%%%%qQ%%%%%%%%%%%%%%%Q%%q%%%%QqQ%q%%%%QqQq%Q%%q%%%%%Qq%%Qq%%Q
1659G55q%Qq%Q%qQ%qQ%qQ%%%%%%%%%%%%%%%%%%%%%%%%Qq%%%%%%%%%%Qq%%Qq%%Qq%%Qq%%%%
1653G55%%%Qq%QqQ%%%%%%qQqQqQ%qQ%%%%%%%%%%%%%%%%%%%%%%%%%%QqQq%%%Qq%%%%%Qq%Qq
1647G63%Qq%%Q%q%QqQ%%%%qQ%%%%%%%%%%%%%%%%%%%%%%%%%%%%%%%%%%%%%%%%%%%%%QqQ%%%
1640G79%%qQ%%%qQ%%%%qQqQ%q%Q%%%%%%%%%%%%%%%%%%%%%%%%%%%%%QqQq%%%%%%%%%%%%%Qq
1634G79Q%%q%Qq%%Q%%qQ%%%%%%%%%%%%%%%%%%%%%%%%%%%%%%%%%%%%%%%%Qq%%%Qq%%%%%%%Q
1628G95QqqQqQ%qQ%qQqQ%qQ%%%%%%%%qQ%%%%%%%%%%%%%%%%%Qq%%%%%%%%%%%%%%Qq%Qq%%Qq
1621G95%Q%qQqQqQ%%%qQ%%%%%%%%%qQ%%%%%%%%%%%%%%%%%%%%%%%%%%%%Qq%%%%%%%Q%%qQq%
1615H03Q%%q%Qq%Q%%qQ%%%%%%%%%%%%%%%%%%%%%%%%%%%%%%%%%%%%%%%Qq%%QqQq%%%Qq%%%%
1609H11%%%%Q%qQqQqQ%%qQ%qQ%qQ%%%%%%%%%%%%%Qq%%Qq%%%%%Qq%%%Qq%%Qq%%%Qq%%%%%%%
1603H19%%%%%QqQqQ%q%Q%%qQ%%%qQ%qQ%%%%%%%Qq%%%%%%QqQq%Q%%%q%%Q%%%%%%qQ%q%Qq%%
1596H27Qq%Q%%%%%%%%%%%%qQ%%%%%%%%%%%%%%%qQ%%Qq%%%%%%%%%%Q%%%qQ%qQ%%qQ%%%%%%%
1590H43%%%%%QqQq%qQQ%q%QqQqQqq%J6qQq%%Q%q%QqQq%Q%qQ%qQ%%q%QqQqQ%%%%%qQ%%%%%%
1584H51%%Qq%%%%%%QqQ%%%qQ%q%%J6k4J6j6K4k4M0j6%q%k4J6QQq%Qj6%QqQ%qQ%%%%%qQ%%%
1578H59%%%%%%%%%%%%%%%%%Qq%%%%Qq%%%Qq%%%QqQ%%qQ%%%%%%%Q%qq%J6%j6J6j6%%%Q%%%%
1572H67%%%Qq%%%Qq%Qq%%QqQq%%%%Qq%%%%qQQ%%q%Q%%%%%%%%%%%%qQ%%%%%%%%%%%Q%qQq%%
1566H75%%%%%%%QqQq%%%%%Q%%%qQ%%%%qQqQ%qQ%qQ%%%%%%%%%%%%%%%%%%Qq%%%%%%%%%%%Qq
1560H83%%QqQ%%%%%%%%%%qQ%%qQ%%%%%%%%%%%%%%%%%%%%%%%%%%%Qq%%%%%%%%%QqQ%q%Q%%q
1553H91Qq%Q%qQ%%%%qQ%%%%%%%%%%%%%%%%%%%QqQq%Qq%%%%QqQq%Qq%%%%Q%q%%Q%%%%qQqQ%
1547I07%%%%%%%%%%%%QqQq%%%%%%%%%Qq%Q%%%qQ%%%%%%%%%%%%%%%%%%%%Qq%%%%%%%%%%%%%
1541I15%%%%Q%q%%%%Q%q%QqQq%Q%%qQ%%%%%%%%%%%%%%%%Qq%%%%%Qq%%%QqQ%qQq%Qq%Q%q%%
1535I23Qq%%Qq%Q%%qQQq%%%%%%%%%%%%%%%%%%%%%%%%QqQqQ%q%Q%%qQ%%%%%%%%%%%%Qq%%%%
1528I39%%%%%%%%%%%Qq%%%%Q%qQqQq%QqQqQ%%qQ%qQ%%q%Q%%%qQ%%%%%%%%%%%%Qq%Qq%%%%%
1522I47Q%q%%%Qq%Qq%%QqQqQ%%%%%%qQ%%%%%%%%%%Qq%%qQ%%%%%%%%%QqQq%%Qq%Q%q%Q%%qQ
1516I63%%%%%%%%%%%%%%%%%%%%%%%%%%%%%%%%%%%%%QqQq%Q%%%%%qQ%q%Q%%q%Q%%Qq%%%%%%
1509I71%%%%%%%%%%%%Qq%Qq%Q%%qQqQq%Q%%%%%qQ%%%%%%%%%Qq%qQ%%%%%%%%%QqQ%q%%QqQ%
1503I87q%%Q%%q%Q%%qQ%%%%%%%%%%%%%%%%%Qq%Q%%q%%%Q%qQq%QqQ%qQqQ%%%%%qQ%%qQ%%%%
1497I95%%%%%%%%%Qq%%%%%QqQ%qQqQqQ%%%q%Q%%%%qQ%%%%%%%%Qq%%%%Qq%%%%%%Qq%%%%QqQ
1490A011qQq%Q%qQq%QqQ%%%%qQ%%qJ6q%%QqqJ6%q%%%%%%Qq%%QqQqQq%Q%qQ%q%Q%%%%%%%%%
1484A019%%%%%%%%%%%%%%%%QqQq%%%%QqQ%qQq%Q%%%%%%qQqQ%%qQ%QqQq%%%%%%%%%%%%%%Q%
1478A035qQ%qQq%Q%%%%%%%%%%%%%%%Qq%%%%%Qq%%%Qq%Qq%%%%QqQ%%%%%%%%%%%%%%%%%%%%%
1472A043%%%%%%%%%%%%%Q%qQ%%%qQ%%%%%%%%%%%%%%%%%%%%%%%%%%%%Qq%Qq%%%QqQ%%%qQ%q
1466A051Q%%%%%%%%%Qq%%%%%%%Q%q%Q%q%Qq%%Qq%%Q%qQ%q%Q%%%%%%%%%%%%%%Qq%%%QqQ%%%
1459A075qQq%QqQ%q%QqQ%qQ%%%%%%%%%%%%%%%%%%Qq%%%%%QqQqQqQ%%qQ%qQ%%%%%%%%%Qq%%
1453A083%%%%%%%%%QqQ%%%%q%%Qq%Qq%%Q%%%%%%%%%%%%%%Qq%%%Qq%%Qq%Qq%%QqQ%%%%%%%q
1447A091Q%%%%%%%%%%%%%%%%Qq%%%Qq%QqQq%Qq%Q%%%%%%%%%%%%%%%qQ%%%%%%%Qq%Q%q%QQj6
1441A107Q%%qQqQqQ%%%%%%%%%%%%%%%%Qq%%%Q%qQ%q%%Q%%%%%%%%%%%%%%%%%%%%%%%%%%%Qq
1434A123QqQq%%QqQqQ%qQ%%%%%%%%%%%%%%%Qq%Qq%%Q%q%Q%%q%Q%%%%%%%%%qQ%%qJ6q%%Qq%
1428A139%%%%QqQq%Qq%Q%qQ%%%qQ%%%%%%%%%%%%%%%%%%%%QqQq%%Q%%qQ%q%Q%%%%qQ%%%%%%
1422A155%%%%%%%%%QqQ%%%q%Q%%%%%%%%Qq%%%%%%%%%%%%%%%%%%QqQqQ%qQq%%Q%qJ6%q%%%%
1416A171%%%%Qq%%%%%%%%%%%%Q%qQ%%%%%%%qQ%qQ%%%%%%%%%%%Qq%%%Q%%%%qQqQ%%%%qQqQ%
1410A187%%%qQQq%%%%%%%Qq%%Q%q%%Qq%Qq%Q%%%%%%%%%%%%%qQ%%%%%%QqQ%%q%%%QqQ%%%%%
1404A203%%%%%Qq%%%%%Qq%%%%%%%Q%%qQ%%%%%%QqqQ%%%%%%%%%%%%%%%%%%%%%%Q%%%qQ%%%%
1397A219%%%%%%%%%Qq%%%%Qq%%Q%%%%%%%qQQq%%q%%QQ%%%%%qj6K4qQqQ%qQ%%%qQ%%%%%%%%
1391A235%%%%%Qq%%QqQ%qQ%qQ%%%%%%%%%%%%%%%%%%%Qq%%%%%Q%%%%%%%qQqQ%qQ%%%%%%%%%
1385A251Qq%qQQq%%Q%%qQ%%q%Q%%%%%%%%%%%%%Q%%q%%%%%Q%%%%%%%%%%%%%%%%%%%%%%%%%%
1379A267%%%%Q%%qQqQ%%%%%%qQ%%%%%%%%%%Qq%%%%Q%%%%%%%%%%%%%%%%%%%%%%%%%%%%%%Qq
1373A283QqQ%%%%%%%%%%%%qQ%%Q%j6Q%QqQqQq%Q%%%%%%%%%%%%%%%%%%QqQqQ%%qQ%%%%%%%%
1366A307%%%%%%%%%%%%%%%%Q%%%q%%%Q%%%%%%%%%%%%%%%%%%%QqQ%%%q%QqQ%%%%%%%%%%%%%
1360A323%QqQq%Qq%%Q%%%%qQ%%qQqQ%%%%%%%%%%%%QqQ%qQqQ%%%%%%%%%%%%%Qq%%%%%%%%%%
1354A339%%Q%%%%%%%%%%%%%%%%%%%%%Q%%qQ%%qQ%%%%%%%%%%%%%%%%%%%Qq%%%Q%%%%%%%%Qq
1348A363%%%%Qq%QqQ%qQqQqQ%%%%qQ%%%%%%%%%%%%%QqQq%%Qq%Q%%%%%%%%%%%%%%%%%%%%%%
1342A379%Qq%Q%%%%%%%%%%%%%%%%Q%%%q%%%Q%%%%%%qQ%qQ%%%%%%%%%Qq%Q%qQqQqQqQ%%%%%
1335A403%qJ6q%%%%%%%%%%%QqQ%%%%%%%%%%%%%Qq%%%QqQq%%%Q%%%%%%%%%%%%%%%%%%Q%q%Q
1329A427%%qQ%%%%%%qQ%%%Q%q%%%%%%Q%%qQ%%qQ%%%%%%%QqQqQqQqQq%Qq%%%%Q%%%qQ%qQqQ
1323A443%%Qq%%%QqQ%%%qQ%%%%%%%%%Qq%%%%%Q%%%%%%%qQ%%%%%%%%%Qq%%%%QqQ%%%%%%%%%
1317A467%%%%%%%%%QqQ%qQqQ%qQqQ%%%%%%Qq%%%Q%qQ%%qQ%%%%%%%%%%%%Qq%Qq%%%%%Q%%%%
1310A491%%%%%%Qq%%%Q%%qQ%qQ%%%qQ%%%%%%%%%Qq%%QqQq%Q%%%%%%%%%Qq%%%%%%QqQq%Q%%
1304A515%%%%%%%%%%Qq%%%Q%qQ%%%%%%%%%%%%%%%Q%%%q%%Q%%%qJ6%q%%Qj6Q%%%Qq%%Q%%%q
1298A531%Q%%%%qQ%%%%%%%%%%Q%%%qQ%%Qq%%%%Qq%%%%%%Q%%%q%Qq%Q%q%Q%%%%%Q%%q%Q%%%
1292A563%%qQ%%%%%%%%%%%Qq%%QqQ%%%%%%%%%%%Q%q%%Q%%%%%%%qQ%%%%%Qq%%%%%%Q%qQ%%%
1286A587%%%%%%%%%%%Q%q%Q%%%%%%%%%qJ6%%qQq%%Q%%qQ%%%%%%%%%%%%Q%%%%%%%%%%%%%%%
1280A611%%%%%%%%Qq%Qq%Q%%%%qQ%%%%%%Qq%Q%%%qQ%%%%Qq%%%%%%%%%%%%Q%%%%%%%%%%%%%
1273A635QqQ%%%%%qQ%%%%%%%%%%%Qq%%Q%qQqQqQ%%%%%%%Qq%%Qq%Q%%%%%%Qq%%%%%%%%QqQ%
1267A667%qQ%%%%%%%%%%%%QqQ%%%%%%%%%%QqQq%%%%QqQqQ%%%%%%%%%%%QqQ%%qQ%%%%%%qQ%
1261A691%%%%%%QqQ%qQQq%%%%%%%%QqQ%%%qQ%%%%%qQ%%%Q%%q%Q%%%%%%%%%%Qq%%%%Q%%qQ%
1255A723%%%%%%Qq%%%%Q%qQ%%%%%%%%%%%%Qq%QqQ%%%%%%%%%%%QqQ%qQ%%%%%%%%%%%QqQ%qQ
1249A755%qQ%%%%%%qQ%%%%Q%qQ%%%%%%%%%qQ%%%%%Q%qQqQ%%%%%%%%%Q%q%%Q%%%%%%%%%%%Q
1242A787qQ%%%%%%%%%%%%%%%%%Q%qQqQ%%%%%%%%%%%%%%Q%%qQ%%%%%%%%%%Q%q%%Q%%%%%%%%
1236A811%Q%q%Q%%%%%%%%%%%%%%%%%QqQqQ%%%%%%%%%QqQqQ%%%%%%%%%%%%%Q%%%%%%qQqQ%Q
1230A851qQ%%q%QQq%qQ%%%%%%%QqQq%%QqQ%%%Qq%%%%Q%%%%%%%%%%%%%%%%%%%Q%%%%%%%%Qq
1224A875%Q%%%%%%%%%Qq%%%%Q%%q%Q%q%Q%%%%%%Q%%%%%%%%%%%%%%%Qq%%Q%%qQ%%qJ6q%Q%%
1217A915%%%%qQ%%Q%%q%%Q%%%qQqQ%%%%%%%%Q%%%%%%Qq%%%%j6J6qK4j6J6%k4J6Q%qQqqQ%%
1212A939Q%%qQ%%%%%%%%Q%qQ%%%%qQqQ%%%%Qq%%Q%%%%%%%Q%q%Qq%J6j6Q%%j6Q%%J6J6qm8J6
1206A955QN6m0%%j6QJ6q%j6J6k4K4%Q%%qQ%%%%%qQ%QqQ%%%%%%%%%%%%Q%qQ%qQ%%%%%%%%%%
1201B003Qq%Q%%%%%%QqQ%Qj6J6qqJ6j6J6%%j6%J6q%%QqJ6j6Qq%QQq%%%Q%q%Q%%%%%%%%Q%%
1195B043%qQ%%%%QqQ%%%%%%%%%%%%%%QqQ%%qQ%%%%%%%QqQ%qQ%%%%qQ%%Q%q%%Q%qQqQ%%%%%
1189B075Qq%%%Q%qQ%%%%%%QqQ%%%%%%%%%%QqQqQ%%%%%%%%%QqQ%%%%%%%%%%QqQqQ%%%%%%%%
1183B115%Q%q%%Q%qQQ%q%%Q%%%%%%%%%%QqQ%%%%%%%%%%Q%q%%Q%%%%%%%%%%%Q%%%%%%%%%Qq
1177B155Q%%qQ%%%%Qq%%Q%%%%%%%%%Q%%qQ%%%%%%%%%Q%%%%%%%%%%Q%q%Q%%%%%%%%%QqQ%q%
1170B195Q%%%QqQq%Q%%qQ%%%%%Qq%QqQ%%%%QqQqQqQ%%%%%%%%Qq%%Q%%%%%Qq%Qq%Q%%%%%%%
1164B243%%%QqQ%%%%%%%%QqQ%q%Q%%%%Q%qQqQ%%%%%Qq%%%%Q%%%%QqQq%%%%Q%%qQ%%%Q%%%%
1158B291%%%%Qq%%%Q%%%%%%%%%%%Q%%%%%%%%Q%qQ%%%%%%%%%Q%%%%%%%%%%Q%qQ%%%%%Qq%Q%
1152B339%%%%%%QqQ%%%%%%%Q%qQ%%qQ%%%Q%qQ%%qQ%%%%%%%%%Q%qQ%%%%Q%q%%Q%%%%%%Q%%%
1146B387%%%%%%%QqQ%%%%%%Q%%%%%%%%%Q%%%%%%%%%%%Q%%%%%%%%%%%%%QqQ%%%%%%%Q%%%qQ
1139B435%%%%%%%Q%%%%%%%Q%%%%%%%%%Q%%%%%%%%%Q%Q%qq%QQqQqQ%%%%%%%Qq%Q%%%%%%%%%
1133B483%Q%%%%%%%Qq%%Q%%%%%%%QqQ%%%%%%%QqQ%%%%%%Q%qQq%Q%%Q%%%%%%%%%%%%Q%qQ%%
1127B539%%Qq%Q%%%%%%%Q%%qQ%%%%%Q%%%%%%%%QqQ%%%Qq%%%Q%%%%%%%%%Q%%qQ%%Qq%%QqQ%
1121B595%%Q%q%Q%%qQ%%%Qq%Q%%%%%Q%%%%%%%%%%Q%%%%%%Q%%%%%%Qq%%%%Q%%%%%%%Q%%%%%
1114B651%%QqQ%%%%%%%%Q%%q%%Q%%Q%q%Q%qQQq%Q%%%Qq%%Q%%%%%%Q%qQ%%%%%%%QQj6Q%%%%
1108B707%Q%%%%%%%Q%%%%Qq%%%Q%Qq%%QqQqJ6qq%J6q%%Q%%%Qq%QqQ%%Qq%QqQ%%%%%Q%%%qQ
1102B771%%%%%Q%%qQ%%Q%%%qQ%%%%Q%%%%%QqQ%%%%%%Q%%%%%%%QqQ%%%%%QqQqQ%%%%%Q%%%%
1096B835%%%Q%%%%Qq%%%Q%qQ%Qq%Q%%%%%%%Q%%%%%%%Q%%%%%%%QqQ%%%%%Q%%%%%%%Q%%%%%Q
1090B907q%%Q%Qq%%Q%%%qJ6q%%QqQ%%%%Qq%QqQ%%QqQqQ%%%%Q%%%%%%Q%%%%%%%%QqQ%%%%Qq
1084B963Q%%%%%%%%Q%%%%%%QqQ%QqQ%%%%%Qq%Q%%%%QqQqQ%%%%%Q%%%%%%%Q%%%%%Q%%qQQ%%
1077C043q%Q%%%Q%%qQ%%QqQ%%%%%%QqQ%%%%%Q%%%%%%Q%%%%%Qq%Q%%%Qq%Q%%%%%Q%qQ%%%%Q
1071C115qQ%%%%%%Q%%%%Q%%%%%Q%%%%%%Q%%%%%%%%%QqQ%%Q%%%%Qq%%QqQ%Q%%%%%%%QqQ%%Q
1065C195q%%Q%%%%%Q%%%%%%Q%%%%%%Q%%%%%Q%%%%%%%Q%%%%%%Q%%%%%%Q%%%QqQ%%%%%%Q%%%
1059C267QqQ%%%%Q%%qQ%QqQ%%%%%Q%qQ%%%Q%%%%%%Q%%%%%%Q%%%%%%Q%QqQq%Q%%%Q%%%%%%Q
1052C355%%%Q%q%%Q%%Q%%%%%Q%%%%%%%Q%%%%Q%%%%%%%QqQ%%%%Q%%QqQqQ%%%Q%%%%%%Q%%Qq
1046C435Q%%%Q%%%%%%%Q%%%%%%%Q%%%Q%%%%%%Q%%%%QqQ%QqQ%%qQqJ6qQ%%Q%qQ%%%QqQ%%%%
1040C523%Q%%%Q%%%%%QqQ%%Q%%%%%QqQ%%%%Q%%%%%%Q%%QqQ%%%QqQ%%%%Q%%%Q%%%%%%QqQ%Q
1034C627qQqQ%QqQ%%%%Q%%%%%Q%%%%%%Q%Q%%%%%QqQ%%%Q%qQ%%Q%qQ%%%Q%%%%Q%%%%%%Q%%%
1028C715Q%%Q%%%%%%%Q%Qj6QQ%%Q%Q%q%Q%%%%Q%%%Qq%Q%%%Q%%%%%%Q%%Q%%%%%Q%qQ%%Q%%%
1022C819%%Q%%%QqQ%%%%Q%Q%%%%%%QQq%Q%%qJ6j6Q%K4j6qK4q%qQQ%QqQ%%%%%Q%%%%Q%%%%Q
1016C923%%%%%Q%%QqQ%%%%Q%%%Q%%%QqQ%%%Q%%%%%Q%%Q%Q%%%%Qq%%J6%q%%Q%Q%%%%%%%%Q%
1010D027Q%%QqQ%%%%%Q%%%%Q%%%Q%%%Q%%%%%%Q%%Q%QqQ%%%Q%%%%%Q%%Q%%%%Q%%%%%QQ%%%%
1003D147%%Q%%%Q%%%%Q%%%Q%%%%Q%%Q%%%%%Q%%%%Q%Q%%%Qq%Q%%%Q%%Q%%%%Q%%%%Q%%Q%%%%
997D267Q%QqQ%%QqQ%%Q%%Q%%%%Qq%J6j6QQ%%Q%qQ%Q%%%%Q%%%QqQ%Q%%%Q%%Q%%qQQqQ%Q%%%
991D395%Q%%%%Q%%Q%%Q%%%%%%Q%QqQ%%Q%%%Q%%QqQ%%Q%%QqQ%%Q%%%%Q%%%Q%%Q%%Q%%%%Q%%
985D531%Q%%%Q%QqQ%%Q%%Q%%%%Q%%%Q%%%Q%%%%Q%%Q%%%%QQ%%%%%%Q%%%Q%%QQq%Q%QqQ%Q%%
978D675%QqQ%Q%%%Q%%%Q%Q%%%%Q%%Q%%%Q%%Q%%%%Q%%Q%%%Q%%Q%%%%Q%Q%%%%Q%%Q%%Qq%Q%Q
972D827Q%%%%Qq%J6qQ%%Q%%Q%Q%%%Q%QqQ%Q%%%Q%%%Q%%Q%%Q%%%%Q%%Q%%Q%%Q%%QqQ%Q%%Q%
966D987%%%Q%Q%%Q%%Q%qQ%Q%QqQ%Q%%%Q%%Q%%%Q%Q%%%Q%%Q%%Q%%Q%%QqQ%Q%%Q%%%Q%%Q%Qq
960E147Q%Q%%Q%%%Q%%Q%%%Q%Q%Q%%%Q%%%Q%Q%%Q%%%Q%%Q%%Q%%Q%QqQQqQQ%%%Q%%Q%%Q%Q%%
953E331%Q%%Q%%Q%%%Q%%Q%QqQ%QQqQQ%%%Q%%Q%%%Q%%Q%%QQ%%Q%%%Q%Q%%Q%Q%qQQ%%Q%Q%%%
947E515Q%Q%%%Q%Q%%%Q%%Q%%Q%Q%%Q%%Q%%Q%Q%%Q%Q%%Q%%Q%%Q%%Q%%QQ%%%Q%Q%QqQ%QQ%%Q
941E723%%%Q%%QQ%%Q%%%%QQ%%Q%%Q%%QQ%%%Q%Q%Q%%%QQqQ%Q%Q%%QqJ6%%QqQQ%%QQ%%Q%%Q%
934E923Q%%Q%Q%%Q%Q%Q%%Q%Q%%Q%%QQ%%%%Q%Q%Q%%QQ%%%QQ%%%QQ%%Q%Q%%Q%Q%Q%%Q%%Q%%Q
928F147%Q%Q%Q%Q%%Q%QqJ6%%QQ%%Q%%Q%%Q%Q%%QQQQqQ%%QQqJ6qJ6qQ%Q%%Q%Q%Q%Q%Q%%Q%%
922F371Q%Q%QQ%%QQqQQ%%Q%Q%%Q%Q%QQ%%Q%Q%Q%%Q%%J6%%%QQ%Q%%Q%Q%Q%Q%Q%%Q%QQqJ6qQ
916F619Q%Q%%QQ%%Q%Q%QQ%%Q%QQ%%QQqJ6%Q%Q%%Q%%QQ%%QQ%%QQ%%QQ%Q%Q%%Q%Q%QQqQQ%Q%
910F883QQ%%Q%QQ%Q%Q%Q%%Q%Q%Q%QQ%QQ%%Q%QQ%%Q%Q%QQ%Q%Q%Q%Q%%QQ%QQ%Q%%QQ%Q%Q%QQ
903G179%Q%%Q%QQ%Q%QQ%Q%Q%QqJ6qJ6Q%Q%%QQ%Q%QQ%QQ%%Q%QQ%Q%Q%QQ%Q%Q%QQ%Q%Q%QQ%Q
897G475%Q%QQQ%%QQ%Q%Q%Q%QQ%QQQ%%QQ%Q%QQ%%QQQ%QQ%%QQQ%QQ%%QQ%QQ%Q%QQ%Q%Q%QQQ%
891G803Q%QQ%QQ%Q%QQ%Q%J6%%QQ%QQQ%Q%QQ%Q%QQQ%Q%%QQQQ%Q%QQ%QQ%QQ%Q%QQ%QQQQ%%QQ
885H155Q%Q%QQ%QQQQ%Q%QQ%QQ%QQQ%%J6%Q%QQQ%QQ%QQQ%QQ%QQ%J6%Q%QQ%Q%QQQQQ%QQ%%QQ
879H523%%K4%%QQQ%Q%J6%QQQQ%QQQ%QQ%QQQQ%QQ%QQQ%QQ%QQ%J6%QQQ%QQQQ%QQQ%QQ%QJ6%Q
873H915Q%QQ%QQ%QQQQQ%QQQQQ%QQQ%QQQQ%QQQQQ%QQQQ%QQQQ%QQQ%QQQQQQ%QQQQ%QQQQ%J6%
866I347QQQ%QQJ6%QQQ%QQQQ%J6%QQQQ%J6%QQQQQQ%J6Q%QQQQ%J6%QQQQQQQQ%QQQQ%J6%QQQQ
861I787Q%J6QQQQ%QQJ6%QQQQQ%J6%QQQQQQQQQQQQQ%J6%QQQQQQQQQQQQ%J6QQ%J6%J6%QJ6%Q
855A0243J6QQ%J6%J6%J6%QJ6%QQQQQJ6%QQQQQQQJ6%J6%QQQQQQJ6QQQQQQ%J6QQQQQQQJ6%QQ
850A0707QJ6%QQQJ6QQQQQQQQJ6%QQJ6QQQQQQQQJ6QQ%QJ6QQQQJ6%J6QQQQQQJ6%J6QQQQQQJ6
845A1211QQQQQJ6Q%J6QQQQJ6QQQQJ6Q%J6QQJ6QQQQQQJ6QQQQJ6QQQQJ6%J6J6%J6QQQJ6QQQJ6
840A1731%J6QJ6%J6QJ6QqK4J6Q%%J6J6J6%J6J6%K4%J6QQQJ6QJ6%J6QJ6QQQJ6QQJ6QQJ6%J6
835A2203QQJ6J6QQQQJ6QJ6QQQJ6QJ6QQQQJ6J6QQJ6QJ6QQQJ6J6%J6J6QQJ6J6QL2j6qK4L2qQ
831A2715K4J6J6QqK4QJ6QqM0%%K4QJ6J6%J6J6QJ6QJ6QQJ6J6QQQJ6J6QJ6QJ6QJ6QJ6QJ6QQJ6
827A3259QJ6J6QJ6QJ6QJ6QJ6J6QJ6QJ6J6%J6J6J6QQJ6J6J6QJ6QJ6QJ6QJ6QJ6J6QJ6QJ6J6Q
823A3795J6J6QJ6J6QJ6J6QQJ6J6QJ6J6J6J6QJ6QJ6QJ6J6J6QJ6QJ6J6QK4QQJ6J6J6J6QQJ6J6
819A4355J6J6QJ6J6QK4QJ6J6QJ6J6QJ6J6J6J6J6J6QJ6QK4QJ6J6J6J6QJ6J6J6J6QJ6J6J6J6
815A4915J6J6QK4QJ6J6J6J6J6QJ6J6J6J6J6J6J6QJ6J6J6J6J6J6J6J6J6QK4J6QK4J6QJ6J6J6
812A5491J6J6J6J6QK4J6J6J6J6J6J6J6J6J6J6J6J6J6J6J6J6J6J6J6J6J6K4QK4QK4J6J6QK4
809A6075J6K4QK4J6QK4J6J6J6J6K4QK4J6J6J6J6K4J6J6J6J6K4QK4J6J6J6K4J6J6J6J6J6K4
805A6699J6K4QK4J6J6J6K4J6J6K4J6J6K4J6J6J6K4J6J6J6K4J6K4J6K4J6J6J6K4J6J6K4J6K4
802A7347J6J6K4J6K4J6J6K4J6K4J6J6K4J6K4J6K4J6K4J6K4J6K4J6K4J6K4J6K4QL2J6K4J6J6
799A8027K4J6K4K4J6K4J6K4J6K4K4K4J6K4J6J6L2J6K4K4J6K4J6L2J6J6K4K4J6K4K4K4J6K4
796A8747J6L2J6K4K4K4J6K4K4J6K4K4K4K4J6K4K4K4J6L2J6K4K4K4J6K4K4K4K4K4K4K4K4K4
793A9515J6L2K4J6K4K4K4K4K4K4K4J6L2K4J6L2K4K4K4K4K4K4K4K4K4K4K4K4L2J6K4L2K4K4
789B0331K4K4K4K4K4L2J6L2K4K4K4L2J6L2K4K4L2K4K4K4L2K4K4K4K4L2K4L2K4K4K4L2K4K4
786B1203L2K4L2K4K4K4L2K4L2L2J6M0K4L2K4K4K4L2K4M0QM0K4M0K4L2K4J6L2L2L2L2K4K4L2
783B2179L2L2K4L2L2K4L2K4L2L2L2K4L2L2L2K4L2L2L2K4L2K4M0K4L2L2L2L2L2L2K4L2L2L2
780B3203L2L2L2L2K4M0L2K4M0L2K4L2L2M0L2K4M0L2L2L2L2L2L2L2L2L2M0L2L2L2M0L2L2L2
777B4307L2L2M0L2L2L2M8K4M0L2M0L2L2M0K4M0L2M0M0L2L2M0L2M0L2L2M0L2M0L2M0L2M0M0
774B5507L2M0L2M0M0M0L2M0L2M0M0L2M0M0M0M0L2M0M0L2M8L2M0M0M0M0M0M0L2M8M0L2M0M0
771B6803M0M0M0M0M0M0M0M8M0M0M0M0M0M0M0M0M8M0M0M8M0M0M0M8M0M0M8M0M8M0M8M0L2N6
768B8227M0M0M8M0M8M0M8M0M8M8M0N6M0M0M8M0M8M8M0M8M8M8M0M8M8M8M8M0M8M8M8M8M8M8
764B9771M8M8M8M8M8M8M8M8M8M8N6M8M8M8M8N6M0N6M8N6M8M8M8N6M8M8N6N6M8M8N6M8N6N6
761C1475M8M8N6N6M8N6M8N6N6O4M0N6N6N6N6M8O4M8N6N6N6N6N6N6N6N6N6N6O4N6N6N6N6N6
758C3339O4N6N6N6O4N6N6O4N6O4N6N6O4O4N6O4N6N6P2N6O4O4N6O4N6O4O4O4O4O4O4N6P2N6
755C5403O4O4P2O4O4O4O4O4O4O4P2O4P2O4O4O4P2O4P2P2O4P2O4P2O4P2P2O4P2P2P2P2P2O4
752C7699P2P2P2P2P2P2P2P2Q0O4Q0P2P2P2Q0P2P2Q0P2P2Q0Q0P2Q0P2Q0Q0P2Q0Q0Q0Q0P2Q8
749D0259P2Q0Q0Q0Q0Q0Q0Q8Q0Q0Q0Q8Q0Q0Q0Q8Q8Q0Q8Q0Q8Q8Q8Q0Q8Q8Q8Q0R6Q8Q0R6Q8Q8
746D3115Q8Q8Q8R6Q8R6Q8R6Q8R6Q8Q8J04Q8Q8J04R6Q8R6R6R6Q8J04R6R6R6J04R6R6J04R6J04
743D6139R6R6J04J04R6J04J04J04R6J04J04J04J12R6J12J04J04J04J12J04J12J04J12J04J12
741D8747J12J12J12J04J20J04J12J12J20J12J12J12J20J12J12J20J20J20J12J20J20J20J12
738E1379J28J12J28J28J12J28J20J12J28J28J36J20J20J28J20J36J20J28J36J28J36J20J44
736E4275J28J28J36J28J36J36J28J36J36J36J36J36J44J36J36J44J36J44J36J52J36J44J44
734E7427J44J44J44J52J44J52J44J52J52J44J52J52J52J52J52J52J60J52J60J60J52J60J60
732F0915J60J60J60J60J68J52J68J68J68J60J68J68J68J68J68J68J76J76J68J68J76J76J84
730F4771J68J76J84J84J76J76J84J84J84J84J84J84J92J84J92J92J84J92J92J92J92K00J92
728F9043K00K00J92K00K00K00K00K08K08K00K08K08K08K08K16K08K08K16K16K16K08K24K24
726G3819K16K24K16K16K32K24K32K24K32K24K32K40K24K40K32K40K40K40K40K40K48K40K48
724G9163K48K48K48K48K56K56K48K56K64K56K64K56K64K64K64K72K72K64K80K64K80K72K80
722H5187K80K80K80K88K80K96K80K88K96K88K96L04K96K96L04L04L04L04L12L04L20L04L20
720I2011L20L20L20L28L20L28L28L36L28L36L36L44L36L44L44L36L52L52L60L52L60L52L68
717I9811L60L68L60L76L76L68L84L76L84L84L84L92L92L92L92M00M00M08M08M08M08M16M16
715A08763M24M16M32M24M32M32M40M40M40M40M48M56M48M56M72M64M48M80M64M88M72M88M80
713A19147M88M96M96M96N04N04N12N12N12N20N28N28N28N44N36N44N44N52N52N60N60N68N76
711A31307N76N76N84N84O00N92O00O08O08O16O24O24O24O32O48O40O48O48O64O64O72O72O80
709A45691O88O88O96P04P04P12P28P20P28P36P44P52P52P68P68P68P84P84P92Q00Q16Q08Q24
707A62955Q24Q32Q48Q48Q56Q64Q80Q80Q96Q88R04R12R20R28R44R44R52R68R68R84R92J000
705A82987J008J016J032J040J048J064J064J080J096J104J112J120J136J144J160J168J184
703B01563J192J208J216J232J240J256J272J288J296J304J328J344J352J368J384J408J408
702B23659J432J456J456J488J488J520J536J552J568J592J608J624J648J664J688J712J728
700B50419J752J768J800J816J848J864J888J920J944J960K000K016K056K072K112K136K160
699B83531K200K224K272K288K336K360K400K440K472K512K552K592K632K680K712K768K808
697C25779K864K912K952L008L064L120L168L240L296L352L416L480L552L624L696L768L856
696C82147L928M016M096M192M288M376M480M592M696M816M928N056N184N320N472N608N768
694D62963N928O104O288O472O680O888P112P344P600P864Q152Q448Q768R104R480R864J0288
692E95347J0736J1224J1744J2312J2928J3600J4320J5112J5984J6936J8000J9136K0440K1864
691H09683K3448K5256K7256K9528L2112L5040L8424M2312M6816N2088N8248O5584P4328Q4832
690A444955R7624J13288J32736J57136J88192K28168K80440L49712M42784N69088P40984R71799
689E716906J266384J593104J826121J707743J034056Q3121m95248m31585K6497M83583N43248
688A3353930m3808j005728j687167j807801j573472j244304r47312p14479n40904m13200l18928
687C056827k48544j95208j54184j22072r6568p5960n9056m4968l3040k2784j3816n856J336
686A986107P944J4112J9968K5632L1176L6704M2280M7992N3912O0128O6696P3728Q1328Q9576
684B637283R8624J08624J19728J32160J46152J62024J80144K00960K25024K53136K86128L25255
683D875242L72064M28633M97727N83176O90176Q26016J000816J228624J527937J920336K421472
682A6372219L012743L582142L887208L753975L531065L966935N385512P461494R483448J0439634
681G0876375R230291N466318Q81168j523935j297332j121769l578707p925138j0908003j1067747
680D9031521r472507p471135n710823m340951l320951k569680k013984j598423j283336j040897
679A0208834q51576p01648n81264m83320m02624l35312k78487k29912j87904j51113j18480
678E887194q9168o2439l7784j4665P320K8528M9296O9968R0792J12112J34185J57367J81993
677F514699K08447K37169K68672L03543L42528L86464M36456M93840N60313O38040P29863
676A1120034Q39512R71961J133927J334680J586928J908040K321008K853109L526906M330535
675C1926640N155767N758744N969857O168943P136287R147958J1764966J4370555J6540930
674A13940647J7662258J7029529J5939755J7124833K0222707K1479495J7859177Q745100m508553
674B45494948j8728089k9856706l4179676l1803604k6201071k0352131j5486339j1777301
673E7110031r036054p020795n529629m413241l565864k913439k404048k000969j677942j415936
672A7132114j200983j022713q73303p46809o38624n45168m63639l91753l27680k69975k17352
671A0434115j68801j23415q0432l9161J049M0800Q0647J21193J63040K06807K53233L03080
670A1192155L57280M16879M83216N57808O42625P40096Q53327R86369J144479J334728J566614
669B0275576J853201K212399K668864L255655M013520M981434O162709P447632Q539246R112424
668G0522660R289620R741265J1304704J4662750J9747184K5323105K8892058K7741312K2532940
667B39757598J8952871K1882886K8851974L0781896J9044871m728312k9340077m5592428n0210595
666B29400684m5599219l7120742k8696317k1811294j6599261j2756598r933022p843048o277438
665D2763745n088401m172560l457415k891633k438496k071392j770720j521951j314142j138937
665A6898098r89880q61976p51272o54631n69521m93903m26073l64631l08416k56392k07704
664A1013699j61552j17264p4137l1575J1056N4384R9088J45872J95576K49095L07552L72224
662A2064018M44745N27071O21760P32000Q62064J017544J205976J437688J726935K093505
662B2733306K564758L177353L975751M998880O233863P508446Q372472Q293065P449904P153766
661H2461564Q750751J2477212J7681903K3186814K7051607K7253357K3990126J9773896J6593298
660B59220528J3724733P174125n251308k0501633l3129415l8264982l5772240k9549116k2995967
659I4654725j7527934j3354552j0268264p998734o319348n062182m108271l374240k801646
658B3839554k349153j987168j694303j454808j257040j092192r53599q36089p35695o49224
657A0830283n74217n08656m50920l99712l53912l12632k75096k40656k08744j78871j50577
656G176290j23464r7128p1216m5344j9120P864L6056O5977R8207J33473J72615K16704K67048
655G817962L25400L93920M75560N74240O95265Q45984J036568J281328J599991K018872K569256
654A9634346L276047M120999M965039N496017N475118N293010N742351O928270Q312278R702010
653G8945485J0955816J0635315P049726J727600j293420j104709j029355m377860j0165773
652I1342825j4141789j4403677j2354938r764564p482474n706151m384080l411102k692311
651A7001739k155609j749511j437896j195432j004257q51680p28448o27888n44992m76047
651F229979m18193l69280l27592k91831k60936k34080k10584j89880j71560j55248j40608
650C460187j27392j15392j04408r4288q4880p6048o7696n9688n1936m4336l6784k9152k1344
648B546843j3224m624M632J4720K5960L8648N3200P0192R0288J14464J43984J80592K26712
647C492387K85744L62576M64088O00208P84759J035752J372401J801087K273209K598848K390431
646A7461490J339681j42009j085032j073328m20304M27480J078928J083528J24121j378817
645A7415738k444808k658063k330584j854625j422383j083129q30431o44928n08400m06888
644C231499l30432k71976k26704j91056j62792j39920j21408j06096r3424q2800p3840o6224
643A364827n9696n4080m9208m4960m1224l7976l5072l2488l0208k8152k6304k4648k3136k1776
642H55899k0536j9400j8376j7408j6552j5736j5000j4304j3672j3080j2528j2016j1528j1088
641F44675j0664j0272r896r544r216q912q608q336q064p832p584p360p144o936o752o560o384
639E04611o216o048n896n752n608n472n336n216n088m976m864m760m648m544m464m352m272
638D17099m176m104m016l936l856l784l712l648l576l512l456l384l328l256l208l160l104
636C55883l048k992k952k904k848k808k760k720k672k640k592k552k520k472k448k408k368
634C10179k336k304k264k248k200k176k144k120k080k064k024k008j976j952j928j904j872
633B74579j848j832j808j776j760j736j720j688j680j656j632j616j592j576j560j544j520
631B46035j504j480j472j456j440j416j408j384j376j352j344j328j320j296j280j272j272
630B22635j240j232j216j208j192j184j160j160j144j128j120j120j096j088j072j064j056
628B03155j048j032j032j008j000j000r84r76r68r60r44r44r28r20r20q96q96q88q88q64q64
626A83195q56q48q40q32q32q08q16q00q00p84p84p76p68p60p60p44p44p28p36p20p20p04p12
624A65323o96o88o88o88o72o72o64o56o56o40o48o32o40o24o24o16o16o00o08n92n92n84n92
622A50635n68n84n68n60n60n60n52n44n36n44n36n28n28n20n20n12n12n12m88n12m88n04m80
620A38419m80m80m80m64m72m72m56m64m56m56m40m48m40m40m40m32m24m24m32m24m08m16m16
618A28155m08m00m08m00l92l92l92l92l84l84l84l68l76l76l68l68l60l68l60l60l52l52l44
616A19467l52l44l44l36l44l28l36l28l36l20l28l20l20l20l12l12l12l04l12l04l04k96k96
614A12059l04k88k96k88k88k88k88k80k88k72k80k72k72k80k72k64k72k64k64k56k64k48k64
612A05707k48k56k56k48k48k48k40k48k40k40k32k40k40k32k32k32k32k24k32k24k16k24k24
609A00251k16k16k16k16k16k16k08k08k08k08k00k08k00k00k08j92k00k00j92j92k00j84j92
607I5555j92j84j92j84j84j84j84j76j84j76j76j76j76j76j68j76j68j68j68j68j68j60j60
605I1507j76j60j60j52j68j52j60j52j60j52j52j52j52j52j52j44j44j52j44j44j44j44j36
603H8003j36j44j36j36j36j44j36j28j36j36j28j28j36j20j36j28j20j28j20j28j20j28j20
601H4995j20j20j20j20j20j12j20j12j20j12j12j12j12j04j12j12j12j04j04j12j04j04j04
599H2411r6j04j12r6r6j04r6j04r6j04q8r6r6r6q8r6r6q8q8q8r6r6q0q8q8r6p2j04q0p2q8
596G9523q0q8q0q0p2q8p2q0q8p2q0p2q0p2q0o4p2q0o4p2p2p2p2o4p2p2o4o4p2o4o4o4p2o4
593G7035n6p2n6o4n6o4o4n6n6o4n6n6n6o4n6m8n6n6n6m8n6m8n6n6m8m8m8n6m8m8m8m8m8m8
590G5171m8m0m8m8m0m0m8m0m0m8m0m0m0m8l2m0m0m0l2m8l2m0l2m0l2l2m0l2l2m0l2l2l2k4
587G3859m0k4l2l2l2l2k4k4l2k4l2k4l2j6l2k4k4j6l2k4j6k4k4k4j6k4k4j6k4j6k4j6j6j6
584G3027j6j6k4j6qj6j6j6j6j6qj6j6qj6qqj6qqj6qqqqqqqq%qq%qqq%%q%%q%%%%%%%%%%Q%
579G2627%%Q%%QQ%QQQQ%QQQQQQQJ6QQQJ6QJ6QJ6J6QQK4QJ6J6J6QJ6J6J6J6K4J6J6K4QK4K4
574G3163QK4K4K4J6K4J6K4J6K4L2K4QL2K4L2J6K4L2K4K4K4L2L2J6L2K4L2L2L2K4L2L2K4L2
571G4035L2L2L2L2L2L2M0L2L2M0L2L2M0L2L2M0L2M0M0L2M0M0M0L2M0M0M0M0M8M0L2M8M0M0
568G5283M0M8M8M0M0M8M8M0M8M8M0M8M8M8M8M8M8M8N6M0N6M0N6M8N6M8M8N6M8O4M0O4M8N6
565G6931N6N6N6M8N6N6N6N6O4N6N6N6O4N6O4N6O4N6O4N6O4N6P2N6O4O4O4O4O4O4O4P2O4O4
562G8979P2O4O4P2P2O4O4P2O4P2Q0O4P2P2P2P2P2P2P2P2Q0P2P2Q0Q0P2Q0P2Q0P2Q0Q0Q0Q0
559H1459P2Q8P2Q8Q0Q0Q0Q8P2Q8Q0Q8Q8Q0Q0R6Q0Q8Q0R6Q0R6Q8Q8Q8R6Q0R6Q8R6Q8Q8R6R6
555H4387Q8R6R6R6R6Q8R6J04Q8R6J04R6R6J04R6R6J04J04R6J04J04J04J04J04R6J04J12J04
553H7163J04J04J04J12J04J12J04J12J12J04J12J12J12J12J12J12J12J12J12J20J12J12J20
551H9707J20J12J20J20J20J12J28J12J20J28J04J44J12J12J36J20J28J28J20J20J36J20J28
549I2507J36J28J28J28J28J28J36J28J36J28J36J28J36J36J36J36J36J36J44J36J44J36J44
547I5595J36J44J36J44J44J44J44J44J44J44J44J44J52J44J52J52J44J52J52J52J52J44J60
544I8963J60J52J52J60J52J52J60J60J60J60J60J60J60J60J68J60J68J60J68J68J68J60J68
542A02659J68J76J60J76J68J76J68J76J76J68J76J76J76J84J76J84J76J76J84J84J76J84J92
540A06715J76J84J92J84J84J92J84J92J92J92J92J92J92J92K00J92J92K00K00K00K00K00J92
538A11131K08K08K00K08K00K08K08K08K08K00K16K08K16K08K16K08K24K16K16K16K16K24K16
536A15987K24K24K24K16K24K32K24K24K32K24K32K32K32K32K40K32K40K32K40K40K40K40K40
534A21307K40K40K48K40K48K48K56K48K48K48K56K48K56K56K56K56K64K56K56K72K56K64K64
532A27131K64K72K64K72K72K72K72K72K80K72K72K88K80K72K80K88K80K88K88K88K80K88K96
530A33531K88K96L04K88L04K96K96L04L04K96L12L04L04L04L12L12L12L20L12L12L20L20L20
528A40571L20L20L28L28L20L36L28L36L28L28L44L44L28L44L28L44L52L44L44L52L52L52L52
526A48323L60L52L60L60L60L60L60L68L68L68L68L68L76L84L68L84L76L84L84L84L84L92L92
523A56883L92L92L92M00M00M00M00M08M00M16M08M08M16M16M16M16M24M24M24M24M32M24M40
521A66355M32M40M32M40M48M40M48M48M48M56M56M48M64M64M56M64M72M64M80M72M72M80M80
519A76859M80M88M80M96M88M96M96M96N04N04N04N12N04N20N12N12N28N20N28N20N36N36N28
517A88547N36N44N44N44N44N60N52N52N60N60N68N68N68N68N76N84N84N84N84N92N92N92N92
515B01595O16O00O08O16O08O16O16O24O24O32O32O40O32O48O40O56O48O56O56O64O64O64O72
513B16227O80O80O80O88O88O88P04O96P04P04P12P20P20P20P28P20P44P36P36P44P52P60P52
511B32683P60P68P76P68P76P84P84P92P92Q00Q00Q08Q16Q16Q16Q24Q40Q32Q40Q40Q48Q56Q56
509B51275Q64Q64Q72Q80Q80Q88Q96Q96Q96R12R12R12R28R28R28R36R44R52R52R60R68R68R76
507B72387R84R92R92J000J000J008J024J024J024J032J040J056J048J056J072J072J072J088
505B90971J088J096J112J104J120J128J128J136J144J160J152J160J176J184J184J200J200
503C10443J216J216J216J240J240J240J264J264J272J272J296J288J304J312J320J336J328
502C32067J352J352J360J376J376J392J400J416J408J432J432J448J448J464J480J480J496
500C56179J504J512J520J536J544J552J568J576J584J600J608J616J632J640J656J664J672
499C83163J688J696J712J720J736J744J752J776J784J792J808J824J832J856J856J872J888
497D13499J896J912J928J952J952J968J992K000K008K032K048K056K072K096K104K120K144
496D47779K152K168K184K208K216K240K248K272K288K304K328K336K368K368K400K416K440
494D86715K448K472K488K512K536K552K576K592K608K640K656K680K696K728K744K768K784
492E31195K816K832K864K888K896K936K960K976L008L032L056L080L120L136L160L192L224
491E82371L240L280L304L328L368L384L424L456L480L512L544L576L616L640L680L704L744
489F41651L768L816L848L880L928L952L992M024M072M104M144M184M224M264M312M344M392
488G10899M432M472M512M576M600M656M696M744M792M848M888M936N000N040N088N144N200
486G92523N248N312N360N416N472N536N592N648N704N776N832N896N960O024O088O160O224
485H89771O288O368O432O504O576O656O736O792O888O960P040P128P200P288P376P464P544
483A007011P640P728P824P920Q016Q112Q208Q312Q400Q520Q624Q728Q832Q952R064R176R304
482A150371R408R536R664R784R912J0040J0176J0320J0448J0592J0728J0880J1032J1176J1328
480A305395J1488J1656J1808J1984J2152J2312J2496J2688J2856J3040J3248J3432J3624J3840
479A482019J4040J4248J4480J4680J4920J5144J5376J5624J5856J6120J6368J6632J6896J7176
478A699579J7456J7736J8032J8328J8640J8952J9280J9592J9936K0288K0640K0992K1368K1744
476A972563K2144K2528K2944K3368K3800K4224K4696K5152K5632K6120K6632K7136K7672K8224
475B322835K8776K9360K9952L0560L1184L1832L2504L3176L3888L4616L5360L6136L6928L7744
474B784851L8592L9464M0368M1288M2256M3240M4272M5328M6424M7560M8728M9936N1200N2496
473C416003N3848N5240N6696N8192N9752O1376O3056O4808O6616O8512P0480P2520P4664P6872
471D318635P9200Q1600Q4136Q6760Q9512R2392R5384R8543J01833J05288J08912J12696J16695
470E571586J20888J25288J29920J34800J39960J45360J51096J57145J63535J70305J77472
469G187355J85064J93127K01704K10808K20520K30840K41872K53672K66264K79768K94248
468I765242L09801L26519L44521L63959L84952M07672M32313M59064M88168N19927N54608
467A4356746N92593O34271O80128P30712P86624Q48640R17582R94513J080584J177263J286201
466B4085857J409472J549535J709353J892614K103760K348449K633567K967970L362790L832490
465D7895857M395670N076951N908936O935549Q216713R834921J1905087J4587792J8105796
464A32863272K2758100K8911308L6914152M6860884N8293898P0405659Q2534204R2626859
464E72168336R6778952R4657007Q6602154O4922759K6579194j7933289n6512127q1377495
463G85885491r4117558r9982371r8406500q9000192p4939812n9984535m6704784l6069091
462A86680648k7968266k1904602j7364430j3934766j1311246r276581p676573o401410n372031
461F5470743m530896l835545l254273k763111k343599j981511j665649j387113j138728r14710
460D1655608p10207n21266l44361j76615j5358J41805K97049M52505O10216P72297R40902
459D3102575J118314J307062J509912J730002J970966K236977K533037K865017L240002L666640
458F5280504M155483M719538N375096O142608P047949Q124446R415086J0976180J2882222
458A34119112J5232924J8163455K1859199K6577942L2682408M0688619N1336053O5684598
457D06344310Q5230638J11984630J48291901J95742201K51635301L01217409L10287629K40759679
456B051493698R5989949p5176999k20770919k99292384l02394951k59722911k05084132j56307296
455F28734055j18155460q9798912o9036940n3808772m2533883l4079211k7651539k2697138
455A70972200j8827367j5766751j3317561j1336165r716825q380772p268637o335074n545251
454G4477797m871935m293759l793791l358425k976727k639737k340135k071832j829731j609536
453D4692189j407551j220615j045928q80952p23472n71342m22553k75119j27057K3671J79280
452C8220551L42136N14961P00816R03272J126623J376039J657818J979832K351945K786718
451E1960711L300343L913944M655447N562183O684771Q092782R882899J2190750J5207748
450A21451578J9201625K4535896L1661868M1015358N2685761O5806780P8097296Q6237247
449E20693409Q7437608Q2076283P0712412M8784861J4931573k3992886n7412730p6203483
449F67027047q3039127q4673816q0879529p1965887o1320163n0728714m0763797l2111876
448A61544138k5157186j9811247j5768830j2711344j0379007q578631p170775o055816n162046
447E0749256m437497l844014l353249k943833k599583k307928k059177j845662j661321j501327
446B4195665j361721j239359j131632j036385r51853q76561q09256p48904o94624o45631o01321
445A4098418n61127n24593m91287m60840m32985m07423l83920l62280l42304l23864l06761
444I501034k90904k76184k62504k49744k37832k26728k16336k06591j97473j88904j80856
443F966978j73279j66137j59432j53080j47088j41423j36065j30983j26177j21616j17280
442E394418j13160j09248j05519j01968r8600r5368r2296q9360q6552q3872q1312p8848p6504
441D181811p4248p2096p0008o8032o6120o4296o2528o0832n9200n7640n6128n4672n3264n1920
440C310827n0616m9360m8152m6976m5840m4752m3688m2680m1688m0728l9800l8904l8056l7200
438B702387l6384l5600l4832l4088l3368l2672l1992l1344l0688l0072k9472k8880k8320k7752
437B256923k7224k6696k6176k5688k5200k4736k4272k3824k3392k2968k2552k2152k1752k1368
436A918923k1000k0632k0280j9928j9592j9256j8936j8624j8304j8008j7720j7424j7144j6880
435A655195j6600j6336j6080j5832j5584j5344j5112j4880j4648j4424j4224j4000j3792j3592
433A444747j3400j3192j3008j2816j2632j2456j2288j2096j1944j1768j1608j1448j1296j1128
432A273667j0984j0848j0680j0552j0408j0272j0144r992r880r744r616r496r376r264r136
431A123275r024q904q800q696q584q480q368q280q168q072p976p888p784p696p608p512p432
429I84003p344p248p176p088p008o936o848o768o704o616o552o480o400o336o264o192o128
428H69915o064o000n928n872n808n744n680n632n560n504n456n392n336n280n232n176n120
426G75131n072n016m968m920m872m824m776m720m680m632m592m544m496m456m416m376m328
424F95443m288m248m208m168m128m088m048m016l984l936l904l864l832l800l760l728l696
423F27747l664l632l592l568l536l496l480l432l408l384l352l320l296l264l232l208l184
421E69699l152l128l096l080l048l024k992k976k952k912k904k872k856k832k808k776k760
420E19531k736k720k696k672k648k632k608k584k568k552k528k504k488k472k440k432k408
418D75843k400k368k360k336k320k296k288k264k256k232k216k200k184k168k152k136k112
417D37555k104k096k072k056k048k024k016j992j992j968j952j944j928j912j896j896j872
415D03787j856j856j832j816j800j808j784j768j760j744j736j720j712j696j696j672j664
414C73867j656j640j632j616j608j600j592j584j560j560j544j536j528j512j512j496j480
412C47211j480j464j456j448j440j432j416j416j400j392j392j368j368j360j352j336j344
410C23347j320j312j304j304j296j280j280j272j256j248j248j240j232j216j216j208j200
409C01915j184j200j168j176j160j168j136j152j136j128j120j120j104j112j088j096j088
407B82579j072j072j072j056j056j048j040j040j024j024j016j016j008r92j000r84r84r76
406B64099r76r68r60r60r52r44r36r36r28r28r20r12r04r12q96q96q88q88q80q72q72q72q56
404B43043q56q56q48q40q40q32q32q24q16q24q00q16q08q00p84p92p92p84p76p76p68p68p60
401B24451p60p60p44p44p44p36p44p28p28p28p20p12p20p04p12p04o96o96o88o88o88o80o88
399B07939o72o72o64o64o64o56o56o56o48o48o40o40o40o32o32o24o24o24o16o16o08o16o00
397A93227o08o08n92n92n92n92n84n84n84n76n76n76n68n68n68n60n60n60n52n52n44n52n44
395A80035n44n44n36n28n36n28n28n28n20n20n12n20n12n12n12n04n04n04m96m96m96m96m88
393A68171m88m88m88m80m80m72m80m72m72m72m64m64m64m64m56m56m56m56m56m48m48m48m32
391A57467m48m40m32m40m32m32m32m32m32m24m16m24m24m16m16m16m16m08m08m08m08m08m00
389A47755m00m00l92m00l92l92l92l92l84l92l84l84l84l76l76l76l84l68l76l68l68l68l68
387A38939l68l60l68l60l60l52l60l52l52l60l44l52l44l60l36l44l36l44l44l36l36l36l36
385A30899l28l36l36l28l28l28l28l20l28l20l12l28l12l20l12l20l12l12l12l12l04l12l04
383A23547l04l04l04l04l04k96k96k96k96k96k96k96k88k88k88k96k88k88k80k88k88k80k80
380A16803k80k72k80k72k88k72k72k72k72k72k72k72k72k56k72k64k64k64k56k64k64k56k64
378A10611k56k56k56k48k64k56k48k48k56k48k48k48k40k56k48k40k40k48k40k48k32k40k48
376A04899k32k32k40k32k32k32k40k32k32k24k32k32k32k24k32k16k32k24k24k24k24k16k32
374I9627k16k16k16k16k16k16k16k16k16k08k16k08k16k08k08k16k00k08k08k08k08k00k08
372I4763k08k00k00k08j92k00k00k08k00j92j92j92k00k00j92j92k00j92j92j84k00j84j92
370I0243j84j92j84j92j84j92j84j84j84j84j76j92j76j84j76j84j76j84j76j76j84j76j76
368H6043j76j76j76j68j84j68j68j76j68j68j76j68j68j68j76j60j68j68j68j68j60j68j60
366H2139j68j60j68j60j60j60j60j60j60j60j60j60j52j60j52j68j52j52j60j52j52j52j60
364G8491j52j44j60j52j44j52j52j52j44j52j52j60j28j60j36j52j52j36j52j44j44j36j44
361G5091j44j36j44j44j44j36j44j36j36j44j36j36j44j36j36j36j36j36j36j36j36j36j36
359G1907j28j36j28j36j28j36j36j20j36j28j36j28j28j28j28j28j28j28j28j28j20j36j20
357F8931j28j20j28j20j28j20j28j20j20j28j20j20j20j28j12j28j12j20j20j20j20j20j20
355F6131j12j20j12j20j20j12j20j12j12j12j20j12j12j20j04j12j20j12j12j12j12j12j04
353F3515j12j12j12j12j04j12j12r6j20j04j12j04j04j12j04j04j04j12j04j04j04j04j04
351F1043j04j04j04j04j04r6j04j04j04r6j04j04r6j04r6j04r6j04r6j04r6j04r6r6j04r6
349E8419r6r6r6r6r6r6r6r6r6r6r6q8r6r6q8r6r6q8r6r6r6q8q8r6q8r6q8r6q8q8q8q8r6q8
345E5251q8q8r6q8q0r6q0r6q0q8r6q0q8q8q0r6q0q0r6q0q0q8q8q8q0q0q8q8q0q0q0q8q0q0
342E2339q8q0q8q0p2q8q0q0q8q0p2q0q0q0q0q0q0q0q0p2q0q0q0q0p2q0q0p2q8p2p2q0p2q0
339D9643o4q8p2p2p2q8p2p2p2q0o4q8o4p2q0o4p2q0p2p2p2p2p2p2p2p2p2p2p2o4q0p2o4p2
336D7163p2p2o4p2p2o4p2o4p2p2o4o4q0o4o4p2o4p2o4p2o4o4p2o4o4o4p2o4o4p2o4o4o4o4
333D4867p2o4n6p2o4n6p2o4n6o4o4o4o4o4o4n6p2n6o4o4o4n6o4o4o4n6o4o4n6o4n6o4n6o4
330D2739o4o4n6n6o4n6o4n6n6o4n6o4n6n6n6o4n6o4n6n6n6n6o4m8o4n6n6o4m8o4m8n6o4m8
327D0763o4n6n6m8o4n6m8o4n6m8n6n6n6m8m8o4n6m8n6n6n6m8n6n6n6m8n6m8n6n6m8n6m8n6
324C8915m8n6m8n6m8n6m8n6m8n6m8m8m8o4m8m8m8m8m8n6m8m8n6m0n6m8n6m8m8m8m8m8m8m8
321C7203n6m8m8m8m8m8m8m8m8m8m8m0n6m0n6m8m8m0m8m8m8m8m0n6m0m8m8m0m8m8m8m8m0m8
317C5595m8m0m8m8m0m8m0m8m8m0m8m8m0m8m0m8m0m8m8l2m8m0n6l2m8m0m8m0m0m8m8m0m0m8
314C4091m0m0m0m8m0m0m0m8m0m0m0m8m0m0m8m0m0m0m0m0m0m8m0l2m8m0m0m0m0m0m0m0m0m0
311C2691m0m0m0m0m0m0m0m0m0m0l2m0m0m0m0m0l2m8l2m0m0m0l2m0m0m0m0l2m0m0l2m8l2m0
308C1371m0l2m0l2m0m0l2m0m0l2m0m0l2l2m0m0l2m0l2m0m0l2m0l2m0l2m0l2m0l2m0l2l2m0
305C0131m0k4m0l2m0l2l2m0l2m0k4m0l2l2m0m0k4m0l2l2m0l2l2l2l2m0l2l2l2m0l2l2l2m0
302B8963k4m0l2l2l2l2l2m0k4m0l2l2l2k4m0k4m0l2l2l2l2l2k4m0l2l2l2l2l2l2l2l2k4m0
299B7867k4m0k4m0k4k4m0l2l2k4l2l2l2l2k4m0k4l2l2l2k4l2l2l2l2k4l2l2k4l2l2l2k4l2
296B6835l2k4l2k4l2l2l2k4l2l2k4l2l2k4l2k4l2k4l2l2k4l2k4l2l2k4l2k4k4l2l2k4l2k4
293B5859k4l2l2k4l2k4l2k4k4l2k4k4l2l2j6l2k4l2k4l2k4k4l2k4l2k4k4l2k4k4l2k4k4k4
289B4939l2k4l2k4k4l2k4k4k4l2k4k4k4l2j6l2k4k4k4l2k4k4k4l2j6k4l2k4k4k4k4l2k4j6
286B4067l2k4k4k4k4k4l2k4k4k4k4j6l2k4k4k4k4k4k4k4k4l2j6k4k4k4k4k4k4k4k4k4k4k4
283B3235k4k4k4k4k4k4k4k4k4k4j6l2k4j6l2j6k4k4j6l2j6l2j6k4k4j6k4k4l2j6k4k4j6k4
280B2451k4k4k4k4j6l2j6j6k4k4k4k4k4j6k4k4j6k4k4k4k4j6k4k4j6k4k4j6k4j6k4l2ql2j6
277B1683k4j6k4k4j6k4k4j6l2qk4k4j6k4j6k4k4j6k4k4j6k4k4j6j6l2ql2qk4k4j6k4j6k4j6
274B0939k4j6k4j6k4k4j6j6k4k4j6j6k4k4j6j6k4j6k4j6j6k4k4j6j6j6k4k4j6k4j6j6j6k4
270B0267j6k4j6k4j6j6k4j6k4j6k4j6k4qj6l2%k4l2j6l2Qj6k4k4k4j6qk4k4j6j6k4j6ql2j6
267A9571k4qj6k4j6j6k4j6j6k4j6j6j6k4j6j6j6j6j6k4j6j6j6j6k4j6j6k4qk4j6j6j6k4qk4
264A8931j6j6j6j6j6k4j6j6j6j6j6k4qk4j6j6j6j6j6j6k4qj6k4qk4j6j6qk4j6j6j6k4qk4j6
260A8307j6j6j6j6qk4j6k4qj6j6j6j6j6j6j6j6j6j6j6j6j6j6j6j6j6j6j6j6j6j6j6j6j6qk4
257A7731j6j6j6qk4j6qj6k4qj6j6j6j6j6j6qk4qj6j6j6j6qk4j6qj6k4qj6j6j6j6qj6j6j6j6
254A7139j6j6j6qj6j6j6j6j6qj6j6j6j6j6j6qj6j6j6j6j6qj6j6j6qj6j6j6j6j6qj6j6qj6j6
250A6587j6qj6j6j6qj6j6j6qj6j6j6qj6j6qj6j6qj6j6j6qj6j6qj6j6qj6j6j6qj6j6qj6qk4
246A6035j6qj6qj6qj6j6j6qj6j6j6qj6j6qj6qj6j6qqj6j6qj6j6qj6qj6j6j6qj6qj6qj6j6q
243A5491j6qj6j6qqj6j6qj6j6qqj6qj6j6qj6j6qj6qj6qqj6j6qj6qj6qj6j6qqj6j6qj6qj6q
238A4947qk4qqj6qqj6qj6j6j6qqj6qqj6qj6qj6j6qqqj6j6qj6qqqj6qj6qj6j6qqj6qqj6j6q
234A4395qqj6qj6j6qqj6qqj6qj6qqj6qj6qqj6qqqj6j6qqj6qqj6qj6qj6qqqqj6j6qqj6qqqj6
230A3843qqj6qqj6j6qqqqj6qqj6qqj6qqj6qqqj6qj6qqqqj6qqj6qqqj6qqqj6qj6qqqj6qqj6
225A3299%j6qj6%j6qqqj6qqj6qqqj6qqqj6%j6qqj6%j6qj6qqqqqqqk4q%qj6qqqj6qqqj6qqq
220A2787qj6%j6qqqqqj6qqqqj6%qj6qqqj6qqqqqqj6qqqqj6%j6qqqqqqj6qqq%j6qqqqj6qqq
215A2275qj6%j6qqqqqj6%qqqqj6%j6j6%j6%qqqj6qqqqqqqqqj6q%j6qq%qj6qqqqqqqqqqqj6
210A1787q%qqj6%j6qqq%j6qqqqqqqqqqqqqqqqqqj6%qqqqqqqqqqj6%qj6%qj6%j6%qqj6%qqq
204A1315qqqqqqqqqqqqqqqqqqq%qqj6%qj6%qqj6%qqqqqq%j6q%qqqqqqqqqqqqq%qqqj6%qqj6
199A0827%q%qj6%qqqqqqqq%qqqq%j6%j6qq%qqqqqqqq%qqqqqqq%qqqqqqq%qqqqqq%qqqqq%j6
193A0371%j6%qqq%qqqqqq%j6%qq%j6q%qqqq%qqqqq%qqq%qqqq%qqqqqqq%qq%qqqqqq%j6%qq
187I947%qqq%qj6%qq%qqqqq%qq%qqqqq%q%j6%qqqq%qq%qqqq%qq%j6q%q%j6%%qqqqq%qqq%q
181I547qq%qqqq%qq%qq%qqqqq%qq%qqq%qqqq%qqqqQqqq%j6%qqq%%j6%qq%q%qqqqqQj6Qqqq
175I163q%q%l2Qq%%qj6%%qqqq%qq%q%j6%qq%q%qq%qqq%qqq%qq%qq%q%qqq%qq%q%qq%qqq%%
169H803qqq%qq%qqq%%qqq%j6Qqqq%qq%qq%q%qq%qq%q%qq%qq%qq%q%qqq%qq%q%qq%q%qqq%%
163H451qq%qq%q%qq%q%j6%%q%qq%qq%qq%q%qq%q%q%qqq%qq%q%qq%qq%%q%q%j6%%q%qq%qq%
156H123q%q%qq%q%q%q%qqq%%q%qq%q%qq%q%q%qqq%q%q%q%qq%q%j6%%qQk4%qQqq%q%qq%%qq
150G811%qq%q%%q%qq%q%%qq%qq%%qq%%qqq%%q%qq%q%q%q%q%q%q%qq%%qq%%j6%q%q%%j6%%q
144G523q%%q%q%q%q%%q%qqq%%q%q%qq%%qq%%q%qq%q%q%q%%q%qq%q%q%%j6Qqq%q%q%q%%qq%
138G251q%q%%qq%q%q%q%q%q%%q%q%qq%Qj6%%qq%%q%q%qq%q%%qq%q%q%%q%q%q%%q%q%qq%%q
132F987%q%%qq%q%q%%qq%%%q%qq%%q%q%qq%%q%%%q%qqqQ%j6q%%%q%q%q%%q%q%%q%q%q%%qq
125F739%q%q%%%qq%%q%q%%qq%%q%%qq%%q%%qq%%q%q%%q%q%q%%qq%q%%q%%q%q%%q%q%q%%q%
119F507q%%q%%qq%%q%q%q%%%qq%%q%q%%q%q%%qq%%%q%%q%qq%%q%%%qq%%q%q%qQqq%%q%q%%
113F283q%%q%q%q%%%q%q%qQqq%%qq%%q%qQj6Qq%%q%%qq%%q%%qq%%q%%%q%q%q%%q%%%q%q%q
107F067%qQq%q%%qqQq%q%qq%Qqq%%q%%q%%q%%%j6Qq%%qqQq%q%q%%%qq%%%q%%%qq%%%q%q%q
100E867%%%q%q%%q%%%q%q%q%%%q%%q%q%%%q%q%%%q%q%%q%%q%%q%q%%%q%%q%q%%%qq%%%q%%
94E683q%%%q%q%%q%%%q%j6Qq%%q%qQq%q%%%q%%%qq%%%%q%%qq%%%qQqqqQq%q%J6j6%qq%qQ%
88E507qQj6Qq%qq%Qq%q%%%q%%q%q%%q%%%q%%q%%q%%%%qq%%q%%%%q%q%q%%q%%%qQj6QqqQj6
82E323%%qL2ql2%Qj6J6%Qj6k4Q%qQqQq%%q%qqQ%%q%%q%%qqQq%%q%%%q%q%%%%q%%q%%q%%q%
76E179%%%q%%q%q%%%qqQ%q%%%j6%Q%q%q%Qj6%q%%%%q%%j6J6qqQq%%%q%q%%qQq%q%%%q%%%%
70E035qq%%%%j6Q%%q%%q%%%q%%q%%%q%%%q%q%%%qQq%%q%q%%%q%%qQq%%%%qq%%%%q%%q%%q%
64D875%%q%%%%q%%q%%q%%%%q%%q%%%q%%q%%%qQq%q%%%qQq%q%%%q%%q%%%qQq%%%q%%qQq%%q
57D731%q%%q%%%q%%%%q%%q%%%q%%%%q%%qQq%%q%%%q%%%%q%%%q%%%q%q%%%%q%%%%q%%%q%%%
51D595%q%qQq%%%qq%%%%%%q%qQq%%%q%%%q%qQ%q%%q%%%qQq%%q%%%qq%Qq%%%qQq%%q%%%q%%
44D459%qQq%q%%%%%q%%%q%q%%%%%q%%%q%%%q%%%qQq%q%%%%%q%%qQq%%q%%%%q%%%q%%%%%q%
38D331%%q%%%%q%%%q%%qQ%q%%%q%%q%%%q%%%%q%%%q%q%%%%%%%q%%%%qQq%%q%%%%q%%%q%%%
31D211%q%%%q%%%%%%q%%%q%%%q%qQ%q%Qqq%%%%%%qqQq%%%q%%%q%%%%%%q%%qQq%%%q%%%qQ%
25D099q%q%%%%%q%%%q%%%%q%%%%q%%%%q%%%%q%%%%%q%%%%q%%%qQq%qQq%%%q%%%%%q%%q%Qq
19C979%%%q%%%q%QqqQ%q%%q%%qQ%q%%%%qQq%%q%%%qQq%%%%q%%%%q%%q%%%%%%%q%%%%q%%%q
12C867Qq%%%%q%%%%%q%qQq%QqqQ%%qqQq%%qQq%Qq%%%q%%%%q%%%%q%%%%%q%%%q%%%%%%q%%%
6C771%q%%%%%%q%%%q%%%q%Qq%%%%q%qQ%qQq%%q%%%%%%%q%%%%qQq%%%%q%%%%q%%%
0C683
##$OBSERVED MULTIPLETS=	(I, X, Y, Hs, Vs, An, H, C, N, (J))
$$ I: Multiplet Index
$$ X: Strt Coordinate
$$ Y: End Coordinate
$$ Hs: Horizontal Chemical Shift
$$ An: Normalised Integral Area
$$ H: Hydrogens
$$ C: Category
$$ N: Name
$$ (J): Coupling Constants
(1, 1.2727180855272630655, 1.3945952816341897762, 1.3336058206453402786, 2.091270663852676126, 2, h, A, 6.96 6.96 6.68 6.68 6.68)
(2, 0.87995449847699080959, 0.94415312585625510433, 0.91205381216662295696, 6, 6, t, B, 7.04956 7.04956)
##$OBSERVED MULTIPLETS AREAS=	
(1, 1.150810371611097116)
(2, 3.3017544543689014702)
##$OBSERVED MULTIPLETS PEAKS=	(I, X, Y)
$$ I: Multiplet Peak Index
$$ X: Peak x Position
$$ Y: Peak Intensity
(1, 1.3764120670661523782, 0.0006693772156722843647)
(1, 1.3754965342292053698, 0.00067577854497358202934)
(1, 1.3619466482423894238, 0.0043750312179327011108)
(1, 1.3474812294186264694, 0.012651481665670871735)
(1, 1.3333820237296423183, 0.01818104274570941925)
(1, 1.3192828180406581673, 0.014175502583384513855)
(1, 1.3055498254864528196, 0.0055318558588624000549)
(1, 1.2921830460670262752, 0.00095143733778968453407)
(1, 1.2907181935279110618, 0.00095110252732411026955)
(2, 0.92615301785560710801, 0.04765535891056060791)
(2, 0.91205381216662295696, 0.108673878014087677)
(2, 0.89795460647763880591, 0.041730891913175582886)
##$PREDICTED PEAKS=	(X Y T A)
(0.91228205252984928553,  , 0.10000000000000000555, <1-a>)
(0.91228205252984928553,  , 0.10000000000000000555, <1-b>)
(0.91228205252984928553,  , 0.10000000000000000555, <1-c>)
(1.3329595061230181674,  , 0.10000000000000000555, <2-a>)
(1.3329595061230181674,  , 0.10000000000000000555, <2-b>)
(0.91228205252984928553,  , 0.10000000000000000555, <3-a>)
(0.91228205252984928553,  , 0.10000000000000000555, <3-b>)
(0.91228205252984928553,  , 0.10000000000000000555, <3-c>)
##$PREDICTEDCOUPLINGCONSTANTS=	J(A,B)	$$ (Hz)
6.52(1-a, 1-b)
6.52(1-a, 1-c)
7.06(1-a, 2-a)
7.06(1-a, 2-b)
6.52(1-b, 1-a)
6.52(1-b, 1-c)
7.06(1-b, 2-a)
7.06(1-b, 2-b)
6.52(1-c, 1-a)
6.52(1-c, 1-b)
7.06(1-c, 2-a)
7.06(1-c, 2-b)
7.06(2-a, 1-a)
7.06(2-a, 1-b)
7.06(2-a, 1-c)
13.18(2-a, 2-b)
7.06(2-a, 3-a)
7.06(2-a, 3-b)
7.06(2-a, 3-c)
7.06(2-b, 1-a)
7.06(2-b, 1-b)
7.06(2-b, 1-c)
13.18(2-b, 2-a)
7.06(2-b, 3-a)
7.06(2-b, 3-b)
7.06(2-b, 3-c)
7.06(3-a, 2-a)
7.06(3-a, 2-b)
6.52(3-a, 3-b)
6.52(3-a, 3-c)
7.06(3-b, 2-a)
7.06(3-b, 2-b)
6.52(3-b, 3-a)
6.52(3-b, 3-c)
7.06(3-c, 2-a)
7.06(3-c, 2-b)
6.52(3-c, 3-a)
6.52(3-c, 3-b)
##END=		$$ NMR SPECTRUM
##TITLE=	Predicted 1H NMR Spectrum
##JCAMP-DX=	6.0	$$ MestReNova 15.1.0-38027
##DATA TYPE=	NMR PEAK TABLE
##DATA CLASS=	PEAK TABLE
##BLOCK_ID=	3
##ORIGIN=	Mestrelab Research S.L.
##OWNER=	ctheodore
##CROSS REFERENCE=	NMR SPECTRUM: BLOCK_ID=2                                     
##.OBSERVE FREQUENCY=	500
##.OBSERVE NUCLEUS=	^1H
##NPOINTS=	12
##FIRSTX=	0.89795460647763880591
##LASTX=	1.3764120670661523782
##XFACTOR=	1
##YFACTOR=	1
##FIRSTY=	0.041730891913175582886
##XUNITS=	PPM
##YUNITS=	ARBITRARY UNITS
##PEAK TABLE=	(XYW..XYW)
0.89795460647763880591,0.041730891913175582886,0.0022641016608350812353
0.91205381216662295696,0.108673878014087677,0.0016800951569120913323
0.92615301785560710801,0.04765535891056060791,0.0022624452363363563821
1.2907181935279110618,0.00095110252732411026955,0.0015674404831720937202
1.2921830460670262752,0.00095143733778968453407,0.0016148911299722977074
1.3055498254864528196,0.0055318558588624000549,0.0026666901616557415165
1.3192828180406581673,0.014175502583384513855,0.0022767868688570126398
1.3333820237296423183,0.01818104274570941925,0.0022741609514738097934
1.3474812294186264694,0.012651481665670871735,0.0023056525456393770455
1.3619466482423894238,0.0043750312179327011108,0.00250101506630921646
1.3754965342292053698,0.00067577854497358202934,0.0019877668268176123915
1.3764120670661523782,0.0006693772156722843647,0.0019326311471696336602
##$MNOVA/PEAK_DATA_TABLE=	(T,F,A,ST,SP,APT,APC)
$$ Complementary to PEAK TABLE
$$ T: Type
$$ F: Flags
$$ A: Annotation
$$ ST: Shape Type
$$ SP: Shape Parameter
$$ APT: Attached Peaks Type
$$ APC: Attached Peaks Count
Compound,None,,0,0,0,0
Compound,None,,0,0,0,0
Compound,None,,0,0,0,0
Compound,None,,0,0,0,0
Compound,None,,0,0,0,0
Compound,None,,0,0,0,0
Compound,None,,0,0,0,0
Compound,None,,0,0,0,0
Compound,None,,0,0,0,0
Compound,None,,0,0,0,0
Compound,None,,0,0,0,0
Compound,None,,0,0,0,0
##END=		$$ NMR PEAK TABLE
##END=		$$ LINK
