##TITLE=	ethane 13c
##JCAMP-DX=	6.0	$$ MestReNova 17.0.0-41178
##DATA TYPE=	LINK
##BLOCKS=	4    
##ORIGIN=	Mestrelab Research S.L.
##OWNER=	ctheodore
##$MNOVA/METADATA=	(DOCUMENT,BASE64)
eyJuYW1lIjoiL1VzZXJzL2N0aGVvZG9yZS9Eb2N1bWVudHMvY2xhc3Nlcy9OTVIgZXhwZXJpbWVudC9
naXRodWIgZmlsZXMvZXRoYW5lL2V0aGFuZSAxM2MubW5vdmEiLCJwYWdlcyI6W3siaXRlbXMiOlsiMS
IsICAgICAgICAgICAgICAgICAgICAgICAgICAgICAgICAgICAgICIzIiAgICAgICAgICAgICAgICAgI
CAgICAgICAgICAgICAgICAgICBdfV19
##TITLE=	
##JCAMP-CS=	3.7	$$ MestReNova 17.0.0-41178
##BLOCK_ID=	1
##ORIGIN=	Mestrelab Research S.L.
##OWNER=	ctheodore
##$MNOVA/METADATA=	(ITEM,BASE64)
eyJhbmdsZSI6MC4wLCJwb2ludHMiOlt7IngiOjUzMjEuMCwieSI6NTgzNS4wfSx7IngiOjU1MjQuNTM
2ODIwMDk1NzQxLCJ5Ijo1ODM1LjB9LHsieCI6NTUyNC41MzY4MjAwOTU3NDEsInkiOjYwMDMuOTQzNz
QzMTY1MjczfSx7IngiOjUzMjEuMCwieSI6NjAwMy45NDM3NDMxNjUyNzN9LHsieCI6NTMyMS4wLCJ5I
jo1ODM1LjB9XSwieiI6MS4wfQ==
##NAMES=	
##ATOMLIST=	
$$ AN	AS	NH
	1	C	3
	2	C	3
##BONDLIST=	
$$ AN1	AN2	BT
	1	2	S
##MAXRASTER=	32768
##XY_RASTER=	
$$ AN	X	Y	Z
	1	-32767	18915	0
	2	32767	-18915	0
##END=		$$ JCAMP-CS
##TITLE=	Predicted 13C NMR Spectrum
##JCAMP-DX=	6.0	$$ MestReNova 17.0.0-41178
##DATA TYPE=	NMR PEAK ASSIGNMENTS
##DATA CLASS=	ASSIGNMENTS
##BLOCK_ID=	2
##ORIGIN=	Mestrelab Research S.L.
##OWNER=	ctheodore
##CROSS REFERENCE=	STRUCTURE: BLOCK_ID=1                                     
NMR SPECTRUM: BLOCK_ID=3                                     
##.OBSERVE FREQUENCY=	125
##.OBSERVE NUCLEUS=	^13C
##NPOINTS=	2
##XUNITS=	PPM
##YUNITS=	ARBITRARY UNITS
##PEAKASSIGNMENTS=	(XYWA)
(6.6248742439793462111, 0.30113545060157775879, 0.0060596750016261857752, <1>)
(6.6248742439793462111, 0.30113545060157775879, 0.0060596750016261857752, <2>)
##END=		$$ NMR PEAK ASSIGNMENTS
##TITLE=	Predicted 13C NMR Spectrum
##JCAMP-DX=	6.0	$$ MestReNova 17.0.0-41178
##DATA TYPE=	NMR SPECTRUM
##DATA CLASS=	XYDATA
##BLOCK_ID=	3
##ORIGIN=	Mestrelab Predictor
##OWNER=	ctheodore
##NUMDIM=	1
##$MNOVA/METADATA=	(ITEM,BASE64)
eyJhbmdsZSI6MC4wLCJheGVzIjp7IngiOnsibWF4IjoyMzAuMDI1MzAyNzgzMzA2MTYsIm1pbiI6LTk
uOTk5MjY4ODY0ODg3NjM4fSwieSI6eyJtYXgiOjAuMzMxMjQ4OTk2Nzc5MzIyNiwibWluIjotMC4wMz
AxMTM1NDg5NTA2NjcyfX0sInBvaW50cyI6W3sieCI6NTMyMS4wLCJ5Ijo1ODM1LjB9LHsieCI6ODcyM
i4wLCJ5Ijo1ODM1LjB9LHsieCI6ODcyMi4wLCJ5Ijo4MjA4LjB9LHsieCI6NTMyMS4wLCJ5Ijo4MjA4
LjB9LHsieCI6NTMyMS4wLCJ5Ijo1ODM1LjB9XSwieiI6MC4wfQ==
##.OBSERVE FREQUENCY=	125
##.OBSERVE NUCLEUS=	^13C
##.SOLVENT NAME=	DMSO-d6
##.PULSE SEQUENCE=	
##.ACQUISITIONMODE=	SIMULTANEOUS (DQD)
##$ORIGINAL FORMAT=	Predictor
##$MNOVA/SCALES_VERSION=	9
##$PARAMETER FILE=	(parameters, ASCII, , 0)
$$ <?xml version="1.0" encoding="utf-8"?>
$$ <PredictorParameters>
$$     <Title>Predicted 13C NMR Spectrum</Title>
$$     <Origin>Mnova: NMR Prediction</Origin>
$$     <Name>Mestrelab Predictor</Name>
$$     <Version>1.7</Version>
$$     <Nucleus>13C</Nucleus>
$$     <Solvent>DMSO-d6</Solvent>
$$     <From>-10</From>
$$     <To>230</To>
$$     <Frequency>125</Frequency>
$$     <LineWidth>1.5</LineWidth>
$$     <Size>131072</Size>
$$     <DEPT>0</DEPT>
$$     <ProtonatedCarbons>0</ProtonatedCarbons>
$$     <ExcludeLabile>false</ExcludeLabile>
$$     <FastPrediction>0</FastPrediction>
$$     <ProtonDecoupled>1</ProtonDecoupled>
$$     <Reference/>
$$     <Options>
$$         <Settings>
$$             <Predictor Name="Mestrelab Predictor">
$$                 <Settings>
$$                     <Model>/Applications/MestReNova.app/Contents/Resources/data/13C.mbst</Model>
$$                 </Settings>
$$             </Predictor>
$$         </Settings>
$$     </Options>
$$     <MoleculeID>{1af3b4b2-9a73-4652-b91c-4fec682ac14f}</MoleculeID>
$$ </PredictorParameters>
$$ 
##XUNITS=	HZ
##YUNITS=	ARBITRARY UNITS
##FIRSTX=	28750
##LASTX=	-1249.7711181640625
##DELTAX=	-0.2288818359375
##XFACTOR=	1
##YFACTOR=	1.4022712164642515895E-10
##FIRSTY=	3.9856121958337098476E-08
##MINY=	-2.7729223361916410795E-09
##MAXY=	0.30113545060157775879
##NPOINTS=	131072
##XYDATA=	(X++(Y..Y))
28750B84%%%%%%%%%%%%%%%%%%%%%%%%%%%%%%%qQ%%%%%%%%%%%%%%%%%qQ%%qQ%%qQ%%q%%%Qq
28734B76Q%%%q%%Qq%%Qq%%%%%%Q%q%%%%%%%%%%%%%%%%%%%%%%%%%%%%%%%%%%%Qq%%%%%q%Q%
28719B76%%%%qQ%qQ%%%%%%%%%%%%%%%%%%%%%%%%%%%%%%%%%%%%%%%%%%qQqQ%%%q%%%%Q%%%q
28703B68Q%%%%qQ%q%%%Qq%Q%q%%%%%%%%%%%%%%%%%%%%%%%%%%%%%%%%%%%%%%%%%%%%%%%%%%
28688B68%%%%%%%%%%%%%%%%%%%%%%%%%%%%%%%%%%%%%%%%%%%%%%%%%%%%qQ%%%%%%%qQqQqQq
28672B60%%%%%QqQ%qQq%Q%%%qQqQ%q%%%%%%%%%%%%%%%%%Qq%%%%%%%%%%Qq%%%%%%%%%%%%%%
28657B60%%%%%%%%%%%%%%%%%%%%%%%%%%%%%%%%%%%%%%%%%%%%%%%%%%%%%%%%%%%%%%%%%%%%
28641B60%%%qQ%qQ%q%Qq%%%%%%%%Qq%%Qq%%%%%%Qq%%Qq%%%%%%%%%%%%%%%%%%%%%%%%%%%%%
28625B52%%%%%%%%%%%%%%%%%%%%%%%%%%%%%%%%%%%%%%%%%%%%%%%%%%%%%%%%%%%%%%%%%%%%
28610B52%%%%%%%%%%%%%%%%%%%%%%%%q%Qq%Qq%Qq%%%%%Qq%%%QqQ%q%%%%%QqQq%Qq%%%%%%%
28594B44%%%%%%%%%%%%%%%%%%%%%%%%%%%%%%%%%%%%%%%%%%%%%%%%%%%%%%%%%%%%%%%%%%%%
28579B44%%%%%%%%%%%%%%%%%%%%%%%%%%%%%q%Qq%%Q%%%%%%%%%%%%%%%%%qQ%q%%Q%%%qQ%%%
28563B44qQq%%Qq%%%Q%%%qQ%%q%Qq%Qq%%%%%Qq%%%%%%%%%%%%%%%%%%%%%%%%%%%%%%%%%%%%
28548B36%%%%%%%%%%%%%%%%%%%%%%%%%%%%%%%%%%%%%%%%%%%%%%%%%%%%%%%%%%%%%%%%%%%%
28532B36%%%%qQ%%%qQ%%%%%%%%%qQ%q%%%Q%%%%%%%q%%%%%Q%%%%%q%%%%%%%%%%%%%%%%%%%%
28517B28%%%%%%%%%%%Qq%%%%%%%%%%%%%%%%%%%%%%%%%%%%%%%%%%%%%%%%%%%%%%%%%%%%%%%
28501B28%%%%%%%%%%%%%%%%%%%%%%%%%%%%%%%%%%%%%%%%%%%%qQ%%%%%qQ%%%qQ%qQ%%%qQ%%
28485B28q%%QqqQ%Qq%Qq%Q%%%%q%%%Q%%q%%%%%Q%%q%%%%%%%%%%%%%%%%%%%%%%%%%%%%%%%%
28470B20%%%%%%%%%%%%%%%%%%%%%%%%%%%%%%%%%%%%%%%%%%%%%%%%%%%%%%%%%%%%%%%%%%%%
28454B20%%%%%%%%%%%%%%%%%%%%%%%%%%%%%%%%%%%%%%%qQq%%%Qq%%Q%%%q%%%%%%%%Qq%%%Q
28439B20q%QqQq%%%%%%%%%%%%%%%QqQq%%%%QqQq%%%%%%%%%%%%%%%%%%%%Qq%Qq%%Qq%%%%%%
28423B12%%%%%%%%%%%%%%%%%%%%%%%%%%%%%%%%%%%%%%%%%%%%%%%%%%%%%%%%%%%%%%%%%%%%
28408B12%%%%%%%%%%%%%%%%%qQ%%%%%%%%%%%%%%%%%%%%%%%%%qQ%qQq%%%Qq%%%QqQ%q%Q%%q
28392B04Q%%q%%%%%%%%%%%%%%%%%%%Qq%%%%%%%%%%%%%%Qq%%%%%%%%%%%%%%%%%%%%%%%%%%%
28376B04%%%%%%%%%%%%%%%%%%%%%%%%%%%%%%%%%%%%%%%QqqQqQ%%%%%%%%%%%%%%%%%%%%%%%
28361B04%%%%%%%%%%%%%%%%%%%%%%%%%%%%%%%%%%qQ%%%%%%%%%%%%%qQqQqQq%%Qq%%Q%q%Qq
28345A96QqQq%%%%%%%Q%%q%%Qq%%%%%%%%%%QqQ%%q%%%%%%%%%%%%%%%%%%%%%%%%%%%%%%%%%
28330A96%%%%%%%%%%%%%%%%%%%%%%%%%%%%%%%%%%%%%%%%%%%%%%%%%%%%%%%%%%%%%%%%%%%%
28314A96%%%%%%%%%%%%%%%%%%%%%%%%%q%Q%%qQ%%%%%%qQ%%%%%%%%%%qQ%%%%%%%%%%%%%%%%
28299A96%%%qQ%%%%%%q%QqQ%q%%%%QqQq%%%%%%Q%q%Q%%qQ%q%Q%q%%Qq%Qq%%%%%%%%%QqQq%
28283A88%%%%%%%%%%%%%%%Qq%%%%%%%%%%%%%%%%%%%%%%%%%%%%%%%%%%%%%%%%%%%%%%%%%%%
28268A88%%%%%%%%%%%%%%%%%%%%%%%%%%%%%%%%%%%%%%%%%%%%%%%%%%%%%%%%%%%%%%%%%%%%
28252A88%%%%%%%%%%q%Q%%%%%%qQ%%%%qQ%%%%%%%%%%%%qQ%%qQ%%%%%%%%%%%%%%%%qQ%%%qQ
28236A88qQqQ%q%QqQqQ%qQ%qQq%%%%%%%%%QqQ%qQq%%%%%%%%%%%%%%%%%%%%%%%%%%%%%%%%%
28221A80%%Qq%%%%%%%%%%%%%%%%%%%%%%%%%%%%%%%%%%%%%%%%%%%%%%%%%%%%%%%%%%%%%%%%
28205A80%%%%%%%%%%%%%%%%%%%%%%%%%%%%%%%%%%%%%%%%%%%%%%%%%%%%%%%%%qQ%%qQ%%%%%
28190A80%%%%%%%%%%%%%%%%%%qQqQqQ%%%%qQqQ%%%%%%%%%%%%%%%%%%%%%q%%Q%%%%qQ%%%%%
28174A80q%Qq%Q%%q%%Q%qQqQq%%Qq%%%%%%%%%%%%%%%%%%%%%%%%%%%%%%%%%%%%%%%%%%%%%%
28159A72%%%%%%%%%%%%%%%%%%%%%%%%%%%%%%%%%%%%%%%%%%%%%%%%%%%%%%%%%%%%%%%%%%%%
28143A72%%%%%%%%%%%%%%%%%%%%%%%%%%%%%%%%%%%%%%%%%qQq%QqQ%%%%%%%%%%%%%%%%%%%%
28127A72%%%%%%%%%%%%%%%%%%%%%%%%%%%%%%%%%%%%%%%qQ%%qQ%%%%%%%%%%qQqQqQqQ%q%Q%
28112A72q%Qq%Qq%%%%%%%%%%%%QqQq%%%Q%q%Qq%%%%%Qq%%Qq%%%%%%%%%Qq%%%%%%%%%%%%%%
28096A64%%%%%%%%%%%%%%%%%%%%%%%%%%%%%%%%%%%%%%%%%%%%%%%%%%%%%%%%%%%%%%%%%%%%
28081A64%%%%%%%%%%%%%%%%%%%%%%%%%%%%%%%%%%%%%%%%%%%%%%%%%%%%%%%%%%%%%%%%%%%%
28065A64%%%%%%%%%%%%%%%%%%%%%%%qQ%%%%%%%%%%%%%%%%%%%%%%%%%%%%%%%%%q%Q%%%%%%%
28050A64%%%%%qQ%%%%qQ%qQ%%%%%%%%%%qQq%%%%%%%%%Q%%%%%q%%%%%%%%%QqQqQqQq%%%Q%q
28034A56%Q%q%%%QqQq%%%%%%QqQq%%%%%%%%%%%%%%%%%%%%%%%%%%%%%%%%%%%%%%%%%%%%%%%
28018A56Q%%q%%qK4%k4Q%qK4qq%%j6K4%qQq%%%%%%%%%%%%%%%%%%%%%%%%%%%%%%%%%%%%%%%
28004A56%%%%%%%%%%%%%%%%%%%%%%%%%%%%%%%%%%%%%%%%%%%%%%%%%%%%%%%%%%%%%%%%%%%%
27989A56%%%%qQ%%%%%%%%qQ%%%%%%%%%%%%%%%%qQ%%%%%%%%%%%%qQ%%%%%%%%%%qQ%%%%%%%%
27973A56%%%%%qQq%Qq%Qq%Q%q%%%%%Q%%%q%%%%Qq%%%Qq%%%%%%%%%%%%%%%%%QqQq%Qq%%Qq%
27957A48Q%q%%%%Qq%%%%%%%%%%%%%Q%q%%%%%%%%%%%%%%%%%%%%%%%%%%%%%%%%%%%%%%%%%%%
27942A48%%%%%%%%%%%%%%%%%%%%%%%%%%%%%%%%%%%%%%%%%%%%%%%%%%%%%%%%%%%%%%%%%%%%
27926A48%%%%%%%%%%%%%%%%%%%%%%%%%%%%%%%%%%%%%%%%%%%%%%%%%%%%%%%%%%%%%%%%%%%%
27911A48%%%%%%%%%%%%%%%%%%%%%%%%%%%%%qQ%%%%%%%%%%%%qQ%%%qQq%Qq%%%Q%%%qQ%%%qQ
27895A48%%%%%%%%%%%%%%%%%%qQqQqQ%%%%q%Q%q%Q%q%QqQ%q%%%Q%q%Q%q%%%%%%%%%Qq%Qq%
27880A40%%Qq%Q%q%QqQ%%q%%%%%%%%%%%%Q%q%%%%%%%%%%Q%q%%%%%%%%%%%%%%%%%%%%%%%%%
27864A40%%%%%%%%%Qq%%%%%%%%%%%%%%%%%%%%%%%%%%%%%%%%%%%%%%%%%%%%%%%%%%%%%%%%%
27848A40%%%%%%%%%%%%%%%%%%%%%%%%%%%%%%%%%%%%%%%%%%%%%%%%%%%%%%%%%%%%%%%%%%%%
27833A40%%%%%%%%%%%%%%%%%%%%%%%%%%%%%%%%%%%%%%%%%%%%%%%%%%%%%%%%%%%%%%%%%%%%
27817A40%%%%%%%%%%%%%%%%%%%qQ%%%%%%qQqQqQ%%%%%%%%%%%qQ%qQ%%%qQ%%%%%%qQqQ%%%q
27802A32QqQ%qQ%qQ%%qQ%q%%QqQ%%%q%%%%Qq%%%%%%%%%%%%%%%%%%%%%%%%Qq%%%%%%%QqQq%
27786A32%%%Q%%qQq%Q%q%%%%%QqQ%%Qj6%%%%%%%%%%%%%%%%%%%%%%%%%%%%%%%%%%%%%%%%%%
27771A32%%%%%%%%%%%%%%%%%%%%%%%%%%%%%%%%%%%%%%%%%%%%%%%%%%%%%%%%%%%%%%%%%%%%
27755A32%%%%%%%%%%%%%%%%%%%%%%%%%%%%%%%%%%%%%%%%%%%%%%%%%%%%%%%%%%%%%%%%%%%%
27740A32%%%%%%%%%%%%%%%%%%%%%%%%%%%%%%%%%%%%%%%%%qQ%%%%%%%%%%%%%%%%%%%%%%%%%
27724A32%%%%%%%qQqQ%%%%%%%qQ%%%%%%qQ%%%%%%%%q%QqQ%%q%QqQq%%Qq%QqQ%%%%%qQq%Qq
27709A24Qq%Q%qQ%%q%%%%Qq%%%%%%Qq%%QqQ%qQ%%%%%%%qQqQqQq%%Qq%%%%%%%%Qq%Qq%Qq%%
27693A24Qq%%Qq%%%%%%%%%%%%%%%%%%%%%%%%%%%%Qq%%%Qq%%%%%%%%%%%%QqQq%%%%Qq%%%%%
27677A24%%%%%%%%%%%%%%%%%%%%%%%%%%%%%%%%%%%%%%%%%%%%%%%%%%%%%%%%%QqqQ%%%%%%%
27662A24%%%%%%%%%%%%%%%%%%%%%%%%%%%%%%%%%%%%%%%%%%%%%%%%%%%%%%%%%%%%%%%%%%%%
27646A24%%%%%%%%%%%%%%%%%%%%%%%%%%%%%%%%%%%%%%%%%%%%%%%%%%%%%%%%%%%%%%%%%%%%
27631A24%%%%%%%%%%%%%%%%%%%%%%%%%%%%%%%%%%%%%%%%%%%%%%%%%%%%%%%%%%%%q%Q%%%qQ
27615A24%%%%%%%%%%%q%Q%%%%%%%%%%%%qQ%%%%q%Q%qQ%%qQq%Q%qQq%%Q%%qQqQqQ%%%%%%%%
27600A24%qQqQ%qQ%%%%%%%%%%q%%%%Q%%%qQ%q%%%Q%qQqQ%qQqQ%%qQ%%%%%%%%q%%Qq%%%%%%
27584A16%%%%%%%%%%%%Qq%%%%%%%%%%%%%%%%%Qq%%%%%%%%%%%%%%%%%%%%%%%%%%%%%%%%%%%
27569A16%%%%%%%%%%%%%%%%%%%%%%%%%%%%%%%%%%%%%%%%%%%%%%%%%%%%%%%%%%%%%%Qq%%%%
27553A16%%%%%%%%%%%%%%%%%%%%%%Q%j6K4j6%%%%qQ%%qQ%%%%%%%%%%%%%%%%%%%%%%%%%%%%
27538A16%%%%%%%%%%%%%%%%%%%%%%%%%%%%%%%%%%%%%%%%%%%%%%%%%%%%%%%%%%%%%%%%%%%%
27523A16%%%%%%%%%%%%%%%%%%%%%%%%%%%%%%%%%%%%%%%%%%%%%%%%%%%%%%%%%%%%%%%%%%%%
27507A16%%%%%%%%%%%qQ%%%%%%qQ%%%%qQ%%%%%%%%%%%%%%%%%%%%%%%%%%qQ%%%%%%%%%qQ%%
27491A16qQqQ%qQq%Qq%%Qq%%%QqQqQq%Q%q%Qq%%%%%%%Q%q%%Qq%%%Qq%Q%q%%%%%Q%q%%Qq%%
27476A08%Qq%%Qq%%%Qq%%%%%%%%%%%%%%Qq%%%%%%Qq%%%%%%%%%%QqQq%%%Q%q%Qq%%Q%q%Qq%
27460A08%%%%%%%Qq%Qq%%%%%%%%%%%%%%%%%%%%%%%%%%%%%%%%%%%%%%%%%%%%%%%%%%%%%%%%
27445A08%%%%%%%%%%%%%%%%%%%%%%%%%%%%%%%%%%%%%%%%%%%%%%%%%%%%%%%%%%%%%%%%%%%%
27429A08%%%%%%%%%%%%%%%%%%%%%%%%%%%%%%%%%%%%%%%%%%%%%%%%%%%%%%%%%%%%%%%%%%%%
27414A08%%%%%%%%%%%%%%%%%%%%%%%%%%%%%%%%%%%%%%%%%%%%%%%%%%%%%%%%%%%%%%%%%%%%
27398A08%%%%%%%%%%%%%%%%%%%%%%%%%%%%%%%%%%%%%%%%%%%%%%%%%%%%%%%%%%%%%%%%%%%%
27382A08%%%%%%%%%%%%%%%%%%%%%%%%%%%%%%%%%%%%%%%%%%%%%%%%%qQq%QqQ%%%qQ%%%%%%%
27367A08%%%%%%qQqQ%%qQ%%%%%%%%%%%%%%q%%Qq%Q%qQq%%QqQ%%%qQ%qQ%%%qQ%%%%qQ%%%%%
27351A08%qQ%%%%%%%q%%%Qq%%%%%%%%%%Qq%Q%%%%%%qQqQq%Q%%q%%%Q%%%%%qQq%%%%%Q%q%%
27336A00%%%%%%%%%%%%%%%%%%%%%%%%%%%%%%Qq%%%%Qq%Qq%%%%%%%%%%%%%%%%%%%%%%%%%%%
27320A00%Qq%%%%%%%%%%%%%%%%%%%%%%%%Qq%Qq%%Qj6J6q%%%%%%%%%%%%%%Qq%%%%%%%%%Qq%
27305A00%%%%%%%%%%%%Qq%%%%%%%%%%%%%%Qq%%%%%%%%%%%%%%%%%%%%%%%%%%%%%%%%%%%%%%
27290A00%%%%%%%%%%%%%%%%%%%%%%%%%%%%%%%%%%%%%%%%%%%%%%%%%%%%%%%%%%%%%%%%%%%%
27274A00%%%%%%%%%%%%%%%%%%%%%%%%%%%%%%%%%%%%%%%%%%%%%%%%%%%%%%%%%%%%%%%%%%%%
27258A00%%%%%%%%%%%%%%%%%%%%%%%%%%%%%%%%%%%%%%%%%%%%%%%%%%qQ%%%%%%%%%%%%%%%%
27243A00%%%%%%%%%%%%%%q%Q%%%%%%%%%%%%%%%%%%%%%%%%%%%%%%%%%%%%%%%%%%%%%%%%%%%
27227A00%%%%%%%%%%%qQ%%%%%%%%%%qQ%%%%qQ%%%%%%%%%%qQ%%qQ%%%qQ%%%%%%%%%%%%%%%%
27212A00%%%%qQ%%%qQ%%%%%%%%%qQq%Qq%%Qq%Qq%%%%QqQqQ%qQ%%%qQ%qQ%%%%%q%%Q%%qQq%
27196I2Q%%%%%%qQqQ%%%q%Q%q%%%%%Qq%%%%Qq%%%%Q%%qQ%q%Q%%qQqQqQ%%qQqQ%%%qQ%q%Qq
27180I2Qq%QqQ%%qQ%qQq%%%%%%%%%%%%%%%%%%%%%%%%Qq%%%%%%%%%%%%%%Qq%%%%%%Qq%%Qq%
27165I2%%%%%%%%%%%Qq%%%%%%%%%%%%%%%%%%%%%%%%%%%%%%%%%%%%%%%%%%%%%%%%%%%%%%%%
27149I2%%%%%%%%%%%%%%%%%%%%%%%%%%%%%%%%%%%%%%%%%%%%%%%%%%%%%%%%%%%%%%%%%%%%%
27133I2%%%%%%%%%%%%%%%%%%%%%%%%%%%%%%%%%%%%%%%%%%%%%%%%%%%%%%%%%%%%%%%%%%%%%
27117I2%%%%%%%%%%%%%%%%%%%%%%%%%%%%%%%%%%%%%%%%%%qQ%%%%%%%%%%%%%%%%%%%%%%%%%
27101I2%%%%%%%%%%%%%%%%%%%%%%%%%%%%%%%%%%%%%%%%%%%%%%%%%%%%%%%%%%%%%%%%%%%%%
27086I2%%%q%Q%%%qQqQqQ%%%%q%QQq%Qj6qL2k4QN6n6q%%J6%j6Q%%Q%qqQ%%%%%%%%qQ%%%%q
27071H4Q%%%%%%%%%%%%%%%%%%%%%%%%%%%%%%%%%q%Q%%%qQ%%%%%%%%%%%%%%%%%%%%%%%%%%%
27056I2%qQ%%%%%%%%q%%Q%%qQ%%%%qQqQ%%qQ%%qQ%%q%%Q%qQ%q%%Q%%q%Qq%QqQ%%%%%qQ%%%
27040I2%%qQ%%%q%QqQ%qQq%Qq%Qq%%Qq%%%%Q%qQq%%%QqQ%%%%qQ%%qQ%q%Q%qQq%%%%Qq%%%%
27024H4QqQ%%%qQ%q%%%%Q%qQ%%q%%%%%%%%QqQ%%qQq%%Qq%%Q%q%%%%Qq%QqQq%%Qq%Qq%%%Qq
27008H4%Qq%%%%Qq%%%%%%%%%%Qq%%%%%%%%%%%%%%%%%%%%%%%%%%%%%%%%%%%%%%%%%%%%%%%%
26992H4%%%%%%%%Qq%%%%%%%%%%%%%%%QqQqQq%%%%%%%%%%%%%%%%%%%%%%%%%%%%%%%%%%%%%%
26977H4%Q%q%%%%%%%%%%%%%%%%%%%%%%%%%%%%%%%%%%%%%%%%%%%%%%%%%%%%%%%%%%%%QqQq%
26961H4Qq%%%%%%%%%%%%%%%%%%%%%%%%%%%%%%%%%%%%%%%%%%%%%%%%%%%%%%%%%%%%%%%%%%%
26945H4%%%%%%%%%%%%%%%%%%%%%%%%%%%%%%%%%%%%%%%%%%%%%%%%%%%%%%%%%%%%%%%%%%%%%
26929H4%%%%%%%%%%%%%%%%%%%%%%%%%%%%%%%%%%%%%%%%%%%%%%%%%%%%%%%%%%%%%%%%%%%%%
26913H4%%%%%%%%%%%%%%%%%%%%%%%%%%%%%%%%%%%%%%%%%%%%%%%%%%%%%%%%%%%%%%%%%%%%%
26898H4%%%%%%%%%%%%%%%%%%%%%%%%%%%%%%%%%%%%%%%%%%%%%%%%%%%%%%%%%%%%%%%%%%%%%
26882H4%%%%%%%%%%%%%%%%%%%%%%%%%%%%%%%%%%%qQ%qQ%%%%%%qQ%%%%%%%%%%%%%%%%%qQ%%
26866H4%%%%%%%%%%%%%%%%%%%qQ%%%%%qQ%qQ%%qQ%%%qQ%q%Q%%%%%%%%%%%%%%%%%%%%%%%qQ
26850H4%%%%%%%%q%%Qq%Qq%Q%q%Q%%%%%qQQj6%QqQqQq%%%%%%%%QqQqQ%qQ%qQ%%q%%Qq%Q%%
26835H4q%%QqQq%%%QqQ%%%%qQ%%qQ%%%%qQ%%%%%%%q%%%%%%%%%%%%%%Q%%%%qQ%q%%%%%%%%%
26819G6%%Qq%%%%%%%%%%%%%Q%q%%%%%%%%Qq%%%%%%%Qq%%%%Q%qQq%%Qq%%%%%%%%%%%%%Q%q%
26803G6%%%%Qq%%QqQ%%qQq%%Qq%Q%q%%%%%%%%%%%%%%%%%%%%%%%%%%%%%%%%%%%%%%%%%Qq%%
26787G6%%%%%%Qq%%%Qq%%%Qq%%%%%%%%%%%%%%%%%%%%%%%%%%%%%%%%%%%%%%%%%%%%%%%%%%%
26772G6%%%Qq%%%%%%%%%%%%%%%%%%%%%%%%%%%%%%%%%%%%%%%%%%%%%%%%%%%%%%%%%%%%%%%%
26756G6%%%%%%%%%%%%%%%%%%%%%%%%%%%%%%%%%%%%%%%%%%%%%%%%%%%%%%%%%%%%%%%%%%%%%
26740G6%%%%%%%%%%%%%%%%%%%%%%%%%%%%%%%%%%%%%%%%%%%%%%%%%%%%%%%%Qq%%%%%%%%%%%
26724G6%%%%%%%%%%%%%%%%%%%%%%%%%%%%%%%%%%%%%%%%%%%%%%%%%%%%%%%%%%%%%%%%%%%%%
26708G6%%%%%%%%%%%%%%%%%%%%%%%%%%%%%%%%%%%%%%%%%%%%%%%%%%%%%%%%%%%%%%%%%%%%%
26693G6%%%%%%%%%%%%%%%%%%%%%%%%%%%%%%%%%%%%%%%%%%%%%%%%%%%%%%%%%%%%%%%%%%%%%
26677G6%%%%%%%%%%%%%%%%%%%%%%%%%%%%%%%%%%%qQq%QqQ%%%%%%%%%qQ%%%%%%%%%%%%%%%%
26661G6%qQ%%qQ%%%%%%%%%%%qQ%%%%%%%%%%%%%%%%%%%%%%%%%%%%%%%%%%%%%%%%%%%%%%%%%
26645G6%%%%%%%%%%%%%%%%%%%%%%%%%%%qQ%%%q%Q%qQ%%q%Q%q%Q%%%%%%%%%%qQ%qQ%%%%%%%
26629G6%%%%%%%%%%%%%%%%%%%%%%%qQ%%%%%%%%%%%%%%%%%%%%%%qQ%%%qQ%%%%%q%QqQ%%%%%
26614G6%%%%%q%%%Qq%QqQqQ%Qj6QqQqQ%%q%Q%%qQ%qQq%%QqQq%%QqQ%%%%qQqQq%%%QqQq%Qq
26598F8QqQ%qQqQ%%qQ%qQ%qQq%Q%%qQ%qQ%%%qQ%%q%%Q%%q%%%%%%%Qq%%%%%%%%%%%%%%%%%%
26582F8%%%%%%%%%Q%qQq%Qq%%%%QqQq%%%%%%%%%%%%%Q%q%%Qq%Qq%%%%%%%%%%%%%%%%%%%%%
26566F8%%Qq%%%QqQq%%%%Qq%%Q%q%%%%%%%%%%%%%%%%%%%%%%%%%%%%%%%%%%%%%%%%%%%%%Qq
26551F8qQ%Qq%%%%%%Qq%%%%%%%%%%%%%%%Qq%%%%%%%%Qq%%%%%%%%%%%%%%%%%%%%%%%%%%%%%
26535F8%%%%%%%%%%%%%%%%%%%%%%%%%%%%%%%%%%%%%%%%%%%%%%%%%%%%%%%%%%%%%%%%%%%%%
26519F8%%%%%%%%%%%%%%%%%%%%%%%%%%%%%%%%%%%%%%%%%%%%%%%%%%%%%%%%%%%%%%%%%%%%%
26503F8%%%%%%%%%%%%%%%%%%%%%%%%%%%%%%%%%%%%%%%%%%%Qq%%%%%%%%%%%%%%%%%%%%%%%%
26488F8%%%%%%%%%%%%%%%%%%%%%%%%%%%%%%%%%%%%%%%%%%%%%%%%%%%%%%%%%%%%%%%%%%%%%
26472F8%%%%%%%%%%%%%%%%%%%%%%%%%%%%%%%%%%%%%%%%%%%%%%%%%%%%%%%%%%%%%%%%%%%%%
26456F8%%%%%%%%%%%%%%%%%%%%%%%%%%%%%%%%%%%%%%%%%%%%%%%%%%%%%%%%%%%%%%%%%%%%%
26440F8%%%%%%%%%%%%%%%%%%%%%%%%%%%%%%%%%%%%qQ%%%%%%%%%%%%%%%%%%%%%%%%%%%%%%%
26424F8%%%%%%%%%%%%%%%%%%%%%%%%%%%%%%%%%%%%%%%%%%%%%%%%%%%%%%%%%%%%%%%%%%%%%
26409F8%%%%%%%%%%%%%qQ%%%%%%%%%%%%%%%%%%%%%%%%%%%%%%%%%%%%%%%%%%%%%%%%%%%%%%
26393F8%%%%%%%%%%%%%%%%%%%%%%%%%%%%%%%%%%%%%%%%%%%%%%%%%%%%%%%%%%%%%%%%%%%qQ
26377F8%%qQ%%qJ6q%%qQqQ%%%qQ%%%%%%%%%%%%%%%qQ%%%%qQq%Q%%%%%%%%%%%%%%%%q%Q%%%
26361F8%qQ%%qQqQ%%%%%%%%%%%%%%%%%%%%%%%%%%%qQ%%%%qQ%%%%%%%%%%%%%q%Q%%q%Q%%%q
26346F0Q%qQqQ%%%q%%%Q%%%qQqQ%qQ%%%%%%%%%qQ%%%%%%%%%q%Q%q%Q%qQqQ%%q%%Q%qQ%qQ%
26330F8%%%%%%qQ%%%%%%q%Q%%%%%%%%%%%%%q%QqQqQ%qQ%qQ%%%%q%Q%qQqQ%%qQqQ%q%%Qq%%
26314F0%%%%%QqQq%%%%%%Q%qQqQ%%%%q%%%Q%q%Qq%%%%%%%%%Q%%qQq%QqQq%%%%%%%%%%%%%%
26298F0%%%%%%%%%%%%%%%%%%%%%%%%%%%%%%%%%%%%%%%%%%%%%%%%%Q%q%%%%%%%%%%%%%%%%%
26282F0%%%%%QqQq%%%%%%%%%%%%%%%%%%%%%%%%%%%%%%%%%%%Qq%Qq%%%%%%%%%%%%%%%%%%%%
26267F0%%%%%%%%%%%%%%%%%%%%%%%%Qq%%%%%%%Qq%Q%%%q%%%%%%%%%%%%%%%%%%%%%%%%%%%%
26251F0%%%%%%%%%%%%%%%%%%%%%%%%%%%%%%%%%%%%%%%%%%%%%%%%%%%%%%%%%%%%%%%%%%%%%
26235F0%%%%%%%%%%%%%%%%%%%%%%%%%%%%%%%%%%%%%%%%%%%%%%%%%%%%%%%%%%%%%%%%%%%%%
26219F0%%%%%%%%%%%%%%%%%%%%%%%%%%%%%%%%%%%%%%%%%%%%%%%%%%%%%%%%%%%%%%%%%%%%%
26203F0%%%%%%%%%%%%%%%%%%%%%%%%%%%%%%%%%%%%%%%%%%%%%%%%%%%%%%%%%%%%%%%%%%%%%
26188F0%%%%%%%%%%%%%%%%%%%%%%%%%%%%%%%%%%%%%%%%%%%%%%%%%%%%%%%%%%%%%%%%%%%%%
26172F0%%%%%%qQ%%%%%%%%%%%%%%%%%%%%%%%%%%%%%%%%%%%%%%%%%%%%%%%%%%%%%%%%%%%%%
26156F0%%%%%%%%%%%%%%%%%%%%%%%%%%%%%%%%%%%%%%%%%%%%%%%%%%%%%%%%%qQ%%Qq%%qqL2
26141G6k4QqQQ%q%Qj6%Q%%qQ%%%%%%%%%%%%%%%%%%%%%%%%%%%%%%%%%%%%%%%%%%%%%%%%%%%
26125F0%%%%%%%%%%%%%%%%%%%%%%%%%%%%%%%%%%%%%%%%%%%%%%%%%%%%%%%%%%%%%%%%%%%%%
26109F0%%%%%%%%%%%%%%%%%%%%%%%%%%%%%%%%%%%%%%%%%%%%%%%%%%%%%%qQ%%%%%%%%%%%%%
26094F0%%%%%%%%%%%%%%%%%%%%%%%%%%%%%%%%%%%%%%%%%%%%%%%%%%%%%%%q%QqQ%%%%%%%%q
26078E2Q%%%%%%%%%%%%%%%%%%%%%%%%%%%%%qQ%%%%%%%%%%%%%%%%%%%%%%%%%%%%%%%%%%%%%
26062F0%%%%%%%q%Q%%%%%%%%%%%%%%%q%Q%%qQ%%%%q%Q%%%%qQ%%%%qQ%%%%%%%qQ%%%%%%%%%
26046F0%%%%%%%%%%%%%%%%%%%%%%%%%%%%%%%%%%%%%%%%%%%%%%%%%%%%%%%%%qQ%%%qQ%qQ%%
26030F0%%%%%%%%%qQ%%%%%%%%%%%%%q%Qq%%%QqQ%qQq%%Q%%qQ%q%%Qq%Q%qQ%%%qQ%%qQ%%q%
26015E2Q%q%Q%%%%%%%%%qQ%qQ%%%%qQq%Q%%%%q%Q%%%%%%%%%qQqQq%%%%%%QqQ%%%qQ%qQ%%q
25999E2%QqQq%%%%%%%%%%Q%qQ%%qQ%qQq%Q%%%%%%%%%%%%q%%Q%q%Qq%%%%%%%%%%%%%%%%%%%
25983E2%QqQ%q%%%Qq%%Qq%Q%%%%qQ%q%Qq%%Qq%%%%%%%%%%Qq%Qq%Qq%%%%%Qq%QqQ%qQ%%%q%
25967E2Q%%qQ%q%%Q%%qQqQ%q%%%%%Qq%%%%%%Qq%%%%QqQq%%Q%%q%%%%%%%%%%%%%%Qq%%%%%%
25951E2%%QqQq%%%%Q%q%%Q%%q%Q%%q%%%%%%%%%%%%%Q%%q%%%%%%%%%%%%%%%%%QqQq%%%%Qq%
25936E2Qq%Qq%%%%%%%%%%%%%%%%%%%%%%%%Qq%%QqQq%%Qq%%Qq%%%%%%%%%%%%%%%%%Q%%%q%%
25920E2%%%%%%%%%%%%%%%%%%%%%%%%%%%%Qq%%%%%%Qq%%%%%%Qq%%Qq%%Qq%%qQ%%%Qq%%%%%Q
25904F0q%%Qq%%%%%%%%%Qq%%%%%%%%%%%%%%%%%%%%%%%%%%Qq%%%%%%%%%%%%%%%%%%%%%%%%%
25888E2%%%%%%%%%%%%%%%%%%%%%%%%%%%%%%%%%%%%%%%%%%%%%%%%%%Q%q%%%%%%%%%%%%%%%%
25872E2%%%%%%%%%%%%%%%%%%%%%%%%%%%%%%%%%%%%%%%%%%%%%%%%%%%%%%%%%%%%%%%%%%%%%
25857E2%%%%%%%%%%%%%%%%%%%%%%%%%%%%%%%%%%%%%%%%%%%%%%%%%%%%%%%%%%%%%%%%%%%%%
25841E2%%%%%%%%%%%%%%%%%%%%%%%%%%%%%%%%%%%%%%%%%%%%%%%%%%%%%%%%%%%%%%%%%%%%%
25825E2%%%%%%%%%%%%%%%%%%%%%%%%%%%%%Qq%%%%%%%%%%%%%%%%%%%%%%%%%%%%%%%%%%%%%%
25809E2%%%%%%%%%%%%%%%%%%%%%%%%%%%%%%%%%%%%%%%%%%%%%%%%%%%%%%%%%%%%%%%%%%%%%
25794E2%%%%%%%%%%%%%%%%%%%%%%%%%%%%%%%%%%%%%%%%%%%%%%%%%%%%%%%%%%%%%%%%%%%%%
25778E2%%%%%%%%%%%%%%%%%%%%%%%%%%%%%%%%%%%%%%%%%%%%%%%%%%%%%%%%%%%%%%%%%%%%%
25762E2%%%%%%%%%%%%%%%%%%%%%%%%%%%%%%%%%%%%%%%%%%%%%%%%%%%%%%%%%%%%%%%%%%%%%
25746E2%%%%%%%%%%%%%%%%%%%%%%%%%%%%%%%%%%%%%%%%%%%%%%%%%%%%%%%%%%%%%%%%%%qJ6
25731F0q%%%%%%%%%%%%%%%%%%%%%%%%%%%%%%%%%%%%%%%%%%%%%%%%%%%%%%%%%%%%%%%%%%%%
25715E2%%%%%%%%%%%%%%%%%%%%%%%%%%%%%%%%%%%%%%%%%%%%%%%%%%%%%%%q%Q%%qQ%%%%%%%
25699E2%%%%%%%%%%%%%%%%%%%%%%%%%%%%%%%%%%%%%%%%%%%%%%%%%%%%%%%%%%%%%%%%%%%%%
25683E2%%%%%%%%%%%%%%%%%%%%%%%%%%qQ%%%qQ%%%%%%qQqQ%%qQQqj6Q%%%%Q%%%qQ%%%%%%%
25668E2%%%%%%%%%%%%%%%%%%%%%%%%%%%qQ%%%%%%%%%%%%%%%%%%%%%%%%%%%%%%%%%%%%%%%%
25652E2%%%%%%%%%%%%%%%%%%%%qQ%%%%%%%%%%%%%q%%Q%%qQ%qQ%qQ%%%%%%%%%%qQ%%%%%%%%
25636E2%%%%%%%%%%%%%%%%%%%%%%%%%qQ%%%%%%%%%q%%Q%%%%%%%%%%%%%%%%%%%%%%%%%%%%%
25620E2%%%%%%%%%q%Q%%qQ%%%%%%%%%q%%Q%%%%%%%%%%%%%%qQqQ%%qQ%%qQ%qQ%%%%%%%%%%q
25604D4%%%%%%Qq%Q%qQ%q%Q%%qQ%%qQqQqQ%%qQ%%%%%%%%%%%%%%%%%%%%%%%%%%%q%Q%%qQ%q
25589D4%Q%qQ%%%qQqQ%%%%%q%Q%%%qQ%%%%%%%%%%%qQq%Q%qQ%%%%%%%%%qQ%qQ%%%%%%%%%%%
25573E2qQ%qQ%qQqQq%%%Qq%%%%%QqQqQqQ%qQ%qQ%%%qQ%q%%Q%qQ%%%%%%%%%%%q%Q%qQq%QqQ
25557E2%q%Q%qQ%%%qQ%qQ%%q%%%%Qq%%%%%Qq%%%%Qq%Qq%%Qq%Qq%%%QqQ%%%%%%%%qQ%%%qQq
25541D4Qq%Q%qQ%%%%qQ%%%%%qQ%%q%%QqQ%qQ%%q%Qq%Qq%%%Qq%%%%%Qq%Qq%Qq%%%%Qq%%%%%
25526D4%%%Qq%%%%%%%%%%Qq%Q%q%%%%%Qq%Q%%%%%q%Qq%%%%%%%%%%%Qq%Q%q%%Q%q%Q%q%%%%
25510D4%%%%%%%%%%%%%%%%%%%Qq%%%%%%%%QqQq%%%%%%%%%%%%%%Qq%%%%%%%Q%qQq%Q%qQqQ%
25494E2qQq%Qq%%%%%Q%qQ%qQqQq%Qq%%%%%%%%%%%%%%%%%%%%%%%%%%%%%%%%Qq%%%%%%%%%%%
25478D4%%%%%%%%%%%%%%%%%%%Qq%%%%%%%%%%Qq%%%%%%%%%%%%%%%%%%%%Q%q%%%%%%%%%%%%%
25462D4%Qq%%%%%%Qq%%%%%%%%%%%%%%%%%%%%%%%%%%%%%%%%%%%%%%%%%%%%%%%%%%%%%%%%%%
25447D4%%Qq%%%%%%%%%%%%%%%%%%%%%%%%%%%%Qq%QqQqqQ%Qq%Q%qQq%%%%%%%%%%%%%%%%%%%
25431D4%%%%%%%%%%%%%%%%%%%%%%%%%%%%%%%%%%%%%%%%%%%%%%%%%%%%%%%%%%%%%%%%%%%%%
25415D4%%%%%%%%%%%%%%%%%%%%%%%%%%%%Q%q%%%%%%%%%%%%%%%%%%%%%%%%%%%%%%%%%Qq%%%
25399D4%%%%%%%%%%%%%%%%%%%%%%%%%%%%%%%%%%%%%%%%%%%%%%%%%%%%%%%%%%%%%%%%%%%%%
25383D4%%%%%%%%%%%%%%%%%%QqQq%%%%%%%%%%%%%%%%%%%%%%%%%%%%%%%%%%%%%%%%%%%%%%%
25368D4%%%%%%%%%%%%%%%%%%%%%%%%%%%%%%%%%%%%%%%%%%%%%%%%%%%%%%%%%%%%%%%%%%%%%
25352D4%%%%%%%%%%%%%%%%%%%%%%%%%%%%%%%%%%%%%%%%%%%%%%%%%%%%%%%%%%%%%%%%%%%%%
25336D4%%%%%%%%%%%%%%%%%%%%%%%%%%%%%%%%%%%%%%%%%%%%%%%%%%%%%%%%%%%%%%%%%%%qQ
25320D4QqqQqQ%%%%%%%%%%%%%%%%%%%%%%%%%%%%%%%%%%%%%%%%%%%%%%%%%%%%%%%%%%%%%%%
25304D4%%%%%%%%%%%%%%%%%%%%%%%%%%%%%%%%%%%%%%%%%%%%%%%%%%%%%%%%%%%%%%%%%%%%%
25289D4%%%%%%%%%%%%%%%%%%%%%%%%%%%%%%%%%%%%%%%%%%%%%%%%%%%%%%%%%%%%%%%%%%%%%
25273D4%%%%%%%%%%%%%%%%%%%%%%%%%%%%%%%%%%%%%%%%%%%%qQ%%Qj6Q%%%%%%%%%%%%%%%%%
25257D4%%%%%%%%%%%%%%%%%%%%%%%%%%%%%%%%%%%%%%%%%%%%%%%%%%%%%%%%%%%%%%%%%%%%%
25241D4%%%%%%%%%%%%%%%%%%%%%%%%%%%%%%%%%%%%%%q%Q%%%%%%%%%%%%%%%%%%%%%%%%%%%%
25226D4%%%%%%%%%%%%%%%%%%%%%%%%%%%%%%%%%%%%%%%%%%%%%%%%%%%%%%qQ%%%%%%%%%%%%%
25210D4%%%%qQ%%%%%%%qQ%%qQqQQqQqQ%qqqJ6q%QQk4J6%%QqqQ%%%%%qQ%%%qQ%%%%%%%%%%%
25195D4%%%%%%%%%%%%%%%%%qQqQ%%%%%%%%%%qQ%%%%%%%%%%%%%%%%%%%%%%%%%%%%%%%%%%%%
25179D4%%%%%%%%%%%%%%%%%%%%%qQ%qQ%%%%%%%%%%%%%%%%%%%%%%%%%%%%%%%%%%%%%%%%%%%
25163D4%%%%%%%%%%%%%%%%%%%%%%%%%%%%%%%%%%%%%%%%%%%%%%%%%%%%%%%%%%%%%%%%%%%%%
25147D4%%%%%qQ%%%%%q%Q%%%%%q%%Q%%%%%%%%%%%%%%%%qQ%%%%%%%q%Q%%%%%%%%%%%%%%%%%
25132D4%%%%%%%%%%qQ%%%%%%%%%%%%%%%%%%%%%%%%%%%%%%%%%%%%%%%%%%%%qQ%%%%%%%%%%%
25116D4%%qQ%%%%qQ%%%%%%%%%%%%%%%%%%%%%%%qQ%%%%%%%%%%%%%%%%%%%%%%%%%%%%%%%%%%
25100D4%%%%%%qQ%%qQ%%%%%%%%%%%%%%%%%%%%%%%%%%%%%%%%%%%%%%%%qQ%%%%%%%Qqq%%%Q%
25084D4%%%%%%%%%%%%%%%%%%%%%%%%qQ%%%%%%%%qQqQ%%qQ%%%%%%%%%%%qQ%%%%%%%%%%%%%%
25068D4%%qQ%%qQ%%%%qQqQ%%%%%%%%%%qQ%%%%%%%%%%%%%%%%%%%%%qQ%%%%qQqQ%%%%%%qQ%q
25053C6QqQqQqQ%%q%%%Q%qQ%%%%qQ%%q%Q%qQ%%qQqQ%qQq%Q%q%Qq%%Qq%%QqQ%q%%%%%Qq%%%
25037C6%%%%%Qq%Q%qQ%qQ%%%%%%%%%%%%%%%%%%%%%%%%%%q%%Q%%qQ%%%q%Qq%Q%q%Q%%qQq%%
25021C6Q%q%%%%Q%%qQ%%qQ%%%%%%%%%%%%%%qQ%%%%%q%%%Q%%%qQ%%%%q%%%%%QqQ%q%QqQq%%
25005C6%%%%Q%%q%%Q%q%Qq%Q%%qQqQq%Qq%%%%QqQq%%%%%%%%%%%%%Q%qQ%%qQ%%%%%%%%%%%q
24989C6QqQ%q%QqQ%%%qQ%%qQ%%qQ%qQ%%%q%%%QqQ%%%qQqQqQqQqQq%%%%%%%%QqQ%q%%Q%%%%
24974D4%%%%%%%q%QqQqQqQqQ%qQqQ%%%%%q%%%%QqQqQq%%%%Qq%%QqQ%q%%%%%%%%%%%%%%Q%%
24958D4qQq%%%Qq%%%%%%%%%%%%%Qq%%%%%%%%%%%Qq%%%%%%%%%%%%%%%%%%%%%%%Qq%%%%%Qq%
24942C6Qq%%%%Qq%Qq%%%%%%%%%%%%Qq%%%%%%%%%%%%%Qq%%%%Q%q%%%%%%%%Qq%%%Qq%QqQq%Q
24926D4q%Q%q%%Qq%QqQ%q%%%Q%%q%%%QqQ%q%%%%%%QqQq%%%%%Qq%%%%%QqQ%%%%%qQq%%%%%%
24911C6Q%q%%Qq%%%%%%%%%%%%%%%%%%%%%%%%%%%%%%%%%%%%%%%%%%%%%%%%%%%%%%%%%%%%%%
24895C6%%Q%q%%%%%%Qq%%%Qq%%%%%Qq%Qq%%%Qq%%Qq%%%%%%Qq%%%%%%%%%%%%%%%Q%%%q%%%%
24879C6%%%%%%%%%%%%%%%%%%%%%%%%%%Qq%%%%%%%%%%%%%%%%%%%%%%QqQq%%Qq%%%%%%%%%%%
24863C6%%%%%%%%%%%%%Qq%%%%%%%%%%%%%%%%%%%%%%%Qq%%QqQq%Q%q%qQQq%%%Qq%%%%Qq%%%
24847C6%%%%%%%%%%%%%%%%%%%%%%%%%%%%%%%%%%%%%%%%%%%%%%%%%%%%%%%%%%%%%%%%%%%%%
24832C6%%%%%%%%%%%%%%%%%%%%%%%%%%%%%Qq%%%%%%%%%%Qq%%%%QqQq%%%%%%%%%%%%%%%%%%
24816C6%%%%%%%%%%%%%%%%%%%%%%%%%%%%%%%%%%%%%%%%%%%%%%%%%%%%%%%%%%%%%%%%%%%%%
24800C6%%%%%%%%%%%%%%%%%%%%%%%%%Qq%%%%%%%%%%%%%%%%%%%%%%%%%%%%%%%%%%%%%%%%%%
24784C6%%%%%%%%%%%%%%%%%%%%%%%%%%%%%%%%%%%%%%%%%%%%%%%%%%%%%%%%%%%%%%%%%%%%%
24768C6%%%%%%%%%%%%%%%%%%%%%%%%%%%%%%%%%%%%%%%%%%%%%%%%%%%%%%%%%%%%%%%%%%%%%
24753C6%%%%%%%%%%%%%%%%%%%%%%%%%%%%%%%%%%%%%%%%%%%%%%%%%%%%%%%%%%%%%%%%%%%%%
24737C6%%%%Qq%%qJ6j6J6j6Q%Qq%%%%%%%%%%%%%%%%%%%%%%%%%%%%%%%%%%%%%%%%%%%%%%%%
24722C6%%%%%%%%%%%%%%%%%%%%%%%%%%%%%%%%%%%%%%%%%%%%%%%%%%%%%%%%%%%%%%%%%%%%%
24706C6%%%%%%%%%%%%%%%%%%%%%%%%%%%%%%%%%%%%%%%%%%%%%%%%%%%%%%%%%%%%%%%%%%%Qq
24690C6%%%%%%%%%%%%%%%%%%%%%%%%%%%%%%%%%%%%%%%%%%%%%%%%%%%%%%%%%Qq%%Qq%%%%Qq
24675C6%%%%%%%%%%%%%%%%%%%%%%%%%%%%%%%%%%%%%%%%%%%%%%%%%%%%%%%%%%%%%%%%%%%%%
24659C6%%%%%%%%%%%%%%%%%%%%%%%%%%%%%%%%%%%%%%%%%%%%%%%%%%%%%%%%%%%%%%%%%%%%%
24643C6%%%%%%%%%%%%%%%%%%%%%%%%%%%%%%%%%%%%%%%%%%%%%%%%%%%%%%%%%%%%%%%%%%%%%
24627C6%%%%%%%%%%%%%%%%%%%%%%%%%%%%%%%%%%%%%%%%%%qQ%%%%%%%%%%%%%%%%%%%%%%%%%
24611C6%%%%%%%%%%%%%%%%%%%%%%%%%%%%%%%%%%%%%%%%%%%%%%%%%%%%%%%%%%%%%%%%%%%%%
24596C6%%%%%%%%%%%%%%%%%%%%%%%%%%%%%%%%%%%%%%%%%%%%%%%%%%%%%%%%%%%%%%%%%%%%%
24580C6%%%%%%%%%%%%%%%%%%%%%%%%%%%%%%%%%%%%%%%%%%%%%%%%%%%%%%%%%%%%%%%%%%%%%
24564C6%%%%%%%%%%%%%%%%%%qQ%%%qQ%%%%%%%%%%%%%%%%%%%%%%%%%%%%%%%%%%%%%%%%%%%%
24548C6%%%%%%%%%%%%%%%%%%%%%%%%%%%%%%%%%%%%%%%%%%%%%%%%%%%%%%%%%%%%%%%%%%%%%
24532C6%%%%%%%%%%%%%%%%%%%%%%%%%%%%%%%%%%%%%%%%%%%%%%%%%%%%%%%%%%%%%%%%%%%%%
24517C6%%%%%%%%qQ%%%%%%%%%%%%%%%%%%%%%%%%%%%%%%%%%%%%%%%%%%%%%%%%%%%%%%%%%%%
24501C6%%qQ%%q%%Q%%%%%%%%%%%%%%%%%%%%%%%%%%%%%%%%%%%%%%%%%%%%%%%%%%%%%%%%%%%
24485C6%%%%%%%%%%%%%%%%%%%%%%%%%%%%%%%%%%%%%%%%%%%%%%%%%%%%%%%%%%%%%%qQ%%%%%
24469C6%%%%%%%%%%%%%%%%%%%%%%%%%%%%%%%%%%%%%%%%%%%%%%%%%%%%%%%%%%%%%%%%%%%%%
24453C6%%%%%%%%%%%%%%%%%%%%%%%%%%%%%%%%%%%%%%%%%qQ%%%%%qQqQ%q%Q%qQ%%%%%%%%%%
24438C6%%%%%%%%%%%%%%%%%%%%%%%%%%%%%%%%%%%%%%%%%%%%%%%%%%%%%%%%%%%%%%%%%%%%%
24422C6%%%%%%%%%%%%%%%%%%%%%%%%%%%%%%%%%%%%%%%%%%qQ%%%%%%%%%%%%%%%%%%%%%%%%%
24406C6%%%%%%%%%%%%%%%%%%%%%%%%%%%%%%%%%%%%%%%%qQ%%%%%%%%%%%%%%%%%%%%%%%%%%q
24390B8QqQ%%q%QqQ%qQ%%%%%%%%%%%%%%%%qQq%Q%%%%%%%%%%%%%%%%%%%%%%%%%%%%%%%%%%%
24374C6%%%%%%%%%%%%%%%%%%%%%%%%%%%%%qQ%%%%%%%%%%%%%%%%%%%%%%%%%%%%%%%%%%%%%%
24359C6%%%%%%%qQ%%%%%%q%%Q%qQqQ%qQ%%%%%%%%%%%%%%%%%%%%%%%%%%%%%%%%%%%%%%%%%%
24343C6%%%%qQ%%%%%%%%%%%%%%%%%%%%%%%%%%%%%%%%%%%%%%%%qQ%%%%%%%%%%%%%%%%%%%%q
24327B8Q%qQqQ%%%%%%%%q%Q%q%Q%%qQ%%%%%%%%%%%%%%%%%%%%%%%%%%%%%%%%q%%%QqQ%q%Q%
24311C6%%%%%%%%%%%%qQ%%%%%%%%%%%%%%%%%%%%%%%%%%%%%%%%%%%%%%qQqQ%%%%%%%%%%%%%
24296C6%qQ%%%q%Q%%%%%%%%%%%%%%%qQ%%%%%%%%%%%%%%%%%%%%%%%%%%qQqQ%%q%Qq%%Q%qQ%
24280C6%%qQ%%qQ%%%qQ%qQ%%%%%%qQ%%%qQq%%QqQq%%Q%qQ%qQ%%%qQq%%%QqQj6%QL2l2Q%qJ6
24265D4l2QQ%Q%%q%%Qq%%Q%qQ%qQq%%Q%%%%%%%%%%%qQ%%%%%%qQ%%%%%%%qQ%%%%qQ%%%qQq%
24249B8QqQ%qQ%%%%%%%%%%%%%%qQqQ%%%%%%qQ%%%%qQ%%%%%%%%%%%%qQ%%%qQ%%%%%qQq%%%%
24233B8%%Qq%%%%%%%%%%Q%q%QqQ%qQq%%%%%%Qq%%%Q%qQq%Q%%%%%%qQ%%q%Q%%%qQ%qQ%qQq%
24217B8%QqQq%%QqQq%Q%q%%Q%%q%%%%Qq%%Qq%%QqQq%Q%%%%%%qQqQqQqQ%q%QqQqQ%qQ%qQq%
24202B8Qq%%%%%%%%%%%%%%%%%%%%%%Qq%%%%Qq%%%%%Q%%%%q%QqQqQ%q%Q%%%%qQqQ%q%Q%qQ%
24186C6%qQqQ%%q%QqQqQ%q%Q%q%QqQqQ%q%%%%%%%%%Qq%%%%%%%Qq%QqQ%%%%qQ%%%%%%%qQ%q
24170B8QqQ%%q%Q%%q%%Q%%%%%%%%%%qQqQq%%%%Q%%%%%qQq%QqQq%%QqQqQqQ%%%%%%%%%%%%q
24154B8%%%QqQq%%QqQ%q%Q%%%qQ%%qQqqJ6%%%qQ%qQq%%%%%%%%%QqQ%%q%Qq%Q%qQq%%Qq%%Q
24139C6qQqQ%%%q%Qq%%%%%%%QqQq%Qq%%%Q%qQ%%%qQ%%%qQ%q%%%QqQ%q%Qq%%%%%%%%%%%%%%
24123B8%%%%%%%%Qq%%QqQ%q%%QqQ%%%%%qQq%Q%%q%%QqQq%Qq%Qq%%%%%%%%Qq%%%%%%%%%%%%
24107B8%%%%%%Qq%%%%%%Qq%Qq%%Q%%qQq%%%%%%%%%%%%%%%%%%Qq%%%%Q%q%%%%%%%%%%%%%%Q
24091C6%qQq%%Q%q%%Qq%%%%%Qq%%%%%%%%%%%%%%%%%%%%%%%%%%%%%Qq%%%%%%%%%%%%%%Qq%%
24076B8%%%%%Qq%QqQq%%%%Qq%%%Q%%q%%%%%%%%%%Qq%%%%%%%%%%QqQq%%Qq%%%%Qq%%%Q%qQq
24060B8QqQ%%q%%%%%%%%%%%%%%%%%%%%%%%%%%%%%%%%%%%Qq%%%%%%%%%%%%%%%%%Qq%Qq%%%%
24044B8%%%%%%%%%%%%%%%%%%%%%Qq%%%%%QqQ%%q%%Qq%%Qq%%%%%%%%%%%Qq%J6qq%Q%%%q%%%
24028B8%%%QqQq%Qq%%%Qq%%%Q%q%%%Qq%%%%%%%%%%%%%%%%%QqQq%Qq%%%%%%Qq%%%%%%%%%%%
24013B8%%%%%%%%%%%%%%%%%%%%%%%%%Qq%%Q%q%%%%%%%%%%%%%%%%%%%%%%%%%%%%%%%%%%%%%
23997B8%%%%%%%%%%%%%%%%%%%%%%%%%%%%%%%%%%%%%%%%%%%%%%%%Qq%Qq%%%%%%%%%%%%%%%%
23981B8%%%%%%%%%%%%%%%%%%%%%%%%%%%%%%Qq%Q%qQqQq%Qq%%Qq%%%QqQq%%%%Qq%%%%%Qq%%
23965B8%%%%%%%%%%%%Qq%%%%%%%%%%%%%Qq%%Qq%%%%%%%%%%%%%%%%%%%%%%%%%%%%%%%%%%%%
23949B8%%%%%%%%%%%%%%%%%%%%%%%%Qq%%%%%%%%%%%%%%%Qq%Q%q%%%%%%%%%%%%%%%%%%%%%%
23934B8%%%%%%%%%%%%Qq%%%%%%%%%%%%%%%%%%%%%%%%%%%%%%%%%%%%%%%%%%%%%%%%%%%%%%%
23918B8%%%%%%%%%%%%%%%%Qq%Q%q%%%%%Qq%%%Qq%%%%%%%%%%%%%%%%%%%%%%%%%%%%%%%%%%Q
23902C6q%%%%%%%%%%%%%%%%%Qq%%%%%%%%%%%%%%%%%%%%%%%%%%%%%%%%%%%%%%%%%%%%%%%%%
23886B8%%Qq%Qq%%%%%%%%%%%%%%%%%%%%%%%%%%%%%%%%%%%%%%%%%%%%%%%%%%%%%%%%%%%%%%
23870B8%%%%%%%%%%%%%%%%%%%%%%%%%%%%%%%%%%%%%%%%%%%%%%%%%%%%%%%%%%%%Qq%%%%QqQ
23855C6q%%%%%%%%%%%%%%%%%%%%%%%%%%%%%%%%%%%%%%%%%%%%%%%%%%%%%%%%%%%%%%%%%%%%
23839B8%%%%%%%%%%%%%%%%%%%%%%%%%%%%%%%%%%%%%%%%%%%%%%%%%%%%%%%%%%%%%%%%%%%%%
23823B8%%%%%%%%%%%%%%%%%%%%%%%%%%%%%%%%%%%%%%%%%%%%%%%%%Qq%Qq%%%%%%%%%%%%%%%
23807B8%%%%%%%%%%%%%%%%%%%%%%%%%%%%%%Qq%%%%%%%%%qJ6qqQqQ%%QqQqQq%%%%%%%%%%%%
23792B8%%%%%%%%%%%%%%%%%%%%%%%%%%%%%%%%%%%%%%%%%%%%%%%%%%%%%%%%%%%%%%%%%%%%%
23776B8%%%%%%%%%%%%%%%%%%%%%%%%%%%%%%%%%%%%%%%%%%%%%%%%%%%%%%%%%%%%%%%%%%%%%
23760B8%%%%%%%%%%%%%%%%%%%%%%%%%%%%%%%%%%%%%%%%%%%%%%%%%%%%%%%%%%%%%%%%%%%%%
23744B8%%%%%%%%%%%%%%%%%%%%%%%%%%%%%%%%%%%%%%%%%%%%%%%%%%%%%%%%%%%%%%%%%%%%%
23729B8%%%%%%%%%%%%%%%%%%%%%%%%%%%%%%%%%%%%%%%%%%%%%%%%%%%%%%%%%%%%%%%%%%%%%
23713B8%%%%%%%%%%%%%%%%%%%%%%%%%%%%%%%%%%%%%%%%%%%%%%%%%%%%%%%%%%%%%%%%%%%%%
23697B8%%%%%%%%%%%%%%%%%%%%%%%%%%%%%%%%%%%%%%%%%%%%%%%%%%%%%%%%%%%%%%%%%%%%%
23681B8%%%%%%%q%Q%%%%%%%%%%%%%%%%%%%%%%%%%%%%%%%%%%%%%%%%%%%%%%%%%%%%%%%%%%%
23665B8%%%%%%%%%%%%%%%%%%%%%%%%%%%%%%%%%%%%%%%%%%%%%%%%%%%%%%%%%%%%%%%%%%%%%
23650B8%%%%%%%%%%%%%%%%%%%%%%%%%%%%%%%%%%%%%%%%%%%%%%%%%%%%%%%%%%%%%%%%%%%%%
23634B8%%%%%%%%%%%%%%%%%%%%%%%%%%%%%%%%%%%%%%%%%%%%%%%%%%%%%qQ%%%%%%%%%%%%%%
23618B8%%%%%%%%%%%%%%%%%%%%%%%%%%%%%%%%%%%%%%%%%%%%%%%%%%%%%%%%%%%%%%%%%%%%%
23602B8%%%%%%%%%%%%%%%%%%%%%%%%%%%%%%%%%%%%%%%%%%%%%%%%%%%%%%%%%%%%%%%%%%%%%
23586B8%%%%%%%%%%%%%%%%%%%%%%%%%%%%%%%%%%%%%%%%%%%%%%%%%%%%%%%%%%%%%%%%%%%%%
23571B8%%%%%%%%%%%%%%%%%%%%%%%%%%%%%%%%%%Qq%%%qQ%%%%%%%%%%%%%%%%%%%%%%%%%%%%
23555B8%%%%%%%%%%%%%%%%%%%%%%%%%%%%%%%%%%%%%%%%%%%%%%%%%%%%%%%%%%%%%%%%%%%%%
23539B8%%%%%%%%%%%%%%%%%%%%%%%%%%%%%qQ%%%%%%%%%%%%%%%%%%%%%%%%%%%%%%%%%%%%%%
23523B8%%%%%%%%%%%%%%%%%%%%%%%%%%%%%%%%%%%%%%%%%%%%%%%%%%%%%%%%%%%%%%%%%%%%%
23507B8%%%%%%%%%%%%%%%%qQ%%%%%%%%%%%%%%%%%%%%%%%%%%%%%%%%%%%%%%%%%%%%%%%%%%%
23492B8%%%%%%%%%%%%%%%%%%%%%%%%%%%%%%%%%%%%%%%%%%%%%%%%%%%%%%%%%%%%%%%%%%%%%
23476B8%%%%%%%%%%%%%%%%%%%%%%%%%%%%%%%%%%%%%%%%%%%%%%%%%%%%%%%%%%%%%%%%%%%%%
23460B8%%%%%%%%%%%%%%%%%%%%%%%%%%%%%%%%%%%%%%%%%%%%%%%%%%%%%%%%%%%%%%%%qQ%%%
23444B8%%%%%%%%%%%%%%%%%%%%%%%%%%%%%%qQ%%%%%%%%%%%%%%%%%%%%%%%%%%%%%%%%%%%%%
23428B8%%%%%%%%%%%%%%%%%%%%%%%%%%%%%%%%%%%%%%%%%%%%%%%%%%%%%qQ%%%%%%%%%%%%%%
23413B8%%%%%%%%%%%%%%%%%%%%%%%%%%%%%%%%%%%%%%%%%%%%%%%%%%%%%%%%%%%%%%%%%%%%%
23397B8%%%%%%%%%%%%%%%%%%%%%%%%%%%%%%%%%%%%%%%%%%%qQ%%%%%%%%%%%%%%%%%%%%%%%%
23381B8%%%%%%%%%%%%%%%%%%%%%%%%%%%%%%%%%qQ%q%Q%%%qQ%%%%%%%%%%%%%%%%%%%%%%%%%
23365B8%%%%%%%%%%%%%%%%%%%%%%%%%%%%%%%%qQ%%%%%%%%%%%%%%%%%%%%%%%%%%%%%%%%qQ%
23350B8%%%%%%%%%%%%qQ%%%%%%%%qQ%%%%%%%%%%qQ%%qQ%%%q%QqQ%qQ%qQqQ%%%qQ%qQqQ%%%
23334B8%%%q%QqJ6%%qqJ6%qqqqN6k4j6J6l2J6K4j6%%qQQqQ%qq%Q%Qj6J6j6QqJ6%%q%%%%qQ
23321B8%%%%%%%%%qQqQ%%%%%qQ%%qQ%%%%%%%%%%%%%%qQ%%%%%%%%%%%%%%%%%%qQ%%%%%%%%%
23305B8q%Q%%%%%qQ%%%%qQqQ%%%%%%qQ%%%%%%%%%%%%%%%%%%%%%%%%%%%%%%%%qQ%%%%%%%%%
23290B8%%%%%%%%%%qQ%%%%%qQ%%%%qQ%%%%%%%%%%%%%%%%%%%%%%%%%%%%%qQ%%%%%%%%%%%%%
23274B8%%%%qQ%%%%%%%qQ%%%qQ%%q%Q%%%%%%%%%%%%%%%%%%%%%%%%%qQ%%%%%%%%%%%%%%%%%
23258B8%%%%%%%%%%%%%%%%%%%%%%%%%%%%%%%%%%%%%%%%%%%%%qQqQ%%%%%%%%%%%%%%%%%%qQ
23242B8%%%%%%%%%%%%%%%%%%%%%%%%%%%%%%%%%%%%%%%%%%%%%%%%%%%%qQ%%%%%%%%%%%%%%%
23226B8%%%%%%%%%%%%%%%%%%%%%%%%%%%%%%%%%%%%%%%%%%%%%%%%%%%%%%%%%%%%%qQ%%%%%%
23211B8qQqQ%%%%%%%%%%%%%%%%%%%%%%%%%%%%%%%%%%%%%%%%%%%%%%%%%%%%%%%%%%%%%%%%%
23195B8%%%%%%%%%%%%%%%%%%%%%%%%q%Q%%qQ%%%%%%%%%%%qQ%%%%%%%%%%%qQ%qQ%%%%%%%%%
23179B8%%%%%%%%%%%%%%%%%%%qQ%%%%%%%%%%%%%%%%%%%%%%%%%%%%%%%%%%%%%%%%%%%%%%%%
23163B8%%%%%%%%%%%%%%%%%%%%%%%%%%%qQ%%%%%%%%%%%%qQ%%qQq%Q%%%%%%%%%%%%%%%%%%%
23147B8%%%%%qQ%qQ%%%%%%%%%qQ%%%%%%%%%%%%%%%%%%%%%q%Q%%%%%%%%%%%%qQ%%%%%%%%%%
23132B8%%%%%%%qQ%%%%%%%%%%%%%%%%%%%%%%qQqQqQ%%%%qQ%%%%%%%%%%%%%%%%%%%%%%%%%%
23116B8%qQqQqQ%%qQ%%%%%%%%%%%%%%%%%%%%%%%%qQ%%%%%%%%%%%%%qQ%%%%%%%%%q%QqQqQ%
23100B8%%%%%%%%%%%%%%%q%Q%qQqQqQqQq%J6q%qQ%%%%qQ%qQ%%qQqQ%%%%%%%%%%%%%%%%%%%
23084B8%%%%%%%qQ%%%%%%%%%%%%qQ%%%qQ%%%%%%qQ%qQ%%%%%%%%%%%%%%%%%%%%%%%%%%qQ%%
23069B8%%%%%%%%%%%%qQ%%%qQqQ%%%qQqQ%%%%%%%%%%%%%%%%%qQq%Q%%%%%%%%%%%%%%%%%%%
23053B8%qQ%%%%%%%%%%%%%%%%%%%%%%qQ%%%%q%%Q%%%%%qQqQ%q%QqQ%%%%%%%%%%%q%Q%qQ%%
23037B8%q%Q%%%%q%QqQqQqQq%Q%%q%Q%%%%%%qQ%q%Qq%Qq%%%%%Q%%%qQ%%%q%Qq%%%QqQ%%%%
23021B8%qQqQqQ%qQ%%%%%%%%%%%%%q%Q%%qQ%qQ%%%%%%%%%%%%%%%%%%%%%%%%%%qQ%%%qQq%%
23006B0Qq%%%%%QqQqQ%%qQ%%%%%%%%%%%%%%qQ%%%%qQqQ%qQ%qQqQ%%qQ%%%%qQqQ%%%%%%%%%
22990B8%%%%%%qQ%qQ%%%%%%%%%%qQ%%%q%Q%q%%QqQ%%%%%%qQ%q%QqQ%%%%qQq%Q%%%%%%%%%q
22974B0%%Q%%%%q%Q%%%%%%%%qQ%%%qQqQ%%%qQqQqQ%%qQqQq%%%Q%qQ%%qQqQ%%%%%%%%%%%%%
22958B8%%%%%%%qQ%%qQq%Qq%%%Qq%Q%%qQ%%%%%%%%%q%Q%qQ%%%%%qQ%%%%%%%%%q%Q%q%%Q%%
22942B8q%%%%%%Qq%%%%%%Q%%%%%%%%%%%qQ%%%%%%%%qQ%%%%%qQqQ%%%%qQ%%q%%Q%%%q%Q%qQ
22927B8%q%Q%%%%qQq%QqQ%%%%%%qQ%%%%%%%%%qQqQq%%%%%%%%%Qq%Q%%q%%%%Qq%%%%QqQ%q%
22911B0%Q%%%%qQq%%%Qq%Q%%qQqQqQ%%q%%Qq%Qq%Q%%%%%%%qQ%%qQq%Q%%%qQ%%%%%%q%Q%q%
22895B0%%%QqQq%Q%%%%%q%%%%Q%%%%%%%q%Qq%%%Q%%%q%%%%%%%%%%%%%%%Qq%%%%%%%%Qq%Qq
22879B0Q%%%%q%Q%%%%q%Q%%%%qQq%%%Q%%qQq%%Q%%q%%Q%qQq%%Q%%%%%qQ%%qQ%%%%%q%%%Q%
22863B8%%qQ%%%%q%%%Q%%Qj6K4l2J6q%%Q%%%%%qQ%qQ%qQqQqQq%%Qq%Q%qQq%%%%%%QqQqQq%
22849B0%QqQqQ%%%%%%%q%QqQqQq%%%Qq%Qq%%%%%%%%%%%%%%%%Qq%Qq%%QqQ%q%%Q%%%%%qQqQ
22833B8%%%%qQ%q%Q%q%%%%%%Q%%q%%%%QqQqQq%%QqQq%%Q%qQ%qQ%q%%Q%q%%%QqQq%Qq%Q%q%
22817B0%%%%Q%q%%%%%Q%q%%%%%%Q%qQ%%%%%%q%%%%%Q%q%%QqQqQq%%%%%%%%%%Q%qQ%qQqQq%
22801B0Q%q%%%Q%q%%%%%%Qq%Q%q%QqQ%q%Q%%%%%%q%%%%%Q%q%QqQq%%%%Q%q%%Qq%QqQ%%q%%
22785B0%%%Q%%q%%%Qq%QqQ%%%%%%q%%%Qq%Qq%Qq%Qq%%%%Qq%%%Q%qQq%%Q%%%qQq%Q%qQqQq%
22770B0%%%%%Qq%%%%%%%%%%Qq%%QqQ%%q%Qq%%%%%%%%%%QqQ%qQ%%q%%%%QqQqQqQqQqQqQqQq
22754B0Q%qQqQ%%qQq%%%%%Q%q%%%Qq%%%%%%%Qq%%%%%%Qq%Qq%Q%%qQ%%q%%Q%%q%%%Q%q%Q%q
22738B0%%%%Qq%%%%%%%%%%%%%%%%%%%%%%%%%%%%%%%%%Qq%%%%Qq%%%Q%%%%%%qQq%%%%%%%%%
22722B0%%%%%%Q%q%%%%%%%%%%%%%%%%%%%%%%%%%Qq%Qq%Q%%%%%%q%QqQq%%%Q%q%Q%q%%QqQq
22706B0%%%Q%q%%%%%%%%%%%Qq%%%%%%%%%%%%%%%%%%%%Q%q%%%%%Qq%%%%%%%Qq%%%%%%%%%%%
22691B0%%%%%%%%%%%%%QqQqQq%%Qq%%%%%%QqQq%QqQ%q%Q%qQq%%%QqQ%qQq%Qq%%%Qq%%%%%%
22675B0%%%%%%%%%%QqQqQq%%%%Q%q%%QqQq%Q%q%%%%%%Qq%%%%%%Qq%%%%%%%%%%%%%%%%%%%Q
22659B8%q%%%%%Q%%q%%%%%%%%%Qq%%%%Qq%%%%%%%%%%%%%%%%%%%%%%%%%%%%%%%%%%%%%%%%%
22643B0%%%%%%%%%%%%%%%%%%%Q%q%%%%Qq%%%%%%%%%%%%%%%Qq%%%%%%%%%%%%%%%%%%%Qq%%%
22627B0%%%Q%%q%Q%qJ6q%qQqQ%qQq%%%%Q%q%%%%%%%%%%%%Q%q%%%%%%%%%%%%%%%%%%%%%%%%
22612B0%%%%%%%%%%%%%%%%%Q%q%%Qq%%%%%QqQqQq%QqQ%q%%%%%%%%%%%%%%%%%%%Qq%%%%%%Q
22596B8q%QqQq%%%%%%%%%%%%%%%%%%%%%%%%%%%QqQq%%%%Qq%%%%%%%%%%%%%%%%%%%%%Qq%%%
22580B0%%%%%%%%%%%%%%%%%%%%%%%%%%%%%%%%%Qq%%%%%%%Q%q%%Qq%Qq%%Qq%%%%Qq%%Qq%%%
22564B0Q%q%%%%%%%%%%%%%%%%%%%%%%%%%%%%%%%%%%%%%%%%%%%%%%%%%%%%%%%%%%%%%%%%%%
22549B0%%%%%%%%%%%%%%%%%%%%%%%%%%%%%%%%%%%%%%%%%%%%%%%%%%%%%%%%%%%%%%%%%%%%%
22533B0%%%%%%%%%%%%%%%Qq%%%%%%%%%%%%%%%%%%%%%%%%%%%%%%%%%%%%%%%%%%%%%%%%%%%%
22517B0%Q%q%%%Qq%%%%%%%%%%%%%%%%%%QqQq%%%%%%Qq%%Qq%%%%%%%%%%%QqQq%%QqQ%%qQq%
22501B0%%Q%%%qQq%Qq%Qq%%%%%%%%%%%%%%%%%Qq%%%%%%%%%%%%%%%%%%%%%%%%%%%%%%%%%%%
22486B0%%%%%%%%%%%%%%%%%%%%%%%%%%%%%%%%%%Qq%%%%Qq%%%%%%%%%%%%%%%%%%%%%%%%%%%
22470B0%%%%%%%%%%%%%%%%%%%%%%%%%%%%%%%%%%%%%%%%%%%%%%%%%%%%Qq%%%%%%%%%%%%%%%
22454B0%%%%%%%%Q%%q%%%%%%%%Qq%QqQqQq%%%%%%%%%%%%%%%%%%%%%%%%%%%%%%%%%%%%%%%%
22438B0%%Qq%%%%Qq%%%%%%Q%qQq%%%%%%%%%%%%%%%%%%%%%%%%%%%%%Qq%%%%%%%%%%%%%%%%%
22422B0%%%%%%%%%%%%%Qq%%%%%%%%%%%%%%%%%%%%%%%%%%%%%%%%%%%%%%%%%%%%%%%%%%%%%%
22407B0%%%%%%%%%%%%%%%%%%%%%%%%%%%Qq%%%%%%%%%%%%%%Qq%%%Qq%%%%%%%%%%%QqQqqQ%%
22391B0j6M0l2QQ%qQqQ%%%%q%%%%%%%Qq%%%%%%%%%%%%%%%%%%%%%%%%%%%%%%%%%%%%%%%%%%
22376B0%%%%%%%%%%%%%%%%%%%%%%%%%%%%%%%%%%%%%%%Qq%%%%%%%%%%%%%%%%%%%Qq%%%%%%%
22360B0%%%%%%%%%%%%%%%%%%%%%%%%%%%%%%%%%%%%%%%%%%%%%%%%%%%%%%%%Qq%%%%%%%%%%%
22344B0%%%%%%%%%%%%%%%%%%%%%%%%%%%%%%%%%%%%%%%%%%Qq%%%%%%Q%%%%q%%%%%%%%%%%%%
22328B0%%%%%%%%Qq%%%%%%%%%%%%%%%%%%%%%%%%%%%%%%%%%%%%%%%%%%%%%%%%%%%%%%%%%%%
22312B0%%%%%%%%%%Qq%%%%%%%%%%%%%%%%%%%%%%%%%%%%%Qq%%%%%%%%%%%%%%%%%%%%%%%%%%
22297B0%%%%%Qq%Qq%%%%%%%%%%%%%%%%%%%%%%%%%%%%%%%%%%%%%%%%%%%%%%%%%%%%%%%%%%%
22281B0%%%%%%%%%%%%%%%%%%%%%%%%%%%%%%%Qq%%Qq%%%%%%%%%%%%%%%%%%%%Qq%%%%%%%%%%
22265B0%%%%%%%%%%%%%%%%%%%%%%%%%%Qq%%%%%%%%%%%%%%%%%%%%%%%%%%%%%%%%%%%%%%%%%
22249B0%%%%%%%%%%%%%%%%%%%%%%%%%%%%%%%%%%%%%%%%%%%%%%%%%%%%%%%%%%%%%%%%%%%%%
22234B0%%%%%%%%%%%%%%%%%%%%%%%%%%%%%%%%%%%%%%%%%%%%%%%%%%%%%%%%%%%%%%%%%%%%%
22218B0%%%%%%%%%%%%Qq%%%%%%%%%%%%%%%%%%%%%%%%%%%%%%%%%%%%%%%%%%%%%%%%%%%%%%%
22202B0%%%%%%%%%%%%%%%%%%%%%%%%%%%%%%%%%%%%%%%%%%%%%%%%%%%%%%%%%%%%%%%%%%%%%
22186B0%%%%%%%%%%%%%%%%%%%%%%%%%%%%%%%%%%%%%%%%%%%%%%%%%%%%%%%%%%%%%%%%%%%%%
22170B0%%%%%%%%%%%%%%%%%%%%%%%%%%%%%%%%%%%%%%%%%%%%%%%%%%Qq%%%%QqQq%Qq%Qq%%%
22155B0%%%%%%%%%%%%%%%%%%%%%%%%%%%%%%%%%%%%%%%%%%%%%%%%%%%%%%%%%%%%%%%%%%%%%
22139B0%%%%%%%%%%%%%%%%%%%%%%%%%%%%%%%%%%%%%%%%%%%%%%%%%%%%%%%%%%%%%%%%%%%%%
22123B0%%%%%%%%%%%%%%%%%%%%%%%%%%%%%%%%%%%%%%%%%%%%%%%%%%%%%%%%%%%%%%%%%%%%%
22107B0%%%%%%%%%%%%%%%%%%%%%%%%%%%%%%%%%%%%%%%%%%%%%%%%%%%%%%%%%%%%%%%%%%%%%
22091B0%%%%%%%%%%%%%%%%%%%%%%%%%%%%%%%%%%%%%%%%%%%%%%%%%%%%%%%%%%%%%%%%%%%%%
22076B0%%%%%%%%%%%%%%%%%%%%%%%%%%%%%%%%%%%%%%%%%%%%%%%%%%%%%%%%%%%%%%%%%%%%%
22060B0%%%%%%%%%%%%%%%%%%%%%%%%%%%%%%%%%%%%%%%%%%%%%%%%%%%%%%%%%%%%%%%%%%%%%
22044B0%%%%%%%%%%%%%%%%%%%Q%q%qQ%%%%%%%%%%%%%%%%%%%%%%%%%%%%%%%%%%%%%%%%%%%%
22028B0%%%%%%%%%%%%%%%%%%%%%%%%%%%%%%%%%%%%%%%%%%%%%%%%%%%%%%%%%%%%%%%%%%%%%
22012B0%%%%%%%%%Qq%%%%%%%%%%%%%%%%%%%%%%%%%%%%%%%%%%%%%%%%%%%%%%%%%%%%%%%%%%
21997B0%%%%%%%%%%%%%%%%%%%%%%%%%%%%%%%%%%%%%%%%%%%%%%%%%%%%%%%%%%%%%%%%%%%%%
21981B0%%%%%%%%%%%%%%%%%%%%%%%%%%%%%%%%%%%%%%%%%%%%%%%%%%%%%%%%%%%%%%%%%%%%%
21965B0%%%%%%%%%%%%%%%%%%%%%%%%%%%%%%%%%%%%%%%%%%%%%%%%%%%%%%%%%%%%%%%%%%%%%
21949B0%%%%%%%%%%%%%%%%%%%%%%%%%%%%%%%%%%%%%%%%%%%%%%%%%%%%%%%%%%%%%%%%%%%%%
21933B0%%%%%%%%%%%%%%%%%%%%%%%%%%%%%%%%%%%%%%%%%%%%%%%%Q%q%qQ%%%%%%%%%%%%%%%
21918B0%%%%%%%%%%%%%%%%%%%%%%%%%%%%%%%%%%%%%%%%%%%%%%%%%%%%%%%%%%%%%%%%%%%%%
21902B0%%%%%%%%%%%%%%%%%%%%%%%%%%%%%%%%%%%%%%%%%%%%%%%%%%%%%%%%%%%%%%%%%%%%%
21886B0%%%%%%%%%%%%%%%%%%%%%%%%%%%%%%%%%%%%%%%%%%%%%%%%%%%%%%%%%%%%%%%%%%%%%
21870B0%%%%%%%%%%%%%%%%%%%%%%%%%%%%%%%%%%%%%%%%%%%%%%%%%%%%%%%%%%%%%%%%%%%%%
21854B0%%%%%%%%%%%%%%%%%%%%%%%%%%%%%%%%%%%%%%%%%%%%%%%%%%%%%%%%%%%%%%%%%%%%%
21839B0%%%%%%%%%%%%%%%%%%%%%%%%%%%%%%%%%%%%%%%%%%%%%%%%%%%%%%%%%%%%%%%%%%%%%
21823B0%%%%%%%%%%%%%%%%%%%%%%%%%%%%%%%%%%%%%%%%%%%%%%%%%%%%%%%%%%%%%%%%%%%%%
21807B0%%%%%%%%%%Qq%%%%%%%%%%%%%%%%%%%%%%%%%%%%%%%%%%%%%%%%%%%%%%%%%%%%%%%%%
21791B0%%%%%%%%%%%%%%%%%%%%%%%%%%%%%%%%%%%%%%%%%%%%%%%%%%%%%%%%%%%%%%%%%%%%%
21776B0%%%%%%%%%%%%%%%%%%%%%%%%%%%%%%%%%%%%%%%%%%%%%%%%%%%%%%%%%%%%%%%%qQ%%%
21760B0%%%%%%%%%%%%%%%%%%%%%%%%%%%%%%%%%%%%%%%%%%%%%%%%%%%%%%%%%%%%%%%%%%%%%
21744B0%%%%%%%%%%%%%%%%%%%%%%%%%%%%%%%%%%%%%%%%%%%%%%%%%%%%%%%%%%%%%%%%%%%%%
21728B0%%%%%%%%%%%%%%%%%%%%%%%%%%%%%%%%%%%%%%%%%%%%%%%%%%%%%%%%%%%%%%%%%%%%%
21712B0%%%%%%%%%%%%%%%%%%%%%%%%%%%%%%%%%%%%%%%%%%%%%%%%%%%%%%%%%%%%%%%%%%%%%
21697B0%%%%%%%%%%%%%%%%%%%%%%%%%%%%%%%%%%qQQ%j6K4k4QqQ%%%%%%%%%%%%%%%%%%%%%%
21681B0%%%%%%%%%%%%%%%%%%%%%%%%%%%%%%%%%%%%%%%%%%%%%%%%%%%%%%%%%%%%%%%%%%%%%
21666B0%%%%%%%%%%%%%%%%%%%%%%%%%%%%%%%%%%%%%%%%%%%%%%%%%%%%%%%%%%%%%%%%%%%%%
21650B0%%%%%%%%%%%%%%%%%%%%%%%%%%%%%%%%%%%%%%%%%%%%%%%%%%%%%%%%%%%%%%%%%%%%%
21634B0%%%%%%%%%%%%%%%%%%%%%%%%%%%%%%%%%%%%%%%%%%%%%%%%%%%%%%%%%%%%%%%%%%%%%
21618B0%%%%%%%%%%%%%%%%%%%%%%%%%%%%%%%%%%%%%%%%%%%%%%%%%%%%%%%%%%%%%%%%%%%%%
21602B0%%%%%%%%%%%%%%%%%%%%%%%%%%%%%%%%%%%%%%%%%%%%%%%%%%%%%%%%%%%%%%%%%%%%%
21587B0%%%%%%%%%%%%%%%%%%%%%%%%%%%%%%%%%%%%%%%%%%%%%%%%%%%%%%%%%%%%%%%%%%%qQ
21571B0%qQ%%%%%%%%%%%%%%%%%%%%%%%%%%%%%%%%%%%%%%%%%%%%%%%%%%%%%%%%%%%%%%%%%%
21555B0%%%%%%%%%%%%%%%%%%%%%%%%%%%%%%%%%%%%%%%%%%%%%%%%%%%%%%%%%%%%%%%%%%%%%
21539B0%%%%%%%%%%%%%%%%%%%%%%%%%%%%%%%%%%%%%%%%%%%%%%%%%%%%%%%%%%%%%%%%%%%%%
21524B0%%%%%%%%%%%%%%%%%%%%%%%%%%%%%%%%%%%%%%%%%%%%%%%%%qQ%%%%%%%%%%%%%%%%%%
21508B0%%%%%%%%%%%%%%%%%%%%%%%%%%%%%%%%%%%%%%%%%%%%%%%q%Q%%%%%%%%%%%%%%%%%%%
21492B0%%%%%%%%%%%%%%%%%%%%%%%%%%%%%%%%%%%%%%%%%%%%%%%%%%%%%%%%%%%%%%%%%%%%%
21476B0%%%%%%%%%%%%%%%%%%%%%%%%%%%%%%%%%%%%%%%%%%%%%%%%%%%%%%%%%%%%%%%%%%%%%
21460B0%%%%%%%%%%%%%%%%%%qQqJ6qqQ%%%%%%Qj6Q%qJ6q%qQ%%%%Qq%%%%%%%%%%%%qQ%%%%%
21445B0%%%%%%%%%%%%%%%%%%%%%%%%%%%%%%%%%%%%%%%%%%%%%%%%%%%%%%%%%%%%%%%%%%%%%
21429B0%%%%%%%%%%%%%%%%%%%%%%%%%%%%%%%%%%%%%%%%%%%%%%%%%%%%%%%%%%%%%%%%%%%%%
21414B0%%%%%%%%%%%%%%%%%%%%%%%%%%%%%%%%%%%%%%%%%%%%%%%%%%%%%%%%%%%%%%%%%%%%%
21398B0%%%%%%%q%Q%%%%%%%%%%%%%%%%%%%%%%%%%%%%%%%%%%%%%%%%%%%%%%%%%%%%%%%%%%%
21382B0%%%%%%%%%%%%%%%%%%%%%%%%%%%%%%%%%%%%%%%%%%%%%%%%%%%%%%%%%%%%%%%%%%%%%
21366B0%%%%%%%%%%%%%%%%%%%%%%%%%%%%%%%%%%%%%%%%%%%%%%%%%%%%%%%%%%%%%%%%%%%%%
21350B0%%%%%%%%%%%%%%%%%%%%%%%%%%%%%%%%%%%%%%%%%%%%%%%%%%%%%%%%%%%%%%%%Qq%%%
21335B0%%%%%%%%%%%%%%%%%%%%%%%%%%%%%%%%%%%%%%%%%%%%%%%%%%%%%%%%%%%%%%%%%%%%%
21319B0%%%%%%%%%%%%%%%%%%%%%%%%%%%%%%%%%%%%%%%%%%%%%%%%%%%%%%%%%%%%%%%%%%%%%
21303B0%%%%%%%%%%%%%%%%%%%%%%%%%%%%%%%%%%%%%%%%%%%%%%%%%%%%%%%%%%%%%%%%%qQ%%
21287B0%%%%%%%%%%%%%%%%%%%%%%%%%%%%%%%%%%%%%%%%%qQqQ%%%%%%%%%%%%%%%%%%%%%%%%
21272B0%%%%%%%%%%%%%%%%%%%%%%%%%%%%%%%%%%%%%%%%%%%%%%%%%%%%%%%%%%%%%%%%%%%%%
21256B0%%%%%%%%%%%%%%%%%%%%%%%%%%%%%%%%%%%%%%%%%%%%%%%%%%%%%%%%%%%%%%%%%%%%%
21240B0%%%%%%%%%%%%%%%%%%%%%%%%%%%%%%%%%%%%%%%%%%%%%%%%%%%%%%%%%%%%%%%%%%%%%
21224B0%%%%%%%%q%Q%%%%%%qQ%%qQq%Q%%%%%%%%%%%%%%%%%%%%%%%%%%%%%%%%%%%%%%%%%%q
21208A2Q%%%%%%%%%%%%%%%%%%%%%%%%%%%%%%%%%%%%%%%%%%%%%%%%%%%%%%%%%%%%%%%%%%%%
21193B0%%%%%%%%%%%%%%%%%%%%%%%%%%%%%%qQ%%%%%%%%%%%%%%%%%%%%%%%%%%%%%%%%%%%%%
21177B0%%%%%%%%%%%%%%%%%%%%%%%%%%%%%%%%%%%%%%%%%%%%%%%%%%%%%%%%%%%%%%%%%%%%%
21161B0%%qQqQ%%%%%%%%%%%%%%%%%%%%%%%%%%%%%%%%%%%%%%%%%%%%%%%%%%%%%%%%%%%%qQ%
21145B0%%%%%%%%%%%%%%%%%%%%%%%%%%%%%%%%%%%%%%%%%%%%%%%%%%%%%%%%%%%%%%%qQ%%%q
21129A2Q%%%%%%%%%%%%%%%%%%qQ%%%%%%%%%%%%%%%%%%%%%%%%%%%%%%%%%%%%%%%%%%%%%%%%
21114B0%%%%%%%%%%%%%%%%%%%%qQ%%%%%%%%%%%%%%%%%%%%%%%%%%%%%Qq%%qQ%%%%%%%%%%%%
21098B0%%%%%%%%%%%%%%%%%%%%%%%%%%%%%%%%%%%%%%%%%%%%%%%%%%%%%%%%%%%%%%%%%%%%%
21082B0%%%%%%%%%%%%%%%%%%%%%%%%%%%%%%qQ%%qQ%%%%%%%q%Q%qQ%%%%%%%%%%%%%%%%%%%%
21066B0%%%%%%%%%%%%%%%%%%%%%%%%%%%%%%%%%%%%%%%%%%%%%%%%%%%%%%%%%%%%%%%%%%%%%
21050B0%%%%%%%%%%%%%%%%%%qQ%%%%%%%%%%%%%%%%%%%%%qQ%%%%q%Q%%%%%%%%%%%%%%%%%%%
21035B0%%%%%%%%%%%%%%%%%%%%%%%%qQ%qQ%%%%%%%%%%%%%%%%%%%%%%%%%%%%%%%%%%%%%%%%
21019B0%%%%%%%%%%%%%%%%%%%%%%qQ%%%%%%%%%%%%%%%%%%%%%%%%%%%%%%%%%%%%%%%%%%%%%
21003B0%%%%%%%%%%%%%%%%%%%qQ%%%%%%%%%%%%%%%%%%%%%%%%%%%%%%%%%%%%%%%%%%%qQ%%%
20987B0%%%q%Q%qQ%qqK4q%qQ%qQ%%%%%%%%qQ%%%%%%%%%%%%%%%%%%%%%%%%%%%%%%%%%%%%%%
20972B0%%%%%%%%%%%%%%%%%%%%%%%%%%%%%%%%%%%%%%%%qQ%%%%%%%%%%%%%%%%%%%%%%%%%%%
20956B0%%%%%%qQ%%%%%%%qQ%%%%%%%%%%%%%%%%%%%%%%%%%%%%%%%%%%qQ%%%%%%%%%%%qQ%%%
20940B0%%%%%%%%%%%%%%%%%%%%%%%%%%%%%%%%%%%%%%%%%%%%%%%%%%%%%%%%%%%%%%%%%%%%%
20924B0%%%%%%%%%%%%%%%%%%%%%%%%%%%%%%%%%%%%%%%%%%%%%%%%%%%%%%%q%Q%%%%%%%%%%%
20909B0%%%%%%%%%%%%%%%%%%%%%%%%%%%%%%%%%%%%%%%%%%%%%%%%%%%%qQ%%qQ%%%%%%%%%%%
20893B0qQ%%%%%%%%%%%%%%%%%%%qQ%%%%%%%%%%%%%%%%%%%%%%%%%%%%%%%%%%%%%%%%%%%%%%
20877B0%%%%%%%%%%%%%qQ%%%%qQ%%%%%qQ%%%%%%%%%%%qQ%qQq%Q%%%%%qQ%%%%%%%%%%%%%%%
20861B0%%qQqQqQ%%%%%%%%%%%qQ%%%%%%%%%%%%%%%%qQ%%%%%%%%%%%%%%%%qQ%%%q%Q%%qQ%%
20845B0qQ%%%%%%%%%%%%%%%%%%%%%%%qQ%%%%%qQ%%%%%%%%%%%%%%%%%%%%%%%%%%%%%%%qQ%%
20830B0%%%%%%%%%%%%%%%%%%%%%%%%%%%%%%qQqQ%%%%%%%%%%%%%%%%%%%%%%%%%%%%%%%%%%q
20814A2Q%%%%%%%%%%%%%q%%Q%q%Qq%%%%Q%qQ%%%%%%%%%%%%%%%%%%%%%%%%%%%%%%qQ%%%%%%
20798B0%%%%%%%%%%qQ%q%Q%%%%%%%%%%%%%%%%%%%%%%%%%%%%%%%%%qQ%%%qQ%%%%%%%%%%%%%
20782B0q%Q%qQqQ%%%%%%qQ%%%%%%%%%%%%%%%%%%%%%%%%%%%%%%%%%%%%%%%%%%%%%%%%%%%%%
20766B0qQ%%%%qQ%%%%%%%%%%%%%%%%%%%%%%%%qQ%%%%%%%%%%%%%%%%%%%%qQ%%qQ%%%%%Qj6Q
20751B0qQ%%qJ6j6QqJ6q%%qQ%%%%%%%%%%%%%%%%%%%%%qQ%%%%%%%%%%%%%%%%%%%%%%%%%%%%
20736B0%%%%%%%%%%%%%%%%%%%%%%%%%%%%%%%%qQ%%%%%%%%%%%%%%%%%%%%%%%%%%qQ%%%%%%q
20720A2Q%%%%%%%%%%%%%%q%Q%%%%%%%%%%%%%%%%%%%%%%%%%%%%%%%%%qQ%qQ%%%%qQ%%%%%%%
20704B0%%%%%%%%%%%%%%%%%%%%%%qQ%%%%%%%%%%%%%%%qQ%%%qQ%%%%%%%qQ%%%%qQ%%%%%%%%
20688B0%%%%%%%%%%%%%%%%%%%%%%%%%%%%%%%%%%%%%%%%%%%qQqQqQq%Q%%%%qQ%qQ%qQ%%%%%
20673B0%%%%%%qQ%%%%%%%%%%%%%%%%%%%qQ%qQ%%%%%%%%%%%qQ%%qQ%%%%%%q%%%%Qq%%%%QqQ
20657B0%%%q%Qq%Q%%%%%%%qQ%q%%Q%%%%%%%%%%%%%%qQ%%%%%%qQ%%qQqQqQ%%q%%QqQ%%qQ%q
20641A2Q%%%%%%%%%%%%%%%%%%%%%%%%%%%%%qQ%q%Q%qQ%%%q%Q%%%%%%%%qQ%%qQ%%%%%%qQ%%
20625B0%%%%qQ%%%%%%%%%%%%%%%%%%%%%%%%%qQqQ%%%qQ%%%%%%qQ%%%%q%QqQ%%%%qQq%Q%%%
20609B0%%q%Q%%%%%%%%%%qQ%%%%%%%%%%%%qQ%%q%%Q%q%Q%%%q%%Q%%qQ%%%%%qQ%%%%%%%%%q
20594A2Q%%%%%qQ%q%Q%%q%QqQqQ%%qQ%%%%%%%q%%%%Q%qQqQ%%%%%%qQ%%%%qQ%%%%%%%%%%qQ
20578B0qQqQq%Q%%%%%%%%%qQ%%qQ%%%%%%q%Q%%%%%%%%%%%%%%%%%qQqQ%%%%%%%%%%%%%%%%q
20562A2Q%%%%%%%%%%qQ%%%%%%qQ%%%qQ%%%%%qQ%%%%%%%%%%%%%%%%%qQ%%%qQ%%%%%q%Q%%%%
20546B0%%%%qQ%%q%Q%q%%Qq%Q%%%qQ%%%%%qQ%%%%qQ%%%%%%qQ%%%%%%%%%%%qQ%%%%%%%%%%%
20530B0%%%%%%%%%%%%%%%%%q%Qq%QqQ%%%%%%%%%q%%Q%qQ%%%qQ%%q%%Qq%%QqQq%%J6qJ6k4K4
20515C6j6qQ%qQqQq%%%Q%%%q%Q%%%%%%q%QqQq%%%QqQ%%%%%%%qQ%%%%%q%%Q%%%qQ%qQqQqQq
20500A2%Q%%%qQq%%Q%%%%qQ%%%%%%qQ%%%%%%%%%%qQ%%%qQ%%%qQ%%qQ%%%%%%%%%%qQ%qQ%%q
20484A2Q%%%%%%%%%%%%%%%%qQ%%qQ%%%%qQ%%%%%%%%%%%%%%%%%qQqQqQ%%%qQ%%qQ%%%%qQ%%
20468B0%q%Q%q%Q%qQ%%%%%%%%%%%%%%%qQ%%%%%q%Q%%qQ%%%%%qQqQ%%%%%%%%%%%%%%%%%%%%
20452B0%%%%qQ%%%%%%%%%%qQ%%%%qQ%%%%%%%%%%%%%%%%%%%%%qQ%%%%%%%%%%q%%%%%%%%Qq%
20437A2%%%%%%Qq%QqQ%q%Q%%qQ%%qQ%%qQ%%%%%%%%qQqQqQq%%QqQ%%%%%%%%%%%%%%%%qQ%qQ
20421B0%%qQ%%q%Q%%%%%qQ%%qQ%qQ%%%%q%Q%%%%%qQqQ%%%%%%%%%%%%%%%%%%%%%%%%%%%%%%
20405B0%%%%%%qQ%%qQ%qQ%%%%qQ%qQq%%QqQqQ%%qQ%%%%%%qQ%%%%qQ%%%%%%%%%%qQ%%%qQ%%
20389B0%q%Q%%%qQ%%q%Q%%q%%Q%q%Q%%qQq%Q%q%%Q%qQ%%%%%q%Q%%qQ%%%%%%%%%%q%%Q%qQ%
20373B0q%%QqQ%qQqQ%%%%%%%qQ%%%%%%%qQ%%%%%%%%%%%%q%Q%qQqQ%qQqQ%%%%%%%%%%%%qQ%
20358B0qQqQq%%Q%%%qQ%%%%q%Qq%Qq%%%%%%Q%%%%%%qQ%%%%%%qQ%%%%%%%%%%%%%%%%%%%%%%
20342B0%%%qQqQqQ%%%%%%%%q%QqQqQq%%Q%%qQ%qQ%%%qQ%%%%%%%%%q%Q%%%qQqQ%qQ%%%%%%%
20326B0%%%%%%%%%%%q%%%%%%QqQ%%%%%%%%%%%%%%%qQ%%%%%%qQ%q%Q%q%QqQ%%%%qQ%%%qQ%q
20310A2Q%%%%q%%QqQ%%q%Q%%qQ%q%Q%%%%%q%QqQ%qQ%qQ%qQ%qQq%%%Qq%%%QqQq%%QqQq%%%Q
20294B0qQqQqQqQ%%%%%%qQ%%%%%qQ%q%Q%%%q%%Qq%%Qq%%%%%%Qq%%%%%%%QqqQQq%Q%qQ%%%q
20279A2Q%qQ%%q%Qq%Qq%QqQq%%Q%%%%qQq%%Q%%%%q%Q%q%%%QqQ%%%qQqQqQ%%qQ%qQ%%%qQq%
20263A2Qq%Q%%%%%q%%Q%%%%q%%Qq%%%Q%qQqQ%%%%%%q%%Qq%Q%qQq%%%Qq%Q%%%%q%%Q%q%%Q%
20247B0q%%Qq%%Q%q%QqQ%qQqQ%q%QqQq%%Q%%qQ%qQ%%%qQ%qQqQ%%%%%q%%%%Q%%%%qQ%%%qQ%
20231B0q%%%QqQq%%%%%Qq%Qq%%%%%%%%%Qq%Qq%Q%%%qQqQ%%qQqQ%%%%%%qQ%%%%%qQq%Qq%Qq
20215A2%%Q%%%%%%%%qQ%%%qQ%qQqQ%qQ%%%qQ%q%QqQ%qQqQ%qQ%%%%qQqQ%q%Qq%%%Q%%%%%%q
20200A2Q%%q%%Q%qQ%qQqQqQqQ%qQ%%%q%%Q%qQq%%%%%%Qq%%%Qq%Q%%qQqQ%%%%%%%%%%%%%%%
20184B0%%%%%%%%%qQ%%%%%%q%Qq%%%Q%%%%%%%%qQ%%%q%Q%q%%%%Qq%%%%%%%%Qq%%%Q%%%qQq
20168A2%%QqQq%%%QqQ%%%q%J6j6Qq%Qq%Qq%%%QqQq%Q%qQ%%%%%%%qQq%%QqQqQq%%%Qq%%QqQ
20153B0%%%q%%Q%q%%%Qq%Q%qQ%q%QqQ%q%Q%%%%qQqQqQ%q%QqQq%%%Qq%Qq%%%%Q%q%Q%%qQ%q
20137A2Qq%%%Qq%%%Qq%%QqQq%%%QqQq%%%Q%%%%%%qQq%QqQq%QqQ%q%Qq%%Qq%%%%%%Qq%Qq%%
20121A2%Qq%Q%q%%Qq%%%%%%Qq%%Qq%%%%%%%%%%%QqQ%q%%%%%Q%q%%%QqQ%%%qQqQqQ%%%%%%q
20105A2QqQ%q%%%%%%%%%%QqQ%q%Q%qQqQqQ%qQ%q%%Q%%%%%%q%%%%%%%%%%%%%%%%%%Q%q%%%%
20090A2%%QqQqQ%%%%%%%%%%%%%%%%%q%Q%%qQqQ%q%%Q%%%qQ%%qQ%%qQqQ%%q%Q%%%q%%%Qq%Q
20074B0qQq%Qq%Q%%%%%q%%Qq%Q%%qQ%%%%%%q%%Q%qQq%%Qq%Q%qQ%q%Qq%Q%%qQ%q%%%Qq%QqQ
20058B0%%%q%QqQ%%qQq%Qq%%%QqQ%qQq%Qq%Q%qQ%q%%%Q%qQqqJ6Qq%k4J6QqQ%%%q%%%QqQ%q
20043A2Qq%%Qq%%%%QqQ%q%%%%%Qq%%%%Q%%q%Q%%%%%%qQq%%%%%%%%QqQ%%%%%%%qQqQqQ%qQq
20027A2%Q%%%%%q%%QqQqQq%QqQ%%q%%QqQ%%qQ%q%%QqQq%Qq%%Qq%%Qq%%%%QqQ%%%qQ%q%Qq%
20011A2%%QqQq%%QqQ%q%%%QqQq%%QqQqQ%q%Q%%q%Q%%%qQ%qQ%qQ%%%%q%Qq%Qq%%%%Q%q%Qq%
19995A2%%%%%%%%%QqQq%%Q%qQqQq%%Q%%qQ%%%q%Q%%%qQqQ%%%qQqQqQq%%QqQq%%%%%%Qq%%%
19980A2%QqQqQqQq%Qq%%%%QqQq%Q%%qQ%qQq%%%%%%%%%%%%%Qq%%%%%%%%%%%%%%Qq%Q%qQqQq
19964A2%%%%%%Qq%%Qq%%%%%Q%q%Q%q%%QqQq%Qq%Qq%%Q%qQq%%Qq%%%%%%%%%%Q%q%%Qq%%%%%
19948A2%Qq%%%%%%%%%%%%Qq%Qq%Q%q%Qq%%Q%qQ%q%%%Qq%%%%%%Q%q%%%%%QqQ%q%%%%%Q%q%%
19932A2%%%%%Qq%%%Q%qQqQqQ%q%Qq%%%Q%q%%Qq%Qq%QqQ%%%q%Q%qQqQqQ%q%Q%qQ%%%qQ%qQq
19917A2QqQ%%q%%QqQ%%%%%%%%%q%Q%qQqQ%q%Q%%qQ%%%%%%q%%Q%q%%%QqQ%qQ%%%%%qQq%%Qq
19901A2%%%%Q%%qQ%%%q%%%Q%q%Q%qQ%%%%%%%q%QqQ%%q%%Qq%%%%%Q%qQ%%qQ%%%qQ%q%%%Qq%
19885A2%QqQ%q%Qq%%%%%Qq%%%%%%%%Qq%%%%%Q%qQq%%%Qq%QqQ%%%%qQ%q%%Qq%%Q%qQq%%%%%
19869A2%%Qq%Q%q%%QqQ%%%%%qQ%q%%%Qq%%%Qq%Qq%%%Qq%%%%%%%%%%%QqQ%q%Q%%qQq%%%%Qq
19853A2Qq%Qq%%QqQqQ%%%%%qQ%%%%%%%q%%%%%%Q%q%Qq%%Q%q%QqQ%qQqQq%Q%%%qQqQ%%%%%%
19838B0%%qQ%%qQqQq%QqQ%q%%Q%%qQqQqQ%%%q%Qq%Qq%%%%%%Qq%QqQqQqQq%%%Q%qQ%%qQ%q%
19822A2%%QqQq%%%%%%Q%q%%%%%Q%%q%QqQ%%%%%%q%Q%q%qJ6q%Q%%%q%%%%%Qq%Qq%%%QqQqQq
19806A2Q%qQ%%q%%QqQq%%Q%%q%%%%%%%%%Q%q%Q%qQqQ%qQq%QqQ%qQqQqQqQq%%QqQqQ%qQ%qQ
19790B0q%Qq%%%%%%%Qq%QqQqQ%q%%Qq%QqQq%Q%qQ%qQ%q%%Q%qQ%%%qQq%%%%Q%q%%%Qq%Q%qQ
19775B0q%%%%%%%%%%Qq%%Qq%Q%%%%qQ%%q%%Qq%%Q%%qQ%qQ%%qQq%%%%%%%%%%%%%Qq%Q%q%%%
19759A2%%Qq%QqQ%%%%%%%%q%Q%qQ%%q%Q%q%%Q%q%%%QqQq%%%Qq%%%%%%%%Q%%qQ%%qQ%%%q%Q
19743B0q%%%%%%%%%%Qq%%%%Qq%%%Qq%%%%%%%%%Q%%q%%%%%Qq%%%%Qq%%%%%%%%%%%%%%%Qq%%
19727A2Qq%QqQ%%qQ%%%%qQ%qQq%Qq%%%%%%%%%%Qq%Q%qQ%q%%Q%%qQqQ%%%qQ%%%qQ%q%%%QqQ
19711B0%q%%%Qq%%%%%%%%%%%%%%Qq%%%%QqQq%%%%%%%%%Q%%%q%Q%%%qQ%qQ%%%%%qQq%%QqQ%
19696B0j6J6qQq%%%%Q%q%%Qq%%%%QqQ%q%%%%%Q%q%Qq%%Q%%%%%%%%%%%%%%%%%qQ%%%%q%%%Q
19680B0q%Q%%qQ%q%%%%%%%%%%%%%%%%%Qq%Qq%%%%%%%Q%q%%%%%%%%%%QqQq%%%Q%%%%%%%%%%
19665B0q%Q%%q%%Qq%%%%%Qq%%%%%%%%QqQq%Qq%Qq%%%%%%%%%%%%QqQ%qQ%%%qQq%%Qq%%%%%%
19649A2QqQq%%%%Qq%%%Q%%q%%%Q%q%%%%%%%%%%%QqQq%%%%%%Qq%QqQ%q%Q%%%q%%%%QqQq%Qq
19633A2%%%%%%%%%%%%%%%%%Qq%%%%%%%%%Qq%%%%%%%Qq%%%%%%Q%qQ%q%%%Qq%%%%%%%%QqQq%
19617A2%Qq%Qq%%Q%%qQ%%%%qQq%%%%%%Qq%%%%%%%Qq%%%Qq%%%%%%Q%q%%Qq%Qq%%%%QqQq%%%
19601A2%%%%Qq%%Qq%%Qq%%Q%%qQ%%qQqQ%%q%Qq%Qq%%Qq%%%%%%Qq%Qq%%%Q%%q%%%%%Qq%Q%q
19586A2QqQ%q%%Q%%%%q%%QqQQj6%%QqQ%j6QqQK4j6k4J6J6q%qqJ6qQqQQqj6QQ%q%%%%%%qQ%
19572A2%%%Qq%%%%%%%%%%%%%%QqQ%q%%%%Qq%%%Qq%Qq%%%%%%Qq%%%%Qq%Qq%Q%q%Q%%qQq%%Q
19556B0%%%qQ%%q%%%%%%%%Q%%q%%%%%%%Q%%q%%%QqQq%Qq%Qq%%%%%%%%%%%Qq%%%%%%Q%%qQ%
19540B0q%Q%%q%Qq%%%%%%%%Qq%%%%QqQqQqQ%q%%%%%%%%%%%%%%%%%%%%%%%%Qq%QqQqQ%%qQq
19524A2%%%%Qq%Qq%%%%%Qq%Qq%%Q%%q%Qq%%%%%%%%%%%%%%%%%%%%%%Qq%%Qq%%%%Qq%%%%%%%
19509A2%%%%%%%QqQq%%%%%Qq%%Qq%Q%%q%%QqQ%%q%%Qq%Qq%%%%%%Q%qQq%%%Q%q%QqQq%%QqQ
19493B0%qQ%q%Q%%qQq%%%Qq%%%%%%%%%%%%%%%%%%%%%%%%Qq%%%%%%%%%%%%%%%%%Qq%%%%%%%
19477A2%%%%%%%Qq%%Q%q%%%%%%%%%%%%%%Qq%%%%%%Q%qQq%%%Qq%%%%%%%%%%%%%%Qq%Q%q%Qq
19461A2Q%q%%QqQqQqQq%%Qq%%%%%%%%%%%%%%%%%%Qq%%%%%%%%%%%%%%%%%%%%%%%%%%%%%%%%
19445A2%%%%%%Qq%%%%%%%%%Qq%%%%%%%Q%q%%%%Q%%q%%Qq%%%%%%%%%%%%Q%q%%%%%%%%%%%%%
19430A2Qq%%%%%%%%%%%%QqQ%%q%%%%%Q%q%%%QqQ%q%%%Qq%%%%%Qq%%%%%%%%%%Qq%%%%%%%%%
19414A2%%Qq%%%%%%%%%%%%%Qq%%%%%%%%%%%%%%%%%%%%%%%%%%%%%%%Q%q%Qq%%Qq%%%%%%%%%
19398A2%%%%%%%%%%%%Qq%%%%%%%%%%%%%%Qq%%%%Qq%%Q%q%%%%%%Q%qQq%QqQ%%%%qQ%%q%%%%
19382A2%%%Qq%Qq%%%%Q%q%%%%%%%%%%%%%%%Qq%%%Qq%%Q%q%%%Qq%%Qq%%%%%%%%%%%%%%%%%Q
19367B0q%%QqQq%%%%Qq%%%%%%%%%%Qq%%%%%%%%%%%%%%%%%%%%%Qq%%%%%%%%%%%%%%%QqQq%Q
19351B0q%%%%%Qq%Q%qQq%Q%q%%%Qq%%Q%q%QQqq%%QqQ%q%%%%%%%%%%%%%Q%q%Qq%%%%%%%%%%
19335A2%%%%%%%%%%Qq%%%%%%%%%%%%%%%%%Qq%%%%%%%%%%%%%%%%%%%%%%%%%%%%Qq%Qq%%%%%
19319A2%%%%%%%%%%%%%Q%%q%%%%%Qq%%%%%%Qq%%%%%%%%%%%Qq%%%%%%Qq%%%%%%%%%%%%%%%%
19303A2%%%Q%qQ%%%qQ%qQ%q%%QqQ%%q%Qq%%%%%%%%%%%%%%%%%%%%Qq%%%%%Qq%%%%%Qq%%%%%
19288A2%%%%Qq%%%%%%%QqQ%q%%%Qq%%%%QqQq%%%%%Q%q%%%%%%%QqQq%%%%%%%%Qq%%%%%Qq%%
19272A2%%%%%%%%%%QqQq%%%%%%%%%%Q%q%%%%%%%Qq%%%%%%%%%%%%%%%%Qq%%%%%%%Qq%%%%%%
19256A2%QqQq%%%QqQq%%Q%%qQqQqQqQ%%q%%Qq%Q%q%%QqQ%q%QqQq%%%%%%%%%%%%Q%qQq%%%%
19240A2%%%%%%%%%%%%%%%%%%%%%%%%%%%%%%%%%%%%%%%%%%%%%%%%%%%%%%QqQ%q%%%%Q%q%Qq
19224A2%%%%%%%%%%%%%%%%%%%%%Qq%%%%%%%%%%%%%%%%%%%%%Qq%%%%%%%%%%Qq%%%%%%%%%%%
19209A2Qq%%%Qq%%%%Q%q%%%%%%%QqQq%%%%%%%%%%%%Qq%%Qq%%%%%%Qq%%%%%%%%%%%%%%%%%%
19193A2%%%%%%%%%%%%%%%%%%%%%%%%%%%%%%%%%%%%%%%%%%%%%Q%q%%%%%%%%%%%%%Qq%%%%%%
19177A2%%%%%%%%%%%%%%%%%%%%%%%%%%%%%%%%%%%%%%QqQq%%%%%%%%%%%%%%%%%%%%%%%%%%%
19161A2%%%%%%%%%%%%QqQqQq%%%%%%%%%%%%Qq%%Qq%%%%%%%%%%%%%%%%%Qq%Qq%%%%%%Qq%Qq
19145A2%%%%%Qq%%%%%QqQq%%%Qq%%%Qq%%Qq%%%%Qq%%%%%%%%%%%%%%%%%%%%%%%%%%%%%%%%%
19130A2%%%%%%%%%%%%%%%%%%%QqQq%%%%%%%%%%%%%%%%%%%%%%%%%%%%%%%%%Qq%%%%%%%QqQ%
19114B0q%%%Q%q%QqQqQq%%%%%QqQ%qQq%Qq%%Q%q%%%Qq%%%%%%%%%%Qq%%%%%%%%%%%%%%%%%%
19098A2%%%%%%%%%%%%%%%%%Qq%%%%%%%%%%%%%%%%%%%%%%%%%%%%%%%%%%%%%%%%%%%%%Qq%%%
19082A2%%%%%%%%Q%q%%%%%%%%%%%%%%%Qq%Qq%%%%%%%%%Qq%%%%%%%%%%%%%%%%%%%%%%%%%%%
19066A2%%%%Q%q%%%%%%%%%%%%%%%%%%%%%%%%%%%%%%%%%Qq%%%%%%%%%%%%%%%%Qq%%QqQq%Q%
19051B0q%Qq%Qq%%%%%%%%%%%%%%%%%%%%%%%%%%%%%Qq%%%%%%%%%%%%%%%%%%%%%%%%%%%Qq%%
19035A2%%%%%%%%%%%%%%%Qq%%Qq%%%%%%%%%%%%%%%%%%%%%%%%%%%%Qq%%%%%%%%QqQ%%q%Qq%
19019A2%%%%%%%%Q%q%%%%%%%%%%%%%%Qq%%Qq%%%%%%%%%Qq%%%%%%%%%%%%%%%%%%%%%%%%%%%
19003A2%%%%%%%%%%%%%%%%%%%%%%%%Qq%%%%Qq%%%%%%%Qq%%QqQ%q%%%QqQq%%%%%%%%%%%%%%
18988A2%%%%%%%%Q%%q%%%%%%%%%%%%%%%%%%Qq%%%%%%%%%%%%%%Qq%%%%%%%%%%%%%%%%%%%%%
18972A2%%%%%%%%%%%%%%%%%%%%%%%%%QqQq%Qq%%Qq%%Q%q%%%%Qq%Q%qQqQq%%%%%%%%%%%%%%
18956A2%%Qq%%%%%%%%%%%%%%%%%%%%%%%%%%%%%%%%%%%%%%%%%%%%%%%%%%%%%%%%%%%%%%%%%
18940A2%%%%%%%%%%%%%%%%Qq%%%%%%%Q%%q%%%%Qq%%%Qq%%Q%qQq%%%%%%%%%Qq%%%%%%%%%%%
18924A2%%%%%%%%%%%%%QqQ%%qQ%%%%%%q%Qq%%%%%%%%%%%%%Qq%%%%%%%%%Qq%Qq%%%%%%%%%%
18909A2%%%%%%%%%%%%%%Qq%%%%%%%Qq%%%%%%%%%%%%%%%%%%%%%Qq%%%%%Qq%%%%%%%%%%%%%%
18893A2%%%%%%%%%%%%%%%%%%%%%%%%%%%%%%%%%%%%%%%%%%%%%%%%%%%%%%%%%%%%%%%%%%%%%
18877A2%%QqQqQ%qQj6J6q%%%%%Qq%%%%%%%%%%%%%%%%%%%%%%%%%%%%%%%%%%%%%%%%%%%%%%%
18862A2%%%%%%%%%%%%%%%%%%%Q%%q%%%%%%%%%%%%Qq%%%%%%%%%%%%%%%%%%%%%%%%%%%%%%%%
18846A2%%%%QqQqQq%%%%%%Qq%%%%%%%%Qq%%%%%%%%%%%%%%%%%%%%%%Q%q%QqQqQ%q%%%%%%%%
18830A2%%%%%%%%%%%%%%%%%%Qq%Qq%%%%Qq%%%%%%%%%%Qq%%%%%%%%%%%QqQq%%%%Qq%%%%%%%
18814A2%%%%%%%%%%%%%%%%%%%%%%%%%%%%%%%%%%%QqQq%%%%%%%%%%%%%QqQq%%%%%%%%%%%%%
18798A2%%%%%%%%%%%%%%%%%%%%%%%%%%%%%%%%%%%%%%%%Qq%%%%Q%%q%%%%%%%%%%%%%%Qq%%%
18783A2%%%%%%%%%%%%%%%%%%%%%%%%%%%%%%%%%%%%%%%%%%%%%%%%%%%%%%%%%%%%%%%%%%%%%
18767A2%%%%%%%%%%%%%%%%%%%%%%%%%%%%Qq%%Qq%%%%%Q%q%%%%%Qq%Qq%%%%%%%%%%%%%%%%%
18751A2%%%%%%%%%%%%%%%%%%%%%%%%%%%%%%Qq%%%%%%%%%%%%%%%%%%%%%%%%%%%%%%%%%%%%%
18735A2%%%%%%%%%%%%%%%%%%%%%%%%%%%%%%%%%%Qq%%%%%%%%%%%%%%%%%%%%%%%%%Qq%%%%%%
18719A2%%%%%%%%%%%%%%%%%%%%%%%%%%%%%%%%%%%%%%%%%%%%%%%%%%%%%%%%%%%%%%%%%%%%%
18704A2%%%%%%%%%%%%%%%%%%%%%%%%%Qq%%%%%%%%Qq%%%%%%%%%%%%%%%%%%%%%%%%%%%%%%%%
18688A2%%%%%%%%Qq%%%%%%%%%%%%%%%%%%%%%%%%%%%%%%%%%%%%%%%%%%%%%%%%%%%%%%%%%%%
18672A2%%%%%%%%Qq%%%%%%%%Qq%Qq%%%%%%%%%%%%%%%QqQq%%%%%Qq%%%%%%%%%%%%%%%%%%%%
18656A2%%%%Qq%%%%%%%%%%%%%%%%%%%%%%%%%%%%%%%%Qq%%%Q%qQq%%Qq%%%%%%Q%%qQq%%J6j6
18641A2Qk4J6Qq%qJ6qQq%%%%%%%%%%%%%%%%%%%%%%%%%%%%%%%%%%%%%%%%%%%%Qq%%%%%%%%%
18626A2%%%%%%%%%%%%%%%%%%%%%%%%%%%Qq%%%%%%%%%%%%%%%%%%%%%%%%%%%%%Qq%Qq%%%%%Q
18610B0qQq%%%%%%%%%%%%%%%%%%%%%%%%%%%%%%%%%%%%%%%%%%%%%%%%%%%%%%%%%%%%%%%%%%
18594A2%%%%%%%%%%%%%%%%%%%%%%%%%%%%%%%%%%%%%%%%%%%%%%%%%%%%qJ6q%%%%%%%%%%%%%
18578A2%%%%%Qq%%%%%%%%%%Qq%%%%%%%%%%%%%%%%%%%%%%%%%%%%%%%%%%%%%%%%%%%%%%%%%%
18563A2%%%%%%%%%%%%%%%%%%%%%%%%%%%%%%%%%%%%%%%%%%%%%%%%%%%%%%%%%%%%%%%%%%%%%
18547A2%%%%%%%%%%%%%%%%%%%%%%%%%%%%%%%%%%%%%%%%%%%Qq%%%%%%%%%Qq%%%%%%%%%%%%%
18531A2%%%%%%%%%%Q%q%%%%%%%%%%%Qq%QqQq%%%%Qq%%%%%%%%%%%%%%%%%%%%%%%%%%%%%%%%
18515A2%%%%%%%%%%%%%Qq%%%%%%%%%%%%%%%%%%%%%%%%%%%%%%%%%%%%%%%%%%%%%%Q%%q%%%%
18500A2%%%%%%%%%%%%%%%%Qq%%%%%%%%%%%%%%%%%%%%%%%%%%%%%%%%%%%Qq%%%%%%%%%%%%%%
18484A2%%%%%%%%%%%%%%%%%%%%%%%%%%%%%%%%%%%%%%%%%%%%%%%%%%%%%%%%%%%%%%%%%%Qq%
18468A2%%%%%%%%%%%%%Qq%%%Qq%%%%%%%%%%%%%%%%%%%%%%%%%%%%Qq%%%%%%%%%%%%%%%%%%%
18452A2%%%%%%%%%%%%%%%%%%%%%%%%%%%%%%%%%%%%%%%%%%%%%Qq%%%%%%%%%%%%%%%%%%%%%%
18436A2%Qq%%%%%Qq%%%%%%%%%%%%%%%%%%%%%%%%%%%%%%%%%%%%%%%%%%%%%%%%%%%%%%%%%%%
18421A2%%%%%%%%%%%%%%%%%%%%%%%%%%%%%%%Qq%%%%%%%%%%%%%%%%%%%%%%%%%qJ6qQq%%%%Q
18405B0%q%%Qq%%QqQq%%%%%%%%%%%%%%%%%%%%%%%%%%%%%%%%%%%%%%%%%%%%%%%%Qq%%%%%%%
18389A2%%%%%%%%%%%%%%%%%%%%%%%%%%%%%%%%%Qq%%%%%%%%%%%%%%%%%%%%%%%%Qq%%%%%%%%
18373A2%%%%%%%%%%%%%%%%%%%%%%%%%%%%%%%%%%%%%%%%%%%%%%%%%%%%%%%%%%%%%%%%%%%%%
18358A2%%%%%%%%%%%%%%%%%%%%%%%%%%%%%%%%%%%%%%%%%%%%%%%%%%Qq%%%%%%%%%%%%%%%%%
18342A2%%%%%%%%%%%%%%%%%%%%%%%%%%%%%%%%%%%%%%%%%%%%%%%%%%%%%%%%%%%%%%%%%%%%%
18326A2%%%%%%%%%%%%%%%%%%%%%%%%%%%%%%Q%qQq%%%%%%%%%%%%%%%%%%%%%%%%%%%%%%%%%%
18310A2%%%%%%%%%%%%%%%%%%%%%%%%%%%Qq%%%%%%%%%%%%%%%%%%%%%%%%%%%%%%%%%%%%%%%%
18294A2%%%%%%%%%%%%%%%%%%%QqQ%q%%Qq%%%Qq%%%%%%%%%%%%%%%%%%%%%%%%%%%%%%%%%%%%
18279A2%%%%%%%%%%%%%%%%%%%%%%%%%%%%%%%%%%%%%%%%%%%%%%%%%%%%%%%%%%%%%%%%%%%%%
18263A2%%%%%%%%%%%%%%%%%%%%%%%%%%%%%%%%%%%%%%%%%%%%%%%%%%%%%%%%%%%%%%%%%%%%%
18247A2%%Qq%%%%%%%%%%%%%%%%%%%%%%%%%%%%%%%%%%%%%%%%%%%%%%%%%%%%%%%%%Qq%%%%%%
18231A2%%%%qQ%%%%%%%%%%%%%%%Qq%%%%%%%%%%%%%%%%%%%%%%%%%%%%%%%%%%%%%%%%%%%%%%
18215A2%%%%%%%%%%%%%%%%%%%%%%%%%%%%%%%%%%%%%%%%%%%%%%%%%%%%%%%%Qq%%%%%%%%%%%
18200A2%%%%%%%%%%%%%%%%%%%%%%%%%%%%%%%%%%%%%%%%%%%%%%%%%%%%%%%%%%%%%%%%Q%q%%
18184A2%%%%%%%%%%%%%%%%%%%%%%%%%%%%%%%%%%%%QqQqQq%%%Qq%QQj6QQj6%Q%qQq%%%Qq%Q
18169B0%q%%%%%%%%Qq%Qq%%%%%%%%%%%%%%%%%%%%%%%%%%%%%%%%%%%%Qq%%%%%%%%%%%%%%%%
18153A2%%%%%%%%%%%%%%%%%%%%%%Qq%%%%%%%%%%%%%%%%%%%%%%%%%%%%%%%%%%%%%%%%%%%%%
18137A2%%%%%%%%%%%%%%%%%%%%%%%%%%%%%%%%%%%%%%%%%%%%%%%%%%%%%%%%%%%%%%%%%%%%%
18121A2%%%%%%%%%%%%%%%%%%%%%%%%%%%%%Qq%%Q%q%%Qq%%%%%%%%%%%%%%%%%%%%%%%%%%%%%
18105A2%%%%%%%%%%%%%%%%%%%%%%%%%%%%%%%%%%%%%%%%%%%%%%%%%%%%%%%%%%%%%%%%%%%%%
18090A2%%%%%%%%%%%%%%%%%%%%%%%%%%%%%%%%%%%%%%%%%%%%%%%%%%%%%%%%%%%%%%%%%%%%%
18074A2%%%%%%%%%%%%%%%%%Qq%%%%%%%%%%%%%%%%%%%%%%%%%%%%%%%%%%%%%%%%%%%%%%%%%%
18058A2%%%%%%%%Qq%%Qj6J6q%%Qq%%%%%%%%%%%%%%%%%%%%%%%%%%%%%%%%%%%%%%%%%%%%%%%
18043A2%%%%%%%%%%%%%%%%%%%%%%%%%%%%%%%%%%%%%%%%%%%%%%%%%%%%%%%%%%%%%%%%%%%%%
18027A2%%%%%Qq%%%%%%%%%Qq%%%%%%%%%%%%%%%%%%%%%%%%%%%%%%%%%%%%%%%%%%%%%%%%%%%
18011A2%%%%%%%%%%%%%%%%%%%%%%%%%%%%%%%%Qq%%%%%%%%%%%%%%%%%%%%%%%%%%%%%%Q%%q%
17995A2%%%%%%%%%Qq%%Qq%%%%%%%%%%%%%%%%%%%%%%%%%%%%%%%%%%%%%%%%QqQq%%%%%%%%%%
17980A2%%%%%%%%%%%%%%%%%%%%%%%%%%%%%%%%%%%%%%%%%%%%%%%%%%%%Qq%%%%%%%%%%%%%%%
17964A2%%%%%%%%%%%%%%%%%%%%%%%%%%%%%%%%%%%%%%%%%%%%%%%%%Qq%%%%%%%%%%%%%%%%%%
17948A2%%%%%%%%%%%%%%%%%%%%%%%%%%%%%%%%%%%%%%%qQQqqQ%J6j6%%QqQq%%%%%%Qq%Qq%%
17933A2%%%%%%%%%%%%%%%%%%%%%%%%%%%%%%%%%%%%%%%%%%%%%%%%%%%%%%%%%%%%%%%%%%%%%
17917A2%%%%%%%%%%%%%%%%%%%%%%%%%%%%%%%%%%%%%Q%q%%%%%%%%%%%%%%%%%%%%%%%%%%%%%
17901A2%%%%%%%%%%%%%%%%%%%%%%%%%%%%%%%%%%%%%%%%%%%%%%%%Qq%%%%%%%%%%%%%%%%%%%
17885A2%%%%%%%%%%%%%%%%%%%%%%%%%%Q%q%%%%%%%%%%%%%%%%%%%%%%%%%%%%%%%%%%%%%%%%
17869A2%%%%%%%%%%%%%%%%%%%%%%%%%%%%%%%%%%%%%%%%%%%%%%%%%%%%%%%%%%%%%%%%%%%%%
17854A2%%%%%%%%%%%%%%%%%%%%%%%%%%%%%%%%%%%%%%%%%%%%%%%%%%%%%%%%%%%%%%%%%%%%%
17838A2%%%%%%%%%%%%%%%%%%%%%%%%%%%%%%%%%%%%%%%%%%%%%%%%%%%%%%%%%%%%%%%%%%%%%
17822A2%%%%%%%%%%%%%%%%%%%%%%%%%%%%%%%%%%%%%%%%%%%%%%%%%%%%%%%%%%%%%%%%%%%%%
17806A2%%%%%%%%%%%%%%%%%%%%%%%%%%%%%%%%%%%%%%%%%%%%%%%%%%%%%%%%%%%%%%%%%%Qq%
17790A2%%%%%%%%%%%%%%%%%%%%%%%%%%%%%%%%%%%%%%%%%%%%%%%%%%%%%%%%%%%%%%%%%%%%%
17775A2%%%%%%%%%%%%%%%%%%%%%%%%%%%%%%%%%%%%%%%%%%%%%%%%%%%%%QqQq%%%%%%%%%Qq%
17759A2%%%%%%%%%%%%%%%%%%%%%%%%%%%%%%%%%%%%%%%%%%%%%%%%%%%%%%%%%%%%%%%%%%%%%
17743A2%%%%%%%%%%%%%%%%%%%%%%%%%%%%%%%%%%%%%%%%%%%%%Qq%%%%%%%%%%%%%%%%%%%%%%
17727A2%%%%%%%%%%%%%%%%%%%%%%%%%%%%%%%%%%%%%%%%%%%%%%%%%%%%%%%%Qq%%%%%%%%%%%
17711A2%%%%%%%%qQ%%Qq%%%%Qq%%qQ%%qQqJ6k4K4qJ6qqqqQJ6%j6Q%%%%%QqQq%Qq%Qq%%%%Q
17697B0q%%%%%%%%%%%%%%%%%%%%%%%%%%%%%%%%%%%%%%%%%%%%%%%%Qq%%%%%%%%%%%%%%%%%%
17681A2%%%%%%%%%%%%%%%%%%%%%%%%%%%%%%%%%%%%%%%%%%%%%%%%%%%%%%%%%%%%%%%%%%%%%
17665A2%%%%%%%%%%%%%%%%%%%%%%%%%%%%%%%%%%%%%%%%%%%%%%%%%%%%%%%%%%%%%%%%%%%%%
17650A2%%%%%%%%%%%%%%%%Qq%%%%%%%%%%%%%%%%%%%%%%%%%%%%%%%%%%%%%%%%%%%%%%%%%%%
17634A2%%%%%%%%%%%%%%%%%%Qq%%%%%%%%%%%%%%%%%%%%%%%%%%%%%%%%%%%%%%%%%%%%%%%%%
17618A2%%%%%%%%%%%%%%%%%%%%%%%%%%%%%%%%%%%%%%%%%%%%%%%%%%%%%%%%%%%%%%%%%%%%%
17602A2%%%%%%%%%%%%%%%%%%%%%%%%%%%%%%%%%%%%%%Qq%%%%%%%%%%%%%%%%%%%%%%%%%%%%%
17587A2%%%%%%%%%%%%%%%%%%%%%%%%%%%%%%%%%%%%%%%%%%%%%%%%%%%%%%%%%%%%%%%%%%%%%
17571A2%%%%%%%%%%%%%%%%%%%%Qq%%%%%%%%Qq%%%%%%%%%%%%%%%%%%%%%%%%%%%%%%%%%%%%%
17555A2%%%%%%%%%%%%%%%%%%%%%%%%%%%%%%%%%%%%%%%%%%%%%%%%%%%%%%%%%Qq%%%%%%%%%%
17539A2%%%%%%%%%%%%%%%%%%%%%%%%%%%%%%%%%%%%%%%%%%%%%%Qq%Qj6Q%Qq%%%%%%%%%%%%%
17524A2%%%%%%%%%%%%%%%%%%%%%%%%%%%%%%%%%%%%%%%%%%Qq%%%%%%%%%%%%%%%%%%%%%%%%%
17508A2%%%%%%%%%%%%%%%%%%%%%%%%%%%%%%%%%%%%%%%%%%%%%%%%%%%%%%%%%%%%%%%%%%%%%
17492A2%%%%%%%%%%%%%%%%%%%%%%%%%%%%%%%%%%%%%%%%%%%%%%%%%%%%%%%%%%%%%%%%%%%%%
17476A2%%%%%%%%%%%%%%%%%%%%Qq%%%%%%%%%qQQq%%%%%%%%%%%%%Qq%%%%%%%%%%%%%%%%%%%
17460A2%%%%%%%%%%%%%%%%%%%%%%%%%%%%%%%%%%%%%%%%%%%%%%%%%%%%%%%%%%%%%%%%%%%%%
17445A2%%%%%%%%%%%%%%%%%%%%%%%%Qq%%%%%%%%%%%%%%%%%%%%%%%%%%%%%%%%%%%%%%%%%%%
17429A2%%%%%%%%%%%%%%%%%%%%%%%%%%%%%%%%%%%%%%%%%%%%%%%%%%%%%%%%%%%%%%%%%%%%%
17413A2%%%%%%%%%%%%%Qq%%%%%%%%%%%%%%%%%%Qq%%%%%%%%%%%%%%%%%%%%%%%%%%%%%%%%%%
17397A2%%%%%%%%%%%%%%%%%%%%%%%%%%%%%%%%%%%%%%%%%%%%%%%%%%%%%%%%%%%%%%%%%%%%%
17381A2%%%Qq%%%%%%%%%%%%%%%%%%%%%%%%%%%%%%%%%%%%%%%%%%%%%%%%%%%%%%%%%%%%%%%%
17366A2%%%%%%%%%%%%%%%%%%%%%%%%%%%%%%%Qq%%%%%%%Qq%%%%%%%%%%%%%%%%%%QqqQ%%Qq%
17350A2%%%%%%%%%%%%%%%%%%%%%%%%%%%%%%%%%%%%%%%%%%%%%%%%%%%%%%%%%%%%%%%%%%%%%
17334A2%%%%%%%%%%%%%%%%%%%%%%%%%%%%%%%%%%%%%%%%%%%%%%%%%%%%%%%%%%%%%%%%%%%%%
17318A2%%%%%%%%%%%%%%%%%%%%%%%%%%%%%%%%%%%%%%%%%%%%%%%%%%%%%%%%%%%%%%%%%%%%%
17302A2%%%%%%%%%%%%%%%%%%%%%%%%%%%%%%%%%%%%%%%%Qq%%Qq%%%%%%%%%%%%%%%%%%%%%%%
17287A2%%%%%%%%%%%%%%%%%%%%%%%%Qq%%%%%%%%%%%%%%%%%%%%%%%%%%%%%%%%%%%%%%%%%%%
17271A2%%%%%%%%%%%%%%%%%%%%%%%%%%%%%%%%%%%%%%%%%%%%%%%%%%%%%%%%%%%%%%%%%%%%%
17255A2%%%%%%%%%%%%%%%%%%%%%%%%%%%%%%%%%%%%%%%%%%%%%%%%%%%%%%%%%%%%%%%%%%%%%
17239A2%%%%%%%%%%%%%%Q%qQqQqK4j6qqQQq%%%%%%%%%%%%%%%%%%%%%%%%%%%%%%%%%%%%%%%
17224A2%%%%%%%%%%%%%%%%%%%%%%%%%%%%%%%%%%%%%%%%%%%%%%%%%%%%%%%%%%%%%%%%%%%%%
17208A2%%%%%%%%%%%QqQq%%%%%%%%%%%%%%%%%%%%%%%%%%%%%%%%%%%%%%%%%%%%%%%%%%%%%%
17192A2%%%%%%%%%%%%%%%%%%%%%%%%%%%%%%%%%%%%%%%%%%%%%%%%%%%%%%%%%%%Qq%%%%%%%%
17177A2%%%%%%%%%%%%%%%%%%%%%%%%%%%%%%%%%%%%%%%%%%%%%%%%%%%%%%%%%%%%%%%%%%%%%
17161A2%%%%%%%%%%%%%%%%%%%%%%%%%%%%%%%%%%%%%%%%%%%%%%%%%%%%%%%%%%%%%%%%%%%%%
17145A2%%%%%%%%%%%%%%%%%%%%%%%%%%Qq%%%%%%%%%%%%%%%%%%%%%%%%%%%%%%%%%%%%%%%%%
17129A2%%%%%%%%%%%%%%%%%%%%%%%%%%%%%%%%%%%%%%%%%%%%%%Qq%%%%%%%%%%%%%%%%%%%%%
17113A2%%%%%%%%%%%%%%%%%%%%%%%%%%%%%%%%%%%%%%%%%%%%%%Q%q%%%%%%%%%%%%%%%%%%%%
17098A2%%%%%%%%%%%%%%%%%%%%%%%%%%%%%%%%%%%%%%%%QqQq%%%%%%%%%%%%%%%%%%%%%%%%%
17082A2%%%%%%%%%%%%%%%%%%%%%%%%%%%%%%%%%%%%%%%%%%%%%%%%%%%%%%%%%%%%%%%%%%%%%
17066A2%%%%%%%%%%%%%%%%%%%%%%%%%%%%%Qq%%Qq%Qq%%%%%%%%%%%%%%%%%%%%%%%%%%%%%%%
17050A2%%%%%%%%%%%%%%%%%%%%%%%%%%%%%%%%%%%%%%%%%%%%%%%%%%%%%%%%%%%%%%%%%%%%%
17034A2%%%%%%%%%%%%%%%%%%%%%%%%%%%%%%%%%%%%%%%%%%%%%%%%%%%%%%%%%%%%%%%%%%%%%
17019A2%%%%%%%%%%%%%%%%%%%%%%%%%%%%%%%%%%%%%%%%%%%%%%%%%%%%%%%%%%%%%%%%%%%%%
17003A2%%%%%%%%Q%q%Q%q%%%%%Qq%%%%%%%%%%%%%%%%%%%%%%%%%%%%%%%%%%%%%%%%%%%%%%%
16987A2%%%%%%%%%%%%%%%%%%%%%%%%%%%%%%%%%%%%%%Qq%%%%%%%%%%%%%%%%%%%%%%%%%%%%%
16971A2%%%%%%%%%%%%%%%%%%%%%%%%%%%%%%%%%%%%%%%%%%%%%%%%%%%%%%%%%%%%%%%%%%%%%
16955A2%%%%%%%%%%%%%%%%%%%%%%%%%%%%%%%%%%%%%%%%%%%%%%%%%%%%%%%%%%%%%%%%%%%%%
16940A2%%%%%%%%%%%%%%%%%%%%%%%%%%%%%%%%%%%%%%%%%%%%%%%%%%%%%%%%%%%%%%%%%%%%%
16924A2%%%%%%%%%%%%%%%%%%%%%%%%%%%%%%%%%%%%%%%%%%%%%%%%%%Qq%%%%%%%%%%%%%%%%%
16908A2%%%%%%%%%%%%%%%%%%%%%%%%%%%%%%%%%%%%%%%%%%%%%%%%%%%%%%%%%%%%%%%%%%%%%
16892A2%%%%%%%%%%%%%%%%%%%%%%%%%%%%%%%%%%%%%%%%%%%%%Qq%%%%%%%%%%%%%%%%%%%%%%
16877A2%%%%%%%%%%%%%%%%%%%%%%%%%%%%%%%%%%%%%%%%%%%%%%%%%%%%%%%%%%%%%%%%%%%%%
16861A2%%%%%%%%%%%%%%%%%%%%%%%%%%Qq%%%%%%%%%%Qq%%%%%%%%%%%%%%%%%%%%%%%%%%%%%
16845A2%%%%%%%%%%%%%%%%%%%%%%%%%%Qq%%Qq%%%%%%%%%%%%%%%%%%%%%%%%%%%%%%%%%%%%%
16829A2%%%%%%%%%%%%%%%%%%%%Qq%%%%%%%%%%%%%%%%%%%%%%%%%%%%%%%%%%%%%%%%%%%%%%%
16813A2%%%%%%%%%%%%%%%%%%%%%%%%%%%%%%%%%%%%%%%%%%%%%%%%%%%%%%%%%%%%%%%%%%%%%
16798A2%%%%%%%%%%%%%%%%%%%%%%%%%%%%%%%%%%%%%%%%%%%%%%%%%%%%%%%%%%%%%%%%%%%%%
16782A2%%%%%%%%%%%%%%%%%%%%%%%%%%%%%%%%%%%%%%%%%Q%q%%%%%%%%%%%%Q%q%%Q%q%%qQJ6
16766B8j6%q%QqJ6qqJ6q%%%%%%%%%%%Qq%%%%%%%%%%%%%%%%%%%%%%%%%%%%%%%%%%%%%%%%%%
16751A2%%%%%%%%%%%%%%%%%%%%%%%%%%%%%%%%%%%%%%%%%%%%%%%%%%%%%%%%%%%%%%%%%%%%%
16735A2%%%%%%%%%%%%%%%%%%%%%%%%%%%%%%%%%%%%%%%%%%%%%%%%%%%%%%%%%%%%%%%%%%%%%
16719A2%%%%%%%%%%%%%%%%%%%%%%%%%%%%%%%%%%%%%%%%%%%%%%%%%%%%Qq%%%%%%%%%%%%%%%
16703A2%%%%%%%%%%%%%%%%%%%%%%%%%%%%%%%%%%%%%%%%%%%%%%%%%%%%%%%%%%%%%%%%%%%%%
16688A2%%%%%%%%%%%%%%%%%%%%%%%%%%%%%%%%%%%%%%%%%%%%%%%%%%%%%%%%%%%%%%%%%%%%%
16672A2%%%%%%%%%%%%%%%%%%%%%%%%%%%%%%%%%%%%%%%%%%%%%%%%%%%%%%%%%%%%%%%%%%%%%
16656A2%%%%%%%%%%%%%%%%%%%%%%%%%%%%%%%%%%%%%%%%%%%%%%%%%%%%%%%%%%%%%%%%%%%%%
16640A2%%%%%%%%%%%%%%%%%%%%%%%%%%%%%Qq%%%%%%%%%%%%%%%%%%%%%%%%%%%%%%%%%%%%%%
16625A2%%%%%%%%%%%%%%%%%%%%%%%%%%%%%%%%%%%%%%%%%%%%%%%%%%%%%%%%%%%%%%%%%%%%%
16609A2%%%%%%%%%%%%%%%%%%%%%%%%%%%%%%%%%%%%%%%%%%%%%%%%%%%%%%%%%%%%%%%%%%%%%
16593A2%%%%%%%%%%%Qq%Qq%%Qq%%%%%%%%%%%%%%%%%%%%%%%%%%%%%%%%%%%%%%%%%%%%%%%%%
16577A2%%%%%%%%%%%%%%%%%%%%%%%%%%%%%%%%%%%%%%%%%%%%%%%%%%%%%%%%%%%%%%%%%%%%%
16561A2%%%%%%%%%%%%%%%%%%%%%%%%%%%%%%%%%%%%%%%%%%%%%%%%%%%%%%%%%%%%%%%%%%%%%
16546A2%%%%%%%%%%%%%%%%%%%%%%%%%%%%Qq%%%%%%%%%%%%%%%%%%%%%%Qq%%%qJ6%q%%%%Q%q
16530A2%%%%%%%%%%%%%%%%%%%%%%%%%%%%%%%%%%%%%%%%%%%%%%%%%%%%%%%%%%%%%%%%%%%%%
16514A2%%%%%%%%%%%%%%%%%%%%%%%%%%%%%%%%%%%%%%%%%%%%%%%%%%%%%%%%%%%%%%%%%%%%%
16498A2%%%%%%%%%%%%%%%%%%%%%%%%%%%%%%%%%%%%%%%%%%%%%%%%%%%%%%%%%%%%%%%%%%%%%
16483A2%%%%%%%%%%%%%%%%%%%%%%%%%%%%%%%%%%%%%%%%%%%%%%%%%%%%%%%%%%%%%%%%%%%%%
16467A2%%%%%%%%%%%%%%%%%%%%%%%%%%%%%%%%%%%%%%%%%%%%%%%%%%%%%%%%%%%%%%%%%%%%%
16451A2%%%%%%%%%%%%%%%%%%%%%%%%%%%%%%%%%%%%%%%%%%%%%%%%%%%%%%%%%%%%%%%%%%%%%
16435A2%%%%%%%%%%%%%%%%%%%%%%%%%%%%%%%%%%%%%%%%%%%%%%%%%%%%%%%%%%%%%%%%%%%%%
16419A2%%%%%%%%%%%%%%%%%%%%%Q%qqQ%%%%%%%%%%%%%%%%%%%%%%%%%%%%%%%%%%%%%%%%%%%
16404A2%%%%%%%%%%%%%%%%%%%%%%%%%%%%%%%%%%%%%%%%%%%%%%%%%%%%%%%%%%%%%%%%%%%%%
16388A2%%%%%%%%%%%%%%%%%%%%%%%%%%%%%%%%%%%%%%%%%%%%%%%%%%%%%%%%%%%%%%%%%%%%%
16372A2%%%%%%%%%%%%%%%%%%%%%%%%%%%%%%%%%%%%%%%%%%%%%%%%%%%%%%%%%%%%%%%%%%Qq%
16356A2%%%Q%q%%%%%%%%%%%%%%%%%%%%%%%%%%%%%%%%%%%%%%%%%%%%%%%%%%%%%%%%%%%%Qq%
16340A2%%%%%%%%%%%%%%%%%%%%%%%%%%%%%%%%%%%%%%%%%%%%%%%%%%%%%%%%%%%%%%Qq%%%%%
16325A2%%%%%%%%%%%%%%%%%%%%%%%%%%%%%%%%%%%%%%%%%%%%%%%%%%%%%%%%%%%%%%%%%%%%%
16309A2%%%%%%%%%%%%%%%%%%%%%%%%%%%%%%%%%%%%%%%%%Qq%Qq%Qq%qQ%Qq%%%%%%%%%%%%%%
16293A2%%%%%%%%%%%%%%%%%%%%%%%%%%%%%%%%%%%%%%%%%%%%%%%%%%%%%%%%%%%%%%%%%%%%%
16277A2%%%%%%%%%%%%%%%%%%%%%%%%%%%%%%%%%%%%%%%%%%%Qq%%%%%%%%%%%%%%%%%%%%%%%%
16262A2%%%%%%%%%%%%%%%%%%%%%%%%%%%%%%%%%%%%%%%%%%%%%%%%%%%%%%%%%%%%%%%%%%%%%
16246A2%%%%%%%%%%%%%%%%%%%%%%%%%%%%%%%%qQ%%%%%%%%%%%%%%%%%%%%%%%%%%%%%%%%%%%
16230A2%%%%%%%%%%%%%%%%%%%%%%%%%%%%%%%%%%%%%%%%%%%%%%%%%%%%%%%%%%%%%%%%%%%%%
16214A2%%%%%%%%%%%%%%%%%%%%%%%%%%%%%%%%%%%%%%%%%%%%%%%%%%%%%%%%%%%%%%%%%%%%%
16198A2%%%%%%%%%%%%%%%%%%%%%%%%%%%%%%%%%%%%%%%%%%%%%%%%%%%%%%%%%%%%%%%%%%%%%
16183A2%%%%%%%%%%%qQqQ%%%%%%%%%%%%%%%%%%%%%%%%%%%%%%%%%%%%%%%%%%%%%%%%%%%%%%
16167A2%%%%%%Qq%%%%%%%%%%%%%%%%%%%%%%%%%%%%%%%%%%%%%%%%%%%%%%%%%%%%%%%%%%%%%
16151A2%%%%%%%%%%%%%%%%%%%%%%%%%%%%%%%%%%%%%%%%%%%%%%%%%%%%%%%%%%%%%%%%%%%%%
16135A2%%%%%%%%%%%%%%%%%%%%%%%%%%%%%%%%%%%%%%%%%%%%%%%%%%%%%%%%%%%%%%%%%%%%%
16119A2%%%%%%%%%%%%%%%%%%%%%%%%%%%%%%%%%%%%%%%%%%%%%%%%%%%%%%%%%%%%%%%%%%%%%
16104A2%%%%%%%%%%%%%%%%%%%%%%%%%%%%%%%%%%%%%%%%%%%%%%%%%%%%%%%%%%%%%%%%%%%%%
16088A2%%%%%%%%%%%%%Qq%%%%%%%%%%%%%%%%%%%%%%%%%%%%%%%%%%%%%%%%%%%%%%%%%%%%%%
16072A2%%%%%%%%%%%%%%%%%%%%%%%%%%%%%%%%%%%%Qq%%%%qQ%%%%%%%%%%%%%%%%%%%%%%%%%
16056A2%%%%%%%%%%%%%%%%%%%%%%%%%%%%%%%%%%%%%%%%%%%%%%%%%%%%%%%%%%%%%%%%%%%%%
16040A2%%%%%%%%%%%%%%%%%%%%%%%%%%%%%%%%%%%%%%%%%%%%%%%%%%%%%%%%%%%%%%%%%%%%%
16025A2%%%%%%%%%%%%%%%%%%%%%%%%%%%%%%%%%%%%%%%%%%%%%%%%%%%%%%%%%%%%%%%%%%%%%
16009A2%%%%%%%%%%%%%%%%%%%%%%%Qq%%%%%%%%%%%%%%%%%%%%%%%%%%%%%%%%%%%%%%%%%%%%
15993A2%%%%%%%%%%%%%%%%%%%%%%%%%%%%%%%%%%%%%%%%%%%%%%%%%%%%%%%%%%%%%%%%%%%%%
15977A2%%%%%%%%%%%%%%%%%%%%%%%%%%%%%%%%%%%%%%%%%%%%%%%%%%%%%%%%%%%%%%%%%%%%%
15961A2%%%%%%%%%%%%%%%%%%%%%%%%%%%%%%%%%%%%%%%%%%%%%%%%%%%%%%%%%%%%%%%%%%%%%
15946A2%qQ%qQ%%%%%%%%%%%%%%%%%%%%%%%%%%%%%%%%%%%%%%%%%%%%%%%%%%%%%%%%%%%%%%%
15930A2%%%%%%%%%%%%%%%%%%%%%%%%%%%%%%%%%%%%%%%%%%%%%%%%%%%%%%%%%%%%%%%%%%%%%
15914A2%%%%%%%%%%%%%%%%%%%%%%%%%%%%%%%%%%%%%%%%%%%%%%%%%%%%%%%%%%%%%%%%%%%%%
15898A2%%%%%%%%%%%%%%%%%%%%%%%%%%%%%%%%%%%%%%%%%%%%Qq%%%Qq%%%%%%%%%%%%%%%%%%
15882A2%%%%%%%%%%%%%%%%%%%%%%%%%%%%%%%%%%%%%%%%%%%Qq%%%%%%%%%%%%%%%%%%%%%%%%
15867A2%%%%%%%%%%%%%%%%%%%%%%%%%%%%%%%%%%%%%%%%%%%%Qq%%%%%%%%%%%%%%%%%%%%%%%
15851A2%%%%%%%%%%%%%%%%%%%%%%%%%%%%%%%%%%qQ%%%%%%%%%%%%%%qQ%%%%%%%%%%%%%%%%%
15835A2Qq%Q%q%%%%%%%%%%%%Qq%%J6q%m0L2k4J20q0m8J12m0m0qj6M0%k4%J6qQqQq%qJ6%qQ
15823B0qqJ6qQq%%%%%Qq%%%%%%%%%%%%%%%%%%%%%%Qq%%%%%%%%%%%%%%%%%%%%%%%%%%%%%%%
15808A2%%%%%%%%%%%%%%%%%%%%%%%%%%%%%%%%%%%%%%%%Qq%%%%%%%%%%%%%%%%%%%%%%%%%%%
15792A2%%%%%%%%%%%%%%%%%%%%%%%%%%%%%%%Qq%%%%%%%%%%%%%%%%%%%%%%%%%%%%%%%%%%%%
15776A2%%%%%%%%%%%%%%%%%%%%%%%%%%%Qq%%%%%%%%%%%%%%%%%%%%%%%%%%%%%%%%%%%%%%%%
15760A2%%%%%%%%%%%%%%%%%%%%%%%%%%%%%%%%%%%%%%%%%%%%%%%%%%%%%%%%%%%%%%%%%%%%%
15744A2%%%%%%%%%%%%%%%%%%%%%%%%%%%%%%%%%%%%%%%%%%%%%%%%%%%%%%%%%%%%%%%%%%%%%
15729A2%%%%%%%%%%%%%%%%%%%%%%%%%%%%%%%%%%%%%%%%%%%%%%%%%%%%%%%%%%%%%%%%%%%%%
15713A2%%%%%%%%%%%%%%%%%%%%%%%%%%%%%%%%%%%%%%%%%%%%%%%%%%%%%%%%%%%%%%%%%%%%%
15697A2%%%%%%%%%%%%%%%%%%%%%%%%%%%%%%%%%%%%%%%%%%%%%%%%%%%%%%%%%%%%%%%%%%%%%
15681A2%%%%%%%%%%%%%%%%%%%%%%%%%%%%%%%%%%%%%%%%%%%%%%%%%%%%%%%%%%%%%%%%%%%%%
15666A2%%%%%%%%%%%%%%%%%%%%%%%%%%%%%%%%%%%%%%%%%%%%%%%%%%%%%%%%%%%%%%%%%%%%%
15650A2%%%%%%%%%%%%%%%%%%%%%%%%%%%%%%%%%%%%%%%%%%%%%%%%%%%%%%Qq%%%%%%%%%%%%%
15634A2%%%%%%%%%%%%%%%%%%%%%%%%%%%%%%%%%%%%%%%%%%%%%%%%%%%%%%%%%%%%%%%%%%%%%
15618A2%%%%%%%%%%%%%%%%%%%%%%%%%%%%%%%%%%%%%%%%%%%%%%%%%%%%%%%%%%%%%%%%%%%%%
15602A2%%%%%%%%%%%%%%%%%%%%%%%%%%%%%%%%%%QqQq%%q%QQq%%%%%%%%%%%%%%%%%%%%%%%%
15587A2%%%%%%%%%%%%%%%%%%%%%%%%%%%%%%%%%%%%%%%%%%%%%%%%%%%%%%%%%%%%%%%%%%%%%
15571A2%%%%%%%%%%%%%%%%%%%%%%%%%%%%%%Qq%%%%%%%%%%%%%%%%%%%%%%%%%%%%%%%%%%%%%
15555A2%%%%%%%%%%%%%%%%%%%%%%%%%%%%%%%%%%%%%%%%%%%%%%%%%%%%%%%%%%Qq%%%%%%%%%
15539A2%%%%%%%%%%%%Qq%%%%%%%%%%%%%%%%%%%%%%%%%%%%%%%%%%%%%%%%%%%%%%%%%%%%%%%
15523A2%%%%%%%%%%%Qq%%%%%%%%%%%%%%%%%%%%%%%%%%%%%%%%%%%%%%%%%%%%%%%%%%%%%%%%
15508A2%%%Qq%%%%%%%%%%%%%%%%%%%%%%%%%%%%%%%%%%%%%%%%%%%%%%%%%%%%%%%%%%%%%%%%
15492A2%Qq%%%%%%%%%%%%%%%%%%%%%%%%%%%%%%%%%%%%%%%%%%%%%%%%%%%%%%%%%%Q%qQj6J6
15476B0j6J6q%%%%%%%%%%%%%%%%%%%%%%%%%%%%%%%%%%%%%%%%%%%%%%%%%%%%%%%%%%%%%%%%
15461A2%%%%%%%%%%%%%%%%%%%%%%%%%%%%%%%%%%%%%%%%%%%%%%%%%%%%%%%%%%%%%%%%%%%%%
15445A2%%%%%%%%%%%%%%%%%%%%%%%%%%%%%%%%%%%%%%%%%%%%%%%%%%%%%%%%%%%%%Qq%%%%%%
15430A2%%%%%%%%%%%%%%%%%%%%%%%%%%%%%%%%%%%%%%%%%%%%%%%%%%qQ%%%%%%%%%%%%%%%%%
15414A2%%%%%%%%%%%%%%%%%%%%%%%%%%%%%%%%%%%%%%%%%%%%%%%%%%%%%%%%%%%%%%%%%%%%%
15398A2%%%%%%%%%%%%%%%%%%%%%%%%%%%%%%%%%%%%%%%%%Qq%%%%%%%%%%%%%%%%%%%%%%%%%%
15382A2%%%%%%%%%%%%%%%%%%%%%%%%%%%%%%%%%%%%%%%%%%%%%%%%%%%%%%%%%%%%%%%%%%%%%
15366A2%%%%%%%%%%%%%%%%%%%%%%%%%Qq%%QqqQ%Qq%%%%%%%%%%%%%%%%%%%%%%%%%%%%%%%%%
15351A2%%%%%%%%%%%%%%%%%%%%%%%%%%%%%%%%%%%%%%%%%%%%%%%%%%%%%%%%%%%%%%%%%%%%%
15335A2%%%%%%%%%%%%%%%%%%%%Qq%%%%%%%%%%%%%%%%%%%%%%%%%%%%%%%%%%%%%%%%%%%%%%%
15319A2%%%%%%%%%%%%%%%%%%%%%%%%%%%%%%%%%%%%%%%%%%%%%%%%%%%%%%%%%%%%%%%%%%%%%
15303A2%%%%%%%%%%Qq%%%%%%%%%%%%%%%%%%%%%%%%%%%%%%%%%%%%%%%%%%%%%%%%%%%%%%%%%
15287A2%%%%%%Qq%%%%%%%%%%%%%%%%%%%%%%%%%%%%%%%%%%%%%%%%%%%%%%%%%%%%%%%%%%%%Q
15272B0q%%%%%%%%%%%%%%%%%%%%%%%%%%%%%%%%%%%%%%%%%%%%%%%%%%%%%%%%%%%%%%%Qq%%%
15256A2%%%%%%%%%%%%%%%%%%%%%%%%%%%%%%%%%%%%%%%%%%%%%%%%%%%%%Qq%QqQqQq%%%%%%%
15240A2%%%%%%%%%%%%%%%%%%%%QqQq%%%%%%%%%%%%%%%%%%%%%%%%%%%%%%%%%%%%%%%%%%%%%
15224A2%%%%%%%%%%%%%%%%%%%%%%%%%%%%%%%%%%%%%%%%%%%%%%%%%%%%%%%%%%%%%%%%%%%%%
15208A2%%%%%%%%%%%%%%%%%%%%%%%%%%%%%%%%%%%%%%%%%%%%%%%%%%%%%%%%%%%%%%%%%%%%%
15193A2%%%%%%%%%%%%%%%%%%%%%%%%%%%%%%%%%%%%%%%%%%%%%%%%%%%%%%%%%%%%%%%%%%%%%
15177A2%%%%%%%%%%%%%%%%%%%%%%%%%%%%%%%%%%%%%%%%%%%%%%%%%%%%%%%%%%%%%%%%%%%%%
15161A2%%%%%%%%%%%%%%%%%%%%%%%%%%%%Qq%%%%%%%%%%%%%%%%%%%%%%%%%%%%%%%%%%%%%%%
15145A2%%%%%%%%%%%%%%%%%%%%%%%Qq%%%%%%%%%%%%%%%%%%%%%%%%%%%%%%%%%%%%%%%%%%%%
15129A2%%%%%%%%%%%%%%%%%qQ%Qq%%%%%%%%%%%%%%%%%%%%%%%%%%%%%%%%%%%%%%%%%%%%%%%
15114A2%%%%%%%%%%%%%%%%%%%%%%%%%%%%%%%%%%%%%%%%%%%%%%%%%%%%%%%%%%%%%%%%%%%%%
15098A2%%%%%%%%%%%%%%%%%%%%%%%%%%%%%%%%%%%%%%%%%%%%%%%%%%%%%%%%%%%%%%%%%%%%%
15082A2%%%Qq%%%%%%%%%%%%%%%%%%%%%%%%%%%%%%%%%%%%%%%%%%%%%%%%%%%%%%%%%%%%%Q%q
15066A2%%%%%%%%%%%%%%%%%%%%%%%%%%%%%%%%%%%%%%%%%%%%%%%%%%%%%%%%%%%%%%%%%%%%%
15051A2%%%%%%%%%%%%%%%%%%%%%%%%%%%%%%%%%%%%%%%%%%%%%%%%%%%%%%%%%%%%%%%%%%%%%
15035A2%%%%%%%%%%%%%%%%%%%%%%%%%%%%%%%%%%%%%%%%%%%%%%%%%%%%%%%%%%%%%%%%%%%%%
15019A2%%%%%%%%%%%%%%%%%%%%%%%%%%%%%%%%%%%%%%%%%%%%%%%Qq%qQ%%%%%%%%%%%%%%%%%
15003A2%%%%%%%%%%%%%%%%%%%%%%%%%%%%%%%%%%%%%%%%%%%%%%%%%%%%%%%%%%%%%%%%%%%%%
14987A2%%%%%%%%%%%%%%%%%%%%%%%%%%%%%%%%%%%%%%%%%%%%%%%%%%%%%%%%%%%%%%%%%%%%%
14972A2%%%%%%%%%%%%%%%%%%%%%%%%%%%%%%%%%%%%%%%%%%%%%%%%%%%%%%%%%%%%%%%%%%%%%
14956A2%%%%%%%%%%%%%%%%%%%%%%%%%%%Qq%Qq%%%%%%%%%%%%%%%%%%%%%%%%%%%%%%%%%%%%%
14940A2%%%%%%%%%%%%%%%%%%%%%%%%%%%%%%%%%%%%%%%%%%%%%%%%%%%%%%%%%%%%%%%%%%%%%
14924A2%%%%%%%%%%%%%%%%%%%%%%%%%%%%%%%%%%%%%%%%%%%%%%%%%%%%%%%%%%%%%%%%%%%%%
14908A2%%%%%%%%%%%%%%%%%%%%%%%%%%%%%%%%%%%%%%%%%%%%%%%%%%%%%%%%%%%%%%%%%%%%%
14893A2%Q%%j6J6J6k4qQ%%Qj6J6q%Qq%Qq%%%%%Qq%%%%%%%%%%%%%%%%%%%%%%%%%%%%%%%%%%
14878A2%%%%%%%%%%%%%%%%%%%%%%%%%%%%%%%%%%%%%%%%%%%%%%%%%%%%%%%%%%%%%%%%%%%%%
14862A2%%%%%%%%%%%%%%%%%%%%%%%%%%%%%%%%%%%%%%%%%%%%%%%%%%%%%%%%%%%%%%%%%%%%%
14847A2%%%%%%%%%%%%%%%%%%%%%%%%%%%%%%%%%%%%%%%%%%%%%%%%%%%%%%%%%%%%%%%%%%%Qq
14831A2%%%%%%%%%%%%%%%%%%%%%%%%%%%%%%%%%%%%%%%%%%%%%%%%%%%%%%%%%%%%%%%%%%%%%
14815A2%%%%%%%%%%%%%%%%%%%%%%%%%%%%%%%%%%%%%%%%%%%%%%%%%%%%%%%%%%%%%%%%%%%%%
14799A2%%%%%%%%%%%%%%%%%%%%%%%%%%%%%%%%%%%%%%%%%%%%%%%%%%%%%%%%%%%%%%%%%%%%%
14783A2%%%%%%%%%%%%%%%%%%%%%%%%%%%%%%%%%%%%%%%%%%%%%%%%%%%%%%%%%%%%%%%%%%%%%
14768A2%%%%%%%%%%%%%%%%%%%%%%%%%%%%%%%%%%%%%%%%%%%%%%%%%%%%%%%%%%%%%%%%%%%%%
14752A2%%%%%%%%%%%%%%%%%%%%%%%%%%%%%%%Qq%%%%%%%%%%%%%%%%%%%%%%%%%%%%%%%%%%%%
14736A2%%%%%%%%%%%%%%%%%%%%%%%%%%%%%%%%%%%%%%%%%%%%%%%%%%%%%%%%%%%%%%%%%%%%%
14720A2%%%%%%%%%%%%%%%%%%%%%QqqQ%%%%%%%%%%%%%%%%%%%%%%%%%%%%%%%%%%%%%%%%%%%%
14704A2%%%%%%%%%%%%%%%%%%%%%%%%%%%%%%%%%%%%%%%%%%%%%%%%%%%%%%%%%%%%%%%%%%%%%
14689A2%%%%%%%%%%%%%%%%%%%%%%%%%%%%%%%%%%%%%%%%%%%%%%%%%%%%%%%%%%%%%%%%%%%%%
14673A2%%%%%%%%%%%%%%%%%%%%%%%%%%%%%%%%%%%%%%%%%%%%%%%%%%%%%%%%%%%%Qq%%%Qq%%
14657A2Qq%Qq%%%Qq%%%Qq%%%%%%%%%%%%%%%%%%%%%%%%%%%%%%%%%%%%%%%%%%%%%%%%%%%%%%
14641A2%%%%%%%%%%%%%%%%%%%%%%%%%%%%%%%%%%%%%%%%%%%%%%%%%%%%%%%%%%%%%%%%%%%%%
14625A2%%%%%%%%%%%%%%%%%%%%%%%%%%%%%%%%%%%%%%%%%%%%%%%%%%%%%%%%%%%%%%%%%%%%%
14610A2%%%%%%%%%%%%%%%%%%%%%%%%%%%%%%%%%%%%%%%%%%%%%%%%%%Q%q%Qq%%%%%%%%%%%%%
14594A2%%%%%%%%%%%%%%%%%%%%%%%%%%%%%%%%%%%%%%%%%%%%%%%%%%%%%%%%%%%%%%%%%%%%%
14578A2%%%%%%%%%%%%%%%%%%%%%%%%%%%%%%%%%%%%%%%%%%%%Qq%%Qq%%%%%%%%%%%%%%%%%%%
14562A2%%%%%%%%%%%%%%%%%%%%%%%%%%%%%%%%%%%%%%%%%%%%%%%%%%%%%%%%%%%%%%%%%%%%%
14547A2%%%%%%%%%%%%%%%%%%%%%%%%%%%%%%qQQ%q%%%Qq%%%%%%%%%%%%%%%%%%%%%%%%%%%%%
14531A2%%%%%%%%%%%%%%%%%%%%%%%%%%%%%%%%%%%%%%%%%%%%%%%%%%%%%%%%%%%Qq%%%%%%%%
14515A2%%%%%%%%%%%%%%%%%%%%%%%%%%%%%%%%%%%%%%%%%%%%%%%%%%%%%%%%%%%%%%%%%%%%%
14499A2%%%%%%%%%%%%%%%%%%%%%%%%%%%%%%%%%%%%%%%%%%%%%%%%%%%%%%%%%%%%%%%%%%%%%
14483A2%%%%%%%%%%%%%%%%%%%%%%%%%%%%%%%%%%%%%%%%%%%%%%%%%%%%%%%%%%%%%%%%%%%%%
14468A2%%%%%%%%%%%%%%%%%%%%%%%%%%%%%%%%%%%%%%%%%%%%%%%%%%%%%%%%%%%%%%%%%%%%%
14452A2%%%%%%%%%%%%%%%%%%%%%%%%%%%%%%%%%%%%%%%%%%%%%%%%%%%%%%%%%%%%%%%%%%%%%
14436A2%%%%%%%%%%%%%%%%%%%%%%%%%%%%%%%Qq%%%%%%%Q%q%%%%%%Qq%%%%%%%QqQQ%j6%%q%
14420DQ%%%%%%%%%%%%%%%%%%%%%%%%%%%%%%%%%%%%%%%%%%%%%%%%%%%%%%%%%%%%%%%%%%%%%
14404A2%%%%%%%%%%%%%%%%%%%%%%%%%%%%%%%%%%%%%%%%%%%%%%%%%Q%q%%%%%%%%%%%%%%%%%
14389A2%%%%%%%%%%%%%%%%%%%%%%%%%%%%%%%%%%%%%%%%%%%%%%%%%%%%%%%%%%%%%%%%%%%%%
14373A2%%%%%%%%%%%%%%%%%%%%%%%%%%%%%%%%%%%%%%%%Qq%%%%%%%%%%%%%%%%%%%%%%%%%%%
14357A2%%%%%%%%%%%%%%%%%%%%%%%%%%%%%%%%%%%%%%Qq%%%%%%%%%%%%%%%%%%%%%%%%%%%%%
14341A2%%%%%%%%%%%%%%%%%%%%%%%%%%%%%%%%%%%%%%%%%%%%%%%%%%%%%%%%%%%%%%%%%%%%%
14325A2%%%%%%%%%%%%%%%%%%%%%%%%%%%%%%%%%%%%%%%%%%%%%%%%%%%%%%%%%%%%%%%%%%%%%
14310A2%%%%%%%%%%%%%%%%%%QqQ%j6Q%%%%%%%%%%%%%%%%%%%%%%%%%%%%%%%%%%%%%%%%%%%%
14294A2%%%%%%%%%%%%%%%%%%%%%%%%%%%%%%%%%%%%%%%%%%%%%%%%%%%%%%%%%%%%%%%%%%%%%
14278A2%%%%%%%%%%%Qq%%%%%%%%%%%%%%%%%%%%%%%%%%%%%%%%%%%%%%%%%%%%%%%%%%%%%%%%
14262A2%%%%%%%%%%%%%%%%%%%%%%%%%%%%%%%%%%%%%%%%%%%%%%%%%%%%%%%%%%%%%%%%%%%Q%
14247B0q%%QqQq%%%%%%%%%%%%%%%%%%%%%%%%%%%%%%%%%%%%%%%%%%%%%%%%%%%%%%%%%%%%%%
14231A2%%%%%%%%%%%%%%%%%%%%%%%%%%%%%%%%%%%%%%%%%%%%%%%%%%%%%%%%%%%%%%%%%%%%%
14215A2%%%%%%%%%%%%%%%%%%%%%%%%%%%%%%%%%%%%%%%%%%%%%%%%%%%%%%%Qq%%%%%%%%%%%%
14199A2%%%%%%%%%%%%%%%%%%%%%%%%%%%%%%%%%Qq%%%%%%%%%%%%%%%QqQ%q%%%%%%%%%%%%%%
14184A2%%%%%%%%%%%%%%%%%%%%%%%%%%%%%%%%%%%%%%%%%%%%%%%%%%%%%%%%%%%%%%%%%%%%%
14168A2%%%%%%%%%Qq%%%%%%%%%%%%%%%%%%%%%%%%%%%%%%%%%%Qq%%%%%%%%%%%%%%%%%%%%%%
14152A2%%%%%%%%%%%%%%%%%%%%%%%%%%%%%%%%%%%%%%%%%%%%%%%%%%%%%%%%%%%%%%%%%%%%%
14136A2%%%%%%%%%%%%%%%%%%%%%%%%%%%%%Qq%%Qq%%%Qq%%%%%%%%%%%%%%%%%%%%%%%%%%%%%
14120A2%%%%%%%%%%%%%%%%%%%%%%%%%%%%%%%%%%%%%%%%%%%%%%%%%%%%%%%%%%%%%%%%%%%%%
14105A2%%%%%%%%%%%%%%%%%%%%%%%%%%%%%%%%%%%%%%%%%%%%%%%%%%%%Qq%%%%%%%%%%%%%%%
14089A2%%%%%%%%%%%%%%%%%%%%%%%%%%%%%%%%%%%%%%%%%%%%%%%%%%%%%%%%%%%%%%%%%%%%%
14073A2%%%%%%%QqQq%Qq%%%%%%%%%%%%%%%%%%%%%%%%%%%%%%%%%%%%%%%%%%%%%%%%%%%%%%%
14057A2%%%%%%%%%%%%%%%%%%%%%%%%%%%%%%%%%%%%%%%%%%%%%%%%%%%%%%%%%%%%%%%%%%%%%
14041A2%%%%%%%%%%%%%%%%%%%%%%%%%%%%%%%%%%%%%%%%%%%%%%%%%%%%%%%%%%%%%%%%%%%%%
14026A2%%%%%%%%%%%%%%%%%%%%%%%%%%%%%%%%%%%%%%%%%%%%%%%%%%%Qq%%%%%Qq%%%%%%%%%
14010A2%%%%%%%%%%%%%%%%%%%%%%%%%%%%%%%%%%%%%%%%%%%%%%%%%%%%%%%%%%%%%%%%%%%%%
13994A2%%%%%%%%%%%%%%%%%%%%%%%%%%%%%%%%%%%%%%%%%%%%%%%%%%%Qq%%%%%%%%%%%%%%%%
13978A2%%%%%%%%%%%%%%%%%%%%%%%%%%%%%%%%%%%%%%%%%%%%%%%%%%%%%%%%%%%%%%%%%%Qq%
13962A2%%%%%%%%%%%%Qq%%%%%%%%%%%%%%%%%%qqK4q%QqK4l2J6J6l2J6Qqq%%Qq%Qq%%%%%%%
13948A2%%%%%%%%%%%%%%%%%%%%%%%%%%%%%%%%%%%%%%%%%%%%%%%%%%%%%%%%%%%%%%%%%%%%%
13932A2%%%%%%%%%%%%%%%%%%%%%%%%%%%%%%%%%%%%%Qq%%%%%%%%%%%%%%%%%%%%%%%%%%%%%%
13917A2%%%%%%%%%%%%%%%%%%%%%%%%%%%%%%%%%%%%%%%%%%%%%%%%%%%%%%%%%%%%%%%%%%%%%
13901A2%%%%%%%%%%%%%%%%%%%%%%%%Qq%%%%%%%%%%%%%%%%%%%%%%%%%%%%%%%%%%%%%%%%%%%
13885A2%%%%%%%%%%%%%%%%%%%%%Qq%Qq%%%%%%%%%%%%%%%%%%%%%%%%%%%%%%%%%%%%%%%%%%%
13869A2%%%%%%%%%%%%%%%%%%%%%%%%%%%%%%%%%%%%%%%%%%%%%%%%%%%%%%%%%%%%%%%%%%%%%
13853A2%%%%%%%%%%Qq%%%%%%%%%%%%%%%%%%%%%%%%%%%%%%%%%%%%%%%%%%%%%%%%%%%%%%%%%
13838A2%%%Q%q%%%%%QqQq%%%%%%%%%%%%%%%%%%%%%%%%%%%%%%%%%%%%%%%%%%%%%%%%%%%%%%
13822A2%%%%%%%%%%%%%%%%%%%%%%%%%%%%%%%%%%%%%%%%%%%%%%%%%%%%%%%%%%%%%%%%%%%%%
13806A2%%%%%%%%%%%%%%%%%%%%%%%%%%%%%Qq%%%%%%%%%%%%%%%%%%%%%%%%%%%%%%%%%%%%%%
13790A2%%%%%%%%%%%%%%Qq%%%%%%%%%%%%%%%%%%%%%%%%%%%%%%%%%%%%%%%Q%q%%Qq%%%%%%%
13774A2Qq%%%%%%%%%%%%%%%%%%%%%%%%%%%%%%%%%%%%%%%%%%%%%%%%%%Qq%%%%%%%%%%%%%%%
13759A2%%%%%%Qq%%%%%%%%%%%%%%%%%%%%%%%%%%%%%%%Qq%%%%%%%%%%%%%%%%%%%%%%%%%%%%
13743A2%%%%%%%%%%%%%%%%%%%%%%%%%%%%%%%%%%%%%Qq%%%%%%Qq%%%%%%%%%%%%%%%%%%%%%%
13727A2%%%%%%%%%%%%%%%%%%%%%%%%%%%QqQq%%%QqqJ6q%%%%%%%%%%%%%%%%%%%%%%%%%%%%%
13712A2%%%%%%%%%%%%%Qq%%%%%%%%%%%Qq%%%%%%%%%%%%%%%%%%%%%%%%%%%%%%%%%%%%%%%%%
13696A2%%%%%%%%%%%%%%%%%%%%%%%%%%%%%%%%%%%%%%%%%%%%%%%%%%%%%%%%%%%%%%%%%%%%%
13680A2%%%%%%%%%%%%%%%%%%%%%%%%%%%%%%%%%%%%%%%%%%%%%%%%%%%%%%%%%%%%%%%%%%%%%
13664A2%%%%%%%%%%%%%%%%%Qq%%%%%%%%%%%%%%%%%%%%%%%%%%%%%%%%%%%%%%%%%%%%%%%%%%
13648A2%%%%%%%%%%%%%%%%%%%%%%%%%%%%%%%%%%%%%%%%%%%%%%%%%%%%%%%%%%%%%%%%%%%%%
13633A2%%%%%%Qq%%%%%%%%%%%%%%%%%%%%%%%%%%%%%%%%%%%%%%%%%%%%%%%%%%%%%%%%%%%%%
13617A2%%Qq%%%%%%%%%%%%%%%%%%%%%%%%%%%%%%%%%%%%%%%%%%%%%%%%%%%%Qq%%%%%%QqQq%
13601A2%%%%%%%%%%%%%Qq%%%%%%%%%%%%%%%%%%%%%%%%%%%%%%%%%%%%%%%%%%%%%%%%%%%%%%
13585A2%%%%%%%%%%%%%%%%%%%%%%%%%%%%%%%%%%%%%%%%%%%%%%%%%%%%%%%%%%%%%%%%%%%%%
13569A2%%%%%%%%%%%%%%%%%%%%%%%%%%%%%%%%%%%%%%%%%%%%%%%%%%%%%%%%%%%%%%%%%%%%%
13554A2%%%%%%%%%%%%%%%%%%%%%%%%%%%%%%%%%%%%%%%%%%%%%Qq%%%%%%%%%%%%%%%%%%%%%%
13538A2%%%%%%%%%%%%%%%%%%%%%%%%%%%%%%%%%%%%%%%%Qq%%%%%%%%%%%%%%%%%%%%%%%%%%%
13522A2%%%%%%%%%%%%%%%%%%%%%%%%%%%%%%%%%%%%%%%%%%%%%%%%%%%%%%%%%%%%%%%%%%%%%
13506A2%%%%%%%%%%%%%%%%%%%%%%%%%%%%%%%%%%%%%%%%%%%%%%%%%%%%%%%%%%%%%%%%%%%%%
13490A2%%%%%%%%Q%q%%%%%%%%%%QqQ%%%qqQ%%%QqQq%%%%%%%%%%%%%%%%%%%%%%%%%%%%%%%%
13475A2%%%%%%%%%%%%%%%%%%%Qq%%%%%%%%%%%%%%%%%%%%%%%%%%%%%%%%%%%%%%%%%%%%%%%%
13459A2%%%%%%%%%%%%%%%%%%%%Qq%%%%%%%%%%%%%%%%%%%%%%%%%%%%%%%%%%%%%%%%%%%%%%%
13443A2%%%%%%%%%Qq%%%%%%%%%%%%%%%%%%%%%%%%%%%%%%%%%%%%%%%%%%%%%%%%%%%Qq%%%%Q
13427B0q%%%%%Qq%%Q%q%%%%%%%%%%%%%%%%%%%%%%%%%%%%%%%%%%%%%%%%%%%%%%%%%%%%%%%%
13411A2%%%%%%%%%%%%%%%%%%%%%%%%%%%%%%%%%%%%%%%%%%%%%%%%%%%%%%%%%%%%%%%%%Qq%%
13396A2%%%%%%%%%%%%%%%%%%%%%%%%%%%%%%%%%%%%%%%%%%%%%%%%%%%%%%%%%%%%%%%%%%%%%
13380A2%%%%%%%%%%%%%%%%%%%%%%%%Qq%%%%%%%%%%%%%%%%%%%Qq%%%%%Q%%q%%%%Qq%%%%%%%
13364A2%%%%%%%%%%%%%%%%%%%%%%%%%%%%%%%%%%%%%%%%%%%%%%%%%%%%%%%%%%%%%%%%%%%%%
13348A2%%%%%%%%%%%%%%%%%%%%%%%%%%%%%%%%%%%%%%%%%%%%%%%%%%%Qq%%%%%%%%%%%%%%%%
13333A2%%%%%%%%%%%%%%%%%%%%%%%%%%%%%%%%%%%%%%%%%%%%%%%%%%%%%%%%%%%%%%%%%%%%%
13317A2%%%%%%%%%%%%%Qq%%%%%%%%%%%%%%%%%%%%%%%%%%%%%%%%%%%%%%%%%%%%%%%%%%%%%%
13301A2%%%%%%%%%%%%%%%%%%%%%%%%%%%%%%%%%%%%%%Qq%%%%%%%%%%%%%%%%%%%%%%%%%%%%%
13285A2%%%%%%%%%%%%%%%%%%%%%%%%%%%%%%%%%%%%%%%%%%%%%%%%%%%%%%%%%%%%%%%%%%%%%
13269A2%%%%%%%%%%%%%%%%%%%Qq%%%%%%%%%%%%%%%%%%%%%%%%%%%%%%%%%%%%%%%%%%%%%Qq%
13254A2%%%%%%%%%%%Q%j6J6qQqQ%q%%%%%%%%%%%%%%%%%%%%%%%%%%%Qq%%%%%%%%%%%%%%%%%
13238A2%%Qq%%%%%%%%%%%%%%%%%%%%%%%%%%%%%%%%%%%%%%%%%%Qq%%%%%%%%%%%%Qq%%%%%%%
13222A2%%%%%Qq%%%%%%%%%%%%%%%%%%%%%Qq%%%%%%Qq%%%%%%%%%%%%%%%%%%%%%%%%%%%%%%%
13207A2%%%%%%%%%%%%%%%%%%%%%%%%Qq%%%%%Qq%%%%%%%%%%%%%%%%%%%%%%%%%%%Q%q%%%Q%q
13191A2%%%%%%%%%%%%%%%%%%%%%%%%%%%%%%%%%%%%%%%%%%%%%%%%%%%%%%%%%%%%%%%%%%%%%
13175A2%%%%%%%%%%%%%%%%%%%%%%%%%%%%%%%%%%%%%%%%%%%%%%%%%%%%%%Q%qQq%%%%%%%%%%
13159A2%%%%%%%%%%%%%%%%%%%%%%%%%%%%%%%%%%%%%%%%%%%%%%%%%%Qq%%%%%%%%%%%%%%%%%
13143A2%%%%%%%%%%%%%%%%%%%%%%%%%%%%%%%Qq%%%%%%%%%QqQ%qQq%Qq%%%%%%%%%%%%%%%%%
13128A2%%%%%%%%%%%%%%%%%%%%%%%%%%%%%%%%%%%%%%%%%%%%%%%%%%%%%%%%%%%%%%%%%%%%%
13112A2%%%%%%%%%%%%%%%%%%%%%%%%%%%%%%%%%%%%%%%%%%%%%%%%%%%%%%%%%%%%%%%%%%Qq%
13096A2QqQq%%%%%%%%%%%%%%%%%%%QqQq%%%%%%%%%%%%%%%%%%%%%%%%%%%%%%%%%%%%%%%%%%
13080A2%%%%%%%%%%%%%%%%%%%%%%%%%%%%%%%%%%%%%%%%%%%Qq%%%%%%%%%%%%%%%%%%%%%%%%
13064A2%%%%%%%%%%%%%%%%%%%%%%%%%%%%%%%%%%%%%%%%%%%%%%%%%%%%%%%%%%%%%%%%%%%%%
13049A2%%%%%%%Qq%%%%%Q%q%%Q%qQq%%%%%%%%%%%%%%%%%%%%%%%%%%%%%%%%%%%%%%%%%%Qq%
13033A2%%%%%%%%%%%%%%%%%%%%%%%%%%%%%%%%%%%%%%%%%%%%%%%Qq%%%%%%%QqQq%Qq%%Qq%%
13017A2%QqQj6%J6qJ6j6Q%%q%%%Qq%%%%%%%%%Qq%%%%%%%%%%%%%%Qq%%%%%%%%%%%%%%QqQq%
13002A2%%%Qq%Qq%%Qq%%%%%%%%%%%%%%%%%%%%%%%%%%%%%%%%%%%%%%%%%%%%%%%%%%%%%%%%Q
12986B0q%%%%%%%%%%%%%%%%%%%%%%%%%%%%%%%%%%%%%%%%%%%%%%%%%%%%%%%%%%%%%%%%Qq%%
12971A2Qq%%Qq%%%%%%%%%%%%%%%%%%%%%%%%%%%%%%%%%%%%%%%%%%%%%%%%%%%%%%%%%%%%%%%
12955A2%%%%%%%%%%%%%%%%%%%%%%%%%%%%%%%%%%%%%%%%%%%%%%%%%%%%%%%%%%%%%%%%%%%%%
12939A2%%%%%%%%%%%%%%%%%Qq%%Qq%%%%%%%%%%%%%%%%%%%%%%%%%Qq%Qq%%%%%%%%%%%%Qq%%
12923A2%%%%%%%%%%%%%%%%%%%%%%%%%%%%%%%%%%%%%%%%%%%%%%Qq%%%%%%%%%%%%%%%%%%%%%
12907A2%%%%%%%%%%%%%%%%%%%%%%%%%%%%%Qq%%QqQq%Qq%%%%%%Qq%%%%%%%%%%%%%%%%%%%%%
12892A2%Qq%%%%%%%%%%%%%%%%%%%%%%%%%%%QqQq%%%%%%%%%%%%%%%%%%%%%%%%%%%%%%%%%%%
12876A2%%%%%%%%%%%%%%%%%%%%Qq%Qq%%Q%q%%%%%%%%%%%%%%%%%%%%%%%%%%%%%%%%%%%%%%%
12860A2%%%%%%%%%%%%%%%%%%%%%%%Q%q%%%%%%%%%%%%%%%%%%%%%%%%%%%%%%%%%%%%%%%%%%%
12844A2%%%%%%%%%%Qq%%%%%%%%Qq%%Qq%%%%%%%%%%%%%%%%%%%%%%%%%%%Qq%%%%%%Qq%%%%%%
12829A2%%%%%%%%QqQq%Qq%%%%%Qq%%%%%%%%%%%%%%%%%%%%%%%%%%%%%%%%Q%q%%%%%Qq%%%%Q
12813B0qQqQ%q%Q%q%%%%Qq%%%%%%%%%%%%%Qq%%%%%%%%%%%%%%%%%%%%%%%%%QqQqQq%%%%%Qq
12797A2%%%%%%%%%%%%%%%%%%%%%%%%Qq%%%%%%%%Qq%%%%%%%%%%Qq%%%%%%%Qq%%%Q%q%QqQq%
12781A2%%%%%Qq%%%%%%%%%%%%%%%%%%%%%%%%%%%%%%%%%%%%%%%%%%%%%%%%%%%%%%%%%%%%%%
12765A2%%%%%%%%%%%%%%%%%%%%Qq%%%%%%%%%%%%%%%%%%%%%%%%%%%%%%%%%%%%Qq%%%Qq%Qq%
12750A2%%%%%%%%%%%%%%%%%%%%%%%%%%%%%%%%%%%%%%%%%%%%%%%Q%qQq%QqQq%%%%Qq%%%%%%
12734A2%%%%%%%%%%%%%%%%%%%%%%Qq%%%Qq%Qq%%%%%%%%%%%%%%%%%%%%%%Qq%%%%%%%%%%%%%
12718A2%%%%%%%%%%%%%%%%%%%%%%%%%%%%%%%%%%%%%%%%%Qq%%%%%%%%%%%%%%%%%%%%%%%%%%
12702A2%%%%%Qq%%%%%%%%%%%%%Q%q%%%%Qq%%Qq%%Qq%Qq%%%%%%%%Qq%%%%%%%%%%%%%%%%%%%
12686A2%%%%%%%%%%%%%%%%%%%%%%%%%%%%%%%%%%%Qq%Qq%%%%%%%Qq%%%%%Qq%%%%%Q%%%q%%%
12671A2%%%%%%%%%%%%%%%%%%%%%%Qq%Q%q%%Qq%%Qq%%%%%%%%%%%%%%%%%%%%%%%%Q%qQ%qQq%
12655A2%%%%%%Qq%%%%%%%%%%%%%%%%%%%%%%%%%%%%%%%%%%%%%%%%%%%%%%Qq%%%%%%%%%%%%Q
12639B0q%%Qq%%%%%Qq%%Q%%q%Qq%%%Qq%Qq%QqQ%%q%%%%%%%%%%%%%%%%%%%Qq%%%%%%%%%%%%
12623A2%%%%%%Q%%q%%%%%%%%%%%%%%%%%%%%%%%%%%%%%%%%%%%%%%%%%%%%%%%%%%%%%%%%%%%
12607A2%%%%%%%Q%%q%Q%q%%%%%%%Qq%%%%%%%%%%Qq%%%%%%%%%%%%%%%Qq%%%%Qq%%%%%%%%%%
12592A2%Q%q%%%%%%%%%%%%%%%%%%%%%%%%%%%Qq%%%%%%%%%%%%%%%%%%%%%%%%%%%%%%%%Q%%q
12576A2%%%%%%%%%%%%%%%%%%%%%%Qq%%%%%%%%%%%%%%%%%%%%%%%%%%%%%%%%%%%%%%%%%%%%%
12560A2%%%%Qq%%%%%%%%%%%%%%%%%%%%%%%%%%%%%%%%%%%%%%%%%Qq%%Qq%%qK4q%j6QQq%%Q%
12545B0qQq%%%%QqQq%%%%%%Qq%%%%%%%%%%%%%%%%%%%Qq%%%%%%%%%%%%%%%%%%%%%Qq%%%%%%
12529A2Qq%%%%%%%%%%%%%%%%%%%%%%%%%%%%%%%%%%%%%%%Qq%%%%%%%%%%%%%%%%%%%%%QqQ%q
12513A2%%%%%%%%%%%%%%Qq%%%%%%%%%%%Qq%%%%%%%%%%%%%Q%q%%%%%Qq%%Qq%%%%%%%%%%%%%
12497A2%%%%%%%%%%%%%Qq%%%%%%%%%%%%%%%%%%%%%%%QqQq%%%%%%%%%%%%%%%%%%%%%%Qq%%%
12482A2Q%%q%%%%%%%%%%%%%%%%%%%%%%%Qq%Q%qQqQ%qQq%%%%%%%%%%%%%%%%%%%%%%%Qq%%%Q
12466B0q%%%%%%%%%%%%%%%%%%%%%%%Qq%Qq%%%Qq%%%%%%%%%%%%%%%%%%%%%%%%%%%%%%%%%%%
12450A2%%%%%%%%%%%%%%%%%%%%%%%%%%%%%%%%%%%%%%%%%%%%%%%%%%%%%%%%Qq%%%%%Qq%%%%
12434A2%%%%%%%Q%qQq%%Q%qJ6j6Qq%%%%%%%%%%%%%%%%%%%%%%%%%Qq%%%%%Qq%%%%%%%%%%%%
12419A2%%%%%%%%%%%%%%%%%%%Qq%%%%%%%%%%%%%%%%%Qq%QqQ%%%%q%%%%Qq%%%%%%%%%%%%%%
12403A2%%%%%%%%%%QqQqQq%%%%%%%%%%%%%%%%%%%%%%%%%%%QqQ%%q%Q%qQqQq%%%%%%%%%%%%
12387A2%%Qq%%%%%%%%%%%%%%%%%%%%%Qq%%%%%%%%%%%Qq%%Qq%%%%%%%Qq%%%Qq%%%Qq%%%%%Q
12371B0%q%%Qq%%Qq%%%%%%%Qq%%%%%%%%%%%%Q%q%%%%%%%%%%%%%%%%%%Qq%Qq%%%%%Q%%%qQq
12356A2Q%%%%q%%Qq%%%%%%%%%Qq%%%Qq%%%%%%%%%Qq%%%%%%%%%Qq%%Q%q%Qq%%%Qq%%%%Qq%%
12340A2%Qq%%%%%%%%%%%%%%Qq%%%%%%%%%%%%%%%%%%%%%%%%%%%%%%%%%%%%%%%%%%%%%%%%%%
12324A2%%%%%%%%%%%%%%%%%%%%Q%q%Qq%%%%%%Qq%%%%%%%%Q%%%q%Q%%%%q%Qq%%%Q%qQqQqQq
12308A2%%%Qq%%Qq%%%%%Qq%%%Qq%%%%%%Qq%%%%%%%Qq%%%Qq%%%%Q%%q%%%%%Qq%%Qq%%%%%%%
12292A2%%%Qq%%%Qq%%%Qq%%%%%Q%q%%%%%%%%%%%%%Qq%Qq%%%Qq%%%%%%Q%%q%%%%%%%%%%%%%
12277A2%Qq%%Q%q%%%%%Qq%%%%%Qq%Q%q%%%Qq%Q%q%Q%qQq%%%%%%%%%Qq%%%%%%%%%%%%%%Qq%
12261A2%%%%%%%%%%%%%Qq%%%%%%Q%%qQ%%qQq%%%%Qq%%%%%%%Qq%%%%%%%%%%Q%q%%Qq%%%%%%
12245A2%%%%%%%%%%%%%%%%%%%%Qq%%%%%%Qq%%%%Qq%Qq%%%%%%%%%%Q%%%%qQq%Q%%q%%QqQq%
12229A2%Qq%%%%%%%%%Qq%%%%%%%%%%Qq%%%%Qq%%%Qq%%Qq%Qq%%%%%%%QqQq%%%%%%%Qq%%%%%
12214A2%%%%%%%%%%%%%%%Qq%%%%%%%%%%%%%%%%%%%%%%%%%%%%%%%%Q%q%%%Q%q%%%%%QqQq%%
12198A2%%Qq%Qq%%%Qq%%QqQ%q%%%%%%%%%%%%%%%%%Qq%%QqQ%q%%%%%%%%%%%Qq%%%%%%%%%%%
12182A2%%%%%Q%q%%%%%%%Qq%%%%%%Qq%%%%%%%%%%QqQ%qQq%%%%%%%%%Q%%%qQq%%%%Qq%%%Q%
12166B0q%%%%Qq%%%%%%%%%%%%%%%%%Qq%%%%Qq%%%%%%%%%%%%%%%Qq%%%%%%%%%QqQ%qQ%%q%%
12150A2%%Qq%Qq%%%%%%%%%%%%%%%%%Qq%%%%%%%%%%%%Qq%%%%%%%%%%%%%Qq%%%%Q%qQ%q%%%%
12135A2%%%%%%QqQq%QqQ%%qQ%%q%%Qq%%%%%%%%%%%%%%%%%%%%%%%%Qq%%%%%%Q%q%%%%%%%%%
12119A2%%%Qq%Q%q%Qq%%%%%%%%%%%%%%%Qq%%%%%%%%%Qq%%Qq%%%%%%QqQq%%%%%Qq%%%%Qq%%
12103A2%%%%%%Q%q%QqQqQqQ%%q%%%%%%Qq%%%%%%%%QqQq%%%%Qq%%Qq%Q%qQ%qQ%qQq%%%Q%q%
12087A2%%%%%%Qq%%%Q%q%%%%%Qq%%Qq%Q%Qk4J6%qQQj6l2N6m0qK4%%J6l2J6%%%%%%%Q%%qQq
12074A2QqQq%Qq%Q%q%Qq%Qq%QqQq%Q%qQqQq%Qq%%%%QqQq%%%%Q%%q%Q%q%Qq%%%%%%%%%%%%%
12058A2%%%%%%Q%%q%%%%%%Q%%qQ%q%%%%%%Q%q%QqQq%%Qq%%%%%Qq%%%QqQqQqQq%%%%%Q%%qQ
12042B0%%%q%%QqQqQ%q%%%%%%Qq%%%%%%%%%%%Q%%%%%qQq%Qq%Qq%%%%%%%%%%%Qq%Qq%%%QqQ
12026B0%q%%%%%Qq%%%%%%QqQqQ%%qQ%%%q%Q%%%qQq%%%%Qq%QqQ%qQq%%%%%%Qq%%%%%%%%%%%
12010A2%%Qq%Q%q%%Qq%%%Qq%Qq%%Q%%%q%Q%qQ%%%%q%%Qq%%%%%%%Qq%QqQq%QqQq%%%%Qq%%Q
11995B0%q%%Qq%Q%%q%%Q%q%Qq%Qq%%%Q%%q%%%Q%%q%%%%%Q%%q%%%%%%%%%%%%%%%Qq%%%%%%Q
11979B0%q%%Q%qQqQ%%qQ%%qQ%%%%%qQ%%%%%%%%%%%%%qQ%qQ%%%qQq%%%Qq%%%Qq%%%%%%%Q%q
11963A2%QqQ%q%Qj6J6%%%%q%%Q%%%qQ%qQqQ%qQqQq%Qq%%%%%%%%%Qq%%%%%%%%%%%%%%%%%Qq
11948A2%%Qq%%%%%%%%%%%%%%%%%%%%%%%%%%%%%%%%%%%%Qq%%%%%%%%%%%%%%%%%%%Qq%%%%Q%
11932B0%%qQ%qQ%%qQq%%%%%Q%qQq%%%%%%%%%%%Qq%%Qq%Q%%q%%%%%Qq%%%QqQq%Qq%%Q%qQqQ
11916B0q%%%%%%%%%Qq%%%%%%%%%%%Qq%%%%%%%%%%%%%Q%%%%qQqQq%%Q%%qQqQqQqQqQq%Qq%%
11900A2%%%%%Qq%Qq%%%%%%%%%%Qq%%%%%%%%%%%%Q%%%qQq%%%%%%Q%%qQqQ%qQ%%%q%Qq%%%Qq
11885A2%%%%%Qq%%%%Qq%Qq%Q%qQqQq%%%%%%%%%%%%%Q%q%%%%Q%qQqQ%q%Q%q%QqQqQ%q%QqQq
11869A2%Qq%%%QqQqQ%qQ%q%%%Q%qQ%qQqQqQ%q%%Q%q%Q%q%%%Q%q%%%%%%%%%Qq%%QqQqQ%%%%
11853B0%%q%%%%Q%%q%QqQ%q%Q%q%Qq%%%%%%%%%%%%%%QqQq%Qq%QqQ%qQ%q%Qq%QqQ%%q%%%%Q
11837B0qQqQqQqQ%%q%%%%Q%%qQ%%%%%%q%%Qq%%Q%q%%Qq%%%%%%Q%%%%q%Q%%%%%qQq%%%Q%q%
11821A2%Qq%Q%%%%%%%%%%%%qQ%qQ%qQ%%%%qQ%%qQqQ%%%q%%%%%%%%%%%%%%%%Qq%Q%%%%%%qQ
11806B0q%%%%%%Qq%%%Qq%Q%q%%%Q%%q%%Qq%%%%%%%%%%Qq%Q%q%%%%%%%%%%%%%%Q%q%Qq%%%%
11790A2%%%%%%%%%Qq%%%%%%%QqQ%%%%qQ%%q%QqQ%%q%%%%%%%Qq%%%%%%Qq%Q%q%%%%%QqQ%q%
11774A2%%QqQ%%%q%Q%q%%%%%Qq%Q%qQqQq%%Qq%%%Qq%%Qq%Q%q%%QqQqQqQq%%Qq%%Qq%%%%%%
11758A2%Q%%%%%qQq%%QqQqQ%%%%qQq%Q%%qQq%%Q%%qQq%%%Q%%%%qQ%qQ%%%q%%%%%%%%%%Q%%
11742B0%%qQ%%%%%%q%%Qq%Q%%%%%%%qQ%q%%%%Qq%%%%%Qq%%%%%%Qq%%QqQq%Q%qQqQ%qQ%%%%
11727B0%qQ%q%%%Q%%%%q%%Q%q%%QqQqQqQqQ%%qQqQ%%q%%%%%%%%%Q%%%%%%%%%q%%%Q%qQq%Q
11711B0q%%%Qq%%%%%%Qq%%%QqQq%%Q%q%Q%q%Q%qQ%qQqQ%q%Q%%%q%Qq%%Qq%%%%%Q%q%%%%%%
11695A2%%%%%%Q%%%q%%%Qq%%%%%%%Qq%QqQq%%%Qq%Q%%qQ%%qQ%q%%Qq%%%Qq%Q%%q%Qq%%%%Q
11679B0%%q%%%%Q%%qQ%qQ%q%QqQ%%%%q%Q%%%%%%qQ%%%%%%q%Q%qQqQj6QQ%%%qQq%Qq%Qq%%%
11664A2Qq%%%%%%%%%%%Qq%%%%%Q%q%QqQqQq%Q%%q%%Q%qQ%q%%%%%%Q%qQ%%%%%qQqQ%%q%%%%
11648A2Q%qQ%qQ%q%%%%%Q%%q%Q%qQqQ%%%%%%q%Qq%Q%q%QqQ%qQ%qQqQ%q%QqQq%Qq%%Q%qQq%
11632A2%%Q%%%qQ%%%%%%%qQq%Qq%QqQqQ%%%%%%%q%%%Q%q%QqQq%%%%%%%%Q%qQ%qQ%q%QqQ%q
11616A2QqQ%qQq%%%QqQqQq%%%Qq%%%%%%%QQj6j6J6qJ6%%qQq%Q%%%qQ%qQ%%q%Q%qQ%%q%Q%q
11601A2Q%%q%QqQq%%%QqQ%q%%%%%%Q%q%%%QqQ%q%Q%%qQqQ%%qQ%qQ%%%%%qQ%%qQ%%qQqQqQ%
11586B0q%Q%qQ%%%qQ%qQ%q%%%%%%%%QqQ%q%QqQ%%%q%Q%%q%Q%%%%%%qQ%%%qQ%qQ%%%%%%%%%
11570B0%%qQ%%%%q%%QqQq%%%Q%qQ%qQqQqQq%%Q%%q%Q%qQ%%%%%%%%%%%q%%Q%%q%%%%%Qq%Qq
11554A2%%%%Qq%%Qq%Q%q%QqQqQqQqQ%%%%%%%%%%q%Q%%%qQq%Qq%Q%%q%QqQq%%%%Q%qQqQqQq
11538A2%%Q%%qQ%%qQq%%Q%q%%%%%Qq%%Qq%%QqQ%qQ%%%q%QqQ%%qQ%%%%%%%qQqQ%%qQ%%%%qQ
11523B0q%Qq%Qq%%%Qq%%%Qq%%%Qq%%%Q%q%%%Qq%Qq%Qq%%%%Q%%%%%qQ%q%%%Q%%q%%%%%%QqQ
11507B0q%%%%QqQ%%%qQ%%%q%%%%QqQqQ%q%%%QqQ%qQ%qQqQ%%%%%%q%%%Q%qQ%%%q%Qj6J6q%Q
11491B0%%%%qQ%%q%%Q%%%%q%Qq%Qq%%%Qq%%%Qq%Qq%Q%qQ%q%%Q%%%%%%%%%%%qQq%Qq%%QqQq
11476A2QqQ%q%Q%%%%%qQ%qQ%%q%%Q%%%%%qQ%%q%%QqQq%%%Q%%q%Qq%%Q%qQ%qQ%%%qQ%%%q%Q
11460B0qQ%%%%%%qQ%%%%%%%%%%%%%%%%%qQqQ%%%%%%%%%%%q%QqQqQ%q%Qq%%%%%%%%Qq%%Q%q
11444A2%%%QqQ%qQ%%%q%QqQq%Q%%%%%%%%%qQ%%qQq%%%%Qq%Q%qQ%%%%%qQ%%qQ%%qQ%qQqQ%q
11428A2Q%%%%%qQqQqQ%qQ%%%%%%%%%%%qQ%qQ%%%%%%qQ%qQq%QqQqQqQqQqQ%qQq%%%%%%%%Q%
11412B0%%qQ%q%%%%%%%%Qq%%%%Q%%q%%%%%Qq%%%%%%%%QqQq%%%QqQ%%%%qQq%Q%q%%%Q%qQ%%
11397B0%%%%%%%%%%qQ%qQ%%q%QqQqQ%qQqQ%%qQ%%%%%%qQ%%%%%%%%%%%%%qQ%%%qQqQ%%qQqQ
11381B0%qQ%%%%%%%%%%q%Q%qQ%%%%q%Q%%%qQ%%%%qQq%Qq%QqQ%qQqQ%%%%%qQ%%%%%%%%%%%%
11365B0q%%%Q%%q%%%Qq%%%Qq%%%Qq%Q%%%%%%q%Q%qQ%qQqQq%%QqQ%%qQqQ%%%%%q%%Q%%%%%%
11349B0%%%%%%%%qQqQ%q%QqQ%%%%%%qQ%%%%%%%qQ%%%%%%q%QqQq%QqQ%%%%q%Qq%%%QqQ%q%%
11333A2%%%%QqQq%QqQ%%%qQ%%q%%Q%%qQ%%%%%%%%%%qQ%qQ%%%qQ%%%%qQ%q%Q%qQ%qQq%Q%%%
11318B0%q%QqQ%qQ%qQ%%%%%%qQ%%%%%%%%%%%%%%%%q%%Q%q%Q%%%%%qQ%qQ%qQq%%%Q%%%qQqQ
11302B0%%%%%%%qQ%%%%qQ%%%%%%%%%%%%%%q%Qq%%QqQqQ%qQ%%%%%%%%%%%%%%%qQq%Q%qQq%%
11286A2%%%%%%%%%Qq%QqQq%Q%%%%%%%%%%%%%q%Q%%qQ%%%%%%%qQ%q%%%%%%%QqQ%qQ%qQq%%Q
11270B0qQqQqQq%%Qq%%Qq%QqQq%%%Q%q%%%%%Q%%%%%%%%%qQqQ%q%Qq%%Q%qQ%qQ%q%%Q%%%%%
11255B0%%%%%%qQ%%%%%%%%%%%%%%%qQ%q%Q%%%%%%%%%%%%%%%%q%Q%%%qQq%%Qq%Q%q%%Qq%Q%
11239B0q%Qq%Q%qQqQq%Q%%%q%QqQ%%%%qQ%%%%%%%%q%Q%q%%Q%%qQ%%%%%%%q%Q%%%qQ%%%%%%
11223B0%%%%%%%%%qQ%%q%Q%%%%%%qQ%qQ%qQqQ%%%%%qQ%%%%%%%%%%%%%%%%%%%qQ%%%%%%qQ%
11207B0%qQ%%%%%%%%qQq%Q%%%%%%%%%%%qQ%%%%q%Q%%%qQ%%%%qQ%%%%qQ%%%%%%%%%%%%%%%%
11191B0%qQqQ%q%%Q%%qQqQq%%Qq%%%%%%QqQ%%q%Q%qQq%%%Qq%QqQ%%%%%q%Qq%%Q%%%%q%Q%%
11176B0%%%%%%%%%q%QqQqQ%%q%Q%%%%%%%%%%%%qQqQqQqQ%%%%%%%%%%%%%q%Q%%%%qQ%%%qQ%
11160B0%%%%q%%Q%%%%%%%%%%qQ%%qQ%%%%qQqQqQ%qQ%%%qQ%%%qQ%q%Q%qQ%%%qQ%%%%%qQ%%%
11144B0%q%%QqQ%%qQ%Qk4%J6%QqqJ6j6Q%%%%%%%qQ%%%%q%Q%%%%%%%qQqQqQ%%q%QqQq%%Q%%
11129B0%%%%%%%q%%Q%%qQq%Q%%%%%%qQ%qQ%qQ%%q%%Q%%%%%%%%qQ%%%%%%%%%%%%%%qQ%%%%%
11113B0%qQ%%%%qQ%%qQqQ%q%Q%%%q%Q%%%qQ%%%%q%Q%%%%%qQq%%Qq%Q%%qQ%q%%%%%%QqQ%%%
11097B0%%%%qQ%qQ%%%%%%%%%%%qQ%%%%%%%%%%%%%%%%%%%%%%%%qQ%%qQ%%%%%%%%%qQq%%QqQ
11082B0%q%Q%%%%%%qQ%%qQ%%q%Q%%%%%%%qQqQ%qQ%%%%%%%%%%%%%%%%%%%%%%%%%%qQ%%%%%%
11066B0%%%%%%%%%%%qQ%%%%qQ%%%%%%qQ%qQ%%%%%%%%%qQ%%%%%%%%%%qQqQ%%qQ%%%%%qQ%%%
11050B0%%%%%%qQ%%%%%qQ%%q%%QqQqQ%%%%qQqQ%%%%qQ%%%%%%%%%%%%%%%%%%%%%%%%%%%%%%
11034B0%%%%%%%%%%%%%%%%%qQ%%%%%q%Q%%%qQ%%q%Q%qQ%%%qQ%qQ%q%%%Q%%%%%%qQ%qQ%%%%
11019B0%%%%%%qQ%%%qQ%%qQ%%qQ%%%%%qQ%%%%%q%Q%%%%%%%%%%%qQ%%%%%%%%%%%%%q%Qq%Q%
11003B0qQ%qQ%%%%%%%%%%%%%%%%q%%%Q%%%qQqQ%%%%%%%%%%%%%%%%%%%%%%%%%%%%%%%%%%%%
10987B0%qQ%qQ%%%qQ%%%%%%%%%%%%%%%%%%%%%qQ%%%%%qQqQqQ%%%%%%%%%%%%qQ%%%%%%%%%%
10971B0%%%%%%%%%%%%%%%qQqQ%%%%%%qQqQqQ%%%qQ%qQ%%%qQqQ%qQ%%%%%%%%%qQ%%%%%%qQ%
10955B0%%%%%%%%%%%%%%%%%%qQq%Q%%%%qQqQqQq%Q%qQ%%qQ%%%%%%%%%%%%%%%%%%%%%%q%Q%
10940B0%qQ%%%%%%qQ%%%%%%%%%%%%%%%%qQ%%%%%%%%%%%%%%%%%%%%qQ%%%%%%%%%%%%%%%%%%
10924B0%%%%%%%%%%%%%qQ%%%qQ%qQqQ%%%%%%%%%%%%%%%%%%%%%%%%%%%%%%%%%%%%%%%qQqQ%
10908B0%qQQq%Qq%Qqq%Q%%%%%%%%%%%%%qQ%%%%%%qQ%qQ%%%%qQqQqQ%%%%%%%%%%%qQ%qQqQ%
10892B0%q%QqQ%%qQq%Q%qQ%%%%%%%%%%%%%%%%%%%%%%%%%%%%%%%%%%%%%%%%%%%%%%%%%%%qQ
10876B0%qQ%%%%%%%%%qQ%%%%%%%%%%%%%%%%%%%%%%%%%%%%%%%%%%%%%%%%%%%%%%%%%%%%%%%
10861B0%q%Q%%qQ%%qQ%%%%%%%%%%%%%%%%%%%%%%%%%%%%%%%%%%%%%%%%%%qQqQq%Q%%%%%%%%
10845B0%%%%%%%%%%%%%%%%%%%%%%%%%%%%%%%%%%%%%%%%%%%%%%%%%%q%%Q%%%%%%%%%%%%%%%
10829B0%qQ%%%%%%qQ%%%%%%%%%%%%qQqQ%%%%%%%%%%%%%%%%%q%Q%%%%%%%%%%%%%%%%%%%%%%
10813B0%%%%%%%%qQ%%%%%%%%q%Q%%%%%%%%%%%%%%%%%%%%qQ%%%%qQ%%%%%%%%%%%%%%%%%%%%
10797B0%%%%%%qQ%%%%%%%%%%%%qQ%%%%%qQ%%%%%%%qQ%%%%qQqQ%%%%%%%%%%%%%%%%%qQ%%%%
10782B0%qQ%%%%%%%%%%%%%%%%%%%%%%qQ%%%%%%%%%%%%%qQ%%%%%%qQ%%%%qQqQ%%%%%%qQ%%%
10766B0%%%%qQ%%%%%qQ%%%%%%%%%%%%%%qQ%%%%%%%%%%%%%%%%%%%%%%%%%%%%%%%%%%%%%%%%
10750B0%%%%%%%%%%%%%%qQ%%qQqQ%%%%%%%%%%%%%%%%%%%%%%%%%%%%%%%%%%%%%%%%%%qQ%%%
10734B0%%%%%%%qQ%qQ%qQqQ%%%%%qQqQ%%q%Q%%%qQ%%%%%%%%%%%%%%%%%%%%%%%%%%%%%%%%%
10718B0%%%%%%%%%%%qQ%%%%%%%%%%%%%%%%%%%%%%%%%%%%%%%%%%%%%%%%%%%%%%%%%%%%%%%%
10703B0%%%%%%%%%%%%%%%%%%%%%%%%%%%%%%qQ%%%%%%%%%%%%%%%%%%%%%%%%%%%%%%%%%%%%%
10687B0%%%%%%%%%qQ%%%%%%%%%%%%%%%%%%%%%%%%%%%%%%%%%%%%qQ%%qQ%qQ%qQqQQq%j6J6q
10672A2J6qQqqQ%%%%%%%%%%%qQ%%%%%%%%%%%%%%%%%%%%%%qQ%%%%%%%%%%%%%%%%%%%%%%%%%
10656B0%%%%%%%%%%qQ%%%%%%%%%%%%%%%%%%%%%%%%%%%%%%%%%%%%%%%%%%%%%%qQ%%%qQ%%%%
10640B0%%%%%%%%%%%%%%%%%%%%%%%%%%%%%%%%%%%%%%qQ%%%%%%%%%%%%%%%%%%%%%%%%%%%%%
10624B0%%%%%%%%%%%%%%%%%%%%%%%%%%%%%%%%%%%%%%%%%%%%%%%%q%Q%qQ%%%%%%%%%%%%%%%
10609B0%%%%%%%%%%%%%%%%%%%%%%%%%%%%%%%%%%%%%%%%%%%%%%%%%%%%%%%%%%%%%%%%%%%%%
10593B0%%%%%%%%%%%%%%%%%%%%%%%%%%%%%%%%%%%qQ%%%%%%%%%%%%%%%%%%%%%%%%%%%%%%%%
10577B0%%%%%%%%%%%qQ%%%%%%%%%%%%%%%%%%%%%%%%%%%%qQ%%%%%%%%%%%%%%%%%%%%%%%%%%
10561B0%%%%%%%%%%%%%%%%%%%%%qQ%%%qQ%qQ%%%%%%%%%%%qQ%%%%%%%%%%%%%%%%%%%%%%%%%
10545B0%%%%%%%%%%%%%%%%%%%%%%%%%%%%%%%%%%%%%%%%%%%%%%%%%%%%%%%%%%%%%%%%%%%%%
10530B0%%%%%%%%%%%%%%%%qQ%qQqQ%%%%%%%%%%%%%%%%%%%%%%%%%%%%%%%%%%%%%%%%%%%%%%
10514B0%%%%%%%%%%%%qQqQ%%%%%%%%%%%%%%%%%%%%%%%%%%%%%%%%%%%%%%%%%%%%%%%%%%%%%
10498B0%qQqQ%%q%Q%%%%%%%%qQ%%%%%%%%%%%%%%%%%%%%%%%%%%%%%%%%%%%%%%%%%%%%%%%%%
10482B0qQ%%%%%%%%%%%%%qQ%%%%%%%%%%%%%%%%%%%%%%%%%%%qQ%%%%%%%%%%%%%%%%%%%%%%%
10466B0%%%%%%%%%%%%%%%%%%%%%%%%%%%%%%%%%%%%%%%%%%%%%%%%%%%%%qQ%%%%%%%%%%%%%%
10451B0%%%%%%%%%%%%%%%%%%%%%%%%%%%%%%%%%%%%%%%%%%%%%%%%%%%%%qQqQqqQQ%%%%%%%%
10435B0%%%%%%%%%%%%%%%%%%%%%%%%%%%%%%%%%%%%%%%%%qQ%%%%%%%%%%%%%%%%%%%%%%%%%%
10419B0%%%%%%%%%%%%%%%%qQ%%%%%%%%%%%%%%%%%%%%%%%%%%%%%%%%%%%%%%%%%%%%%%%%%%%
10403B0%%%%%%%%%%%%%%%%%%%%%%%%%%%%%%%%%%%%%%%%%%%%%%%%%%%%%%%%%%%%%%%%%%%%%
10387B0%%%%%%%%%%%%%%%%%%%%%%%%%%%%%%%%%%%%q%Q%%%%%%%%%%%%%%%%%%%%%%%%%%%%%%
10372B0%%%%%%%%%%%%%%%%%%%%%%%%%%%%%%%%%%%%%%%%%%%%%%%%%%%%%%%%%%%%%%%%%%%%%
10356B0%%%%%%%%%%%%%%%%%%%%%%%%%qQ%%%%%%%%%%%%%%%%%%%%%%%%%%%%%%%%%%%%%%%%%%
10340B0%%%%%%%%%%%%%%%%%%%%%%%%%%%%%%%%%%%%%%%%%%%%%%%%%%%%%%%%%%%%%%%%%%%%%
10324B0%%%%%%%%%%%%%%%qQ%%%%%qQ%%%%%%%%%%%%%%%%%%%%%%%%%%%%%%%%%%%%%%%%%%%%%
10309B0%%%%%%%%%%%%%%%%%%%%%%%%%%%%%%%%%%%%%%%%%%%%%%%%%%%%%%%%%%%%%%%%%%%%%
10293B0%%%%%%%%%%%%%%%%%%%%%%%%%%%%%%%%%%%%%%%%%%%%%%%%%%%%%%%%%%%%%%%%%%%%%
10277B0%%%q%Q%%%%%%%%%%%%%%%%%%%%%%%%%%%%%%%%%%%%%%%%%%%%%%%%%%%%%%%%%%%%%%%
10261B0%%%%%%%%%%%%%%%%%%%%%%%%%%%%%%%%%%%%%%%%%%%%%%%%%%%%%%%%%%%%%%%%%%%%%
10245B0%%%%%%%%%%%%%%%%%%%%%%%%%%%%%%%%%%%%%%%%%%%%%%%%%%%%%%%%%%%%%%%%%%%%%
10230B0%%%%%%%%%%%%%%%%%%%%%%%%%%%%%%%%%%%%%%%%%%%%%%%%%%%%%%%%%%%%%%%%%%%%%
10214B0%%%%%%%%%%%%qQ%%%%%%%%%%%%%%%%%%%%%%Qq%qQq%K4j6%L2m0Q%j6QQqQ%%%q%%Q%%
10199B0%%%%qQqQ%%%%%%%%%%%%%%%%%%%qQ%%%%%%%%%%%%%%%%%%%%%%%%%%%%%%%%%%%%%%%%
10183B0%%%%%%%%%%%%%%%%%%%%%%%%%%%%%%%%%%%%%%%%qQ%%%%%%%%%%%%%%%%%%%%%%%%%%%
10168B0%%%%%%%%%%%%%%%%%%%%%%%%%%%%%%%%%%%%%%%%%%%%%%%%%%%%%%%%%%%%%%%%%%%%%
10152B0%%%%%%%%%%%%%%%%%%%%%%%%%%%%%%%%Qq%%%%%%%%%%%%%%%%%%%%%%%%%%%%%%%%%%%
10136B0%%%%%%%%%%%%%%%%%%%%%%%%%%%%%%%%%%%%%%%%%%%%%%%%%%%%%%%%%%%%%%%%%%%%%
10120B0%%%%%%%%%%%%%%%%%%%%%%%%%%%%%%%%%%%%%%%%%%%%%%%%%%%%%%%%%%%%%%%%%%%%%
10104B0%%%%%%%%%%%%%%%%%%%%%%%%%%%%%%%%%%%%%%%%%%%%%%%%%%%%%%%%%%%%%%%%%%%%%
10089B0%%%%%%%%%%%%%%%%%%%%%%%%%%%%%%%%%%%%%%%%%%%%%%%%%%%%%%%%%%%%%%%%%%%%%
10073B0%%%%%%%%%%%%%%%%%%%%%%%%%%%%%%%%%%%%%%%%%%%%%%%%%%%%%%%%%%%%%%%%%%%%%
10057B0%%%%%%%%%%%%%%%%%%%%%%%%%%%%%%%%%%%%%%%%%%%%%%%%%%%%%%%%%%%%%%%%%%%%%
10041B0%%%%%%%%%%%%%%%%%%%%%%%%%%%%%%%%%%%%%%%%%%%%%%%%%%%%%%%%%%%qQ%%%%%%%%
10025B0%%%%%%%%%%%%%%%%%%%%%%%%%%%%%%%%%%%%%%%%%%%%%%%%%%%%%%%%%%%%%%%%%%%%%
10010B0%%%%%%%%%%%%%%%%%%%%%%%%%%%%%%%%%%%%%%%%%%%%%%%%%%%%%%%%%%%%%%%%%%%%%
9994B0%%%%%%%%%%%%%%%%%%%%%%%%%%%%%%%%%%%%%%%%%%%%%%%%%%%%%%%%%%%%%%%%%%%%%%
9978B0%%%%%%%%%%%%%%%%%%%%%%%%%%%%qQ%%%%%%qJ6qJ6k4Q%Qq%%%%%%%%%%%%%%%%%%%%%%
9962B0%%%%%%%%%%%%%%%%%%%%%%%%%%%%%%%%%%%%%%%%%%%%%%%%%%%%%%%%%%%%%%%%%%%%%%
9946B0%%%%%%%%%%%%%%%%%%%%%%%%%%%%%%%qQ%%%%%%%%%%%%%%%%%%%%%%%%%%%%%%%%%%%%%
9930B0%%%%%%%%%%%%%%%%%%%%%%%%%%%%%%%%%%%%%%%%%%%%%%%%%%%%%%%%%%%%%%%%%%%%%%
9914B0%%%%%%%%%%%%%%%%%%%Qq%%%%%%%%%%%%%%%%%%%%%%%%%%%%%%%%%%%%%%%%%%%%%%%%%
9898B0%%%%%%%%%%%%%%%%%%%%%%%%%%%%%%%%%%%%%%%%%%%%%%%%%%%%%%%%%%%%%%%%%%%%%%
9882B0%%%%%%%%%%%%%%%%%%%%%%%%%%%%%%%%%%%%%%%%%%%%%%%%%%%%%%%%%%%%%%%%%%%%%%
9866B0%%%%%%%%%%%%%%%%%%%%%%%%%%%%%%%%%%%%%%%%%%%%%%%%%%%%%%%%%%%%%%Qq%Qq%%%
9850B0%%%%%%%%%%%%%%%%%%%%%%%%%%%%%%%%%%%%%%%%%%%%%%%%%%%%%%%%%%%%%%%%%%%%%%
9834B0%%%%%%%%%%%%%%%%%%%%%%%%%%%%%%%%%%%%%%%%%%%%%%%%%%%%%%%%%%%%%%%%%%%%%%
9818B0%%%%%%%%%%%%%%%%%%%%%%%%%%%%%%%%%%%%%%%%%%%%%%%%%%%%%%%%%%%%%%%%%%%%%%
9802B0%%%%%%%%%%%%%%%%%%%%%%%%%%%%%%%%%%%%%%%%%%%%%%%%%%%%%%%%%%%%%%%%%%%%%%
9786B0%%%%%%%%%%%%%%%%%%%%%%%%%%%%%%%%%%%%%%%%%%%%%%%%%%%%%%%%%%%%%%%%%%%%%%
9770B0%%%%%%%%%%%%%%%%%%%%%%%%%%%%%%%%%%%%%%%%%%%%%%%%%%%%%%%%%%%%%%%%%%%%%%
9754B0%%%%%%%%%%%%%%%%%%%%%%%%%%%%%%%%%%%%%%%%%%%%%%%%%%%%%%%%%%%%%%%%%%%%%%
9738B0%%%%%%%%%%qQ%%qQq%%J6q%%%%%%%%%%%%%%%%%%%%%%%%%%%%%%%%%%%%%%%%%%%%%%%%
9722B0%%%%%%%%%%%%%%%%%%%%%%%%%%%%%%%%%%%%%%%%%%%%%%%%%%%%%%%%%%%%%%%%%%%%%%
9706B0%%%%%%%%%%%%%%%%%%%%%%%%%%%%%%%%%%%%%%%%%%%%%%%%%%%%%%%%%%%%%%%%%%%%%%
9690B0%%%%%%%%%%%%%%%%%%%%%%%%%%%%%%%%%%%%%%%%%%%%%%%%%%%%%%%%%%%%%%%Qq%%%%%
9674B0%%%%%%%%%%%%%%%%%%%%%%%%%%%%%%%%%%%%%%%%%%%%%%%%%%%%%%%%%%%%%%%%%%%%%%
9658B0%%%%%%%%%%%%%%%%%%%%%%%%%%%%%%%%%%%%%%%%%%%%%%%%%%%%%%%%%%%%%%%%%%%%%%
9642B0%%%%%%%%%%%%%%%%%%%%%%%%%%%%%%%%%%%%%%%%%%%%%%%%%%%%%%%%%%%%%%%%%%%%%%
9626B0%%%%%%%%%%%%%%%%%%%%%%%%%%%%%%%%%%%%%%%%%%%%%%%%%%%%%%%%%%%%%%%%%%%%%%
9610B0%%%%%%%%%%%%%%%%%%%%%%%%%%%%%%%%%%%%%%%%%%%%%%%%%%%%%%%%%%%%%%%%%%%%%%
9594B0%%%%%%%%%%%%%%%%%%%%%%%%%%%%%%%%%%%%%%%%%%%%%%%%%%%%%%%%%%%%%%%%%%%%%%
9578B0%%%%%%%%%%%%%%%%%%%%%%%%%%%%%%%%%%%%%%%%%%%%%%%%%%%%%%%%%%%%%%%%%%%%%%
9562B0%%%%%%%%%%%%%%%%Qq%%%%%%%%%%%%%%%%%%%%%%%%%%%%%%%%%%%%%%%%%%%%%%%%%%%%
9546B0%%%%%%%%%%%%%%%%%%%%%%%%%%%%%%%%%%%%%%%%%%%%%%%%%%%%%%%%%%%%%%%%%%%%%%
9530B0%%%%%%%%%%%%%%%%%%%%%%%%%%%%%%%%%%%%%%%%%%%%%%%%%%%%%%%%%%%%%%%%%%%%%%
9514B0%%%%%%%%%%%%%%%%%%%%%%%%%%%%Qq%%%%%%%%%%%%%%%%%%%%%%%%Qq%%Q%qqQ%Qj6%Q%
9498B0Qq%%Qq%%%%%%%%%%%%%%%%Qq%%%%%%%%%%%%%%%%%%%%%%%%%%%%%%%%%%%%%%%%%%%%%%
9482B0%%%%%%%%%%%%%%%%%%%%%%%%%%%%%%%%%%%%%%%%%%%%%%%Qq%%%%%%%%%%%%%%%%%%%%%
9466B0%%%%%%Qq%%%%%%%%%%%%%%%%%%%%%%%%%%%%%%%%%%%%%%%%%%%%%%%%%%%%%%%%%%%%%%
9450B0%%%%%%%%%%%%%%%%%%%%%%%%%%%%%%%%%%%%QqQq%%%%%%%%%%%%%%%%%%%%%%%%%%%%%%
9434B0%%%%%%%%%%%%%%%%%%%%%%%%%%%%%%%%%%%%%%%%%%%%%%%%%%%%%%%%%%%%%%%%%%%%%%
9418B0%%%%%%%%%%%%%%%%%%%%%%%%%%Qq%%%%%%%%%%%%%%%%%%%%%%%%%%%%%%%%%%%%%%%%%%
9402B0%%%%%%%%%%%%%%%%%%%%%%%%%%%%%%%%%%%%%%%%%%%%%%%%%%%%%%%%%%%%%%%%%%%%%%
9386B0%%%%%%%Qq%%Q%%%q%%%%%%%%%%%%%%%%%%%%%%%%%%%%%%%%%%%%%%%%%%%%%%%%%%%%%%
9370B0%%%%%%%%%%%%%%%%%%%%%%%%%%%%%%%%%%%%%%%%%%%%%%%%%%%%%%%%%%%%%%%%%%%%%%
9354B0%Qq%%%%%%%%%%%%%%%%%%%%%%%%%%%%%%%%%%%%%%%%%%%%%%%%%%%%%%%%%%%Q%q%%%%%
9338B0%%%%%%%%%%%%%%%%%%%%%%%%%%%%%%%%%%%%%%%%%%%%%%%%%%%%%%%%%%QqQqQq%%%%%%
9322B0%%%%%%%%%%%%%%%%%%%%%%%%%%%%%%%%%%%%%%%%%%%%%%%%%%%%%Qq%%%%%%%%%%%%%%%
9306B0%%%%%%%%%%%%%%%%%%%%%%%%%%%%%%%%%%%%%%%%%%%%%%%%%%%%%%%%%%%%%%%%%%%%%%
9290B0%%%%%%%%%%%%%%%%%%%%%%%%%%%%%%%%%%%%%%%%%%%%%%%%%%%%%%%%%%%%%%%%%%%%%%
9274B0%%%%%%Qq%%Qq%Qq%%%%%%%%%Q%q%Q%%q%%J6%k4K4j6%j6J6QqQq%qQ%%%%%%%%%%%Qq%%
9259B0%%%%%%%%%%%%%%%%%%%%%%%%%%%%%%%%%%%QqQq%%%%%%%%%%%%%%%%%%%%%%%%%%%%%%%
9243B0%%%%%%%%%%%%%%%%%%%%%%%%%%Qq%%%%%%%%%%%%%%%%%%%%%%%%%%%%%%%%%%%%%%%%%%
9227B0%%%%%%%%%%%%%%%%%%%%%%%%%%%Q%q%%%Q%%q%%%%%Qq%%%%%%%%%Qq%%%%%%%%%%%%%%%
9211B0%%%%Qq%%%%%%%%%Qq%Qq%%%%%%%Qq%%Qq%%%%%%%%%%%%%%%%%%%%%%%%%%%%%%%%%%%%%
9195B0%%%%%%%%%%%%%%%%%%%%%%%%%%%%%%%%%%%%%%%%%%%%%%%%%%%%%%%%%%%%%%%%%%%%%%
9179B0%%%%%%Qq%Qq%%%%%%%%%%%%%%%%%%%%%%%%%%%%%%%%%%%%%%%%%%%%%%%%%%%%%%%%Qq%
9163B0%%%%%%%%%%%%%%%%%%%%%%%%%Qq%%%%Qq%%%%%%%%%%%%%%%%%%%%%%%%%%%%%%%Q%q%Qq
9147B0%%%Qq%%Qq%%%%%%%%%%Qq%%Qq%%%%%%%%%%%%%%%%%%%%%%%%%%%%%%%%%%%%%%%%%%%%%
9131B0%%%%%%%%%%%%%%%%%%%%%%%%%Qq%%Qq%%%%%%%%%%%%%%%%%%%%%%%%%%%%%%%%%%%%%%%
9115B0%%%%%%%%%%%%%%%%%%%%%%%%Qq%%%%%%Qq%%%%%%%%%%%%%%%%%%%%%%%Qq%%%%%%%%Qq%
9099B0%%%Qq%%%%%%%%%%%%%%%%%%%%%%%%QqQ%%q%%%%%%Qq%%QqQqQq%%%%%%%%%%%%%%%%%%%
9083B0%%%%%%%%%%%%%%%%%%%%%%%Qq%%%%%Q%%q%%%%%%%%%%%%%%%%Qq%%%%%%Qq%%Qq%%%%%%
9067B0%%%%%%%%%%%%%%%%%%%%%%%Qq%Qq%Qq%%Qq%%Qq%%%%%%%%%%%%%%%%%%%QqQ%q%%%%%%%
9051B0%%%%%%%%%Q%q%%%%%%%%%%%%%%%%%%%%%%%%%%%%%%%%%%%%%%%%%%QqQq%%%%Q%q%%%%%
9035B0Qq%%%Qq%%Qq%%%Q%qQ%q%%Qq%%%%%%%%%%%%%%%%%%%%%%%%%%%Qq%%%%%%%%%%%%%%%Qq
9019B0%%Qq%%Qq%Qq%%%%%%%%%%%%%%%%%%Qq%%%%%%%%%%%%Q%q%%%%%%%%%%%%%%%%%%Qq%%Qq
9003B0%%%%QqQq%Qq%%QqQq%%%Q%q%%%%%%Qq%%%%%%Qq%%%%%%Qq%%%Qq%%%%%%Qq%Qq%%%%%%%
8987B0Qq%Qq%%%%%%Qq%QqQq%Qq%%%%%%%%Qq%Qq%Qq%%Q%q%%%%Q%q%Q%q%%%%%%%%Q%%qQ%%%q
8971B0%%%%%%%%%%%%%Qq%%%%%%%%%%%%%%%%%%%%%%%Qq%%%%%Q%q%%%%%Qq%%%Qq%%%%%Q%q%%
8955B0%%%%Qq%%%%%QqQ%q%%Q%qQqQqQq%%Qq%%Q%%q%%%%%%%%%%%%%Q%q%%%Qq%%%%%%%%%%%%
8939B0%%%%Qq%%%%QqQ%q%%%%%%%%%%%%%%Q%qQ%q%QqQ%%q%%QqQq%%%%%%%%%%%Qq%%%%%%%%%
8923B0%%%%%%%%Qq%%%%%%Qq%%QqQqQ%q%%Q%qQq%%Q%%%qQq%%Q%q%%%%%%%QqQqQqQq%%%%%%%
8907B0%%%QqQqQq%Qq%%Q%qQ%q%Q%q%%Q%qQ%%q%%QqQq%Qq%QqQ%qQq%Qq%%%%%%%%%Qq%%%%%%
8891B0%%%%%%%%%%%%%%%%%%%%%%Q%q%%%%%Q%q%%%Qq%%%%%%%%%%%%%%%%%Qq%QqQ%%%%q%Qq%
8875B0%%%QqQq%%%%%%%%%Qq%%%%%%%%%Qq%%%%%%%%%%%Qq%%QqQqQqQ%%%%%%q%Q%qQ%%q%%Qq
8859B0Qq%%%Qq%Q%%%qQq%%Qq%%%Qq%%%Qq%%%%Q%%q%%%QqQ%q%QqQ%qQq%%QqQqQ%q%%%%%%%%
8843B0%%QqQqQ%qQqQqQqQqQqQq%QqQq%%%%%%Qq%%%%Q%q%Q%%%q%%Qq%%%%%%%%Qq%%%%Q%%%q
8827B0%%Qq%Qq%%%Qq%Q%%%%%%%qQqQ%%%qQ%%%%qQqQ%%%q%%%%%QqQq%%Qq%%%Qq%Q%%%%%%%%
8811B8%%%%%%%%q%%%%QqQq%%%Q%q%%%%%%Q%%qQqQ%%%%%%qQ%q%%%QqQq%Qq%Q%j6L2j6%%qQq
8795B0QqQq%Q%%%q%QqQ%%q%%QqQ%q%%Q%q%Q%%qQq%%%%%Q%%%%q%%%Q%qQqQqQ%%q%Q%%%%%%%
8779B8%qQ%qQq%Q%qQqQq%Qq%%%%%%%%%%Qq%%Q%q%Qq%%%%Q%qQ%%q%Qq%QqQqQ%%q%QqQ%%q%%
8763B0%%%%QqQ%q%Q%%qQ%%q%%QqQ%%qQ%q%%Q%%%%qQ%qQ%%%qQ%%%%qQ%%%%qQ%q%Q%qQ%q%%Q
8747B8%qQ%%%qQ%%qQ%%%q%Qq%%%%QqQqQ%qQq%%%%Q%%%q%%Q%%%qQ%%%%%%%%%%%%%%%%%%%%%
8731B8%%%%qQ%qQ%%%%%%%%%qQ%%%%%%%%%%%%q%%Q%%qQ%%%%%%%%%%%%%%qQ%%%q%Q%q%%%%Q%
8715B8q%%%%Q%%q%QqQ%%%qQ%%%%%%%%%%qQq%Q%qQ%%%%%q%%%QqQ%%qQ%%%%%qQq%Q%%%%%qQ%
8699B8%%%%%%%%%qQ%%q%Q%%%%%%%%%%%%%q%Q%qQqQq%%Q%%%%%%qQqQ%%%q%Q%%%%%%%%%%%%%
8683B8%qQ%%qQ%qQ%%%%qQ%%%qQq%Qq%%QqQ%%q%QqQqQ%q%Q%%%%%%qQ%%qQ%qQ%%%%%%%%%%%%
8667B8%qQ%%q%QqQ%%q%QqQ%qQ%q%%%%%%%%%%%%Qq%Q%%%%%%%%%qQ%%%qQ%qQ%%q%%%%Q%q%%%
8651B0%QqQq%%Q%qQ%%q%Qq%Q%%q%%QqQ%%q%Q%qQ%qQ%qQ%%%%%%%%%%%%%%%%%%%%%%qQ%qQ%%
8635B8%%%%%%%%%%%%%%%%%%%%%%%qQq%Qq%%Q%%%%%qQ%%%%%qQ%%%%%qQ%%%qQ%%q%Q%%qQ%%%
8619B8%%q%%Q%%qQq%QqQ%%%qQ%%%q%Q%%%%%%%%%%%qQ%%%%%%%%%%%%%%%%%%%%%%%%qQ%%%%%
8603B8%%%%%%%%%%%%%%%%%%%%%%%%%%%%%%%%%%%%%%%%%%%%%%%%%%qQ%%qQ%%%qQ%%qQ%%%qQ
8587B8%%%%%%%%%%%%%%%%%%%%%%%%%%%%q%Q%%q%Q%%%%%%%%%%%%%qQ%%%%%%%%%%%%%%%%%%%
8571B8%%%%%%%%%%qQ%%%%%%%%%%%%%%%%%%qQqQqQqqJ6%%%%%q%Q%%%%%qQ%%%%%%%qQ%%%%%%
8555B8q%Q%%%%qQ%q%Q%q%Q%q%%Q%%qQqQ%%%%%%%%%%%%%%%%%%%%%%%%q%Q%%%%%%%%%qQ%%%%
8539B8%%%%%%%%%%%%%%%qQ%qQ%%%%qQ%%%%%%qQ%%%%%%%%%%qQ%%%%qQqQ%%qQ%qQ%%%%%%%%%
8523B8%%%%%%%%%%%%%%qQq%Q%%q%QqQ%%%%%%%%%%q%Q%%%qQqQ%%%%%%%%%%%%%%%%%%%%%%%%
8507B8%%%%%%%%q%Q%%q%QqQ%%%qQ%%%%%%%%%%%%%%%%%%%%%%%%%%%%%%%%%%%%%%%%%%%%%%%
8491B8%%%%%%%%%%%%%%%%%%%%%%%%%%%%%%%%qQ%%%%%qQ%%%%%%%%%%%%%%%%%%%qQ%%%%%%%%
8475B8qQ%qQ%%%%%%%%%%%%%%%%%%%%%%%%%%%%%%%%%%%%%%%%%%%%%%%%%%%%%%%%%%%%qQ%%%
8459B8%%qQ%qQ%%%%%%%%%%%%%%%%%%%%%%%%%%%%%%%%%%%%%%%%%%%%%%%%%%%%%%%qQ%%%%%%
8443B8%%%%%%%%%%%%%%%%%%qQ%%%%%%%%%%%%%%%%%%%%%%%%%%%%%qQ%%%%%%%%%%%%%%%%%%%
8427B8%%%%%%%%%%%%qQ%%%%%%%%%%%%%%%%%%%%%%%%%%%%%%%%q%Q%%%%%%%%%%%%%%%%%%%%q
8411B0Q%%%%%%%qQ%%%%%%%%%%%%%%%%%%%%%%%%%%%%%%%%%qQ%%%%%%%%%%%qQ%%%%%%%%%%%%
8395B8%%%%%%%%%%%%%%%%%%%%%%%%qQ%%%%%%qQqQqQ%%%%qQ%%%%%%%%%%%%%%%%%%%%%%%%%%
8379B8%%%%%%%%%%%%%%%%%%%%%%%%%%%%%%%%%%%%%qQ%%%%%%%%%%%%%%%%%%%%%%qQ%%qQ%qQ
8363B8%%%%%%%%%%%%%%%%%%%%%%%qQ%%%%%%%%%%qQ%qQqQ%%%%%%%qQ%%%%%%%%%%%%%%%%%%%
8347B8%%%%%%%%%%%%%%%%%%%%%%%%qQ%%%%%%%%%%%%%%%%%%%%qQ%qQ%qQQqq%%Q%qQqJ6j6%Q
8331B8Qq%q%%QQk4L2%k4N6m0m0M8k4Qqj6M0m0%K4qJ6q%%qQ%q%QqQ%%qQ%%%%%%qQ%%qQqQ%%
8318B8%%%%%%%%%%%qQ%q%Q%%q%Q%%%%%%%%%%%%%%%%%%%%%%%%%%%%%%%%%%%%%%%%%%%%%%%%
8302B8%%%%%%%%%%%%%%%%%%%%%%%%%%%%%%%%%%%%%%%%%%%%%%%%%%%%%%%%%%%%%%%%%%%%%%
8286B8%%%%%%%%%%%%%%%%%%%%%%%%%%%%%%%%%%%%%%%%%%%%%%%%%%%%%%%%%%%%%%%%%%%%%%
8270B8%q%Q%%%%%%%%%%%%%%%%%%%%%%%%%%%%%%%%%%%%%%%%%%%%%%%%%%%%%%%%%%%%%%%%%%
8254B8%%%%%%%%%%%%%%%%%%%%%%%%%%%%qQ%%%%%%%%%%%%%%%%%%%%%%%%%%%%%%%%%%%%%%%%
8238B8%%%%%%%%%%%%%%%%%%%%%%%%%%%%%%%%%%%%%%%%%%%%%%%%%%%%%%%%%%%%%%%%%%%%%%
8222B8%%%%%%%%%%%%%%%%%%%%%%%%%%%%%%%%%%%%%%%%%%%%%%%%q%Q%%qQ%%%%%%%%%%%%%%%
8206B8%%%%%%%%%%%%%%%%%%%%%%%%%%%%%%%%%%%%%%%%%%%%%%%%%%%%%%%%%%%%%%%%%%%%%%
8190B8%%%%%%%%%%%%%%%%%%%%%%%%%%%%%%%%%%%%%%%%%%%%%%%%%%%%%%%%%%%%%%%%%%%%%%
8174B8%%%%%%%%%%%%%%%%%%%%%%%%%%%%%%%%%%%%%%%%%%%%%%%%%%%%%%%%%%%%%%%%%%%%%%
8158B8%%%%%%%%%%%%%%%%%%%%%%%%%%%%%%%%%%%%%%%%%%%%%%%%%%%%%%%%%%%%%%%%%%%%%%
8142B8%%%%%%%%%%%%%%%%%%%%%%%%%%%%%%%%%%%%%%%%%%%%%%%%%%%%%%%%%%%%%%%%%%%%%%
8126B8%%%%%%%%%%%%%%%%%%%%%%%%%%%%%%%%%%%%%%%%%%%%%%%%%%%%%%%%%%%%%%%%%%%%%%
8110B8%%%%%%%%%%%%%%%%%%%%%%%%%%%%%%%%%%%%%%%%%%%%%%%%%%%%%%%%%%%%%%%%%%%%qQ
8094B8%%%%%%%%%%%%%%%%%%%%%%%%%%%%%%%%%%%%%%%%%%%%%%%%%%%%%%%%%%%%%%%%%%qQ%%
8078B8%%%%%%%%%%%%%%%%%%%%%%%%%%%%%%%%%%%%%%%%%%%%%%%%%%%%%%%%%%%%%%%%%%%%%%
8062B8%%%%%%%%%%%%%%%%%%%%%%%%%%%%%%%%%%%%%%%%%%%%%%%%%%%%%%%%%%%%%%%%%%%%%%
8046B8%%%%%%%%%%%%%%%%%%%%%%%%%%%%%%%%%%%%%%%%%%%%%qJ6q%%%%%%%%%%%%%%%%%%%%%
8030B8%%%%%%%%%%%%%%%%%%%%%%%%%%%%%%%%%%%%%%%%%%%%%%%%%%%%%%%%%%%%%%%%%%%%%%
8014B8%%%%%%%%%%%%%%%%%%%%%%%%%%%%%%%%%%%%%%%%%%%%%%%%%%%%%%%%%%%%%%%%%%%%%%
7998B8%%%%%%%%%%%%%%%%%%%%%%%%%%%%%%%%%%%%%%%%%%%%%%%%%%%%%%%%%%%%%%%%%%%%%%
7982B8%%%%%%%%%%%%%%%%%%%%%%Qq%%%%%%%%%%%%%%%%%%%%%%%%%%%%%%%%%%%%%%%%%%%%%%
7966B8%%%%%%%%%%%%%%%%%%%%%%%%%%%%%%%%%%%%%%%%%%%%%%%%%%%%%%%%%%%%%%%%%%%%%%
7950B8%%%%%%%%%%%%%Qq%%%%%%%%%%%%%%%%%%%%%%%%%%%%%%%%%%%%%%%%%%%%%%%%%%%%%%%
7934B8%%%%%%%%%%%%%%%%%%%%%%%%%%%%%%%%%%%%%%%%%%%%%%%%%%%%%%%%%%%%%%%%%%%%%%
7918B8%%%%%%%%%%%%%%%%%%%%%%%%%%%%%%%%%%%%%%%%%%%%%%%%%%%%%%%%%%%%%%%%%%%%%%
7902B8%%%%%%%%%%%%%%%%%%%%%%%%%%%%%%%%%%%%%%%%%%%%%%%%%%%%%%Qq%%%%%%%%%%%%%%
7886B8%%%%%%%%%%%%%%%%%%%%%%%%%%%%%%%%%%%%%%%%%%%%%%%%%%%%%%%%%%%%%%%%%%%%%%
7870B8%%%%%%%%%%%%%%%%%%%%%%%%%%%%%%%%%%%%%Qq%%%%%%%%j6J6%%%%%Qq%%%%%%%%%%%%
7854B8%%%%Qq%%%%%Qq%%%%%%%%%%%%%%%%%%%%%%%%%%%Qq%%%%%%%%%%%%%%%%%%%%%%%%%%%%
7838B8%%%%%%%%%%%%%%%%%%%%%%%%%%%%%%%%%%%%%%%%%%%%%%%%%%%%%%%%%%%%%%%%%%%%%Q
7822C6q%%%%%%%%%%%%%%%%%%%%%%%%%%%%%%%%%%%%%%%%%%%%%%%%%%%%%%%%%%%%%%%%%%%%%
7806B8%%%%%%%%%%%%Qq%Q%q%%%%%%%Qq%%%%%%%%%%%%%%%%%%%%%%%%%%%%%%%%%%%%%%%%%%%
7790B8%%%%%%%%%%%%%%%%%%Qq%Qq%%%%%%%%%%%%%%%%%%%%%%%%%%%%%%%%%%%%%%%%%%%%%%%
7774B8%%%%%%%%%%%Qq%%%%%%%%%%%%%%%%%%%%%%%%%%%%%%%%%%%%%%%%%%%%%%%%%%%%%%%%%
7758B8%%%%%%%%%%%%%%%%%%%%%%%%%%%%%%%%%%%%%%%%%%%%%%%%%%Qq%%%Qq%%%%%%Qq%Qq%Q
7742C6%q%%%%%%%%%%%%%%%%%%%%%%%%%%%%%%%%%%%%%%%%%%%%%%%%%%%%%%%%%%%%%%%%%%%%
7726B8%%%%%%%%%Qq%%%%%%%%%%%%Qq%%%%%%%%%%%%%%Qq%%%%%%%%%%%%%%%%%%%%%%%Qq%%%%
7710B8%%%%%%%%%%%%%%%%%%%%%%%%%%%%%%%%%%%%%%%%%%%%%%%%%%%%%%%%%%%%%%%%%%%%%%
7694B8%%%%%%%%%%%%%Qq%%%%%%%%%%%%%%%%%%%%%%%%%%%%%%Qq%Q%q%%%%%%%%%%%%%%%%%%%
7678B8%%%%%%%%%%%%%%%%%%%%%%%%%%%%%%Qq%%%%%%%Qq%%%%%%%%%%%%%%%%%%%%%%%%%%%%%
7662B8%Qq%%%%%%%%%%%%%%%%Qq%%%%%%Qq%%%%%%Qq%%%%%%%%%%%Qq%%%%%%%%%%%%%%%%%%%%
7646B8%%%%%%%%%%QqQqQq%%%%%%Qq%%%%%Qq%%%%%Qq%%Qq%%%%%%%%%%%%%%%%%Qq%%Qq%Qq%%
7630B8%%%%Qq%%Q%qQq%%Qq%%Q%q%Q%q%%Qq%%%%%Qq%%%%%%Qq%%Qq%%%%%%%%%%%%%%%%Qq%%Q
7614C6q%%%%%%%%%%%Q%q%Qq%%%%%%Qq%%%%%%Q%%q%%QqQq%Qq%%%%%%%%%%%Qq%%%Q%q%QqQq%
7598B8Qq%QqQ%%qQ%qQ%q%Qq%%%%%%Qq%%%%%%Qq%%%%%%%%%%Qq%%%%%%%%%%%%%%%%%%Qq%%%%
7582B8%%%%%%%%%%Qq%%Qq%%%%%%%%%%%%%%%%%%%%%%%%%%%%%%%%%%%%%%%%%%%%%Qq%Qq%%%Q
7566C6q%%%Q%q%Qq%%%%%Q%q%%%%%%Q%q%%%%%Qq%%%%%%%%%%%%%%%Q%q%Q%qQqQ%qQq%%Qq%%Q
7550C6q%Qq%%Qq%%%%%%%%%%%%%%%%%%%%%%%%%%%%%%%%Qq%%Qq%%QqQqQq%%%%QqQq%Qq%%%%%
7534B8%%%%%Qq%%%%%%%%%%Q%q%%Qq%Qq%Q%%%qQ%%%q%QqQqQ%%qQq%%Qq%%%%Q%qQ%%%%%%%%%
7518C6%%%%%qQq%%Q%%qQqQ%%q%%QqQ%%%q%%%Qq%%%Q%qQ%%%qQq%Q%%qQq%%%%%%%%%%%%%%%Q
7502C6qQ%q%%Q%q%%%%QqQ%%%%%%%%%%qQqQq%Q%q%%QqQq%%%%%%Q%qQ%qQ%qQq%%Q%q%%Qq%%Q
7486C6q%%%%%%%Qq%%%%%%%%%Qq%%Q%%%q%Qq%%%QqQq%Q%qQ%q%%%%%%%%%%%%Qq%%%%%%QqQq%
7470B8%Q%q%Q%%%%qQ%%%qQ%%%q%Q%%qQq%Qq%Q%qQqQq%%QqQqQqQ%%qQqQqQqQ%q%%%Q%%%q%%
7454B8%Q%%qQ%%%qQ%%%qQqQqQqQ%%%%%%%%%%%%q%Q%%%%%%%%%%%%q%Q%%qQ%qQ%%%q%QqQ%%%
7438C6%qQ%qQ%qQ%%q%%%Q%qQqQqQ%%%%qQqQ%%q%Qq%%%%%%Q%%%%%%q%%Q%q%%%QqQq%%Qq%Q%
7422C6%q%QqQ%qQ%q%Q%%%%%%%%%%%q%%Q%%%%%%%%%%%%%%%%%%%%%%%%qQ%%%%%%%%%%%%%%%%
7406C6%%%qQ%%%%%%%%%%%qQqQq%Q%%q%%%Q%%%qQ%%qQqQ%%q%QqQ%qQ%qQq%QqQq%J6qj6J6J6
7391E2k4J6k4K4k4K4qq%%QqQqQ%%%%%%q%%QqQqQ%%%%qQ%%%%%%%%%%%%qQ%%%%%%%%%%%%%%%
7376C6qQ%%%%%%%%%%%%%%%%%%qQ%%%%%%%%%%qQ%%%%%%%%%qQ%%%%%qQ%%%q%%%%%QqQ%%%%qQ
7360C6qQ%%%%%%%%%%%%%%%%%%%%%%qQ%%%%%%%%%%%%%%q%Q%%%%%%%%%%%%%%%qQ%%%%%%%%%%
7344C6%qQ%qQ%qQ%%%%%%%%%%%%%%%%%%%%%%%%%%%%%qQ%%%qQq%%%%QqQ%%q%Q%qQ%%%%%%%%%
7328C6%%%%%%%%%%%%%%%%qQ%%%%%%%%%%%%%%%%%%%%%%%%%%%%%%%%%%%%%%%%%%%%%%%%%%%%
7312C6%%%%%%%%%%%%%%%%%%%%%%qQ%%%%%%%%%%%%%%%%qQ%qQ%%%%%%%%%%%%%%qQ%%%%%%%%%
7296C6%%%%%%qQ%%%%%%%%%%%%%%%%%%%%%%%%qQ%%%%%%%%%%%%%%%%%%%%%%%%%%%%%%%%%%%%
7280C6%%%%%%%%%%%%%%%%%%%%%qQ%%%q%%QqQ%qQ%qQ%qQqQ%%%%%%%%%%%%%%%%%%%%%%%%%%%
7264C6%%%%%%%%%%qQ%%%%%%%%%%%%%%%%%%%%%%%%%%%%%%%%%%%%%%%%%%%%%%%%%%%%%%%%%%
7248C6%%%%%%%%%%%%%%%q%QqQ%%%%%%%%%%%%%%%qQ%%%%%%qQ%%%%%%%%%%%%%%%%%%%%%%%%%
7232C6%%%%%%%%%%%%qQ%%%%%%%%%%%%%%%%%%%%%%%%%%%%%%%%%%%%%%%%%%%%%%%%%%%%%%%%
7216C6%%%q%QqQ%%%%%%%%%%%%%%%%%%%%%%%%%%%%%%%%%%%%%%%%%%%%%%%%%%%%%%%%qQ%%%%
7200C6%%%%%%%%%%%%%%%%%%%%%%%%%%%%%%%%%%%%%%%%%%%%%%%%%%%%%%%%%%%%%%qQqQ%qQ%
7184C6%%%%%%%%%%%%%%%%%%%%%%%%%%%%%%%%%%%%%%%%%%%%%%%%%%%%%%%%%%%%%%%%%%%%%%
7168C6%%%%%%%%%%%%%%%%%%%%%%%%%%%%%%%%%%%%%%%%%%%%%qQ%%%q%Q%%%%%%%%%%%%%%%%%
7152C6%%%%%%%%%%%%%%%%%%%%%%%%%%%%%%%%%%%%%%%%%%%%%%%%%%%%%%%%%%%%%%%%%%%%%%
7136C6%%%%%%%%%%%%%%%%%%%%%%%%%%%%%%%%%%%%%%%%%%%%%%%%%%%%%%%%%%%%%%%%%%%%%%
7120C6%%%%%%%%%%%%%%%%%%%%%%%%%%%%%%%%%%%%%%%%%%%%%%%%%%%%%%%%%%%%%%%%%%%%%%
7104C6%%%%%%%%%%%%%%%%%%%%%%%%%%qQ%qQ%%%%%%%%%%%%%%%%%%%%%%%%%%%%%%%%%%%%%%%
7088C6%%%%%%%%%%%%%%%%%%%%%%%%%%%%%%%%%%%%%%%%%%%%%%%%%%%%%%%%%%%%%%%%%%%%%%
7072C6%%%%%%%%%%%%%%%%%%%%%%%%%%%%%%%%%%%%%%%%%%%%%%%%%%%%%%%%%%%%%%%%%%%%%%
7056C6%%%%%%%%%%%%%%%%%%%%%%%%%%%%%%%%%%%%%%%%%%%%%%%%%%%%%%%%%%%%%%%%%%%%%%
7040C6Qj6J6q%%%%%%%%%%%%%%%%%%%%%%%%%%%%%%%%%%%%%%%%%%%%%%%%%%%%%%%%%%%%%%%%
7024C6%%%%%%%%%%%%%%%%%%%%%%%%%%%%%%%%%%%%%%%%%%%%%%%%%%%%%%%%%%%%%%%%%%%%%%
7008C6%%%%%%%%%%%%%%%%%%%%%%%%%%%%%%%%%%%%%%%%%%%%%%%%%%%%%%%%%%%%%%%%%%%%%%
6992C6%%%%%%%%%%%%%%%%%%%%%%%%%%%%%%%%%%%%%%%%%%%%%%%%Qq%%%%%%%%%%%%%%%%%%%%
6976C6%%%%%%%%%%%%%%%%%%%%%%%%%%%%%%%%%%%%%%%%%%%%%%%%%%%%%%%%%%%%%%%%%%%%%%
6960C6%%%%%%%%%%%%%%%%%%%%%%%%%%%%%%%%%%%%%%%%%%%%%%%%%%%%%%%%%%%%%%%%%%%%%%
6944C6%%%%%%%%%%%%%%%%%%%%%%%%%%%%%%%%%%%%%%%%%%%%%%%%%%%%%%%%%%%%%%%%%%%%%%
6928C6%%%%%%%%%%%%%%%%Qq%%%qQ%qQqJ6qq%Q%%%%%%%%%%%%%%%%%%%%%%%%%%%%%%%%%%%%%
6912C6%%%%%%%%%%%%%%%%%%%%%%%%%%%%%%%%%%%%%%%%%%%%%%%%%%%%%%%%%%%%%%%%%%%%%%
6896C6%%%%%%%%%%%%%%%%%%%%%%%%%%%%%%%%%%%%%%%%%%%%%%%%%%%%%%%%%%%%%%%%%%%%%%
6880C6%%%%%%%%%%%%%%%%%%%%%%%%%%%%%%%%%%%%%%%%%%%%%%%%%%%%%%%%%%%%%%%%%%%%%%
6864C6%%%%Qq%%%%%%%%%%%%%%%%%%%%%%%%%%%%%%%%%%%%%%%%%%%%%%%%%%%%%%%%%%%%Qq%%
6848C6%%%%%%%%%%%%%%%%%%%%%%%%%%%%%%%%%%%%%%%%%%%%%%%%%%%%%%%%%%%%%%%%%%%%%%
6832C6%%%%%%%%%%%%%%%%%%Qq%%%%%%%%%%%%%%%%%%%%%%%%%%%%%%%%%%%%%%%%%%%%%%%%%%
6816C6%%%%%%%%%%%%%%%%%%%%Qq%%%%%%%%%%Qq%%Qq%%Qq%%Qq%Qq%%%Q%%q%%%%%Qq%%%%%%%
6800C6%%%%%%%%Qq%%%%%%%%%%%%%%%%%%%%%%%%%%%%%%%%%%%%%%%%%%%%%%%%%%Qq%%%%%%%%
6784C6%%%%%%%%%%%%%%%%%%%%%%%%%%%%%%%%Qq%%%%%%%%%%%%%%%%%%%%%%%%%%%%%%%%%%%%
6768C6%%%%%%%%%%QqQq%%%%%%%%%%%%%%%%%%%%%%%%%%%%%%%%%%%%%%%%%%%%%%%%%%%Qq%%%
6752C6%%%%%%%%%%%%%%%%%%%%%%%%Qq%%Q%%q%%%%Qq%%%%%%%%%%%%%%Qq%%%%%%%%%%%%%%Qq
6736C6%%Qq%%%%%%%%%%Q%%qQqQ%q%Qq%%%Q%q%%%%%QqQq%%%Q%%q%%Qq%Q%q%%%%Qq%%%%%%%%
6720C6%%%%%%%%%%%Qq%%%%%%%%%%%%QqQq%%%%%%%%%%%%%%%%%%%%%Qq%%%%Qq%%%%%%%Qq%%%
6704C6%Q%q%%Q%q%%Qq%%Qq%%QqQq%%%%%%%Q%qQqQ%q%QqQ%%%qQq%%Qq%%%%%QqQ%qQq%Q%q%Q
6688D4q%Q%qQ%%%%qQ%qQ%%%q%Q%%%%%qQqQ%q%Qq%%%%%%%%%%%Qq%%%%%%%%%Q%q%%Q%%%%qQ%
6672D4qQ%%%qQq%Q%qQqQ%q%%%%%%%%Qq%Q%%%qQ%%%%%%%%%qQ%%q%%Q%%%q%Qq%%QqQq%%%Q%q
6656C6QqQq%%%Q%%%%qQ%%%%%%%%%q%%Q%q%%%%Qq%Qq%%Q%qQqQqQ%%q%Q%%%%%%%%%%%%%%%%%
6640D4%%%%%%%qQqQ%q%%Qq%%%%%%%%Q%%%qQqQqQ%q%QqQ%q%Q%%qQ%%%%%qQ%%%%%%%%%qQq%Q
6624D4%qQ%%%%%%%%%%%qQq%%QqQqQqQ%%%%%%%%%qQ%%qQqQ%qQq%%Qq%QqQq%QqQ%qQ%%%%%%%
6608D4%%%%%%%%%%%%%%%%%%%%%qQqQ%%%%qQ%qQ%qQ%%%qQ%qQ%%%%%%%%%%%%%qQ%%%%%%%%%%
6592D4%%%%%qQ%qQ%%qQ%q%Q%%%%%%%%%%qQ%%%%%%%%%%%%%%%%%%%%%qQ%%%%%%%%%%%%%%%%%
6576D4%%%%%%%%%%%%%%%qQ%%q%Q%Qq%%%%%%%%%%%%%%%%%%%%%%%%%%%%%%%%%%%%%%%%%%%%%
6560D4%%qQ%%qQ%%qQ%%qQqQ%%%%qQ%%%%%%%%qQqQ%qQqQ%%%%%qQqQ%%%%%qQ%%%%%qQ%%%%%%
6544D4%%%%%%%%%q%Q%%%%%qQ%%%%%%%%%%%%%%%%%%%%%%%%%%qQ%%%%%%%%%%%%%%%%%%%%%%%
6528D4%%%%%%%%%%%%%%%%%%%%%%%%%%%%%%%%%%%%%%%%%%%%%%%%%%%%%%%%%qQ%%qQ%%%%qQq
6512C6%Q%%%%%%%%%%%%%%%%%%%%%%%%%%%%%%%%%%%%%%%%%%%%%%%%%%%%%%%%%%%%%%%%%%%%
6496D4%%%%%%%%%%%%%%%%%%%%%%%%%%%%%%%%%%%%%%%%%%%%%%%%%%%qQ%%qQqQ%%%%%%%%%%%
6480D4%%%%%%%%%%%%%%%%%%%%%%%%%%%%%%%%%%%%%%%%%%%%%%%%%%%%%%%%%%%%%%%%%%qQ%%
6464D4%%%%%%%%%%%%%%%%%%%qQ%q%%%Q%%%%%%%%qQ%Qj6Q%j6%J6k4K4Qj6Q%Qj6Q%%q%%Q%%%
6449D4%%%%%%%%%%%%%%%%%%%%%%%%%%%%%%%%%%%%%%%%%%%%%%%%%%%%%%%%%%%%%%%%%%%%%%
6433D4%%%%%%%%%%%%%%%%%%%%%%%%%%%%%%%%%%%%%%%qQ%%%%%%%%%%%%%%%qQ%%%%%%%%%%%%
6417D4%%%%%%%%%%%%%%%%%%%%%%%%%%%%%%%%%%%%%%%%%%%%%%%%%%%%%%%%%%%%%%%%%%%%%%
6401D4%%%%%%%%%%%%%%%%%%%%%%%qQ%%%%%%%%%%%%%%%%%%%%%%%%%%%%%%%%%%%%%%%%%%%%%
6385D4%%%%%%%%%%%%%%%%%%%%%%%%%%%%%%%%%%%%%%%%%%%%%%%%%%%%%%%%%%%%%%%%%%%%%%
6369D4%%%%%%%%%%%%%%%%%%%%%%%%%%%%%%%%%%%%%%%%%%%%%%%%%%%%%%%%%%%%%%%%%%%%%%
6353D4%%%%%%%%%%%%%%%%%%%%%%%%%%%%%%%%%%%%%%%%%%%%%%%%%%%%%%%%%%%%%%%%%%%%%%
6337D4%%%qQQq%%%%%%%%%%%%%%%%%%%%%%%%%%%%%%%%%%%%%%%%%%%%%%%%%%%%%%%%%%%%%%%
6321D4%%%%%%%%%%%%%%%%%%%%%%%%%%%%%%%%%%%%%%%%%%%%%%%%%%%%%%%%%%%%%%%%%%%%%%
6305D4%%%%%%%%%%%%%%%%%%%%%%%%%%%%%%%%%%%%%%%%%%%%%%%%%%%%%%%%%%%%%%%%%%%%%%
6289D4%%%%%%%%%%%%%%%%%%%%%%%%%%%%%%%%%%%%%%%%%%%%%%%%%QqQq%%%%%%%%%%%%%%%%%
6273D4%%%%%%%%%%%%%%%%%%%%%%%%%%%%%%%%%%%%%%%%%%%%%%%%%%%%%%%%%%%%%%%%%%%%%%
6257D4%%%%%%%%%%%%%%%%%%%%%%%%%%%%%%%%%%%%%%%%%%%%%%%%%%%%%%%%%%%%%%%%%%%%%%
6241D4%%%%%%%%%%%%%%%%%%%%%%%%%%%%%%%%Q%q%%%%%%%%%%%%%%%%%%%%%%%%%%%%%Qq%%%%
6225D4%%%%%%%%%%%%%%Qq%%%Qq%Qq%%%%QqQq%%%%%%%%%%%%%%%%%%%%%%%%%%%%%%%%%%%%%%
6209D4%%%%%%%%%%%%%Qq%%%%%%Qq%%%%%%%%%%%%%%%%%%%%%%%%%%%%%%%%%%%%%%%%%%%%%%%
6193D4%%%%%%%%%%%%%%%%%%%%%%%%%%%%%%%%%%%%%%%%%%%%%%%%%%%%%%%%%%%Qq%%%%%%%%%
6177D4%%%%%%%%%Q%q%%%%%%%%%%%%%%%%%%%%%%%%%%%%%%%%Q%qQqQ%%%%qQ%%%%qQq%QqQ%q%
6161D4QqQq%%%%%%%%%%Qq%%%%%%%%%%Qq%%%%%%%%%%%%%%Q%q%%Qq%%%%%%%%%%%%%%%Q%q%%%
6145D4%%%%%%Qq%%%%%%%%%%%%%Qq%%%Q%%%%q%%QqQ%q%Q%q%Q%q%%%QqQ%qQq%QqQq%%%Q%qQ%
6129E2%q%Qq%%%%%%%%%%%%%%%%%Q%%%%qQ%q%%Q%%qQ%%q%Q%%%%%%%%%%qQ%qQ%%q%Q%qQ%%q%
6113D4QqQ%%%%qQq%Q%q%Qq%%%Qq%%%%%Q%%qQq%QqQq%%%%%QqQq%Q%%%%q%Qq%%QqQ%q%%%%Q%
6097E2%qQ%qQq%Q%q%%%Qq%Q%q%Q%q%%%%%%%%%%QqQ%%%qQ%%qQ%qQq%%Q%qQ%%%%%%%%%%%%%q
6081D4%Q%q%%QqQ%%qQ%%%%%%q%QqQqQqQqQqQq%%Q%%qQqQqQ%%%%qQ%%%%%%%%%%%%%%%qQ%qQ
6065E2%qQ%%%%%%%%%%%qQ%%%%%%%%qQ%q%QqQqQ%qQ%qQ%%%%%%%%%%%%%%%%%%%%%%%%%%%%%q
6049D4Q%%qQ%%qQqQ%q%QqQq%Qq%Q%%qQqQ%qQ%%%%%%%%%%%%%%%%%%%%%%%%%%qQ%%qQ%%%%%%
6033E2%%%%%%%qQ%qQ%%%qQ%%q%Q%%%%%%%%%%%%%%%%%qQ%%%%%%%%%%%%%%%%%%%%%%%%%qQ%%
6017E2%%%%%%%%%q%Q%%%%%%%%%%%%%qQ%qQ%%qQ%%%%%%qQ%%%%%%%%%%%%%%%%%%%%%%%%%%%%
6001E2%%%%%%%%%%%%%%%%%%%%%%%%%%%%%%%%%%%%%%%%%%%%%%%%q%Q%%%%%qQqQ%%%q%QqJ6q
5985E2%q%QqQ%%%q%Q%%%%%%%%%%%%%%%%qQ%%%%%%%%%%%%%%%%%%%%%%%%%%%%%%%%%%%%%%%%
5969E2%%%%%%%%%%%%%%%%%%%%%%%%%%%%%%%%%%%%%%%%%%%%%%%%%%%%%%%%%%%%%%%%%%%%%%
5953E2%%%%%%%%%%%%%%%%%%%%%%%%%%%%%%%%%%%%%%%%%%%%%%%%%%%%%%%%%%%%%%%%%%%%%%
5937E2%%%%%%%%%%%%%%%%%%%%%%%%%%%%%%%%%%%%%%%%%%%%%%Qq%%%%%%%%%%%%%%%%%%%%%%
5921E2%%%%%%%%%%%%%%%%%%%%%%%%%%%%%%%%%%%%%%%%%%%%%%%%%%%%%%%%%%%%%%%%%%%%%%
5905E2%%%%%%%%%%%%%%%%%%%%%%%%%%%%%%%%%%%%%%%%%%%%%%%%%%%%%%%%%%%%%%%%%%%%%%
5889E2%%%%%%%%%%%%%%%%%%%%%%%%%%%%%%%%%%%%%%%%%%%%%%%%%%%%%%%%%%%%%%%%%%%%%%
5873E2%%%%%%%%%%%%%%%%%%%%%%%%%%qQ%%%%%%%%%%%%%%%%%%%%%%%%%%%%%%%%%%%%%%%%%%
5857E2%%%%%%%%%%%%%%%%%%%%%%%%%%%%%%%%%%%%%%%%%%%%%%%%%%%%%%%%%%%%%%%%%%%%%%
5841E2%%%%%%%%%%%%%%%%%%%%%%%%%%%%%%%%%%%%%%%%%%%%%%%%%%%%%%%%%%%%%%%%%%%%%%
5825E2%%%%%%%%%%%%%%%%%%%%%%%%%%%%%%%%%%%%%%%%%%%%%%%%%%%%%%%%%%%%%%%%%%%%%q
5808D4Q%%%%%%%%%%%%%%%%%%%%%%%%%%%%%%%%%%%%%%%%%%%%%%%%%%%%%%%%%%%%%%%%%%%%%
5792E2%%%%%%%%%%%%%%%%%%%%%%%%%%%%%%%%%%%%%%%%%%%%%%%%%%%%%Qq%%%%%%Qq%%%Qq%%
5776E2%%%%%%%%%%%%%%%%%%%%%%%%%%%%%%%%%%%%%%%%%%%%%%%%%%%%%%%%%%%%%%%%%%%%%%
5760E2%%%%%%%%%%%%%%%%%%%%%%%%%%%%%%%%%%%%%%%Q%qQ%%qQ%q%%%%%%%%%%%%%%%%%Qq%%
5744E2%%%%Qq%%Qq%%QqQq%%%%%%%%%%%%%%%%%%%%%Qq%Qq%%%Qq%Q%%q%%%%%%%%%%%%%%%%%%
5728E2Q%%q%%%%%%%%%%%%%%%Qq%%Qq%Qq%%%%%Qq%%%Qq%%%%%%%%%%%%%%%%%%%%%%Qq%%QqQq
5712E2%%%%%%%%%%%Q%qQq%%%%%%QqQq%Qq%Qq%%%%%%Qq%%%%%%%%%%%%%%%%%QqQq%QqQq%Qq%
5696E2%%%%%Qq%QqQq%%%%%%%%Q%%%%qQ%%qQq%Qq%Q%qQq%%%Q%qQq%%%%%%%%%%Qq%QqQqQ%%q
5680E2QqQq%%%Q%%%q%Q%%%%%qQ%q%Q%qQ%q%%%QqQ%%qQq%%%%%%%%%%Q%q%QqQ%%%%%qQ%qQ%q
5664E2%%%%%%Q%%qQ%%%qQ%qQ%%%%%%%%qQ%q%Qq%%%%Q%qQ%qQ%qQ%qQ%q%%%%Q%q%QqQq%Qq%Q
5648F0%%%qQ%qQ%qQ%%%%%%%%%%%%%%qQ%%%%%%%%qQ%%%%%%q%%%Q%%qQ%%q%Q%qQq%QqQ%%%q%
5632E2Q%qQ%qQqQ%%%%%%%qQ%qQ%%%%%%qQ%qQqQ%qQ%%%%%%%%%%%%%%qQqQ%%%%%%qQ%%%%%%q
5616E2Q%%%%qQ%%%%%%%%%%%%%%%%%qQ%%qQ%%%%%%%%%%%%%%%%%%qQqQqQqQ%%%%%%%%%%%%%%
5600F0%%%%%%%%%%%%%%%%%%%%%%%%%%%%%%%%%%%%%%%%%%%%%%%%%%%%%%%%%qQ%%%%%%%%%%%
5584F0%%%%%%%%%qQ%%%%%%%%%%%%%%%%%%%%%%%%%%%%%%%%%%%%%%%qQ%%%%%%%%%%%%%%%%%%
5568F0%%%%%%%%%%%%%%%%%%%%%%%%%%%%%%%%%%%%qQ%%%%%%%%%%%%%%%%%%%%%%%%%%%%%%%%
5552F0%%%%%%%%%%%%%%%%%%%%%%%%%%%%%%%%%%%%%%%%%%%%%%%%%%%%%%%%%%%%%%%%%%%%%%
5536F0%%%%%%%%%%%%%%%%%%%%%%%%%%%%%%%%%%%%%%%%%%%%%%%%%%%%%%%%%%%%%%%%%%%%%%
5520F0%%%%%%%%%%%%qQ%J6l2J6j6M0m0L2j6%%Qq%%%Qj6Q%%%%%%%%%%%%%%%%%%%%%%%%%%%%
5506F0%%%%%%%%%%%%%%%%%%%%%%%%%%%%%%%%%%%%%%%%%%%%%%%%%%%%%%%%%%%%%%%%%%%%%%
5490F0%%%%%%%%%%%%%%qQ%%%%%%%%%%%%%%%%%%%%%%%%%%%%%%%%%%%%%%%%%%%%%%%%%%%%%%
5474F0%%%%%%%%%%%%%%%%%%%%%%%%%%%%%%%%%%%%%%%%%%%%%%%%%%%%%%%%%%%%%%%%%%%%%%
5458F0%%%Qq%%%%%%%%%%%%%%%%%%%%%%%%%%%%%%%%%%%%%%%%%%%%%%%%%%%%%%%%%%%%%%%%%
5442F0%%%%%%%%%%%%%%%%%%%%%%%%%%%%%%%Qq%%%%%%%%%%%%%%%%%%%%%%%%%%%%%%%%%%%%%
5426F0%%%%%%%%%%%%%%%%%%%%%%%%Qq%%%%%%%Qq%%%%%%%%%%%%%%%%%%%%%%%%%%%%%%%%%%%
5410F0%%%%%%%%%%%%%%%%%%%%%%%%%%%%%%%%%%%%%%%%%%%%Qq%%%%Q%q%%%%%%%%%%%%%%%%%
5394F0%%%%%%%%%%%%%%%%%%%%%%%%%%%%%%%%%%%%%%%%%%%%%Q%q%%%%%%%%%%%%%%%%Qq%%%Q
5378F8q%%Qq%%%%%%Q%qQq%%%%%%%%%%%%%%%%Qq%%%%%Q%q%%%%%%%%%%%%%%%%%%%%%%%Qq%%Q
5362F8q%%%%%%%%%%%%%%%%%%QqQq%%%%%%%%%%%%%%Q%%%%qQ%%%q%Qq%%%%QqQqQ%qQ%%q%%%%
5346F0%%%%%%Q%%q%%QqQqQ%%qQ%%q%Q%q%%%QqQ%%%%qQqQ%%%%%%%q%%%%%%Q%%%%qQ%%q%%Q%
5330F8%%%%%%qQ%%%%qQ%qQ%%qQqQ%qQ%%%%%%%q%Q%%%%qQ%qQ%%%%%qQ%%qQ%%%%%%%%%q%Q%%
5314F8%%%%%%%%%%%%%%%qQ%%q%Q%q%%Q%%qQ%%%%%%%%q%Q%%q%%%Q%%%%%%qQ%%%%%%%%%%%%q
5298F0Q%%%%%q%Qq%Q%%%%%%q%Q%%%%%%%%q%%QqQqQ%%q%Q%%qQ%%%%%%%%%%%%q%Q%%qQ%%qQ%
5282F8qQqQ%%q%QqQ%%%%qQ%%%%qQ%%%%qQ%%%%%%%%%%%%%%qQ%%qQ%%%%%%%%%%%%%%%%qQ%%%
5266F8%%%%%%%%%%%%%%%%%%%%%%%%%qQ%%%%%%%%%%%%%%%%%%%%%%%%%%%%%%qQ%%%%%%%%qQ%
5250F8%%%%%%%%%%%%%qQ%%%%%%qQ%%%%%%%%%%%%%%%%%%%%%%%%%%%%%%%%%%%%%%%%%%%%%%%
5234F8%%%%%%%%%%%%%%%%%%%%%%%%%%%%%%%%%%%%%%%%%%%%%%qQ%%%%%%%%%%%%%%%%%%%%%%
5218F8%%%%%%%%%%%%%%%%%%%%%%%%%%%%%%%%%%%%%%%%%%%%%%%%%%%%%%%%%%%%%%%%%%%%%%
5202F8%%%%%%%%%%%%%%%%%%%%%%%%%%%%%%%%%%%%qQ%%%%%%%%%%%%%%%%%%%%%%%%%%%%%%%%
5186F8%%%%%%%%%%%%%%%%%%%%%%%%%%%%%%%%%%%%%%%%%%%%%%%%%%%%%%%%%%%%%%%%%%%%%%
5170F8%%%%%%%%%%%%%%%%%%%%%%%%%%Q%q%%%%%%%%%%%%%%%%%%%%%%%%%%%%%%%%%%%%%%%%%
5154F8%%%%%%%%%%%%%%%%%%%%%%%%%%%%%%%%%%%%%%%%%%%%%%%%%%%%%%%%%%%%%%%%%%%%%%
5138F8%%%%%%%%%%%%%%%%%%%%%%%%%%%%%%%%%%%%%%%%%%%%%%%%%%%%%%%%%%%%%%%%%%%%%%
5122F8%%%%%%%%%%%%%%%%%%%%%%%%%%%%%%%%%%%%%%%Qq%%%%%%%%%%%%%%%%%%%%%%%%%%%%Q
5106G6q%QqQ%%q%%%%%%Qq%%%%%%%%%Q%q%%%%Qq%%%%%%%%%%%%%%Qq%%%%%Qq%%%%%%%%%%Qq%
5090F8%%%%%%%%%%%%%%%%%%%%%%%%%%Qq%%%%Qq%Qq%Q%%q%%%%%%%%%%%%%%%%Q%q%%%%%%%%%
5074F8%%%%%%%%%%%%Q%qQqQq%%%Q%qQqQ%qQ%qQ%%%qQ%%qQ%%%qQ%%%%%%%%%q%Q%%%q%%%%Q%
5058G6%q%%Q%%q%%%Qq%%Qq%QqQqQqQ%%%%qQ%q%Q%%%%qQ%qqJ6qQq%Qj6QQq%Q%%%%q%%%Q%%%
5042G6%qQqQqQ%%%%%qQ%%qQ%%%%%%%%%%%%%%%%%%%qQ%%%qQ%%%%%%%%%%%%%%%%%%%%%%%%%%
5026G6%%%%%%%%%%%q%Q%%%%%%%%%%%%q%Q%%qQqQqQqQ%%%%%%%q%Q%%%%%%%%%%%%%%%%%%%%%
5010G6%%%%%%%%%%%%%%%%%%%%%%%%%%%%%%%%%%%%%%%%%%%%%%%%%%%%%%%%%%qQ%%%%%%qQ%%
4994G6%%%%%%%%%%%%%%%%%%%qQ%%q%%%Q%qQ%%%%%%%%%%%%%%%%%%%%%%%%%%%%%%%%%%%%%%%
4978G6%%%%%%%%%%%%%q%Q%%%%%qQ%%%%%%%%%%%%%%%%%%%%%%%%%%%%%%%%%%%%%%%%%%%%%%%
4962G6%%%%%%%%%%%%%qQ%%%%%%%%%%%%%%%%%%%%%%%%%%%%%%%%%%%%%%%%%%%%%%%%%%%%%%%
4946G6%%%%%%%%%%%%%%%%%%%%%%%%%%%%%%%%%%%%%%%%%%%%%%%%%%%%%%%%%%%%%%%%%%%%%%
4930G6%%%%%%%%%%%%%%%%%%%%%%%%%%%%%%%%%%%%%%%%%%%%%%%%%%%%%%%%%%%%%%%%%%%%%%
4914G6%%%%%%%%%%%%%%%%%%%%%%%%%%%%%%%%%%%%%%%%%%%%%%%%%%%%%%%%%%%%Qq%%%%%%%%
4898G6%%%%%%%%%%%%%%%%%%%%%%%%%%%%%%%%%%%%%%%%%%%%%%%%%%%Qq%%%%%%%%%%%%%%%%%
4882G6%%%%%%%%%%%%%%%%%%%%%%%%%%%%%%%%%%%%%%%QqQqQq%Qq%%QqQq%Qq%%%%%%%%%%%%%
4866G6%%%%%%%%%%%%%%%%%%%%%%%%%%%%%%%%%%%Qq%Qq%Qq%%Q%%q%%%%%%%%%%%Q%%qQq%%Q%
4850H4q%%%%QqQq%%%%Q%q%%Q%qQq%%%Qq%%Q%qQq%Qq%%%%%%%%%%%%%%Qq%Qq%%Q%%%qQ%qQ%q
4834G6%Q%%%%%%q%%%%QqQqQ%%%qQ%%%%q%Q%%%qQqQq%%%%%%%%%%%%%%%Qq%%%%%%%QqQq%%Q%
4818H4qQ%qQqQ%qQqQ%qQ%q%Q%qQ%%%%%%%%%%%qQqQqQ%%%%%%%%%%%%qQqQq%%%%Q%%%%%%%%%
4802H4%qQ%%%%qQ%%%%%%%qQ%%%%%%%%%%%%%%%%%%%%%%%%%%%%qQ%%qQ%%%%%%%q%Q%qQ%%%%%
4786H4%%%%%%%%%%%qQ%%%%%%%%%%%%%%%%%%%%%%%%%%%%%%%%%%%%%%%%%%%%%%%%%%%%%%%%%
4770H4%%%%%%%%%%%%%%%%%%%%%%%%%%%%%%%%%%%%%%%%%%%%%%%%%%%%%%%%%%qQ%%%%%%%%%%
4754H4%%%%%%%%%%%%%%%%%%%%%%%%%%%%%%%%%%%%%%%%%%%%%%%%%%%%%%%%%%%%%%%%%%%%%%
4738H4%%%%%%%%%%%%%%%%%%%%%%%%%%%%%%%%%%%%%%%%%%%%%%%%%%%%%%%%%%%%%%%%%%%%%%
4722H4%%%%%%%%%%%%%%%%%%%%%%%%%%%%%%%%%%%%%%%%%%%%%%%%%%%%%%%%%%%%%%%%%%%%%%
4706H4%%%%%%%%%%%%%%%%%%%%%%%%%%%%%%%%%%%%%%%%qQQ%qQq%%%%Qq%%%%%%%%%%%%%%%%%
4689H4%%%%%%%%%%%%%%%%%%%%%%%%%%%%%%%%%%%%%%%%%%%%%%%%%%%%%%%%%%%%%%%%%%%%%%
4673H4%%%%%%%%%%%%%%%%%%%%%%%%%%%%%%%Qq%%%%%%%%%%%%%%%%%%%%%%%%%%%%%%%%%Qq%%
4657H4%%%%%%%%%%%%%%%%%%%%%%%%%%%%%%%%%%%%%%%Q%%%%q%%%%%%%%%%%%%%Qq%%%%%%%%Q
4641I2qQq%%%%Qq%%%%%Qq%Q%%%q%Q%%q%%%Q%q%%Q%qQ%qQq%%%%%%%Qq%Q%%qQ%%qQ%%%qQqQ%
4625I2%qQ%qQ%%%%%%%%%%%%qQq%%Q%qQ%qQqQqQqQ%%qQq%Q%%%%%q%Q%%%%q%Q%%%%%q%QqQ%%
4609I2q%Q%q%%Qq%%QqQ%%%%%%%%%%%%%%q%QqQ%%%%%%%%%qQ%%%%%%%%%%%%%%%%%%%%%%%%%%
4593I2%q%QqQ%%%%%%%%qQ%%%%%%%%%%%%%%%%%%%Qj6Q%%qQqQqJ6q%q%Q%qQqQ%%QqQk4QJ6%q
4578I2k4J6qK4%q%%qQqQ%QqqQ%%%%%%%%%%%%%%%%%%%%%%%%%%%%%%%%%%%%%%%%%%%%%%%%%%
4563I2%%%%%%%%%%%%%%%%%%%%%%%%%%%%%%%%%%%%%%%%%%%%%%%%%%%%%%%%%%%%%%%%%%%%%%
4547I2%%%%%%%%%%%%%%%%%%%%%%%%%%%%%%%%%%%%%%%%%%%%%%%%%%%%%%%%%%%%%%%%%%%%%%
4531I2%%%%%%%%%%%%%%%%%%%%%%%%%%%%%%%%%%%%%%%%%%%%%%%%%%%%%%%%%%%%%%%%%%%%%%
4515I2%%%%%%%%%%%%%%%%%%%%%%%%%%%%%%%%%%%%%%%%%%%%%%%%%%%%%%%%%%%%%%%%%%%%%%
4499I2%%%%%%%%%%%%%%%%%%%%%%%%%%%%%%%%%%%%QqQqQqQq%%%%%Qq%%Qq%%%%%%%%%%%%%%%
4483I2%%%%Qq%Qq%%%%%%Qq%%%%Qq%Qq%%%%%%QqQq%%%%%%%%Qq%%%%%%%%Qq%%%%%%QqQ%q%Qq
4467I2%%%%%%QqQq%%%Q%q%QqQq%Q%%qQ%%%%%qQ%qQqQ%q%%Q%%qQqQ%%qQ%%q%%Q%%%%%%%%%%
4451A00qQq%Q%%%%%%%%%%%%%%%%qQ%%qQ%%%%%%%%%%%%%%%%%%%qQ%%%%%qQqQ%%%%q%Q%%qQ%
4435A00qQqQ%%%%%%%%%%%%%%%%%%%%%%%%%%%%%%%%%%%%%%%%%%%%%%%%%%%%%%%%%%%%%%%%%
4419A00%%%%%%%%%%%%%%%%%%%%%%%%%%%%%%%%%%%%%%%%%%%%%%%%qQ%%qQ%%%%%%%%%%%%%%%
4403A00%%%%qQqQ%%%%%%%%%%%%%%%%%%%%%%%%%%%%%%%%%%%%%%%%%%%%%%%%%%%%%%%%%%%%%
4388A00%%%%%%%%%%%%%%%%%%%%%%%%%%%%%%%%%%%%%%%%%%%%%%%%%%%%%%%%%%%%%%%%%%%%%
4372A00%%%%%%%%%%%%%%%%%%%%%%%%%%%%%%%%%%%%%%%%%%%%%%%%%%%%%%%%%%%%%%%%%%%%%
4356A00%%%%%%%%%%%%%%%%%%%%%%Qq%%%Qq%%%%%%%%%%%%%%%%%Q%q%%%q%J6qqJ6%qQq%%Qq%
4341A00%%%%%%%%%%%%%%%%%%%%%%%%%%%%%%%%%%%%%%%%QqQq%%%%%%%Qq%Qq%%%%%%%%%%%%%
4325A00%%%%%%%%%%%%%Qq%Qq%Qq%%%%%%%Qq%%%%%%%%Q%%%q%Q%%%%%%%%qQq%%%Qq%%%%%%%%
4309A00%%Qq%%QqQq%Qq%Qq%%QqQq%%Qq%Qq%Qq%QqQ%%qQ%%%%%%%%%%%%%%%q%Q%%%%%%%%%%%
4293A08%%%qQ%%%%%%qQ%%%%%%%qQ%%%%%qQq%Q%%%%qQ%qQ%%%%%%%%%%%%%%%%%%qQ%%%%%%%%
4277A08%%%%%%%%%%%%%%%%%%%%%%%%%%%%%%%%%%%%%%%%%%%%%%%%%%%%%%%%%%%%%%%%%%%%%
4262A08%%%%%%%%%%%%%%%%%%%%%%%%%%%%%%%%%%%%%%%%%%%%%%%%%%%%%%%%%%%%%%%%%%%%%
4246A08%%%%%%%%%%%%%%%%%%%%%%%%%%%%%%%%%%%%%%%%%%%%%%%%%%%%%%%%%%%%%%%%%%%%%
4230A08%%%%%%%%%%%%%%%%%%%%%%%%%%%%%%%%%%%%%%%%%%%%%%%%%%%%%%%%%%%%%%%%%%%%%
4214A08%%%%%%%%%%%%%%%%%%%%%%%%%%%%%%%%%%%%%%%%%%%%%%%%%%%%%%%%%%%%%%%%%%%%%
4199A08%%%%%%%%%%%%%%Qq%%Q%qQqQ%%%%%%%q%Q%%q%%%%Q%q%%%%%%%%QqQ%q%%%%%%%%Qq%%
4183A08%%%%%%%%%%%%%%Qq%%%%QqQq%%Qq%%%Q%%%q%QqQ%%%qQq%%%%Q%q%%%QqQ%%q%Qq%%Qq
4167A08Q%%%%%%%%%%%%%%qQ%%%%%%qQ%qQ%%%%%%%%%%%%%%%%%qQ%%%qQ%%%%%%qQ%%%%%%%%%
4151A16%%%%%%%%%%%%%%%%%%%%%%%%%%%%%%%%%%%%%%%%%%%%%%%%%%%%%%%%%%%%%%%%%%%%%
4135A16%%%%%%%%%%%%%%%%%%%%%%%%%%%%%%%%%%%%%%%%%%%%%%%%%%%%%%%%%%%%%%%%%%%%%
4120A16%%%%%%%%%%%%%%%%%%%%%%%%%%%%%%%%%%%%%%Qj6QQj6Q%q%QqJ6%%q%%%%%%%%%%%%%
4104A16%%%%%%%%%%%%%%%%%%%%%%%%%%%%%%%%%%%%%%%%%%%%%%%%%%%%%%%%%%%%%%%%%%%%%
4089A16%%%%%%%%%%%%%%%%%%%%%%%%%%%%%%%%%%%%%%%%Qq%%%%%%%%%%%%%%%%%%%%%%%%Qq%
4073A16%%%%%%Q%%qQqQq%%%Q%qQq%Qq%%%%%%Qq%Qq%%%%%Q%%%q%Qq%%Q%%q%%%%QqQqQ%%%%q
4057A16%Q%qQ%%%%%%%%qQ%%%%%%qQqQq%%%%Q%%q%Q%%%%%q%Q%%%%%%%%%%%%%%%%%%%%%qQ%%
4041A24%%%%qQ%%%%%%%%%%%%%%qQ%%qQ%%%%%%%%%%%%%%%%%%%%%%%%%%%%%%%%%%%%%%%%%%%
4025A24%%%%%%%%%%%%%%%%%q%Q%%%%%%%%%%%%%%%%%%%%%%%%%%%%%%%%%%%%%%%%%%%%%%%%%
4010A24%%%%%%%%%%%%%%%%%%%%%%%%%%%%%%%%%%%%%%%%%%%%%%%%%%%%%%%%%%%%%%%%%%%%%
3994A24%%%%%%Q%j6J6q%%%%%%%%%%%%%%%%%%%%%%%%%%%%%%%%%%%%%%%%%%%%%%%%%%%%%%%%
3979A24%%%%%%%%%%%%%%%%%%%%%%%%%%%%%Qq%%%%%%%%%%%Qq%%%%%%%%%%%Qq%%%%%%%%%Qq%
3963A24%%QqQq%%%Q%%qQqQq%Q%qQqQq%%%%%%Q%%qQ%q%%%%%Q%q%Qq%%%Q%q%%Q%%qQ%q%%%Q%
3947A32qQqQ%qQ%qQq%Q%%%%%q%%QqQ%qQq%Q%qQ%%%%%%%%%%qQ%qQq%Q%%%%%%%%%%%%%%%%%%
3931A32%%%%%%%%%%%%%%%%%%%%%%qQ%%%%%%%%%%%%%%%%%%%%%%%%%%%%%%%%%%%%%%%%%%%%%
3915A32%%%%%%%%%%%%%%%%%%%%%%%%%%%%%%%%%%%%%%%%%%%%%%%%%%%%%%%%%%%%%%%%%%%%%
3900A32%%%%%%%%%%%%%%%%%%%%%%%%%%%%%%%%%%%%%%%%%%%%%%%%%%%%%%%%%%%%%%%%%%%%%
3884A32%%%%%%%Qq%%QqQq%%%%%%%%%%%%%%%%%%QqQqQqQq%Qq%%%%%%%%Qq%%%%Q%qQqQq%%%%
3868A32%%%%%%%%%%Qq%%%%%%%%%%%%%%%%%%Qq%%%%%%Qq%%%%QqQ%q%Q%%%%%%q%Q%qQqQ%qQ%
3852A40%%%%%%%%%%%q%Q%%%%%qQ%%%%q%Q%%qQ%%qQ%%%%%%%%%%qQ%%%%%%%%%%%%%%%%%%%%%
3836A40%%%%%%%%%%%%%%%%%%qQ%%%%%%%%%%%%%%%%%%%%%%%%%%%%%%%%%%%%%%%%%%%%%%%%%
3821A40%%%%%%%%%%%%%%%%%%%%%%%%%%%%%%%%%%%%%%%%%%%%%%%%%%%%%%%%%%%%%%%%%%%%%
3805A40%%%%%%%%%%%%%%%%%%%%%%%%%%%%%%%%%%%%%%%%%%%%%%%%%%%%%%%%%%%%%%%%%%%%%
3789A40%%%%%QqQqQq%%Qq%%%%%%%%%%%Qq%%Qq%%%%%%%%%%Qq%%%%%%%%%%%%%%%%%%%%%%%%%
3773A40%Qq%%%%%%%%Qq%%%%Q%q%Qq%QqQqQ%qQqQq%Q%%%%%%qQ%qQqQqQ%%%%%%%q%Q%%%%%%%
3757A48qQ%%%qQ%%%%%%%qQ%%%%%%%%%%%%%%%%%%%%%%%%%%%%%%%%%%%%%%%%%%%%%%%%%%%%%
3742A48%%%%%%%%%%%%%%%%%%%%%%%%%%%%%%%%%%%%%%%%%%%%%%%%%%%%%%%%%%%%%%%%%%%%%
3726A48%%%%%%%%%%%%%%%%%%%%%%%%%%%%%%%%%%%%%%%%%%%%%%%%%%%%%%%%%%%%%%%%%%%%%
3710A48%%%%%%%%%%%%%%%%%%%%%%%%%%%%%%%%%%%%%%%%%%%%%Q%%q%%Qq%%%%%%%%%%%%%%%%
3694A48%%%Qq%%%Q%%q%%%%%%%%%%%%%%%%%QqQqQq%Q%qQq%QqQqQqQ%%q%QqQ%%%%%%%%%%%%q
3679A48Q%qQ%%%%%%%%%%%%%%%%%%%%%%%%%%%%%%%%%%%%qQ%%%%%%%qQ%%%%%%%%%%%%%%%%%%
3663A56%%%%%%%%%%%%%%%%%%%%%%%%%%%%%%%%%%%%%%%%%%%%%%%%%%%%%%%%%%%%%%%%%%%%%
3647A56%%%%%%%%Qq%%%%%%%%Qq%%Qk4QQj6K4j6J6q%%Qj6Q%%%%%%%%%%%Qq%%%%%%%%%%%%%%
3633A56%%%%%%%%%Q%q%%%%%%%%%%%%%%%%%%%%%%Q%q%%%%%%%%%%%%%%%QqQq%%Q%q%%%%Q%%q
3617A56%%%QqQq%Q%q%%%QqQq%%%%%Q%qQ%qQqQ%%%%%%%qQqQ%%qQ%%%%%%%%%%%%%%%%%%%%%%
3601A64%%%%%%%%%%%%%%%%%%%%%%%%%%%%%%%%%%%%%%%%%%%%%%%%%%%%%%%%%%%%%%%%%%%%%
3585A64%%%%%%%%%%%%%%%%%%%%%%%%%%%%%%%%%%%%%%%%%%%%%%%%%%%%%%%%%%%%%%%%%%%%%
3569A64%%%%%%%%%%%%%%%%%%%%%%%%%%%%%%%%%%%Qq%%%%Qq%%%%%%%%%%%%%%%%%%%%%%%%%%
3554A64%QqQ%qQq%Qq%%Qq%Q%%%%%qQq%%%%Qq%Qq%Q%q%%QqQ%%%%%%%%%qQq%Q%%q%%%%%Q%%%
3538A72%%%%%%%%%%qQ%%%%%%%%%%%%%%%%%%%%%%%%%%%%%%%%%%%%%%%%%%qQ%%%qQ%j6J6%%%
3522A72%q%Q%%%%%%%%%%%%%%%%%%%%%%%%%%%%%%%%%%%%%%%%%%%%%%%%%%%%%%%%%%%%%%%%%
3507A72%%%%%%%%%%%%%%%%%%%%%%%%%%%%%%%%%%%%%%%%%%%%%%%%QqQq%%%%%%%%%%%%%%%%%
3491A72%%%%%%%%%%%%%%%Qq%%%%%%%Qq%Qq%%Q%%qQqQ%%%%%%qQ%q%Q%%%%%%%%%%%%%%%%%%%
3475A80qQ%%qQ%%q%%Q%%%%%%%%%%%%%%%%%%%%%%%%%%%%%%qQq%Q%%qQ%%%%%%%%%%%%%%%%%%
3459A80%%%%%%%%%%%%%%%%%%%%%%%%%%%%%%%%%%%%%%%%%%%%%%%%%%%%%%%%%%%%%%%%%%%%%
3443A80%%%%%%%%%%%%%%%%%%%%%%%%%%%%%%%%Q%q%%%%%%%%%%%%%%%%%%%%%%%%%%%%%%%%%Q
3428A88q%Q%%%qQ%q%Qq%Qq%%Q%%%%%%%%qQ%q%%Q%%%%%q%Q%qQ%%%%%%%qQ%%q%Q%qQ%q%Q%%q
3412A80Q%%%%%%%%qQqQqQ%%%qQqQ%qJ6qq%%%Q%%%%%%%%%%%%%%%%%%%%%%%%%%%%%%%%%%%%%
3396A88%%%%%%%%%%%%%%%%%%%%%%%%%%%%%%%%%%%%%%%%%%%%%%%%%%%%%%%%%%%%%%%%%%%%%
3381A88%%%%%%%%%%%%%%%%%%%%%%%%%%%%Qq%%%%%%%%%%%%%%%%%%%%Qq%%%%Qq%%Qq%%Qq%%Q
3365A96qQqQqQq%QqQ%%qQ%%%qQ%%%%%%qQ%%%%%%%%%%%%%%%%%%%%%%%%%%%%%%%%%%%%%qQ%%
3349A96%%%%%Qq%%%%%%%%%%%%%%%%%%%%%%%%%%%%%%%%%%%%%%%%%%%%%%%%%%%%%%%%%%%%%%
3333A96%%%%%%%%%%%%%%%%%%%%%%%%%%%%%%%%%%%%%%%%%%%%%%%%%%%%%%%%%Q%q%%Qq%%%%Q
3317B04%q%%%Q%%q%%%%%Q%q%%%%%%Q%%qQqQ%%%%%qQ%%%%%%%%%%%%%%%%qQ%%%%qQ%%%%%%%%
3302B04%%%%%%%%%%%%%%%%%%%%%qQ%%%%%%%%%%%%%%%%%%%%%%%%%%%%%%QqqQqQ%%%%%%%%%%
3286B04%%%%%%%%%%%%%%%%%%%%%%%%%%%%%%%%%%%%%%Qq%%%%%%%%%%%Qq%%%%%%%%%%%%%%%%
3270B04%%%%%%%%Qq%%%%%%Qq%%%%%Q%%%qQ%%%%%%%q%QqQq%Qq%%%%QqQ%%%%%%%%%%%%%qQ%%
3254B12%%%%%%%q%Q%%%%%%%%%%%%%%%%%%%%%%%%%%%%%%%%%%%%%%%%%%%%%%%%%%%%%%%%%%%
3238B12%%%%%%%%%%%%%%%%%%%%%%%%%%%%%%%%%%Qq%%%%%%%%%%%%%%%%%%%%%%%%%%%%%%%%%
3223B12%%%%%%%%%%Q%q%%%%%%%Q%qQq%%%%%%%%%%QqQq%Q%qQqQ%%%%%%%%%%%%%%%qQ%%%%%%
3207B20%%%%%%%%%%%%%%%%%%%%%%%%%%%%%%%%%%%%%%%%%%%%%%%%%%%%%%%%%%%%%%%%%%%%%
3191B20%%%%%%%%%%%%%%%%%%%%%%%%%%%%%%%%%%%%%%%%%%%%%%%%%%%%%%%%%%QqQqQqQq%Qq
3175B20%Qq%QqQ%qQ%%q%Qk4K4qJ6q%%%%%%%%qQ%%%qQ%%%%%%qQ%%%%%%%%%%%%%%%%%%%%%%%
3160B28%%%%%%%%%%%%%%%%%%%%%%%%%%%%%%%%%%%%%%%%%%%%%%%%%%%%%%%%%%%%%%%%%%%%%
3144B28%%%%%%Qq%%%%%%%%%%%%%%%%%%%%%%%%%%Qq%%%%Q%%%q%%%%Q%%%%%%%%qQ%%qQqQ%qQ
3129B36qQ%qQ%%%qQ%%%qQ%%%%%%%%%%%%%%%%%%%%%%%%%%%%%%%%%%%%%%%%%%%%%%%%%%%%%%
3113B36%%%%%%%%%%%%%%%%%%%%%%%%%%%%%%%%%%%%%%%%%%%%%%%%%%%%%%%%%%%%%%%%%Q%q%
3097B36Qq%%%QqQ%qQqQ%q%Qq%%Q%qQqQqQ%qQ%%%%%%%%%%%qQqQ%%%%qQ%%%%%qQ%%%%%%%%%%
3081B44%%%%%%%%%%%%%%%%%%%%%%%%%%%%%%%%%%%%%%%%%%%%%%%%%%%%%%%%%%%%%%%%%%%%%
3065B44%%%%%%%%%%%%%%%%%%%%%%%%%%%%%%%%%%%%%QqQq%%%Qq%QqQqQqQ%qQ%q%Q%%%%q%%Q
3050B52%%%%%%%%%%%%%%%%%%%%%%%%%%%%%%%%%%%%%%%%%q%Q%%%%%%%%%%%%%%%%%%%%%%%%%
3034B52%%%%%%%%%%%%%%%%%%%%%%%%%%%%%%%%Qq%%Q%qQqQq%%Qq%%%%%%%%%%Qq%Q%qQq%%Q%
3018B60%%%%%%%%%qQ%%%%%%%%%%%%%%%%%%%%%%%%%%%%%%%%%%%%%%%%%%%%%%%%%%%%%%%%%%
3002B60%%%%%%%%%%%%%%%%%%%%%%%%%%%%%%%%%%%%%%%%%%%%%%%%%%%%%%Qq%%%QqQ%q%%%Qq
2986B60Q%qQq%Q%qQ%%%%%%q%%Q%qQ%%%%%%%%%%%%%%%%%%%%%%%%%%%%%%%%%%%%%%%%%%%%%%
2971B68%%%%%%%%%%%%%%%%%%%%%%%%%%%%%%%%%%%%%%%%%%%%%%%%Qq%%Qq%%Qq%%%%Q%q%%%%
2955B68%%QqQ%%%qQ%%%%q%Q%%%%%qQ%%%%%%%%%%%%%%%%%%%%%%%%%%%%%%%%%%%%%%%%%%%%%
2939B76%%%%%Qq%qQQq%%%%%%%%%%%%%%%%%%%%%%%%%%%%%%%%%%%%%%%%%%%%%%%%Q%q%%%QqQ
2923B84%%q%%%%Q%qQ%%%%qQ%%%%%%qQ%%%%%%%%%%%%%%%%%%%%%%%%%%%%%%%%%%%%%qQ%%%%%
2907B84%%%%%%%%%%%%%%%%%%%%%%%%%%%%%%%%%%%%%%%%%%%%%%%%%%%%%%%%%%Qq%%%%QqQ%%
2892B92q%QqQ%%%qQqQ%%%%%%qQ%%qQ%%%%%%%%%%%%%%%%%%%%%%%%%%%%qQ%%%%%%%%%%%%%%%
2876B92%%%%%%%%%%%%%%%%%%%%%%%%%%%%%%%%%%%%%%%%%%%%%%%%Q%%q%QqQq%Q%%%%%%%%%%
2860C00%%%%%%%%%%%%%%%%%%%%%%%%%%%%%%%%%%%%%%%%%%%%%%%%%%%%%%%%%%%%%%%%%%%%%
2844C00%%%%%%%%Qq%%%%%%%%Qq%%%%%%%%Qq%Q%%qQq%Q%%%q%%Q%q%QqQ%%%%%%%%%%%%%%%%%
2828C08%%%%%%%%%%%%%%%%%%%%%%%%%%%%%%%%%%%%Qq%%%%%%%%%%%%Qq%%%%%%%%%Qq%%%%%%
2813C08%%%%QqQq%%%%%%%%QqQ%%%qQ%%qQq%%%%Q%%%%%%%%%%%%%%%%%%%%%%%%%%%%%%%%%%%
2797C16%%%%%%%%%%%%%%%%%%%%%%%%%%%%%%Qq%%%%%%%%%%Q%%%%%%%%%%%%qQqQqQ%qQ%%%%%
2781C24%%%%%%%%%%%%%%%%%%%%%%%%%%%%%%%%%%%%%%%%%%%%%%%%%%%%%%%%%%%%%%%%%%%%%
2765C24%%%%%%%%Q%q%%%Qq%QqQq%%%%%Qq%QqQ%q%Q%q%QqQ%%%%%%%%%%%%%%%%%%%%%%%%%%%
2749C32%%%%%%%%%%%%%%%%%%%%%%%%%%%%%%%%%%%%%%%%%%QqQqQqQ%%%%%%%qQ%%%%%%%%%%%
2734C40%qQqQ%%%%%%%qQ%%%%%%%%%%%%%%%%%%%%%%%%%%%%%%%%%%%%%%%%%%%%%%%%%%%%%%%
2718C40Qq%%%%%%%%%%%%%%QqQq%%%Qq%%QqQ%%qQ%%%qQ%%%%qQqQ%%%qQ%QqqQQj6%K4l2J6Qk4
2703C32N6n6QK4k4%Q%q%Q%%%%%%%%%%Q%q%Qq%%QqQqQq%%%%%Qq%%%%%Q%%%qQq%Q%%%qQ%%%%
2688C56%%%%%%%%%%%%%%%%%%%%%%%%%%%%%%%%%%%%%%%%%%%%%%%%%%%%%%%%%%%%Q%q%%Qq%%
2672C56%%%%%%%%%Q%qQqQ%%%qQ%%qQ%%%%%%%%%%%%%%%%%%%%%%%%%%%%%%%%%%%%%%%%%%%%%
2657C64%%%%%%%%%%%%%%%%%%%%%Q%q%Q%qQ%%%%%%%%%%%%%%%%%%%%%%%%%%%%%%%%%%%%%%%%
2641C72%%%%%%%%%%%%%%%%%%%%%%%%%%%%%%%%%%%%%%%Qq%%Q%%qQ%%%%qQ%%%%%%%%%%%%%%%
2625C80%%%%%%%%%%%%%%%%%%%%%%%%%%%%%%%%%%%%%%%%Qq%Q%qQq%%%%%%%%%Qq%QqQ%%%%q%
2609C80Q%%%%qQ%%%%%%%%%%%%%%%%%%%%%%%%%%%%%%%%%%%%%%%%%%%%%%%%%%Qq%%%Qq%%Q%%
2593C96%%%%%%%%qQ%%%%%%%%%%%qQ%%%%%%%qQ%%%%%%%%%%%%%%%%%%%%%%%%%%%%%%%%%%%%%
2578C96%%%%%%%%%%%%QqQ%%qQ%%%%%%%%%%%%%%%%%%%%%%%%%%%%%%%%%%%%%%%%%%%%%%%%%%
2562D04%%%%%%%%%%%%%%%%Q%%%%%%%qQq%Q%%%%%%%%%%%%%%%%%%%%%%%%%%%%%%%%%%%%%%%%
2546D12%%%%%%%%%%%%%%%%QqQ%qQq%QqQ%%%%%%%%%%%%%%%%%%%%%%%%%%%%%%%%%%%%%%%%%%
2530D20%%%%%%%%%%%%%%%QqQq%%%%Qq%Q%%%%%%%%%%%%%%%%%%%%%%%%%%%%%%%%%%%%%%%%%%
2514D28%%%%%%%%%%%%%%%%%Q%%qQ%%%%%%%%qQ%%%%%%%%%%%%%%%%%%%%%%%%%%%%%%%%%%%%%
2499D36%%%%%%%%%%%%%%Qq%%%%Q%%%%%%%%%%%%%%%%%%%%%%%%%%%%%%%%%%%%%%%%%%%%%%%%
2483D44%%%%%%%%%Q%%q%Qq%%%QqQ%qQ%%%%qQ%%%%%%%%%%%%%%%%%%%%%%%%%%qJ6qqJ6q%%%%
2467D52%%%Qq%%%%%%%%%Qq%%Q%%%%q%Q%%%%%%%%%%%%%%%%%%%%%%%%%%%%%%%%%%%%%%%%%%%
2452D60%%Qq%%%%%%%%%%Qq%Q%%%%%%qQ%%%%%%%%%%%%%%%%%%%%%%%%%%%%%%%%%%%%%%%Qq%%
2436D68%%%%%Q%%%%%%%%%%%%%%%%%%%%%%%%%%%%%%%%%%%%%%%%%%Qq%Q%%qQq%%Q%qQ%%%%%%
2420D84%%%%%%%%%%%%%%%%%%%%%%%%%%%%%%%%%%%%%%%%%%%%Q%%q%QqQ%%%%%%%%%%%%%%%%%
2404D92%%%%%%%%%%%%%%%%%%%%%%%%%%%%%%%Q%%qQ%q%QqQ%%%%%%%%%%%%%%%%%%%%%%%%%%%
2389E00%%%%%%%%%%%%%%%%%%%%%%%%%%%%%%Q%q%Q%%%%%%%%%%%%%%%%%%%%%%%%%%%%%%%%%%
2373E08Qq%%%%Q%%q%QqQ%%%qQ%%%%%%%%%%%%%%%%%%%%%%%%%%%%%%%%%%%%%%Qq%%Qq%QqQ%%
2357E24%%%%%%%%%%%%%%%%%%%%%%%%%%Qq%%%%%%%Qq%Qq%%QqQ%%qQqQ%%%%%%%%%%%%%%%%%%
2341E32%%%%%%%%%%%%%%%%%Qq%Q%%%%%%%%%%%%%%%%%%%%%%%%%%%%%%%%%%%%%%%%%%%%%Qq%
2325E40%QqQ%%%%%%%%%qQ%%qQ%%%%%%%%%%%%%%%%%%%%%%%%%Qq%%%%%%%Q%%%%%%%%%%%%%%%
2310E56%%%%%%%%%%%%%%%%%%%%%%%%%%%Qq%%Q%qQ%%%%%%%%%%%%%%%%%%%%%%%%%%%%%%%%%Q
2294E72q%Q%qQ%qQqQq%Q%%%%%%%%%%%%%%%%%%%%%%%%%%%%%%%%%%%%%%%Q%%%qQ%%%%qQ%%%%
2278E80%%%%%%%%%%%%%%%%%%%%%%%%%Q%%%qQ%%%%%%%%%%%%%%%%%%%%%%%%%%%%%%%%%%%%%%
2262E88Q%%%%q%Q%%%%%%%%%%%%%%%%%%%%%%%%%%%%%%%%%Qq%Q%%%%%%%%%%%%%%%%%%%%%%%%
2246F04%%%%%%%%%%%%%%%%Q%qQ%qQ%%%%%%%%%%%%%%%%%%%%%%%%Qj6J6qQqQq%%%Qq%Qq%Q%%
2231F20%qQ%%%%%%%%%%%%%%%%%%%Q%%%%%qQ%%q%Q%%%%%%%%%%%%%%%%%%%%%%%%%%%%%%%Q%q
2215F28QqQqQ%%%qQ%%%%%%%%%%%%%%%%%%%%%%%%%Qq%Q%qQqQ%%%%%%%%%%%%%%%%%%%%%%%%%
2199F44%%%%%%QqQ%%%%%%%%qQ%%%%%%%%%%%%%%%%%%%%%%QqQ%%%%%%%%%%%%%%%%%%%%%%%%%
2184F60%QqQq%%%%%Q%qQ%%%%%%%%%%%%%%%%%Qq%%%%%%%%%%%Q%%q%Q%%%%%%%%%%%%%%%%%%%
2168F76%%%%%%%%%%QqQ%%%%%%%%%%%%%%%%%%%%%%%%%%%%%%%%QqQ%%%%%%%%%%%%%%%%%%%%%
2152F92%%%Qq%%%%%%Q%qQ%%%%%%%%%%%%%%%%%%%%%%%%%%%%%%%%Q%%%%%%%%%%%%%%%%%%%%%
2136G08%%%%%%%%Q%qQ%%%%%%%%%%%%%%%%%%%%%%%%%%%%%Qq%Q%%%%%%%%%%%%%%%%%%%%%%Q%
2121G32q%%QqQ%%%q%Q%qQ%%%%%%%%%%%%%%%%%%%Qq%Q%%%%%%%%%%%%%%%%%%%%%%%%%%%%%Qq
2105G40Q%%%%%%%%%%%%%%%%%%%QqQqQ%%%qQ%%%%%%%%%%%%%%%%%%%%%%%%%Q%%%%%%%%%%%%%
2089G64%%%Qq%%%%%%%%%QqQ%%%%%%%%%%%%%%%%%%%%%%%%%%%%Q%%%%%%%%%%%%%%%%%%%%%Qq
2073G80%%%Q%%%%%%%%%%%%%%%%%%%%%%%%%QqQq%Q%%%%%%%%%%%%%%%%%%%%%Q%%qQ%%%%%%%%
2057H04%%%%%%%%%%%%%%%Q%%%%%%%%%%%%%%%%%%%%%%%QqQ%%%%%%%%%%%%%%%%%%%%%%%Q%%%
2042H28%%%%%%%%%%%%%%%%%%%%%%%%Q%qQ%%%%%%%%%%%%%%%%%%%Q%qQ%%%%%%%%%%%%%%%%%%
2026H44%%%%QqQ%%%%%%%%%%%%%%%%%%%%%Q%qQ%%%%%%%%%%%%%%%%%%%%%%Q%%%%%%%%%%%%%%
2010H68%%%%%Q%%%%%%%%%%%%%%%%%%%%%%%%%QqQqQ%%qQ%%qQQq%%%%%%%%%QqQ%%%%%%%%%%%
1994H92%%%%%%%%%Q%%%%%%%%%%%%%%%%%%Qq%Q%%%%%%%%%%%%%%%%%%%%%QqQ%%%%%%%%%%%%%
1978I16%%%%%%%%%%Q%%%%%%%%%%%%%%%%%%%%%Q%%%%%%%%%%%%%%%%%%Q%%%%%%%%%%%%%%%%%
1963I40%QqQqQ%%%%%%%%%%%%%%%%Q%%%%q%Q%%%%%%%%%%%%%%Q%%%%%%%%%%%%%%%%%%Qq%%Q%
1947I72%%%%%%%%%%%%%%%Q%%%%%qQ%Qq%%%%%%%%%QqQqQ%%%%%%%%%%%%%%%%%Q%%%%%%%%%%%
1931I96%%%%%%%%%Q%%qQ%%%%%%%%%%%%%Q%%%%%%%%%%%%%%%%%%Q%%%%%%%%%%%%%%%%%Q%%%%
1915A028%%%%%%%%%%%%%Q%%%%%%%%%%%%%%%%%%%Q%%%%%%%%%%%%%QqQ%%%%%%%%%%%%%%%%%Q
1900A060qQ%%%%%%%%%%%%%%%QqQ%%%%%%%%%%%%%%%Q%%%%%%%%%%%%%%%%%%Q%%%%%%%%%%%Q%
1884A092qQ%qQ%qQqQQq%%%%%%Q%%%%%%%%%%%%%%%Q%%%%%%%%%%%%%%%%%%Q%%%%%%%%%%%%%%
1869A116%Q%%%%%%%%%%%%%Q%%%%%%%%%%%%%%%Q%q%Q%%%%%%%%%%%%Q%%%%%%%%%%%%%%%%Q%%
1853A156%%%%%%%%%%Q%%%%%%%%%%%%%%%Q%%%%%%%%%%%%%%Q%%%%%%%%%%%%%Q%qQ%%%%%%%%%
1837A188%%%Q%%%%%%%%%%%%%Qq%Q%%%%%%%%%%%%Q%qQqQ%%%%%%%%QqQ%%%%%Qq%%Q%%%%%%%%
1822A228%%%%%%%QqQ%%%%%%%%%%%%Q%%%%%%%%%%%%%Q%%%%%%%%%%%%Q%qQ%%%%%%%%%Q%%%%%
1806A268%%%%%%%Q%%%%%%%%%%%%%%%Q%%%%%%%%%%%%Q%%%%%%%%%%%%Q%%%%%%%%%%%QqQ%%%%
1791A308%%%%%QqQ%%%%%%%%QqQ%%%%%%%%%%%Q%qQ%%%%%%%%%%%Q%qQ%%%%%%%%Q%%%%%%%%%%
1775A348%%%Q%%%%%%%%QqQ%qQ%%%%%%%%Q%%%%qQ%Qj6Q%%Q%%J6%j6%%%QqQ%qQ%%%%%%%Q%qQ
1760A396%%%%%%%Q%%%%%%%%%Qq%Q%%%%%%%%%Q%qQ%%%%%%%%%%Q%%%%%%%%%Q%%%%%%%%%%%%Q
1745A444%%%%%%%%%%Q%%%%%%%Q%%%%%%%%%%Q%%%%%%%%QqQ%%%%%%%%%%%%%%Q%%%%%%%Q%%%%
1729A492%%%%%Q%%%%%%%%%%%Q%%%%%%%%Q%%%%%%%%%Q%%%%%%%%%Q%%%%%%%%%Q%%%%%%%%Q%%
1714A548%%%%%%%%Q%%%%%%%%QqQ%%%%%%Q%qQ%%%%%%%QqQ%%%%%%Q%%%%%%%%%Q%%%%%%%%%Q%
1698A604%%%%%%%%%%Q%%%%%%%%Q%%%%%%%Q%%%%%%%%Q%%%%%%%%Q%%%%%%%%%Q%%%%%%%%%Q%%
1682A660%%%%%Q%%%%%%%%Q%%%%%%%%Q%%%%%%%%%Q%%%%%QqQ%%%%%%%Q%%%%%%%%%Q%%%%%%%Q
1667A724%%%%%%%Q%%%%%%%%Q%%%%%%QqQ%%%%%%%Q%%%%%%%Q%%%%%%%Q%%%%%%%Q%%%%%%%%Q%
1651A788%%%%%%Q%%%%%%QQq%%%%QqQ%%%%%%Q%%%%%%%Q%%%%%%%Q%%%%%%%Q%%%%QqQ%%%%%%%
1636A852Q%%%%%Q%%%%%%%QqQ%%%%%Q%%%%%%%Q%%%%%%%Q%%%%%Q%%%%%%%%Q%%%%Q%%%%%%%Q%
1620A932%%%%%Q%%%%%%%Q%%%%%%%Q%%%%%Q%%%%%Q%%%%%Q%%%%%%%%Q%%%%%%Q%%%%%QqQ%%%%
1605B004%Q%%%%%%Q%%%%%Q%%%%%Q%%%%%Q%%%%%%%Q%%%%%Q%%%%%%Q%%%%Q%%%%%%Q%%%%%%%Q
1589B092%%%%%Q%%%%%Q%%%%Q%%%%%%Q%%%%%Q%%%%%%Q%%%%%%Q%%%%Q%%%%%%%Q%%%Q%%%%%Q%
1573B180%%%%Q%%%%%Q%%%%%Q%%%%%%Q%%%%%Q%%%%Q%%%%%Q%%%QqQ%%%%Q%%%%%Q%%%%%Q%%Qq
1558B268%Q%%%%Q%%%Q%%%%%%Q%%%%Q%%%%%Q%%%QqQ%%%%Q%%%%Q%%%Q%qQ%%Q%%%%Q%%%%%Q%%
1542B372%%%Q%%%%Q%%%%Q%%QqQ%%%%Q%%%%Q%%%%%%Q%%Q%%%%Q%%%%Q%%%%Q%%%%%Q%%%Q%%%%
1527B476Q%%%%Q%%%%%Q%%%Q%%%%%Q%%%Q%%%%Q%%%Q%%%%%Q%%Q%%%%%Q%%%%Q%%%%Q%%%%Q%%%
1511B588Q%%%Q%%%Q%%%%Q%%%%%Q%%%Q%%%Q%%%Q%%%%Q%%QqQ%%Q%%%%Q%%%Q%%%%Q%%%Q%%%Q%
1496B716%%Q%%%%Q%%Q%%%%%Q%%%Q%%Q%%%%Q%%%Q%%%Q%%%%Q%%%Q%%%Q%%%Q%%%Q%%%Q%%%Q%%
1480B844%Q%%%Q%%%Q%%%Q%%%Q%%%Q%%%%Q%%%Q%Q%%%%Q%%%Q%%Q%%%Q%%%Q%%Q%%%Q%%%Q%%%Q
1465B988%%Q%%%Q%%%Q%%%Q%%%Q%%Q%%%Q%%Q%%Q%%%Q%%%Q%%%Q%%%Q%%Q%%Q%%%Q%%%Q%%Q%%Q
1449C140%%Q%%%Q%%Q%%%Q%%Q%%%Q%%Q%%%Q%Q%%Q%%%%Q%%Q%%Q%%Q%%%Q%%Q%%Q%%Q%%Q%%%Q%
1433C300%Q%%%Q%Q%%Q%%%Q%%Q%Q%%%%Q%%Q%Q%%Q%%%Q%%Q%%Q%%Q%%Q%%Q%%Q%Q%%%Q%%Q%%Q%
1418C476%Q%%Q%%Q%%Q%Q%Q%Q%qQQ%%%Q%Q%%%%Q%Q%%Q%Q%%Q%%Q%%Q%%Q%%Q%Q%%Q%%Q%%Q%%Q
1402C668%Q%%Q%%Q%Q%%Q%%Q%Q%%Q%%Q%%Q%Q%Q%%Q%%Q%%Q%Q%%Q%Q%%Q%Q%%Q%%Q%Q%%Q%%Q%Q
1387C876%Q%%Q%Q%%Q%Q%%Q%Q%%Q%Q%%Q%Q%Q%%Q%%Q%Q%Q%%Q%Q%Q%%Q%%QQ%%Q%%Q%Q%Q%Q%%Q
1371D100%Q%%QQ%%Q%Q%Q%%Q%Q%%Q%Q%Q%Q%Q%%Q%Q%Q%Q%Q%%Q%Q%Q%Q%Q%%Q%Q%Q%Q%Q%Q%%QQ
1356D348%Q%Q%Q%%Q%Q%Q%Q%Q%Q%Q%Q%%Q%Q%Q%QQ%%Q%Q%Q%Q%Q%Q%Q%Q%Q%Q%Q%Q%QQ%%Q%Q%Q
1340D612Q%Q%%QQ%Q%%QQ%Q%Q%Q%Q%QQ%Q%Q%Q%Q%Q%QQ%Q%Q%Q%Q%QQ%Q%Q%QQ%%QQQ%%Q%QQ%Q
1324D908%QQ%%QQ%Q%QQ%Q%Q%QQ%Q%QQ%%QQ%QQ%Q%Q%QQ%QQ%Q%Q%QQ%QQ%Q%Q%QQ%QQ%Q%Q%QQ
1309E228Q%Q%QQ%QQ%Q%QQ%QQ%QQ%Q%QQ%QQ%QQ%QQ%QQQ%QQ%%J6%Q%J6%%QJ6%qJ6Q%Q%QQ%QQ
1294E564%QQ%QQ%QQ%QQQ%QQ%QQQ%Q%QQQQ%QQ%QQ%QQQ%QQQ%QQ%QQQ%QQQ%QQQ%QQ%QQQ%QQQ%
1279E948QQQQ%QQ%QQQQ%QQQ%QQQQ%QQQ%QQQQQ%QQQ%QQQQ%QQQQ%QQQQ%QQQQQQ%QQQQ%QQQQ%
1263F380J6%QQQQ%QQQQQQQ%QQQQQQQ%QQQQQQ%QQQQQQQQ%QQQQQQQQ%J6%QQQQQQQQQ%QQQQQQ
1248F852QQQQQQQQQ%QQQQQQQQQQQQQQQQQQQQQQQ%J6Q%J6%J6%J6Q%J6QQ%J6Q%J6QQQQQQQQQ
1234G332QQQQQQQQQQQQJ6%J6QQQQQQQQQQQQQQJ6QQQQQQQJ6QQQQQQQQQJ6QQQQQQJ6QQQQQQQ
1220G868J6QQQQQJ6QQQQQQJ6QQQQJ6QQQQJ6QQQQQJ6QQQJ6QQQQJ6QQQJ6QQQJ6QQQJ6QQQJ6Q
1207H412QJ6QQQJ6QQQJ6QQJ6QQJ6QQJ6QQJ6QQQJ6QJ6QQQJ6QJ6QQJ6QQJ6QJ6QQQJ6QJ6QQJ6
1195H956QQJ6QJ6QJ6QJ6QQJ6QJ6QQJ6QJ6QJ6QJ6QJ6QQJ6QJ6QJ6J6QQJ6QJ6QJ6QJ6QJ6QJ6J6
1185I508QQJ6QJ6J6QJ6QJ6QJ6QJ6QJ6J6QJ6QJ6J6QQK4QQK4QJ6QJ6QJ6J6QJ6J6QJ6QJ6J6QJ6
1174A0076J6J6QJ6J6QJ6J6QJ6J6QJ6J6J6QJ6J6J6QJ6J6QJ6J6QJ6J6J6J6J6QJ6J6J6QJ6J6J6
1165A0620QJ6J6J6J6QJ6J6J6J6J6J6QJ6J6J6J6J6QJ6J6J6J6J6J6J6J6J6QJ6J6J6J6J6J6J6
1157A1156J6J6J6J6QJ6J6J6J6J6J6K4QJ6J6J6J6J6J6J6J6J6K4J6J6J6J6J6QJ6K4J6J6J6J6
1149A1716J6K4QK4J6J6J6J6J6J6K4J6J6J6J6J6J6K4J6J6J6J6K4J6J6J6J6K4J6J6J6J6K4J6
1141A2308J6J6K4J6J6K4J6J6J6K4J6J6K4J6J6K4J6J6K4J6J6K4J6K4QK4K4J6J6K4J6K4J6J6
1134A2940K4J6K4J6K4J6J6K4J6K4J6K4J6K4J6K4J6K4J6K4J6K4K4J6J6K4K4J6K4J6K4K4J6K4
1126A3628K4J6K4J6K4K4J6K4K4J6K4K4J6K4K4K4K4J6K4J6L2J6K4K4J6K4K4J6K4K4K4K4K4J6
1118A4364K4K4K4K4K4K4J6K4K4K4K4K4K4K4K4K4K4K4J6K4K4L2K4K4K4K4K4K4K4K4K4K4K4K4
1110A5172K4K4K4K4L2J6L2K4K4K4K4K4K4L2K4K4K4L2K4K4K4K4K4L2K4K4L2K4K4L2K4K4L2K4
1102A6044K4L2K4K4L2K4K4L2K4L2K4L2K4L2K4L2K4K4L2K4L2K4L2L2K4L2L2K4L2K4L2K4L2L2
1095A6996K4L2L2K4L2L2K4L2L2L2K4L2K4M0K4L2L2L2L2L2K4L2L2L2L2L2L2K4L2L2L2L2L2L2
1087A8028L2L2L2L2L2L2M0L2L2L2L2L2L2L2L2L2M0L2L2L2L2M0L2L2L2M0L2L2L2M0L2L2M0L2
1079A9164L2M0L2M0L2M0L2L2M0M0L2L2M0L2M0M0L2M0L2M0L2M0M0M0L2M0M0L2M0M0L2M0M0M0
1071B0412M0L2M0M0M0M0M0M0M0M0L2M0M0M0M0M8L2M8L2M8M0M0M0M0M0M0M0M8M0M0M0M8M0M0
1064B1780M0M8M0L2O4L2M8L2M8M8M0M8M8M0M0M8M8M0M8M0M8M0M8M8M0M8M8M8M0M8M8M8M8M0
1056B3292M8M8M8M8M8M8M8M8M8M8M8M8M8M8M8M8M8N6M8M8M8M8N6M8N6M8M8N6M8M8N6M8N6M8
1048B4972N6M8M8N6M8N6N6N6M8N6N6M8N6N6N6N6M8N6N6N6N6N6N6N6N6N6N6N6N6N6O4N6N6N6
1040B6836N6O4N6N6O4N6N6O4N6O4N6O4N6O4N6O4N6O4O4O4N6O4O4O4O4N6O4O4O4O4O4O4O4O4
1032B8916P2N6P2O4O4O4P2O4O4P2O4P2O4O4P2O4P2P2O4P2P2O4P2P2O4P2P2P2P2P2P2P2P2P2
1025C1252P2P2Q0P2P2P2P2Q0P2Q0P2Q0P2Q0P2Q0P2Q0Q0Q0P2Q0Q0Q0Q0Q0Q0Q0Q0Q0Q0Q0Q0Q8
1017C3884Q0Q8Q0Q0Q8Q0Q0Q8Q8Q0Q8Q8Q0Q8Q8Q8Q8Q8Q8Q8Q8Q8Q8Q8R6Q8Q8R6Q8Q8R6Q8R6R6
1009C6860Q8R6R6R6R6Q8R6R6R6R6R6R6J04R6R6J04R6R6J04J04R6J04J04J04J04R6J04J04J04
1002C9716J04J04J04J12J04J04J04J12J04J12J04J12J12J04J12J12J12J12J12J12J12J12J12
997D2220J20J12J20J12J20J12J20J20J12J20J20J20J20J20J28J20J20J20J28J20J28J20J28
992D4980J28J28J20J36J20J36J28J28J28J36J28J28J36J36J28J36J36J36J36J36J36J36J44
987D8020J36J36J44J36J44J44J44J44J44J44J44J44J44J52J44J52J44J52J52J52J44J60J52
981E1372J52J52J60J52J60J52J60J60J60J60J60J60J60J68J60J68J60J68J68J68J68J68J68
976E5084J76J68J68J76J76J76J76J76J76J76J76J84J76J84J84J84J84J84J84J92J84J92J84
971E9220J92J92J92J92J92K00J92K00J92K00K00K00K00K08K00K08K08K00K08K16K08K08K16
966F3844K08K16K16K16K16K16K24K16K24K24K24K24K24K32K24K32K32K32K32K40K32K40K32
960F9020K40K40K48K40K40K48K48K48K48K56K48K56K56K56K56K56K64K64K64K64K64K64K72
955G4860K72K72K72K72K80K80K80K80K80K88K80K88K88K96K88K96K96K96K96L04L04K96L12
950H1476L04L12L04L12L20L12L20L20L20L28L20L28L28L28L36L36L36L36L44L36L60L36L44
945H8996L60L52L52L60L60L60L60L68L68L68L76L68L76L84L76L84L92L84L92L92M00L92M00
939I7620M08M00M16M08M16M16M16M16M24M32M24M32M32M40M40M40M48M48M56M48M64M56M64
934A07564M64M72M72M72M80M80M88M88M88M96M96N04N04N04N12N12N20N28N20N28N36N36N36
929A19100N44N44N52N60N52N68N60N76N76N76N76N92N84O00N92O08O08O08O16O24O24O24O32
923A32596O48O40O48O48O56O64O64O72O80O80O88O88O96P04P12P12P12P28P28P36P36P44P52
918A48532P60P60P68P76P76P92P92Q00Q00Q16Q16Q24Q32Q32Q48Q48Q56Q64Q72Q80Q80Q96Q96
913A67516R04R20R20R28R36R44R52R60R68R76R84R92J008J008J016J024J032J048J056J056
908A87148J072J080J088J096J112J120J128J136J144J160J168J176J192J200J208J224J232
904B06684J240J256J264J280J288J304J304J328J336J352J360J376J384J408J408J432J440
901B29444J456J464J480J504J504J528J536J560J568J584J600J624J632J648J664J680J704
897B56180J712J736J752J768J784J808J824J840J864J880J904J920J936J960J984K000K024
893B87876K048K064K088K112K136K160K176K208K232K248K280K304K328K352K384K408K440
889C25844K464K488K520K552K576K608K640K672K688K736K760K800K840K856K896K936K968
885C71844L008L040L072L120L152L192L232L280L312L352L400L440L488L528L576L616L672
881D28324L712L768L816L856L920L968M016M080M128M184M240M296M360M424M480M544M600
877D98716M672M736M808M872M936N016N088N160N232N312N384N472N552N632N720N808N896
873E88012N976O072O176O264O360O464O560O672O768O880O992P112P216P336P464P576P712
869G03612P832P976Q096Q248Q376Q528Q672Q824Q976R144R296R464R632R800R984J0168J0352
866H56980J0544J0736J0944J1144J1352J1576J1792J2024J2248J2496J2744J2984J3256J3512
862A024332J3792J4064J4360J4656J4952J5272J5592J5920J6264J6608J6968J7344J7720J8112
859A245956J8512J8936J9360J9800K0256K0720K1208K1704K2224K2752K3304K3864K4448K5056
856A548100K5672K6320K6984K7672K8384K9120K9888L0672L1488L2336L3208L4128L5064L6040
853A975076L7056L8104L9200M0336M1512M2736M4016M5336M6720M8152M9648N1200N2824N4520
850B606436N6288N8120O0048O2064O4160O6352O8648P1056P3576P6208P8976Q1880Q4920Q8120
846C596852R1472R5016R8728J02640J06760J11112J15696J20536J25648J31056J36784J42840
844D975140J49256J56080J63312J71000J79176J87880J97168K07064K17640K28952K41048
841G073716K54016K67936K82880K98968L16288L34976L55152L77000M00648M26328M54256
839A0842164M84656N17832N54112N93832O37440O85416P38329P96799Q61615R33609J013847
836A8659651J103520J204050J317111J444744J589345J753815J941671K157192K405682K693592
834C6270373L029039L422161L885846M436465N095225N889709O856316Q043643R517392J1367894
831I7814063J3720822J6754653K0726979K6016744L3192917M3126334N7173368P7470547J07364815
829D93361242J51856873K17184871L05856623L96358196L99905411J82960431j82960431l99905198
828A564618018l96358409l05856623k17184871j51856873j07364789p7470573n7173368m3126334
826B08226178l3192917k6016744k0726979j6754653j3720842j1367874r517405q043630o856323
824F2028811n889702n095225m436472l885833l422174l029032k693592k405672k157209j941664
821B7072236j753815j589337j444752j317119j204042j103511j013856r33615q61609p96799
819A5053781p38329o85424o37440n93824n54104n17840m84656m54248m26336m00656l76992
817I183932l55152l34976l16288k98968k82880k67936k54016k41048k28952k17640k07064
814F179012j97168j87880j79176j71000j63312j56072j49272j42832j36784j31056j25648
812D438812j20536j15696j11112j06760j02640r8728r5016r1480q8112q4920q1880p8976p6208
809C186748p3576p1056o8648o6352o4160o2064o0048n8120n6288n4512n2832n1208m9640m8152
805B350092m6712m5344m4016m2736m1512m0336l9200l8104l7056l6040l5064l4120l3216l2336
802A804300l1488l0672k9888k9120k8384k7672k6984k6320k5672k5056k4448k3864k3304k2752
799A428676k2224k1704k1208k0720k0256j9808j9360j8928j8512j8120j7720j7336j6968j6616
796A159196j6256j5920j5592j5272j4952j4656j4360j4064j3792j3512j3248j2992j2744j2496
793I59340j2248j2024j1792j1576j1352j1144j0944j0736j0544j0352j0168r984r800r632
789H07044r472r296r136q976q824q672q528q376q248q104p968p832p712p576p464p336p224
785F66300p104o992o880o776o664o560o464o360o264o168o080n984n888n808n720n632n552
782E59404n472n384n312n232n160n088n008m944m872m808m736m672m600m544m480m424m360
778D76308m296m240m184m128m080m016l968l912l864l816l768l712l672l616l576l528l488
774D10444l440l400l352l320l272l232l192l152l120l080l032l008k968k928k904k864k832
770C57348k800k760k736k696k664k640k608k584k544k520k488k464k440k408k376k360k328
766C13932k304k280k256k224k208k184k152k136k112k088k064k048k024k000j984j960j936
762B77972j920j904j880j864j840j824j808j784j768j752j736j712j704j680j664j648j640
758B47844j608j608j584j568j560j536j528j512j496j480j472j448j440j432j408j408j384
754B22372j376j360j352j336j328j304j304j288j280j264j256j240j232j224j208j200j184
750B00636j184j168j160j144j136j128j120j112j096j088j080j072j064j048j048j032j024
747A81932j016j016j000r92r84r76r68r60r52r44r36r28r20r20r04q96q96q80q80q72q64q56
742A61372q56q40q40q24q24q16q16q08p92p92p92p76p76p68p60p60p52p44p44p28p28p28p12
736A43396p20p04p04o96o88o88o80o80o72o64o64o56o48o48o40o40o40o24o24o24o16o08o08
731A28260o08n92o00n84n92n76n84n68n76n60n68n52n60n52n44n44n36n36n36n28n28n20n12
726A15404n12n20n04n04n04m96m96m88m88m88m80m80m72m72m72m64m64m56m64m48m56m48m48
720A04380m40m40m40m32m32m24m32m24m16m24m08m16m08m08m08m08m00l92m00l92l92l84l92
715I4868l84l76l84l76l68l76l68l68l68l60l60l60l60l52l52l52l52l44l52l28l52l36l44
710H6596l28l36l28l28l28l28l20l20l20l20l20l12l12l04l12l04l12k96l04l04k96k96k96
705G9372k96k88k96k88k88k80k88k80k80k80k80k80k72k72k72k72k72k64k64k64k64k64k56
699G3012k64k56k56k56k56k56k48k48k48k48k48k40k48k40k40k32k40k40k32k40k32k32k32
694F7380k32k24k32k24k24k24k24k24k16k24k16k16k16k16k16k08k16k08k16k08k08k00k08
689F2380k08k00k08k00k00k00k00j92k00j92k00j92j92j92j92j92j92j84j92j84j84j84j92
684E7908j76j84j76j84j76j84j76j76j76j76j76j76j76j68j68j68j76j68j68j68j68j68j60
678E3916j68j60j68j60j60j60j60j60j60j60j52j60j52j60j52j52j52j60j52j44j52j52j52
673E0308j44j52j44j44j44j44j44j44j44j44j44j44j36j44j36j36j44j36j36j36j36j36j36
668D7060j28j36j36j28j36j28j36j28j28j28j28j28j28j28j28j28j20j28j28j20j28j20j20
663D4116j20j20j28j20j20j20j12j20j20j12j20j20j12j20j12j12j20j12j12j12j12j12j12
657D1436j12j04j12j12j12j04j12j04j04j12j12j04j04j04j04j04j04j04j12r6r6j04j04r6
652C8900j04j04r6j04r6j04r6r6j04r6r6r6r6r6r6r6q8r6r6r6q8r6r6q8r6q8r6q8q8r6q8q8
644C5852q8q8q8q8q8q8q8q8q8q8q0q8q8q0q8q8q0q0q8q0q8q0q0q0q8q0q0q0q0q0q8p2q0q0
637C2996q0q0p2q0q0q0p2q0p2q0p2q0p2q0p2p2q0p2p2p2q0p2p2p2p2p2p2p2p2p2p2o4p2p2
629C0468p2o4p2p2o4p2p2o4p2o4p2o4o4p2o4o4o4p2o4p2n6p2o4o4o4o4o4o4o4o4n6p2n6o4
621B8220o4o4n6o4o4o4n6o4n6o4n6o4n6o4n6o4n6n6o4n6n6o4n6n6n6n6o4n6n6n6n6n6n6n6
613B6212n6n6n6n6n6n6n6m8n6n6n6m8n6n6m8n6n6m8n6m8n6n6m8n6m8m8n6m8n6m8m8n6m8m8
606B4412m8n6m8m8m8n6m8m8m8m8m8m8m8m8m8m8m8m8m8m8m8m8m8m0m8m8m8m8m8m0m8m8m0m8
598B2788m8m0m8m0m8m8m0m8m0m8m0m8m0m0m0n6m0m0m8m8l2m0m0m8m0m0m8m0m0m8m0m0m0m0
590B1324m0m0m0m0m8m0m0m0m0m0l2m8m0m0l2m0m0m0m0m0m0l2m0m0m0m0l2m0m0m0l2m0l2m0
582A9996m0l2m0m0l2m0l2m0l2m0m0l2m0l2l2m0l2m0l2m0l2m0l2l2m0l2l2m0l2l2l2m0l2l2
574A8788l2m0l2l2l2l2l2m0l2l2l2l2l2l2m0k4l2m0l2l2l2l2l2l2l2l2l2l2k4l2l2l2l2l2
567A7684l2l2l2k4l2l2l2l2k4l2l2l2k4l2l2k4l2l2l2k4l2l2k4l2l2k4l2k4l2k4l2l2k4l2
559A6676k4l2k4l2k4l2l2k4k4l2k4l2k4l2k4l2k4k4l2k4k4l2k4k4k4l2k4l2k4k4l2k4k4k4
551A5756l2k4k4k4k4l2k4k4k4l2k4k4k4k4k4k4l2k4k4k4k4k4k4k4k4k4k4k4k4k4l2k4k4j6
543A4908k4l2j6k4l2j6k4k4k4k4k4k4k4k4k4j6l2j6k4k4k4k4k4j6k4k4k4k4j6k4k4k4k4k4
536A4116j6k4j6k4k4k4j6k4k4j6k4k4k4j6k4j6k4k4k4j6k4j6k4k4j6k4k4j6k4j6k4j6k4j6
528A3404k4k4j6k4j6k4j6k4j6k4j6k4j6k4j6k4j6k4j6j6k4j6k4j6k4j6j6k4j6j6k4j6j6k4
520A2732j6k4j6j6k4j6j6k4j6j6k4j6j6k4j6j6k4j6j6j6k4j6j6j6j6k4j6j6j6k4j6j6j6j6
512A2116k4j6j6j6k4j6j6j6j6j6j6j6j6k4j6j6j6j6j6j6j6k4j6j6j6j6j6j6j6k4qj6k4j6j6
504A1516qk4j6j6j6j6j6j6j6j6j6j6j6j6j6qj6j6j6j6j6j6j6j6j6j6j6j6j6qj6j6j6j6j6j6
496A0956j6j6j6qj6j6j6j6j6j6j6qj6j6j6j6j6qj6j6j6j6qj6j6j6qj6j6j6j6qj6j6j6j6qj6
487A0404j6j6qj6j6qj6j6j6qj6j6qj6j6qj6j6qj6j6j6qj6qj6j6j6qj6j6qj6qj6j6qj6qqk4
478I852qj6j6qqj6j6j6qqj6j6qj6qj6j6qj6qj6j6qj6qj6qqj6j6qj6qj6qj6qj6qj6qj6qj6q
468I300j6qqj6qj6qj6qqj6j6qj6qqj6qj6qqj6j6qqj6qqj6qj6qqj6qqj6qj6qqj6qqj6qqj6q
456H748qj6qj6qqqj6qqj6qj6qqqj6qqj6qqj6qqqj6qqqj6qqj6qqqj6qqqqj6qqqj6qqj6qqqq
444H196qj6qqqj6qqqqj6qqqqj6qqqqqj6qqqqqj6qqqqqj6qqqqqqqj6qqqqqqj6qqqqqqj6%j6
431G652qqqqqqqqqj6qqqqqqqqqqqqqqj6qqqqqqqqqqqqqqqqqqqqqqqqqqqj6q%qqqj6%qj6qq
416G116%qj6%qqqqqqqqqqqqqqqqqqq%qj6%qqqqqqqqqqqqqq%qqqqqqqqqq%j6%qqqqqqqqq%q
401F628qqqqqq%qqqqq%qqqqqqq%qqqqqqq%qqqqq%qqqqq%qqqq%qqqqqq%qqqqq%qqq%qqqq%q
385F164qq%qqqq%qqqq%qqqq%qqq%qqq%qqqq%qqq%qq%qqq%qqqq%qq%qqq%qqq%qqq%qq%qqq%
369E748qqq%q%qqq%qq%qqq%qq%qqq%qq%qq%qq%qq%qqj6J6j6j6J6qj6Qj6%%j6%qq%qqq%%qq
355E412q%qq%q%qqq%q%qq%qq%qq%qq%q%qq%qq%q%qq%qq%qq%%qq%q%qq%qq%qq%q%qq%q%qq%
340E068q%qq%%qq%qq%q%q%qq%q%q%q%qq%q%qq%q%q%qq%q%q%q%qq%q%q%q%qq%q%q%q%q%qq%
324D756q%q%q%q%qq%q%q%q%q%q%q%q%q%q%qq%%qq%q%q%q%q%q%q%q%q%q%q%q%q%q%q%q%q%%
308D476qq%q%q%q%q%%q%q%q%q%q%q%q%q%q%q%q%q%q%q%%q%q%q%q%%q%q%q%%qq%%q%q%q%q%
292D212%q%q%q%%q%q%q%q%%q%q%q%q%q%%q%q%%q%q%q%q%q%%q%q%%q%q%%q%q%%q%q%q%%q%q
276C972%q%%q%q%q%%q%q%%q%q%%q%%q%q%%q%q%%q%q%q%%q%%q%q%%q%%q%q%%q%%q%q%%q%%q
261C756%q%%q%q%%q%q%%q%%q%q%%%q%q%%q%q%%%q%q%%q%%q%%q%q%%q%%q%%q%%q%q%%q%%q%
245C556q%%%q%%q%%%qq%qQq%q%%q%%q%%q%%%q%%q%q%%%q%%q%q%%%q%q%%q%%%q%q%%q%%%q%
229C372%q%%q%%q%%q%%%q%q%%%q%q%%%q%%q%%q%%%q%%q%%q%%q%%q%%%q%%%q%%q%%q%%q%%%
213C204q%%%q%%q%%q%%q%%q%%%q%%%q%%q%%q%%q%%%q%%%q%%q%%q%%%q%%%q%%q%%%q%%%q%%
197C044q%%q%%%q%%%q%%%q%%%q%%%q%%q%%q%%%q%%%q%%%%q%%q%%%q%%%%q%%q%q%%%%%q%%%
182B900q%qQq%%%q%%q%%%q%%%q%%%q%%%q%%%q%%q%%%%q%%%q%%%q%%%%q%%%q%%%q%%%q%%%%
166B764q%%%q%%q%%%%q%%q%%%%q%%%q%%%%q%%%q%%%%q%%%q%%%%q%%q%%%%q%%%q%%%%q%%%%
150B636q%%%%q%%%q%%%%q%%q%%%%q%%%q%%%%%q%%%%q%%%q%%%%q%%%%q%%%q%%%%q%%%q%%%%
134B516%q%%%%%q%%q%%%%%q%%%q%%%q%%%%q%%%%%%q%qJ6qq%%%qQq%q%%%%%q%%%%%q%%%%q%
119B404%%%qQq%q%%%%%q%%%q%%%%%%q%%%%%q%%%%q%%%%q%%%%q%%%%qQq%%%q%%%%q%%%%%q%
103B300%%%q%%%%q%%%%%%q%%%%%q%%%q%%%%%q%%%%q%%%%%%%q%%%q%%%%%%q%%%%%q%%%q%%%
87B204%%qQq%%%%q%%%%%%q%%%q%%%%%q%%%%%%q%%%%%q%%%%%q%%%%%q%%%%%q%%%%%q%%%%%%
71B116q%%%%%q%%%%%%qQq%%q%%Qq%q%Qq%%%q%%%%%%q%%%%%q%%%%%%q%%%%%q%%%%%%%q%%%%
55B028q%%%%%%q%%%%%%q%%%%%%%q%%%%%q%%%%%%q%%%%%%q%%%%%%q%%%%qQq%%%%%q%%%%%%%
39A948%q%%%%%%q%%%%%q%%%%%%%%q%%%%%%q%%%%%%q%%%%%q%%%%%%%q%%%%%%%q%%%%%%q%%%
23A868%%%%q%%%%%%%q%%%%%%q%%%%%%%q%%%%%%q%%%%%%%q%%%%%%q%%%%%%%%q%Qq%%qQqQq%
7A796%%%q%%%%%%q%%%%%%%%q%%%%%%%q%%%%%%%%q%%%%%%q%%%%%%%%q%%%%%%%%%q%%%%%%%q
-9A724%%%%%%%%q%%%%%%%q%%%%%%%%q%%%%%%%q%%%%%%%q%%%%%%%%%%q%%%%%%%q%%%%%%%%q
-25A660%%%%%%%q%%%%%%%%%%q%%%%%%q%%%%%%%%%%q%%%%%%%%q%%%%%%%%%q%%%%%%q%%%%%%
-41A604%%%q%%%%%%%%%%%q%%%%%%%%q%%%%%%%%q%%%%%%q%%Qq%%%%%%q%%%%%%%%%%qQq%%%%
-57A548%%%%%q%%%%%%%%%q%%%%%%qQq%%%%%%%%q%%%%%%%%%%q%%%%%%%%%q%%%%%%%%%%q%%%
-73A492%%%%%q%%%%%%%%%%q%%%%%%%%q%Q%q%%%%%%%qQq%%%%%%%%qQq%%%%%%%%%%qQ%q%%%%
-88A444%%q%%%%%%%%%q%%%%%%%%%%%qQq%%%%%%%%q%%%%%%%%%%%q%%%%%%%%%%%q%%%%%%%%%
-104A396%%%q%%%%%%%%%%%q%%Q%j6qK4%%%qQj6Qq%%%%%%%%q%%%%%%%%qQqQ%q%%%%%qQq%%%
-119A348%%%%%%%%%q%%%%%%%%%qQqQq%%%%%%%%%%%%q%%%%%%%%%%%%q%%%%%%%%%%q%%%%%%%
-135A308%%%%%q%%%%%%%%%%%%q%Qq%%%%%%%%%%%q%%%%%%%%%%%q%%%%%%%%%%%%qQ%q%%%%%%
-150A268%%%%q%%%%%%%%%%%%%q%%%%%%%%%%%%%q%%%%%%%%%%%q%%%%%%%%%%%%%q%%%%%%%%%
-166A228%%%%qQ%qQq%%%%%%%%%%%q%%%%%%%%%%%%q%%%%%%%%%%%%%%q%%%%%%%%%%%%%%%%q%
-181A188%%%%%%%qQqQq%%%%%%%%%%%%%%q%%%%%%%%%%%%%q%%%%%%%%%%%%%%q%%%%%%%%%%qQ
-197A156q%%Q%q%%%%%%%%%%%%%q%%%%%%%%%%%%%q%%%%%%%%%%%%%%%%%%q%%%%%%%%%%%%qQq
-212A116%%%%%%%%%%%%%%%%q%%%%%%%%%%%%%%%q%%%%%%%%%%%%%%%%q%%%%%%Qq%%%%%%q%%%
-228A084%%%%%%%%%%%%q%%%%%%%%%%%%%%%%%%%q%%%%%%%%%%%%%%%%%q%%%%%%%%%%%%%q%Qq
-244A052%%%%%%%%%%%%%%%%%%qQq%%%%%%%%%%%%%%%q%%%%%%%%%%%%%%%%%%%q%%%%%%%%%%%
-259A028%%%%q%%%%%%%%%%%%%%%%%%q%%%%%%%%%%%%%%%%qQq%%%%%%%%%%%%%%q%Qq%%%%%%%
-275I96%%%%%%%%%%%q%%%Qq%%%%%%%%%%%%%qQq%%%%%%%%%%%%%%%%%q%%%%Qq%%%%%%%%%%%%
-291I72%%%q%Qq%%%%%%%%%%%%%%%%%%%q%%%%%%%%%%%%q%Q%qQq%%%%%%%%%%%%%%%%%%qQ%q%
-306I40%%%%%%%%%%%%%%%%%%%q%%%%%%%%%%%%%%%%%%q%%%%%%%%%%%%%%%%%%%%%%q%%%%%%%
-322I16%%%%%%%%%%%%%%q%%%%%%%%%%%%%%%%%%%%%%q%%%%%%%%%%%%%%%%%%%%%qQq%%%%%%%
-338H92%%%%%%%%%%%%%q%Qq%%Qq%%%qQ%qQ%%%qQ%%%q%Q%q%%%%%%%%%%%%%%%qQq%Q%%qQ%q%
-354H68%%%%%%%%%%%%%%qQq%%%%%%%%%%%%%%%%%%%%qQqQq%%%%%%%%%%%%%%%%%%%qQ%%%%%q
-369H44%%%%%%%%%%%%%%%%%%qQq%%%%%%%%%%%%%%%%%%%%%%%%%q%%%%%%%%%%%%%%%%%%%%%%
-385H28qQq%%%%%%%%%%%%%%%%%%%%%%%%%qQ%q%%%%%%%%%%%%%%%%%%%qQ%q%%%%%%%%%%%%%%
-401H04%%%%%%qQ%%qQ%qQqQqQq%%%%%%%%%%%%%%%%%q%%%%%Qq%%%%%%%%%%%%%%%%%%%%qQ%q
-417G80%%%%%%%%%%%%%%%%%%%%%%qQ%%%q%%%Qq%%%%%%%%%%%%%%%%%%%%%%%%%%%%q%%%%%%%
-433G64%%%%%%%%%%%%%%%q%Qq%%%%%%%%%%%%%%%%%%%%%%%%qQqQ%q%%%%%%%%%%%%%%%%%%%%
-448G48%%%q%%%%%%%%%%%%%%%%%%%%%%%%%%q%%%%%%%%%Qq%%%%%%%%%%%q%%Q%%%%%%%%qQq%
-464G24%Q%q%%%%%%%%%%%%%%%%%%%%%%%qQqQq%%%%%%%%%%%%%%%%%%%%%%%%%%%%%qQq%%%%%
-480G08%%%%%%%%%%%%%%%%%%%%%%q%%%%%%%%%%%%%%%%%%%%%%%%%%%%%%%%%%%%q%Qq%Qq%%%
-496F92%%%%%%%%%%%%%%%%%%%%%%q%%%%%%%%%%%%%%%%%%%%%%%%%%qQ%%%%%%q%%Qq%%%%%%%
-512F76%%%%%%%%%%%%%%%%%%%%%%%%%q%%%%%%%%%%%%%%%%%%%%%%%%%%%%%%%qQ%q%Qq%%%%%
-527F60%%%%%%%%%%%%%%%%%%%%%%%%%%%%%q%%Qq%%%%%%%%%%%%%%%%%%%%%qQ%%qQ%q%%%%%%
-543F44%%%%%%%%%%%%%%%%%%%%qQ%%%q%Qq%%%%%%%%%%%%%%%%%%%%%%%%%%%%%%%%qQ%%%%q%
-559F28%%%%%%%%%%%%%%%%%%%%%%%%%%%%%%%%%%%%%q%QqQ%%%q%%%%%%%%%%%%%%%%%%%%%%q
-575F12Q%qQqQ%q%%%Q%%q%%%%%%%%%%%%%%%%%%%%%%%%%%%%%%%qQqQ%%qQq%%%%%%%%%%%%%%
-591F04%%%%%%%%%%%%%%%%%%%%%%%%%%q%Qq%%%%%%%%%%%%%%%%%%%%%%%%%%%%%%%%%qQ%q%%
-606E88%Qq%%%%%%%%%%%%%%%%%%%%%%%%%%%%%%%%%%%%q%Qq%%%%%%Qq%%%%%%%%%%%%%%%%%%
-622E80%%%%%%%%%%%%%%%%%%%%q%%%Qq%%%%%%%%%%%%%%%%%%%%%%%%%%qQq%QqQ%q%Q%q%%%%
-638E64%%%%%%%%%%%%%%%%%%%%%%%%%%%%%%%%qQ%q%%%%%%%%%Qq%%%%%%%%%%%%%%%%%%%%%%
-654E56%%%%%%qQ%%%%q%%%%%Qq%%%%%%%%%%%%%%%%%%%%%%%%%%%%%%%qQq%%Qq%Qq%QqQ%q%%
-670E40%%%%%%%%%%%%%%%%%%%%%%%%%%%%%%q%Q%qQ%q%%Q%q%%%%Qq%%%%%%%%%%%%%%%%%%%%
-685E32%%%%%%%%%%%%%qQ%%%q%Q%%%%qQq%%%%%%%%Qq%QqQq%%%%%%%%%%%%%%%%%%%%%%%%%%
-701E24%qQ%qQqQq%%%%%%%%%%%%%%%%%%%%%%%%%%%%%%%%%%%%%%%q%QqQq%%Q%%qQq%%%%%%%
-717E08%%%%%%%%%%%%%%%%%%%%%%%%%%%%%%%%%%%%%%%qQq%%%%%%%%%%%%%%%%%%%%%%%%%%%
-733E00%%%%%%%%%%%%%%%%%%%%%%%%%%%q%Qq%%Qq%%%%%%%%%%%%%%%%%%%%%%%%%%%%%%%%%%
-749D92%%%%%%%%%%%%qQ%%%q%Qq%%%Qq%%%%%%%%%%%%%%%%%%%%%%%%%%%%%%%%%%%%%%%%%%%
-764D84q%Qq%%Qq%%%%%QqQ%q%%%%%%%%%%%%%%%%%%%%%%%%%%%%%%%%%%%%%%%%%%%q%Qq%%%%
-780D68%%%Qq%%%%%%%%%%%%%%%%%%%%%%%%%%%%%%%%%%%%%%%%%%%qQ%qQqQ%q%Q%q%Qq%%%%%
-796D60%%%%%%%%%%%%%%%%%%%%%%%%%%%%%%%%%%%%qQ%%%%%q%%%Qq%Qq%%%%%%%%%%%%%%%%%
-812D52%%qJ6j6Q%qQQq%%%%%%%%%%%%%%%%%%%%%%%%%%qQ%%%%%%%q%%Qq%%%%%%%%%%%%%%%%
-827D44%%%%%%%%%%%%%%%%%%%%%%%%%%%%%%%%%%%q%Q%%%%%%%q%Q%qQq%%%%%%%%Qq%%%%%%%
-843D36%%%%%%%%%%%%%%%%%%%%%%%%%%%%%%%%%%qQqQqQqQ%%q%%%%%%%%%%%%%%%%%%%%%%%%
-859D28%%%%%%%%%%%%%%%%%%%%%%%%%%%%%%%q%Q%qQqQq%%%Q%q%%%Qq%%%%Qq%%%Qq%%%%%%%
-874D20%%%%%%%%%%%%%%%%%%%%%%%%%%%%%%%%%%%%%%%q%%Qq%Qq%%%%%%%%%%%%%%%%%%%%%%
-890D12%%%%%%%%%%%%%%%%%%%%%%%%%%%%%%%%%%%%%%qQ%qQ%q%Q%qQq%%%%%%%%%%%%%%%%%%
-906D04%%%%%%%%%%%%%%%%%%%%%%%%%%%%%%%%%%%%%qQ%%qQ%%%%q%%Qq%%%%Qq%%%%%%%%%%%
-922C96%%%%%%%%%%%%%%%%%%%%%%%%%%%%%%%Qj6Q%%%%%%%%%%%%%%qQ%%qQ%%%%%%%%%qQq%%
-937C88%%%%%%%%%%%%%%%%%%Qq%%%%%%%%%%%%%%%%%%%%%%%%%%%%%%%%%%%%%%%%%%%%%%qQq
-953C80Q%q%Q%q%%%%%%%%%%%%%%Qq%QqQ%q%%%%%%%%%%%%%%%%%%%%%%%%%%%%%%%%%%%%%%%%
-969C80%%%%%%%%%%%%%%%%%%%qQ%%%%q%%%%%%%%%%%%%%%%%%%%%%%%%%%%%%%%%%%%%%%%%%%
-985C72%%%%%%%%%%%%%%%%%%%%%%%%%%%%%%%%%%%%%%q%%%%Q%q%%%Q%q%%%%%%%%%%%%%%%%%
-1001C64%%%%%%%%%%%Qq%%%%%%%%%%%%%%%%%%%%%%%%%%qQ%%%%qQq%Q%%qQ%qQq%Q%%%q%%%%
-1016C56%Qq%Q%q%%%Qq%%Qq%%%%%%%%%%%%%%%%%%%%%%%%%%%%%%%%%%%%%%%%%%%%%%%%%%%q
-1032C48Q%%%qQ%%qQq%Q%%qQ%qQ%q%Q%qQq%Qq%%%%Qq%%%%%%%%%%%qQ%%%%%%%QqqJ6qQ%%J6
-1047C72l2M0m0J6j6QqQ%%qQ%%%q%Q%%%%%%%%qQ%%%%%%%%%%%%%qQq%%%Qq%%%%%%%%Q%qQq%
-1061C40%Qq%%%%%%%%%%%%%%%%%%%%%%%%%%%%%%%%%%%%%%%%%%%%%%%%%%%%%%%%%%qQ%%qQq
-1077C32Q%%qQ%%%%%%%%%%%qQ%%%%q%%Qq%%%%%%%%%%%%%%%%%%%%%%%%%%%%%%%%%%%%%%%%%
-1092C32%%%%%%%%%%%%%%%%%%%%%%%%%%%%%%%qQ%qQ%qQ%%%%%%%%qQ%qQ%qQqQqQ%%q%QqQq%
-1108C24%%%%Qq%%%%%%%%%%%%%%%%%%%%%%%%%%%%%%%%%%%%%%%%%%%%%%%%%%%%%%%%%%%%%%
-1123C24%%%%%%%%%%%%%%%%%qQ%q%%Q%qQ%%q%%%%%%%%%%%%%%%%%%%%%%%%%%%%%%%%%%%%%%
-1139C16%%%%%%%%%%%%%%%%%%%%%%%%%%%%%%%%%%%%%%%%%%%%%qQ%%qQ%q%Qq%QqQ%q%%%%%%
-1155C08Qq%%%%%%%%%%%%%%%%%%%%%%%%%%%%%%%%%Qq%%%%%Qq%%%%%%%%%%%%%%%%%%%%%%%%
-1170C08%%%%%%%%%%%%%%%%%%%%%%%%%%%%%qQq%%QqQqQ%q%%%%%%%%%%%%%%%%%%%%%%%%%%%
-1186C00%Qq%%%%%%%%%%%%%%%%%%%%%%%%%%%%%%%%%%%%%%%%%%%%%%%%%%%%%%%%%%%%%qQ%%
-1201C00%%%%%%%%%%%%%%%%%%%%%%%qQqQ%%q%%Qq%%%%%%%%%%%%%%%%%%%%%%%%%%%%%%%%%%
-1217B92%%%%%%%%%%%%%%%%%%%%%%qQ%%%%%%%%%%%%%%%%%%%%%%%%%%%%%%%%qQ%q%Q%%%%%q
-1232B84%Q%qQq%%%Q%q%%Qq%Q%%q%%%%%%%%%%%%%%%%%%%%%%%%%%%%%%%%%%%%%%%%%%%%%%%
-1248B84%%%%%%%%
-1250B84
##$OBSERVED MULTIPLETS=	(I, X, Y, Hs, Vs, An, H, C, N, (J))
$$ I: Multiplet Index
$$ X: Strt Coordinate
$$ Y: End Coordinate
$$ Hs: Horizontal Chemical Shift
$$ An: Normalised Integral Area
$$ H: Hydrogens
$$ C: Category
$$ N: Name
$$ (J): Coupling Constants
(1, 6.5642774939629671138, 6.6854709939957093212, 6.6248742439793382175, 2, 2, s, 1&comma;2)
##$OBSERVED MULTIPLETS AREAS=	
(1, 3.1304876842792945801)
##$OBSERVED MULTIPLETS PEAKS=	(I, X, Y)
$$ I: Multiplet Peak Index
$$ X: Peak x Position
$$ Y: Peak Intensity
(1, 6.6248742439793382175, 0.30113545060157775879)
##$PREDICTED PEAKS=	(X Y T A)
(6.6234374068347383613,  , 3, <1>)
(6.6234374068347383613,  , 3, <2>)
##$PREDICTEDCOUPLINGCONSTANTS=	J(A,B)	$$ (Hz)
123.4(1, 1)
123.4(2, 2)
##END=		$$ NMR SPECTRUM
##TITLE=	Predicted 13C NMR Spectrum
##JCAMP-DX=	6.0	$$ MestReNova 17.0.0-41178
##DATA TYPE=	NMR PEAK TABLE
##DATA CLASS=	PEAK TABLE
##BLOCK_ID=	4
##ORIGIN=	Mestrelab Research S.L.
##OWNER=	ctheodore
##CROSS REFERENCE=	NMR SPECTRUM: BLOCK_ID=3                                     
##.OBSERVE FREQUENCY=	125
##.OBSERVE NUCLEUS=	^13C
##NPOINTS=	1
##FIRSTX=	6.6248742439793382175
##LASTX=	6.6248742439793382175
##XFACTOR=	1
##YFACTOR=	1
##FIRSTY=	0.30113545060157775879
##XUNITS=	PPM
##YUNITS=	ARBITRARY UNITS
##PEAK TABLE=	(XYW..XYW)
6.6248742439793382175,0.30113545060157775879,0.012119350003274211719
##$MNOVA/PEAK_DATA_TABLE=	(T,F,A,ST,SP,APT,APC)
$$ Complementary to PEAK TABLE
$$ T: Type
$$ F: Flags
$$ A: Annotation
$$ ST: Shape Type
$$ SP: Shape Parameter
$$ APT: Attached Peaks Type
$$ APC: Attached Peaks Count
Compound,None,,0,0,0,0
##END=		$$ NMR PEAK TABLE
##END=		$$ LINK
