##TITLE=	ethane 1h
##JCAMP-DX=	6.0	$$ MestReNova 17.0.0-41178
##DATA TYPE=	LINK
##BLOCKS=	4    
##ORIGIN=	Mestrelab Research S.L.
##OWNER=	ctheodore
##$MNOVA/METADATA=	(DOCUMENT,BASE64)
eyJuYW1lIjoiL1VzZXJzL2N0aGVvZG9yZS9Eb2N1bWVudHMvY2xhc3Nlcy9OTVIgZXhwZXJpbWVudC9
naXRodWIgZmlsZXMvZXRoYW5lL2V0aGFuZSAxaC5tbm92YSIsInBhZ2VzIjpbeyJpdGVtcyI6WyIxIi
wgICAgICAgICAgICAgICAgICAgICAgICAgICAgICAgICAgICAgIjMiICAgICAgICAgICAgICAgICAgI
CAgICAgICAgICAgICAgICAgIF19XX0=
##TITLE=	
##JCAMP-CS=	3.7	$$ MestReNova 17.0.0-41178
##BLOCK_ID=	1
##ORIGIN=	Mestrelab Research S.L.
##OWNER=	ctheodore
##$MNOVA/METADATA=	(ITEM,BASE64)
eyJhbmdsZSI6MC4wLCJwb2ludHMiOlt7IngiOjUzMjEuMCwieSI6NTgzNS4wfSx7IngiOjU1MjQuNTM
2ODIwMDk1NzQxLCJ5Ijo1ODM1LjB9LHsieCI6NTUyNC41MzY4MjAwOTU3NDEsInkiOjYwMDMuOTQzNz
QzMTY1MjczfSx7IngiOjUzMjEuMCwieSI6NjAwMy45NDM3NDMxNjUyNzN9LHsieCI6NTMyMS4wLCJ5I
jo1ODM1LjB9XSwieiI6MS4wfQ==
##NAMES=	
##ATOMLIST=	
$$ AN	AS	NH
	1	C	3
	2	C	3
##BONDLIST=	
$$ AN1	AN2	BT
	1	2	S
##MAXRASTER=	32768
##XY_RASTER=	
$$ AN	X	Y	Z
	1	-32767	18915	0
	2	32767	-18915	0
##END=		$$ JCAMP-CS
##TITLE=	Predicted 1H NMR Spectrum
##JCAMP-DX=	6.0	$$ MestReNova 17.0.0-41178
##DATA TYPE=	NMR PEAK ASSIGNMENTS
##DATA CLASS=	ASSIGNMENTS
##BLOCK_ID=	2
##ORIGIN=	Mestrelab Research S.L.
##OWNER=	ctheodore
##CROSS REFERENCE=	STRUCTURE: BLOCK_ID=1                                     
NMR SPECTRUM: BLOCK_ID=3                                     
##.OBSERVE FREQUENCY=	500
##.OBSERVE NUCLEUS=	^1H
##NPOINTS=	6
##XUNITS=	PPM
##YUNITS=	ARBITRARY UNITS
##PEAKASSIGNMENTS=	(XYWA)
(0.86365285876786723751, 0.24285118281841278076, 0.0007513454777747230473, <1>)
(0.86365285876786723751, 0.24285118281841278076, 0.0007513454777747230473, <1>)
(0.86365285876786723751, 0.24285118281841278076, 0.0007513454777747230473, <1>)
(0.86365285876786723751, 0.24285118281841278076, 0.0007513454777747230473, <2>)
(0.86365285876786723751, 0.24285118281841278076, 0.0007513454777747230473, <2>)
(0.86365285876786723751, 0.24285118281841278076, 0.0007513454777747230473, <2>)
##END=		$$ NMR PEAK ASSIGNMENTS
##TITLE=	Predicted 1H NMR Spectrum
##JCAMP-DX=	6.0	$$ MestReNova 17.0.0-41178
##DATA TYPE=	NMR SPECTRUM
##DATA CLASS=	XYDATA
##BLOCK_ID=	3
##ORIGIN=	Mestrelab Predictor, Modgraph NMRPredict Desktop
##OWNER=	ctheodore
##NUMDIM=	1
##$MNOVA/METADATA=	(ITEM,BASE64)
eyJhbmdsZSI6MC4wLCJheGVzIjp7IngiOnsibWF4IjoxMi41MDAwNzgxMjU0ODgyODUsIm1pbiI6MC4
wMDAxOTA3MzYwNTUzODE1OTYxNH0sInkiOnsibWF4IjowLjI2NzEzNjMwMTg0NTMxMjEsIm1pbiI6LT
AuMDI0Mjg1MTE1MzI0OTk2NTUzfX0sInBvaW50cyI6W3sieCI6NTMyMS4wLCJ5Ijo1ODM1LjB9LHsie
CI6ODcyMi4wLCJ5Ijo1ODM1LjB9LHsieCI6ODcyMi4wLCJ5Ijo4MjA4LjB9LHsieCI6NTMyMS4wLCJ5
Ijo4MjA4LjB9LHsieCI6NTMyMS4wLCJ5Ijo1ODM1LjB9XSwieiI6MC4wfQ==
##.OBSERVE FREQUENCY=	500
##.OBSERVE NUCLEUS=	^1H
##.SOLVENT NAME=	Methanol-d4
##.PULSE SEQUENCE=	
##.ACQUISITIONMODE=	SIMULTANEOUS (DQD)
##$ORIGINAL FORMAT=	Predictor
##$MNOVA/SCALES_VERSION=	9
##$PARAMETER FILE=	(parameters, ASCII, , 0)
$$ <?xml version="1.0" encoding="utf-8"?>
$$ <PredictorParameters>
$$     <Title>Predicted 1H NMR Spectrum</Title>
$$     <Origin>Mnova: NMR Prediction</Origin>
$$     <Name>Mestrelab Predictor, Modgraph NMRPredict Desktop</Name>
$$     <Version>1.7, 1.22 (5.076)</Version>
$$     <Nucleus>1H</Nucleus>
$$     <Solvent>Methanol-d4</Solvent>
$$     <From>0</From>
$$     <To>12.5</To>
$$     <Frequency>500</Frequency>
$$     <LineWidth>0.75</LineWidth>
$$     <Size>65536</Size>
$$     <DEPT>0</DEPT>
$$     <ProtonatedCarbons>0</ProtonatedCarbons>
$$     <ExcludeLabile>true</ExcludeLabile>
$$     <FastPrediction>0</FastPrediction>
$$     <ProtonDecoupled>0</ProtonDecoupled>
$$     <Reference/>
$$     <Options>
$$         <Settings>
$$             <Predictor Name="Mestrelab Predictor">
$$                 <Settings>
$$                     <Model>/Applications/MestReNova.app/Contents/Resources/data/1H.mbst</Model>
$$                 </Settings>
$$             </Predictor>
$$             <Predictor Name="Modgraph NMRPredict Desktop">
$$                 <Settings>
$$                     <Algorithm hoption="2" hsolvent="1" usnucleus="1">Fast Increments</Algorithm>
$$                     <JsAlgorithm>Fast Increments</JsAlgorithm>
$$                     <NMRSOAPDIR>/Applications/MestReNova.app/Contents/Resources/NMRPredict</NMRSOAPDIR>
$$                     <NMRTEMPDIR>/private/var/folders/3f/5b3_td5j7k3f1lyt31390d3jfxj842/T/NMRPredict-1574477954</NMRTEMPDIR>
$$                     <NMRUSDATABASEDIR>/Users/ctheodore/Library/Application Support/Mestrelab Research S.L./MestReNova/NMRPredict/NMR1HDatabase</NMRUSDATABASEDIR>
$$                     <Databases>ABCDEFGHIJKLMNOPQRSTUVWXYZ</Databases>
$$                 </Settings>
$$             </Predictor>
$$         </Settings>
$$     </Options>
$$     <MoleculeID>{9fe37685-6f42-435a-994f-261e8b553582}</MoleculeID>
$$ </PredictorParameters>
$$ 
##XUNITS=	HZ
##YUNITS=	ARBITRARY UNITS
##FIRSTX=	6250
##LASTX=	0.095367431640625
##DELTAX=	-0.095367431640625
##XFACTOR=	1
##YFACTOR=	1.1308639446808918478E-10
##FIRSTY=	1.8554482039689901285E-07
##MINY=	3.7019027843143703649E-09
##MAXY=	0.24285118281841278076
##NPOINTS=	65536
##XYDATA=	(X++(Y..Y))
6250A641%%%%%%%%qQ%q%%%%%%%qQq%Qq%%%%%%%q%%%%%%%%%%q%%%%%%%%%%%%q%%%%%%%%%%q
6244A593%%Qq%qQ%%%q%%%%Q%%q%%%%qQ%q%%%%%%%%%q%%%%%%%%%%q%%%%%%%%qQqQ%q%%%%%%
6237A553%%%%%q%Qq%%%%%qQq%%%%%%%%%%%qQq%%%%%%%%%%qQ%q%%%%%%%%qQ%q%%%%%%qQ%%%
6231A513q%%%%%%%%%q%Qq%%%%%%%%qQq%%%%%%%%%%%q%%%%%%%%%%%%q%%%%%%%%%%%%qQqQq%
6224A465%%%%%%%%%q%%%%%%%%%%%%%%q%%%%%%%%%%%%q%%%%%%%%%%%qQ%q%%%%%%%%%qQqQqQ
6218A433q%%%%%%qQ%q%%%%%%%%%%%%q%Q%q%%%%%%%%%%%q%%%%%%%%%%qQ%%%q%%%%%%%qQq%%
6211A385%%%%%%%%qQ%%%qQq%%%%%%%%qQ%q%%%%%%%%%%%%%%%q%%%%%%%%%%%%qQq%%%%%%%%%
6205A353%%%%%q%%%%%%%%%%%%q%%%%%%%%%%%%%%%%qQq%%%%%%%%%%%%q%%%%%%%%%%%%%%%%q
6198A313%%Qq%%%%%%%%%qQqQq%%%%%%%%%%%%%%%qQq%%%qQ%%q%J6qqQ%j6J6qQq%%%%%qQqQq
6192A281Qq%%%%%%%%%%%qQq%%%Qq%%%%%%%%qQ%q%%%%%%%%%%%%%qQq%%%%%%%%%%%%%%q%%%%
6185A249%%%%%%%%%%%%%%q%%%%%%%%%%%%%%%q%%%%Qq%%%%qQ%%%qQq%Q%q%%%%%%%%%%q%%%%
6179A217%%%%%%qQ%%%%%%%%q%%%%%%%%%%%%%%q%%QqQ%q%%%%%%%%%q%Qq%%%%%%%%%%%%%%%%
6172A193q%Qq%%Qq%%%%%%%%%%%%%q%%%%%%%%%Q%q%%%%q%%Q%q%%%%%%%%%%qQ%q%%Q%q%%%%%
6166A161%%%%%%%%qQq%%%%%%%%%%%%%%%qQ%%q%%%%%%%%%%%%qQ%%q%%%%%%%%%%%%%%%%qQ%q
6159A129Q%q%Qq%%%%%%%%%%qQqQ%qQq%%%%%%%%%%qQ%%q%Qq%%%%%%%%%%%%%%%%qQq%%Qq%%%
6153A105%%%%%%%%%qQq%%%%%%%%%%%%%%%%%%%%%qQq%%%%%%%%%%%%%%%%%%q%Qq%%%%%%%%%%
6147A081%%%%%%qQ%qQqQq%%%%%qQq%Q%%%qQq%Qq%%%%%%%%%%%%%qQ%%%q%%%%%%%%%%%%%%%%
6140A057%%%q%Q%q%%Qq%%%%%%%%%%%%%%%%qQq%%%%%%%%%%%%%%%%%%%%qQq%%%%%%%%%%%%%%
6134A033%%%qQq%Qq%%%%Q%q%%%%%%%%%qQ%q%Qq%%%%%%%%%%%%%%%%qQ%q%%%%%%%%%%%%%%%%
6127A009%%%%%%qQqQq%%%%%%%%%%%%%%%qQ%%%q%Qq%%%%%%%%%%%%%%%%qQ%%%%%%%%%q%Qq%%
6121I85%qQ%%%%qQ%qQ%q%%%%%%%%%%%%%%%%qQ%q%%%%%%%%%%%%%%%%%%%%%%q%Q%%qQq%%Qq%
6114I61%%%%%%%%%%%%%%%%%%q%%%%%%%%%%%%%%%%%%%%q%Qq%%%%%%%%%%%%%%%%%%qQ%%%%%%
6107I45%%q%%%%%%%%%%%%%%%%%%%%%%%q%%%%%%%%%%%%%%%%%%%%%%%%%%q%%%%Q%q%%%%%%%%
6101I21%%%%%%%%%%qQqQ%%q%%%%%%Qq%%%%%%%%%qQ%%%%%qQq%J6k4J6j6J6%qJ6j6%qQ%%j6J6
6095I05%%qQ%qQ%q%Qq%%%%%%%%%%%%%%%%%%%%%%qQ%%q%%%%%%%%%%%%%%%%q%Q%%%%%qQ%qQq
6088H81%%%%%%%%%%%%%%%%%qQqQqQ%q%QqQq%%%%%%%%%%%%%%%%%%%%%%q%%%%Qq%%%%%%%%%%
6082H65%%%%%%%%%%%%%%%%%qQq%Qq%%%%%%%%%%%%%%%%q%Qq%%Qq%QqQq%%%%%%%%%%%%%%%%%
6075H49%%%%%%%qQq%%%%%%%%%%%%%%%%%%%%%%%%%%qQqQ%qQ%qQq%%%%%%%%%%%%qQ%%%%%%%%
6069H33%%%q%QqQq%%%%%%%%%%%%%%%%%qQ%%%%qQ%%q%Qq%%%%%%%%%%%%%%%%%%%%%%%%%q%%%
6062H09%%%%%%%%%%Qq%%%%%%%qQ%%%qQ%qQ%qQqQq%Qq%%%%%%%%%%%%%%%%%%%%%%%%%%qQ%q%
6056G93Qq%%%%%%%%%%%%%%%%%%%%qQ%qQqQ%q%%%%%%%%%%%%%%%%%%%%%%%%%%%%qQ%%%q%%%%
6049G77%%%%Q%q%%%%%qQqQQq%%qQ%%%qQ%%%%%q%%%%%%%%%%%%%%%%%%%%%%%%%%%%%%%%%%%q
6042G61Qq%%%%%%%%%%%%%%%%%%%%%%%%%%%%%%%%%%qQq%%%%%%%%%%%%%%%%%%%%%%%%%%%qQq
6036G45%Q%%qQ%q%%Qq%%%%%%%%%%%%%%%%%%%%%%%%%%%%q%%%%%%%%%%%%%%%%%%%%%%%%%%%%
6029G37%%%qQqQqQqQqQq%Qq%%%%%%%%%%%%%%%%%%%%%%%qQ%%q%%QqQ%%%q%%%Qq%%%%%%qQ%%
6023G21%%%%%%%%%%%qQ%%%%%%%%qQ%qQq%%%%%%%%%%%%%%%%%%%%%%%qQ%%%%%%qQq%Qq%Qq%%
6016G05%%%%%%%%%%%%%%%%%%%%%%%%%%%%%qQq%%Qq%%%%%%%%%%%%%%%%%%%%%%%qQ%%%%%%%q
6009F89Q%%%q%%%Qq%%%%%%%%%%%%%%%%%%%%%%%%%%%%%%%%%%%%q%%Qq%%Qq%%%%%%%%%%%%%%
6003F81%%%%%%%%%%%%%%q%%Q%%%%q%QqQ%qQq%%%%%%%Qq%%%%qQqQ%Q%%q%%%%qQ%qQ%qQqQqQ
5996F73%q%%%%%%Q%q%%%%%%%%%%%%%%%%%%%%%%%%%%%%qQqQ%%%q%Qq%%%Qq%%%%%%%%%%%%%%
5990F57%%%%%%%%%%%%%%%qQ%%q%%Qq%%Qq%%%%%%%%%%%%%%%%%%%%%%%%%%%%%qQ%%%%%q%Qq%
5983F41%%%%%%%%%%%%%%%%%%%%%%%%%%%%%%%%%%q%Q%%%%%%%qQ%%%%%%%q%QqQq%%%%%%%%%%
5977F33%%%%%%%%%%%%%%%%%%%%%%%%q%Q%%q%Q%%q%Qq%%%%%%%%%%%%%%%%%%%%%%%%%%%%%%%
5970F25%%%%%%%%%%%%%%%q%Qq%Q%q%%%%%%%%%%%%%%%%%%%%%%%%%%%%%%%%%%%q%QqQq%%%%%
5963F09%%%%%%%%%%%%%%%%%%%%%%%%%%%qQ%%q%Qq%Q%q%Qq%%QqQq%%%%%%%%%%%%%%%%%%%%%
5957F01%%%%%%%%%%%%%%%%%%%%%q%QqQqQ%%%q%%%%%%%%%%%%%%%%%%%%%%qQ%%%qQ%%%qQ%%%
5950E93%%%%%%%qQqQ%qQq%%%%%%%%%%%Qq%%%%%%%%%%%%%%%%%%%%%%%%%%%%%%%qQq%Q%q%%%
5944E77QqQq%Qq%%%%%%%%%%%%Qq%%%%%%%%%%%%%%%%%%%%%%%%%qQqQqQqQ%q%%%%%%Q%q%%%%
5937E69%Qq%%%%%%%%%%%%%%%%%%%%%%%%%%%%%%%qQ%qQ%%%%qQqQq%Qq%%%%%%%Qq%%%Qq%%%%
5931E61%%%%%%%%%%%%%%%%%%%%%%qQ%qQqQqQqQqQqQq%%%%%%%%%%%%%%%Qq%%qJ6q%%%%qQ%%
5924E53%%qQ%%%%%%%qQ%qQ%%qQ%%q%%%%QqQ%%qQq%%Qq%%%%%%%%%%%%%%%%%%%%%%%%%%%%%%
5917E45%%%%%%%%qQ%%q%%Qq%%%Q%q%%%%%%%%%%%%%%%%%%%%%%%%%%%%%%%%%%%%%%%%%%%%%%
5911E37%%%%%qQ%%%q%Q%%qQ%%%q%%%%%Qq%%%%%%%%%%%%%%%%%%qQ%%%%%%%%%qQ%%%%%qQ%%%
5904E29%%%%%%qQqQ%%qQ%qQq%%%%Q%q%%qQq%QK4m8qN6m0M0j6Qm0K4%qK4k4Qj6J6%%qJ6q%q
5899E13Q%%%%%%%q%QqQ%%qQ%q%%QqQqQq%%Q%%q%%%QqQq%%%%%%%%qQ%%%%%%%%%%%%%%%%%%%
5892E13%%%%%%%%%%%q%Q%q%%%%%%%%%%%%%%%%%%%%%%Qq%%%%%%%%%%%%%%%%%%%%%%%%%%%%%
5886E05%%%%%%qQ%%%%%%q%Q%%%q%%%%Qq%%%%%%%%%%%%%%%%%%%%%%%%%%%%%%%%%%%%%%%%%%
5879D97%qQ%%%%%%qQq%Q%qQq%%%%Q%q%%Qq%%%%qQ%%%%%%%%%%%%%%%%%%%%%%%%%%%qQ%%%%%
5873D89qQ%%%qQ%%%%%qQ%%%%%qQ%qQ%q%%%%%%Qq%%%%%%%%%Qq%%%%%%%%%%%%%%%%%%%%%%%%
5866D81%%%%%%%%%%%%%%%%%%%%%%qQ%q%%Qq%%Q%q%%%%%%Qq%%%%%%%%%%%%%%%%%%%%%%%%%%
5859D73%%%%%%%%%%%%%%%%%%%%%%%%%%%%%%%%%%%%%qQ%qQ%%q%Q%%%qQqQqQq%QqQq%%%%%%%
5853D65%%%%%%qQ%%%Qq%%%%%%%%%%%%%%%%%%%%%%%%%qQ%qQ%%%%%%%q%Q%q%%Qq%%%%%%%%%%
5846D57%%%%%%%%%%%%%%%%%%%%%%%%%%%%%%%%%%%%%%%%%%%%qQ%%%%%%%%%%%%%q%Q%%%%%%%
5840D57%%%qQ%q%%%%%Qq%%%%%%%%%%%%%%%%%%%%%%%%%%%%%%%%%%%%%%%%%%%%%%%%q%QqQq%
5833D41%%%%%%Qq%Qq%Q%%qQqQqQqQ%q%%%%Qq%%%%%%%%%%%%%%%%%%%%%%Qq%%%%%%%%%%%%%%
5827D41%qQ%%%qQ%%%%%%%qQ%%q%%%%Q%q%Qq%%%%%Qq%%%%%%%%%%%%%%Qq%%%%%%%%%%%%%%%%
5820D33%%%%%%%%%%%%%%%%%%%%%%%%%%%%%%%%%%%%%q%%Q%%qQqQ%qQ%%q%%%%Qq%%%%Qq%%%%
5813D25%%%%%%%%%%%%%%%%%%Qq%%%%%%%%%%%%%%%%%%%%%qQ%%%%%%%%%%%%%%%qQ%%q%%%%Q%
5807D25%q%%%Qq%%%%%Qq%%Qq%%Qq%%%%%%%%%qQ%%%%Q%q%Q%j6Q%%%%%%%%%%%%%%%%%%%%%%%
5800D17%%%%%%%%qQ%%%%%%%qQ%%%%%q%Q%qQ%%%%%%qQq%%%%%%%%%%%%%%%%%%%%%%%%%%%%%%
5794D09%%%%%%%%%%%%%%%%%%%%%%%%%%%%%qQ%%%qQqQqQ%%%%%%%%qQq%%%%Qq%%Q%q%Qq%Qq%
5787D01%%%%%%%%%%%%%Qq%%%%%%%%%%%%Qq%%%%%%%%%%%%%%%%%%%%%%%%%%%%%%%%%%%%%%%%
5781D01%%%%%%%%%%%%qQ%%%%Qj6%Qq%%%%%%%Qq%%%%%%%Qq%%%%%%%%%%%%Qq%%%%%%%%%%%%%
5774C93%%%%%%%%%%%%%%%%%%qQ%%%%%%%%%%%%%%%%%%%%%q%Q%%%%q%%%Q%%qQ%qQq%QqQ%q%Q
5768C93q%Qq%%%QqQqQ%q%Qq%Q%q%%%%%%%%%%%%%%%%%%%%%%%%%%%%%%%%%%%%%%%%%%%%%%%%
5761C85%%%%%%%%%%%%qQqQqQq%%%%Q%q%%Q%%q%%%%%%%%%%Qq%Qq%%%%%%%%%%%%%%QqqQ%%%%
5754C77Q%%q%qQ%%%%%%%%%%%%%%%%%%%%%%%%%%%%%%%%%%%%%%%%%q%Qq%%%Q%%q%Qq%QqQq%%
5748C69%%%%%%%%%%%%%%%%%%%%%%%%%%%%%%%%%Qq%%%%%%%%%%%%%%%%%%%%%%%q%Q%%%%%%%%
5741C69%%%%%%%%%%%%%%%%%%%%%%%%%%%%%%%%%%%%%%%%q%Qq%%%%QqQq%Qq%%Qq%%Qq%%%%%%
5735C61%%%%%%%%%%%%%%%%%%%%%%%%%%%%%%%%%%%%%%%%%%%%%%%%%%qQ%%%%%%%%%%%%%%%qQ
5728C61%%%%%qQ%%qQ%%qQ%%%%%qQ%%qQ%%%%%%qQ%q%%%%%%%%%%Qq%%%%%%%Qq%%%%%%%%%%%%
5721C53%%%%%%%%%%%%%%%%%%%%%%%%%%%%%%%%%%%%%%%%%%%qQ%%%%%%%%%%%%%%%%%%%%%%qQ
5715C53%qQ%%qQ%q%%%Q%%q%Q%qQ%qQq%%Q%%q%Qq%%%%%%Qq%%%%%%%%%%%%%%%%%%%%%%%%%%%
5708C45%%%%%%%%%%%%%%%%%%%%%%Q%qqK4j6j6J6q%K4l2QQqQqJ6q%q%%Q%%%%%%%q%%%QqQ%%
5702C45qQ%q%Qq%%QqQq%Qq%QqQq%%%%%%Q%q%%Qq%%Qq%%%%%%%%%%%%%%%%%%%%%%%%%%%%%%%
5696C37%%%%%%%%%%%%%%%%%%%%%%%%%%%%qQ%%%%%%%%%%%%%%%%%qQqQ%qQ%%%%%%qQqQ%%qQ%
5689C37%%%%qQ%%q%Qq%%%QqQqQ%%q%%%Qq%%%Qq%%%%%%%%%%%%%%%%%%%%%%%%%%%%%%%%%%%%
5683C29%%%%%%%%%%%%qQqJ6qQqqQ%%%%%%%%%%%%%%%%%%%%%%%%%%%%%qQqQ%%%%qQ%%%%%%%q
5676C21Q%%qQ%%%%%qQqQ%%q%%%Q%q%QqQq%Qq%%%%%%%%%%%%%%%%%%%%%%%%%%%%%%%%%%%%%%
5670C21%%%%%%%%%%%%%%%Qq%%%%%%%%%%%%%%%%%%%%%%%%%%%%%%%%%%%%%%%%%%%%%%%%%%%%
5663C21%%%%%qQ%%%qQ%qQ%q%Q%q%Qq%%%%%%Qq%Qq%%%Qq%%Qq%%%%%%QqQq%%%%%%%%%%%%qQ%
5656C13%%%Q%q%%%%%%qQ%%%%%%%%%%%%%%%%%%%%qQ%%%%%%%%%%%%%%%%%%%%%%%%%%%%qQ%%%
5650C13qQ%q%Q%%%%%qQ%%%%%%%%qQ%%%%qQq%Q%%%q%%%Q%%q%%%%Q%q%%%Qq%%%%%%%%%%%%%%
5643C05%%%%%%%%%%%%%%%%%%%%%%%%%%%%%%%%%%%%%%%%%%%%%%%%%%%%%%%%%%%%%%%%%%%%%
5637C05%%%%%%%%%%%%%%%%%%%q%Q%%%q%Q%%%%%qQ%qQ%%q%Q%qQ%%q%%Qq%%%%%%%Qq%Qq%Qq%
5630B97%%Qq%%%Qq%%%%%%%%%%%%%%%%%%%%%%%%%%%%%%%%Qq%%%%%%%%%%%%%%%%%%%%%%%%%%
5624B97%%%%%%%%%%%%%%%%%%%%%%%%%%%%%%%%%%%qQ%%%%%%%qQ%%%%%qQqQ%%%%%%%%%q%Q%%
5617B97%%qQqQ%%%%qQqQq%Qq%Qq%%%Qq%%%%QqQqQq%%%Qq%%Qq%%%%%%%%%%%%%%%%%%%%%Qq%
5610B89%%%%%%%%%%%%%%%Qq%Qq%qJ6q%%Q%Qj6Q%q%%%%%%%%%%%%%%%%%%%%%%%%%%%%%%%%%%
5604B89%%%%%%%%%%%%qQ%%%%%%qQqQ%%%%qQ%%qQ%%qQ%%q%%%%%Qq%QqQq%%%%Qq%%%Qq%%%%%
5597B81%%%Qq%%%%%%%%%%%QqQqQq%%%%%%%%%%%%%%%%%%%%%%%%%%%%%%%%%%%%%%%%%%%%%%%
5591B81%%%%%%%%%%%%%%%%%%%%%%%%%%%%%%%%%%%%%%%%%%%%%%%%%%qQ%%%%%%%%%%%%%qQ%%
5584B81%%%%%qQq%QqQ%q%Q%%%qQqQqQqQq%%Q%%qQ%qQ%%qQqQq%%%%%%%%%%%%%%%%%%%%%%Qq
5578B73%Qq%%%%%%%%%%%%%%%%%%%%%%%%%%%%%%%%%%%%%%%%%%%%%%%%%%%%%%%%%%%%%%%%%%
5571B73%%%%%%qQ%%%%%%%%%%%%%%%%%%%%%%%%%%qQ%%%%%qQ%qQ%%%%qQ%qQ%%%%%%%%qQ%%%q
5564B65Q%qQ%q%%%QqQ%q%Q%%qQ%%q%%Qq%Qq%%%%%%Qq%%Q%q%%%QqQ%q%Q%qqQ%%j6J6%Qq%%%
5558B65%%%%Qq%%%%%Qq%%%%%%%%Qq%%%%%%%%%%%%%%%%%%%%%%%%%%%%%%%%%%%%%%%%%%%%%%
5552B65%%%%%%%%%%%qQqQ%qQ%%%%qQ%%%%%%q%Q%%%%%%%%%%qQqQ%qQ%%%q%Q%%%%q%Q%q%Q%%
5545B65qQqQ%%%%%qQq%%Qq%%%%%Qq%%%%%%%Qq%%Q%q%%%Qq%%%%Q%q%%Qq%%%%%%%%%%%%%%%%
5538B57%%%%%%%%%%%%%%%%%%%%%%%%%%%%%%%%%%%%%%%%%%%%%%%%%%%%%%%%%%%%%%%%%%%%%
5532B57%%%%%%%%%%%%%%%%%%%%%%qQ%%%%%%%%%%%%%%%%%%%%%%%%%%%%qQqQqQ%%qQqQ%q%Qq
5525B49%%QqQ%%%%q%%Q%%qQq%%%%Q%%%q%Q%q%%%Q%%%%%q%%%%%%%%%%%%%%%%%%%%%%%%%%%%
5519B49%%%%%%%%%%%%%%%%%%Qq%%%%%%%%%%%%%%%%%%%%%%%%%%%%%%%%qQ%%%%%%%%%%%%%%%
5512B49%q%Q%%qQqqJ6qQ%%%Qqq%L2m8L2j6%%Q%q%%J6qqQ%qQqQ%%%%%%%%qQqQ%%q%Q%q%Q%q
5506B41%%%%Qq%Q%%qQ%%%%qQ%%%qQ%qQqQ%%%%%%qQ%%qQqQ%q%%%%Qq%QqQqQqQ%%qQ%q%%Q%q
5499B41QqQqQqQq%%%%%Qq%%%Qq%QqQq%%Qq%%%%%%%%%%%%%%%%%%%%%%%%%%%%%%%%%%%%%%%%
5493B41%%%%%%%%%%%%qQ%%%%%%%%%%%%%%%%%%%%%%%%%%%%%%%%%%%%%%qQ%%%%%%%%%qQqQ%q
5486B33QqQ%%%%qQ%qQ%%q%Q%qQqQqQ%%%%%%qQ%%%%qQ%%%%%%qQqQqQ%%qQqQqQ%q%Q%q%Q%q%
5480B33%Q%q%%Qq%%%%Q%q%%%%%Q%q%%Q%qQq%%%%Qq%Q%q%%%%%%%%%Qq%%%%%Qq%%%%%%%%%%%
5473B33%%%Qq%%%%%%%%%%%%%%%%%%%%%%%%%%%%%%%%%%%%%%%%%%%%%%%%%%%%%%%%%Qq%%%%%
5467B33%%%%%%%%%%%%%qQ%%%%%%%%%%%%%%%%%%%%%%%%%%qQq%%Q%%%%%qQqQq%Q%%qQ%%%qQ%
5460B33%%%%%qQqQ%%%%%q%QqQqQ%q%%%Qq%Qq%%%%Qq%%%Q%%%qQ%qQ%%q%%Qq%%QqQqQqQqQqQ
5453B33q%%%Qq%%%%%%%Qq%%%%%%%%%%%%%%%%%%%%%%%%%%%%%%%%Qq%%Qq%%%%%%%%%%%%%%%%
5447B25%%%%%%%%%%%%%%%%%%%%%%%%%%%%%%%%%%%%%%%%%%%%%%%%%%%%%%%%%%%%%%%%%%%%%
5440B25%%%%%%%%%%%%%%%%%%%%%%%%%%%%%%qQq%Qq%QqQq%Q%qQ%%%qQ%%%qQ%%%%%%qQqQ%%q
5434B17QqQ%%%%qQq%%QqQqQqQ%q%QqQqQq%%Q%%%%%%q%%Q%q%Q%%%%q%%Qq%%%%%%Q%qQq%%%%
5427B17%%%%%%%%%%%%%%%%%%%%%%%Qq%%%%%%%%%%%%%%%%%%%%%%%%%%%%%%%%%%%%%%%%%%%%
5420B17%%%%%%%%%%%%%%%%%%%%%%%%%%%%%%%%%%%%%%%%%%%%%%%%%%%%%%%%qQ%qQ%%%%%qQ%
5414B17%%%%%qQqQ%%%j6QQ%%%J6j6Q%j6Q%%q%Q%%%%q%Q%%%qQ%%%%%qQ%%%%%qQ%%%%qQqQ%%
5408B17%%%%qQ%q%Q%%%%qQ%%%%q%%%Qq%Qq%%%%%%%%%%%%%QqQ%q%%%%%%%%%%%%%Qq%%%%%%%
5401B09%%Qq%%%%%%Qq%%%%Qq%%%%%%%%%%%%%%%%%%%%%%%%%%%%%%%%%%%%%%%%%%%%%%%%%%%
5395B09%%%%%%%%Qq%%%%%%%%%%%%%%%%%%%%%%%%%%%%%%%%%%%%%%%%%%%%%%%%%%%%%%%%%%q
5388B01Q%qQ%%Qq%%%%%%%%%%%%%%%%%%%%%%qQ%%%%%%%%%%%%%%%%%%%%%%%%%%%%%%%%%%%%%
5381B09%%%%%%%qQ%%%%%%%%%%%%%%%%%qQq%Q%%%qQ%qQ%qQqQq%Q%qQ%%%%%%q%Q%q%Q%qQqQq
5375B01%%%%%%%%Q%%%q%%%%Q%%qQ%q%%%Q%qQqQqQqQq%%Qq%Qq%QqQqQqQ%%q%%Qq%%%%%%%%%
5368B01Qq%%%%%%%%%%%%%%Qq%%%%%%%%%Qq%%%%%%%%%%%%%qQ%%%%%qQQq%Qq%%%%%%%%%%%%%
5362B01%%%%%%%%%%%%%%%%%%%%%%%%%%%%%%%%%%%%%%%%%%%%%%%%%%%%%%%%%%%%%%%%%%%%%
5355B01%%%%%%%%%%%%%%%%%%%%%%%%%%%%%%%%q%%Q%%qQq%%%Q%%%%%%q%%Q%%q%Q%qQ%%q%%Q
5348B01%%%%%%%qQ%%%%qQ%%qQq%%Q%qQ%%%qQ%%qQqQ%%%%%%%q%%Q%qQqQq%Qq%%%%%%%Qq%%Q
5342B01%qQ%%%qQ%q%%%%%Q%qQq%%%%%%%%%Q%qQq%Q%q%%%%%%%%%%%%%%%%%%%%Qq%%%Qq%%%%
5335A93%%%%%%%%%%%%%%%%%%%%%%%%%%%%%%%%%%%%%%%%%%%%%%%%%%%%%%%%%%%%%%%%%%%%%
5329A93%%%%%%%%%%%%%%%%%%%%%%%%%%%%%%%%%%%%%%%%%%%%%%%%%%%%%%%%%%%%%%%%%%%%%
5322A93%%%%%%%%%%%%qQ%%%%%%%%%%%%%%%%%%%%%%%%%%%%%%%%%%%%%qQqQ%%%%qQq%Q%%%q%
5316A85Q%qJ6j6Qj6J6%%Q%q%Qj6%QqQq%%QqQqQ%%%%%%qQq%Qq%Q%%qQ%qQ%qQqQq%%Qq%%Qq%
5309A85Q%qQq%%%%%%%%Q%%q%%Qq%%%%Qq%%%Qq%%Qq%%%%Qq%%%%%%%%%%%%%Qq%%%%%%%%%%%%
5303A85%%%%Qq%%%%%%%%%%%%%%%%%%%%%%%%%%%%%%%%%%%%%%%%%%%%%%%%%%%%%%%%%%%%%%%
5296A85%%%%%%%%%%%%%%%%%%%%%%%%%%%%%%%%%%%%%%%%%%%%%%%%%%%%%%%%%%%qQ%%%%%Qq%
5290A85%%%%%%%%%%%%%%%%%%%%%%%%%%%%%%%%%%%%%%%%%%%%%%%qQ%%%%%%%%%%qQ%%%qQ%%q
5283A77%%QqQ%%%%qQ%qQ%%q%%%Qq%%%Q%%qQ%%%%%%%%%%%%%%%%q%Q%%%%%q%Q%%%qQ%%%%%qQ
5277A85q%Q%%qQ%%%%%qQ%%qQ%%q%Q%%qQq%%%Qq%Q%qQqQ%q%Qq%QqQ%%%q%%%%%%%%%%%%%Qq%
5270A77%%%%%%%%%%%%%%Qq%%%%%Qq%%%%%%%%%QqQq%%Qj6Q%%%%%%%qQ%%%%%%%%%%%%%%%%%%
5264A77%%%%%%%%%%%%%%%%%%Qq%%%%%%%%%%%%%%%%%%%%%%%%%%%%%%%%%%%%%%%%%%%%%%%%%
5257A77%%%%%%%%%%%%%%%%%%%%%%%%%%%%%%%%%%%%%%%%%%%%%%%%%%%%%%%%%%%%%%%%%%%%%
5250A77%%%%%%%%%%%%%%%%%%%%%%%qQ%%qQ%qQ%%%qQ%%%%%%%%%%%%%%%%%%%qQ%%%%%%%%%%%
5244A77%%%%%%%qQ%%%qQ%qQ%qQ%qQ%qQ%%qQ%%%qQ%%%%%%%%%%%qQq%%%Q%%%q%%Q%%%%%qQ%%
5237A77%%%%%%%%%%q%%Qq%%QqQ%%%%%%qQq%%Qq%%%%%%%%%Qq%%%Qq%%%%%%%%%%%%%%Q%q%%Q
5231A77qQqQq%%%%Qq%%QqQq%%Qq%Q%q%%%%%%Qq%%%%%Qq%%%%%%%Qq%%%%%%%%%%%%%%%%%%%%
5224A69%%%%%%%%%%%%%%%%%%%%%%%%%%%%%%%%%%%%%%%%%%%%QqQq%%%%%%%%%%%%Qq%%%qQQ%
5217A77%j6%J6j6%QQqQ%%q%%%%Qq%%%%%%%%%%%%%%%%%%%%%%%%%%%%%%%%%%%%%%%%%%%%%%%
5211A69%%%%qQ%%%%%%%%%%%%%%%%%%%%%%%%%%%%%%%%%%%%%%%%%%%%%qQ%%%%%%%%%%%%qQ%q
5205A61Q%%%%%%%%%%%%%%%%%%%%%%%%%%%%%%%%%%%%%%%%%%%%%qQ%%%%%%%%%%%%qQ%%%%%q%
5198A61Q%%%%%q%Q%%qQ%%q%QqQ%qQqQ%q%QqQ%%%q%Qq%Q%qQ%%q%%Q%q%%%%Q%qQqQqQ%qQq%Q
5191A69q%%Qq%Q%q%Q%%%qQq%Qq%Qq%%%%%%Qq%%%%%Q%%q%%Qq%%QqQ%q%%Qq%%%%%%%%%Qq%%Q
5185A69q%%Q%%%q%%%%%%%%%%%%%%%%%%%%%%%%%%%%%%%%Qq%Qq%%Qq%%%%%%%%%%%%%%%%%%%%
5178A61%%%%%%%%%%%%%%%%%%%%%%%%%%%%%%%%%%%%%%%%%%%Qq%%%%%%%%%%%%%%%%%%%%%%%%
5172A61%%%%%%%%%%%%%%%%%%%%%%%%%%%%%%%q%Q%qQ%%%%%%%%%%%qQ%%%%%%%%%%%%%%%%%%%
5165A61%%%%%%%%%%%%%%%%%%%%%%%%%%%%%%%%%%%%%%%%%%%%%%%%%%%%%%%%%%%%%%%%%q%Q%
5159A61%%%%%%%%%%%%%%%%%%%%%%%%qQqQ%%%%%%%qQqQ%q%%%Q%%%qQ%%%%%%%%%qQqQ%%%%%%
5152A61qQ%%%%%%%qQ%%q%Q%%%qQ%%%qQ%%%%%%%%%%%%%qQqQqQ%qQ%%%%%%%%%%%%q%%Q%%%%%
5145A61%qQ%qQ%qQqQ%qQqQ%%%%qQ%%%qQ%qQ%%qQ%%qQq%%%Qq%%%%%%Qq%Qq%%%%%%%%%%%Qq%
5139A53Qq%Qq%%%%QqQqQqQq%%%%%%%%%%%%%%%Qq%%%%%%%%%%%%%%%%%%%%%%%%%%%Qq%%%%%%
5132A53%%%%%QqQj6Q%%%%%%%%%%%%%%%%%%%%%Qq%%%%%Qq%%%%%%%Qq%%%%%%%%%%%Qq%%%%Qq
5126A53%%%%%%%%%%%%%%%Qq%%Qq%%%%%%%%%%Qq%Qq%%qQ%%%qQ%%qJ6q%%%%%Q%%%k4K4J6qqJ6
5120A77n6J6J6K4n6M8l2K4k4J6Qj6Q%qQ%%Qq%%%%Qq%%qQ%%%%QqQq%%%Qj6Q%qQ%%%%%%%%%%
5114A53%%%qQ%%%%Qq%%%%%%%%%%%%%%%%%%%%%%%%%%%%%%%%%%%qQ%%%%%%%%%%%%%%%qQ%%%%
5107A53q%Q%%qQ%qQ%%%%qQ%%qQ%%%%qQ%%%%%%%%%%%%%%%%%%%%%%%%q%%Q%qQ%qQ%qQ%qQqQ%
5101A53%%qQ%%%%%%qQ%q%Q%%%%q%Q%%q%QqQqQ%%qQ%%%%%q%%QqQqQqQqQ%%q%QqQqQq%QqQqQ
5094A53qQq%%%QqQq%%%%%%%%%%Q%%%%qQqQ%%q%%Qq%%%%Q%q%%Qq%%%Qq%%%%%%%Qq%%%%Q%%q
5088A45%%%%%%%QqQ%q%%%Q%%q%QqQ%%q%%%%%%%%%%%%%%%%%%%%%%%%%%Q%q%%%%%%%%%%%%%Q
5081A53q%%%%%%%%%%%%%%%%%%%%%Qq%%%%%%%%%%%%%%%%%Qq%%Qq%%%%%%%%%%%%%%%%%%%%%%
5075A45%%%%%%%%%%%%%%%%%%%%%%%%%%%%%%%%%%%Qq%qQ%%%QqqQQq%%%%%%%%%%%%%%%%%%%%
5068A45%%%%%%%%%%%%%%%%%%%%%%%%%%%%%%%%%%%%%%%%%%%%%%%%%%%%%%%%%%%%%%%%%%%%%
5061A45%%%%%%%%%%%%%%%%%%%%%%%%%%%%%Qj6Q%%%%%%%%%%%%%%%%%%%%%%%%%%%%%%%%%%%%
5055A45%%%%%%%%%%%%%%%%%%%%%%%%%qQ%%%qQ%%%%%%%%%%%%%%%%%%%%%%%%%%%%%qQ%%%qQq
5048A37Q%%%%qQq%Q%%%%%%%%%q%Q%qQq%Q%%%%%qQqQ%q%Q%%%%%%%%qQqQ%q%QqQ%qQ%%%%%%%
5042A45q%%Q%%%%qQq%Q%%%q%%QqQ%%q%Q%%qQ%q%Q%qQ%q%%Q%q%%Qq%%QqQq%%%%QqQq%%%%%Q
5035A45%q%Q%%qQ%q%Qq%%%%Q%%%qQ%q%%%Q%%%qQq%Q%%%q%Q%%%%%%qQ%%%%%q%QqQqQq%%Qq%
5029A37%Q%%qQ%%%%%%q%Qq%%%%%%%%%%%%%Qq%%%%%%%Qq%%%%%%%%%Qq%%Q%%q%%%%%Qq%QqQq
5022A37Qq%Qq%%%qQ%Qq%%%%%%Qq%%%%%%%%%%%%%%%%Qq%%%%%%%%%Qq%%%%Q%q%%%Qq%Q%q%%%
5015A37%%%Qq%%%%%%%%%%%%%%%%%%%%%%%%%%%%%%%%%%%%%%%%%%%%%%%%%%%%%%%%%%%%%%%%
5009A37%%%%%%%%%%%%%%%%%%%%%%%%%%%%%%%%%%%%%%%%%%%%%%%%%%%%%%%%%%%%%%%%%%%%%
5002A37%%%%%%%%%%%%%%%%%%%%%%%%%%%%%%%%%%%%%%%%%%%%%%%%%%%%qQ%%%%%%%%%%%%%%%
4996A37%%%qQ%%%%%%%%%%%%%%%%%%%%%%%%%%%%%%%%%%%%%%%%%%%%%%%%%%%%%%%%%%%%%%%%
4989A37%%%%%%%%qQ%%%%%%%%%%%%%%%%%%%%%%%%%%%%%%%%%qQqQqQ%%%%%%%%qQ%%%%%%%%%%
4983A37%q%%Q%%%%%%%%%%%%%%%%%%%%%%%%%%%%qQ%%%%%q%Q%%%%%%%qQ%%%%qQ%%qQ%qQ%qQ%
4976A37%qQq%Q%q%%QqQqQ%q%%%Q%%%qQ%%q%Qq%Q%qQq%%%%%%%%%QqQ%%%%%%%qQ%%%%q%QqQ%
4969A37%%q%Q%%q%%%Qq%%%%QqQq%Qq%QqQq%%%%%Q%%qQq%%%%%Q%q%QqQq%Q%%qQq%Qq%%%%%%
4963A29%%%%%%%%Q%q%Qq%%%Q%%q%%%Qq%%%%%%Q%%qQqQqQq%%Q%%q%%%%%%%Q%%q%Qq%%%%%%%
4956A29%%%%%%%%%QqQqQq%%Qq%%Qq%%%%%%%%%%%%%%%%%%%%%%%%%%%%%%%%%%%%%%%%%QqQq%
4950A29%%%%%%%%Q%q%%%%%%%%%%%Qq%%Qq%%%%%%%%%%%%%%%%%%%Qq%Q%q%%%%%%%%%%%%%%%%
4943A29%%%%%%Qq%%%%%%%%%%%%%%%%%%%%%%%%%%%%%%%%%%%%%%%%%%%%%%%%%%%%%%%%%%%%%
4937A29%%Qq%%%%%%%%%%%%%%%%%%%%%%%%%%%%%%%%%%%%%%%%%%%%%%%%%%%%%%%%%%%%%%%%%
4930A29%%%%%%%%%%%%%%%%%%qQ%qQ%%%%%%%%%%%%%%%%%%%%%qQ%%%%qQqQqJ6q%%Qqj6Q%%J6
4924A37qQqqQ%Qq%%%%%%%%qQ%%%%%%%qQ%%%%%%%%%%%%%%%%%%%%%%%%q%Q%qQ%%%%%%%%%%%%
4917A29%%%%%%%%%%%%%%%%%%%%%qQ%%%%%%%%qQ%%%%%%%qQ%%qQ%%%%%%%%%%%%%%%%%%%%%%q
4910A21Q%%%%qQ%%%%%%%%%%%%%%%%%qQ%qQq%%QqQ%%%qQ%%%%%%%%%%%q%Q%%%%%%qQqQ%%%qQ
4904A29%qQ%%%%%%%%%%%%%%%%%%%%qQ%%%%%%qQ%qQ%%%%qQ%%%%%qQ%q%Q%%%%%%qQqQ%%%%%%
4897A29%%%qQ%%q%Q%%%q%%Q%%%q%Q%q%%%QqQ%q%%%QqQq%Q%q%%Qq%%%%QqQ%%%q%Q%%qQqQqQ
4891A29%%%qQq%%Qq%%Qq%%%%%%Qq%%%%%%%%%Q%qQq%%%%%%Qq%Q%q%Qq%%%%%%%Qq%%%%%%%%%
4884A21%%%%%%%%%%%%%%%%Qq%%Q%q%Qq%%Qq%%%%%%%%%Qq%%Qq%%%%%%%%%%%%%%%%%%%%%%%%
4878A21%%%%%%%%%%%%%%%%%%%%%%%qJ6q%%%%%%%%%%%Qq%%%QqQq%%%Qq%%%%Qq%%%%%%%%%%%
4871A21%%%%%%%%%%%%%%%Qq%%%%%%%%%%%%%%%%%%%%%%%%%%%%%%%%%%%%%%%%%%%%%%%%%%%%
4865A21%%%%%%%%%%%%%%%Qq%%%%%%%%%%%%%%%%%%%%%%%%%%%%%%%%%%%%%%%%%%%%%%%%%%%%
4858A21%%%%%%%%%Q%q%%%%%%%%%%%%%%%%%%%%%%%%%%%%%%%%%%%%%%%%%%%%%%%%%%%%%%%%%
4851A21%%%qQqJ6q%%%%%%%%%%%%%%%%%%%%%%%%%%%%%%%%%%%%%%%%%%%%%%%%%%%%%%%%%%%%
4845A21%%%%%%%%%%%%qQ%%%%%%%%%%%%%%%%%%%%%%%%%%%%%%%%%%%%%%%%%%%%%%%qQ%%%%%%
4838A21%%%%%%%%%%%%%%%%%%%%%%%%%%%%%%%%%%%%%%%%%%%%%%%%%%%%%%%qQ%%%%%%%%%%%%
4832A21%%%%%%qQqQ%%qQqQ%%%%%q%Q%%%qQq%Q%%%q%QqQ%qQq%Q%%%%qQ%q%QqqJ6q%%QqQqQq
4825A13QqQ%%%qQ%%%%%%%%%%%%%%%%%%%%%qQ%%%%%%%%%%%%%qQ%%qQ%%q%QqQ%qQ%q%Q%%qQq
4819A13Q%q%Q%%qQq%Q%qQqQ%%%%qQqQq%%Qq%%Q%%qQqQqQ%q%%Q%%%q%%Q%qQ%q%QqQqQ%%qQ%
4812A21%qQ%%%q%%Q%%%qQ%q%%QqQqQ%q%%Q%%%%qQ%q%Qq%%QqQq%QqQqQ%%%qQqQ%q%Q%%q%Qq
4805A13QqQ%q%QqQ%q%Q%%qQ%q%%Q%qQ%q%QqQqQ%%q%%Qj6J6q%%%Qq%%QqQq%%%%%%Qq%Qq%%%
4799A13Q%q%Q%q%%Qq%%%%%QqQq%QqQq%QqQqQq%%Qq%Q%%%q%Qq%%%%%%%%%%Qq%%%%%%%%%%%%
4792A13%Qq%%%%%%%%%%%%%%%%%%%%QqQ%qQq%%%%%%%QqQq%%%Qq%%%%%%Qq%%%%%%Qq%%%%%%%
4786A13%%%%%Q%q%%%%%%%%%Qq%%%%%%Qq%%%%%%%%%%%%%%%%%%%%%%%%%%%%%%%%%%%%%%%%%%
4779A13%%%%%%QqQq%%%%%Qq%Qq%%%Q%q%%%%%%%%%%%%%%%%%%%%%%%%%%%%%%%%Qq%%%%%%%Qq
4773A13%%%%%%%%%%%%%%%%%%%%%%%%%%%%%%%%%%%%%%%%%%%%%%%%%%%%%%%%%%%%%%%%%%%%%
4766A13%%%%%%%q%Q%%%%%%%%%%%%%%%%%%%%%%%%%%%%%%%%%%%%%%%%%%%%%%%%%%%%%%%%%%%
4760A13%%%%%%%%%%%%%%%%%%%%%%%%%%%%%%%%%%%%%%%%%%%%%%%%%%%%%%%%%%%%%%%%%%%%%
4753A13%%%%%%%%%%%%%%%%%%%%%%%%%%%%%%%%%%%%%%%%%%%%%%%%%%%%%qQ%%%%%%%%%%%%%%
4746A13%%%%%%%%%%%%%%%%%%%%%%qQ%%%%%%%%%%%%%%qQ%%%%%%%%%%%%qQ%%%%%%%%%%%%%%%
4740A13%%%%%%%%%%%%%%%%%%%%%%%%%%%%%%%%%%%%%%%%%%%%%%%%%%%qQ%%%%%%qQ%%%%%qQ%
4733A13%%%%%%%%%%%%%%%%%%%%%%qQ%%%q%Qq%QqQq%Q%q%QqJ6j6Q%Qk4J6j6%J6%k4QJ6qQ%q
4727A05%Q%%%qQ%%%%%%%%qQ%%%qQ%qQ%%%%%%q%Q%q%Q%qQqQ%q%Q%%%%%qQq%QqQq%%Q%%%%qQ
4721A13q%QqQ%%qQ%qQ%%%%%%%qQ%qQqQ%%%%%%%%%q%QqQ%%%%qQ%qQq%QqQq%Q%%%%qQ%%q%Qq
4714A05%Qq%%Q%%qQ%q%Q%%qQqQqQ%%qQ%%%%%%%q%Q%%%%q%%QqQ%%qQ%q%Q%%%qQ%%%%%q%Q%%
4708A13%%%q%Qq%%%%%Q%qQqQq%Q%%q%%QqQ%%%qQ%q%%%%%%%%%%%%%%%%%Qq%QqQq%%%%Qq%Qq
4701A05Qq%Q%%q%QqQ%q%%%QqQ%q%%%%%Q%qQqQq%%Qq%%%%%%Qq%%%%%Qq%Qq%%Qq%Qq%%%%%%%
4695A05%%%%%%%%%%%%%%%%%%Qq%%%%QqQ%%q%%%%%%%%%%%QqQqQq%%%Qq%%%%%Q%%q%%Q%q%%%
4688A05%%%%%%%%%%%%%%%%%%%%%%%%%%%%%%%%%%%%%%%%%%%%%%%%%%%%%%QqQq%%%%%%%%%%%
4681A05Qq%%%Q%q%%%%qJ6%q%Qq%%%%%%Qq%Qq%%%%%Qq%%%%%%Q%q%%%%%%Qq%%%%%%Qq%%%%%%
4675A05%%%%%%QqQq%%%%Qq%%%%%%%%%%Qq%%%%%%%%%%%%%Qq%%%%%%%%%%%%%%%Qq%%%%%Qq%%
4668A05%%%%%%%%%%%%%%%%%%%%%%%%%%%%%%%%%%%%%%%%%%%%%%%%%%%%%%%%%%%%%%%%%%%%%
4662A05%%%%%%%%%%%%%%%%%%%%%%%%%%%%%%%%%%%%%%%%%%%%%%%%%%%%%%%%%%%Qq%%%%%%%%
4655A05%Qq%%%%%%%%%%%%%%%%%%%%%%%%%%%%%%%%%%%%%%%%%%%%%%%%%%%%%%%%%%%%%%%%%%
4649A05%%%%%%%%%%%%%%%%%%%%%%%%%%%%%%%%%%%%%%%%%%%%%%%%%qQ%%%%%%%%%%%%%%%%%%
4642A05%%%%%%%%%%%%%%%%%%%%%%%%%%%%%%%%%%%%%%%%%%%%%%%%%%%%%%%%%%%%%%%%%%%%%
4635A05%%%%%%%%%%%%%%%%%%%%%%%%%%%%%%qQ%%%%%%%%qQ%qQ%%%QqQqq%%Q%%%%%%%%%%%%%
4629A05%%%%%qQ%%%%%%%qQ%%%%%%%%%%%%%%%%%%%%%%%%%%%%%%%%%%%%%%%%%%%%%%%%%%%%%
4622A05%%%%%%%%%%%qQ%%%%%%qQ%%qQ%%%%%q%%%QqQ%%%%qQ%%%%%%%%%%%%%%%%%%%%%%qQ%%
4616A05%%%%%%%%%%%%%%%%%qQ%%%%%%%%%%%%%%%%%%%%%%%%%%%q%Q%%%%%%%%%%%%%%%%%%%%
4609A05%%%%%%%%%%%%%%%%%%%%%%%%%qQ%%qQqQ%%%%qQ%%%%%qQ%%%%%q%Q%%qQ%%q%Q%qQ%%%
4603A05%%%%%%%%%%%%qQ%%qQ%%%%%%%%%%qQ%qQ%%q%Q%qQ%q%Q%%qQ%%%%%%%%%%%%%%%%%%%%
4596A05%%%qQ%%%%%%%qQ%qQqQ%qQ%%%%%qQ%%%%%%%%%%%%%%%%qQqQ%%%%%%%%qQ%%%%%%qQ%%
4589A05%%q%Q%%qQ%%%%%%%%%q%Q%%qQ%%%%q%%Q%q%%%%%Q%qQ%%qQ%q%%%Q%qQq%Q%%q%%%QqQ
4583A05%q%Q%qQq%%QqQ%%qQqQ%%%%q%Q%q%%%%Qq%%Q%q%%Qq%Q%q%%%%%Qq%Q%%q%Qq%QqQqQ%
4576A05%%qQ%%%qQqQq%Q%%%qQ%qQqQq%Q%%q%Qq%Qq%%%%%%Q%q%%%%%%%%%%%%%%%Q%%%%q%Qq
4570I7%%%QqQ%%%qQqQqQ%qQ%q%%%%%Qq%Qq%%%%%%Qq%%%%%%%%Qq%%%%%%%%%%%%Q%%q%%%%%%
4563I7%Q%%q%%%%%%%%%%%%%%%%%%%%%%%%%%%%%%%%%%Qq%Qq%%%%%%%%%%%%%%%%%%%%%%%%%%
4556I7Qq%%%%%%QqQq%%%%%%%%%%%%%%%%%%%%%%%%%%%Qq%%%%%%%%%%%%%%%%%%%%Qq%%%%%%%
4550I7%%%%%%%%%%%%%%%%%%%%%%%%%%%%%%%%%%%%%%%Qq%%Qq%%%%%%%Qq%%%%%%%%%%%%%%%%
4543I7%%%%%%%%%%%%%%%%%%%%%%%%%%%%%%Q%q%%%%%%%%%%%%%%%%%%%%%%%%%%%%%%%%%%%%%
4536I7%%%%%%%%%%%%%%%qQQq%%%qQ%Q%qqqQJ6k4QQ%%Qq%%%Q%q%%Q%q%%%%%Qq%%%%%Qq%%%%
4530I7%%%%%%%%%%%%%%%%%%%%%%%%%%%%%%%%%%%%%%%%%%%%%%%%%%%%%%%%%%%%%%%%%%%%%%
4523I7%%%%%%%%%%%%%QqQq%%%%%%%%%%%%%%%%%%%%%%%%%%%%%qQ%%%%%%%%%%%%%%%%%%%%%%
4516I7%%%%%%%%%%%%%%%%%%%%%%%%%%%%%%%%%%%%%%%%%%%%%%%%%%%%%%%%%%%%%%%%%%%%%%
4510I7%%%Qq%qQ%%%%%%%%%%%%%%%%%%%%%%%%%%%%%%%%%%%%%%%%%%%%%%%%%%%%%%%%%%%%%%
4503I7%%%%%%%%%%%%%%%%%%%%%%%%%%%%%%%%%%%%%%%%%%%%%%%%%%%%%%%%%%%%%%%%%%%%%%
4496I7%%%%%%%%%%%%%%%%%%%%%%%%%%%%%%%%%%%%%%%%%%%%%%%%%%%%%%%%%%%%%%%%%%%%%%
4490I7%%%%%%%%%%%%%%%%%%%%%%%%%%%%%%%%%%%%%%%%%%%%%%%%%%%%%%%%%%%qQ%%%%%%%%%
4483I7%%%%%%%%%%%%%%%%%%%%%%%%%%%%%%%%%%%%%%%%%%%%%%%%%%%%%%%%%%%%%%%%%%%%%%
4476I7%%%%%%%%%%%%%%%%%%%%%%%%%%%%%%%%%%%%%qQ%%%qQqQ%%%%%%%%%%%%%%%%%%%q%Q%%
4470I7%%%%%%%qQ%%%%%%%%%%%%%%%%%%%%%%%qQq%Q%%%%%%%%%%%%%%%%%%%%%%%%%%%%%%%%%
4463I7%%%%%%%%%%%%%%%%%%%%%%%%%%%%%%%%qQ%%%%%%%%%%%%%%%%%%%%%%qQ%%%%%%%%%%%%
4456I7%qQ%%%qQ%qQ%qQqQ%%%%%%%%%%%%%%%%qQ%%%%%%%%%%%%%%%%qQ%%%%qQ%qQ%%%%%%%%%
4450I7%%%%%%%%%%qQ%%qQ%%%%%q%QqQqQ%%qQ%%qQqQqQ%%qQ%qQ%%%qQ%q%QqQqQ%qQ%%qQ%q%
4443H9Q%q%Q%%%qQ%%qQqQq%%QqQ%%%qQqQ%qQ%%qQ%qQ%qQ%q%Q%%qQ%q%%%QqQ%%%%%qQq%Qq%
4436H9%Qq%Qq%Q%%%%%%%%q%%Q%%%%%%%%%%%qQ%qQ%%q%Q%qQ%%qQ%%%%%qQ%%qQqQ%q%Q%q%Q%
4430I7qQ%%%%%%q%%QqQ%%%%%%qQ%%qQqQqQq%Q%%q%Q%%%%%%%%%%q%%QqQqQ%%%%qQ%qQq%%%%
4423H9%%Q%%%%q%%QqQq%Qq%Q%q%Q%qQ%%q%%%%%%%%%%%%%%%%%%%%%%%%Q%q%Qq%%%%%%%%%%Q
4416I7%q%Qq%%Qq%%%Q%q%%%%%%%%%%%%%%%QqQ%q%Q%q%%%QqQq%%%Q%q%%Q%q%%%%Qq%%%%Qq%
4410H9%%%%%%%%%%%%%%%%%QqQqQqQqQq%%%%%%%%%Qq%Q%%%%%%%%%qQ%q%%%%%%%%%%%Qq%%%%
4403H9QqQq%%%%%%%%%%%%%%Qq%%%%%%QqQq%Q%%%%q%Q%%qQ%qQq%Qq%Qq%%%%%Qq%%%%Qq%%%%
4396H9%%%%Q%q%%%%%%%%%%%%%%%%%%%%%%%%%%%%%%%%%QqQq%%%%%%%%%%%%%%%Qq%%%%%%%%%
4390H9%%%%%%%%%%%%%%%%%Qq%%%%%%%QqQ%%%q%%QqQ%qQq%%%%Qq%%%%%Qq%%%%%%%%%QqQq%%
4383H9%%%%%%%%%%%%%%%%%%%%%Qq%%%%%%Qq%%%%%%%%%%%%%%%%%%%%%%%Qq%%%%%Qq%%%%%%%
4376H9%%%%%%%%%%%%Qq%%%%%%%%Qq%%%%%%%%%%%%%%%%%%%%%%%%%%%%%%%%%%%%%%Q%%q%Qq%
4370H9%%%%%%%%%qQ%%%Qq%%%%%%%%%%%%%%%%%%%%%%%%%%%%%%%%%%%%%%%%%%%%%%%%Qq%Qq%
4363H9Q%%q%%Qq%%%%Qq%Qq%%%%%%%%%%%%%%%%%%Qq%%%%%%Qq%%%%%%%%%%%%%%%%%%%%%%%%%
4356H9%%%%%%%%%%%%%%%%%%%%%%%%%%%%%%%%%%%%%%%%%%%%%%%%%%%%%%%Qq%%%%%%%%%%%%%
4350H9%%%%%%%%%%%%%%%%%%Qq%%%%%%Q%q%%%%%%%%%%%%%%%%%%%%%%%%%%%%%%%%%%%%%%%%%
4343H9%%Qq%%%%%%%%QqQq%%%%%%%%%%%%%%Q%%q%Qq%QQk4%K4j6Q%%%q%k4M8l2%K4l2J6%qQq
4337H1Q%%Qq%%%%%%%%%%qQ%%%%Qq%%Qq%%%%%%%%%%%%%%%%%%%%%%qQ%%%%%%%%%%%%%%%%%%%
4330H9%%%%%%%%%%%%%%%%%%%%%%%%%%%%%%%%%%%%%%%%%%%%%%%%%%%%%%%%%%%%%%%%%%%%%%
4324H9%%%%%%%%%%%%%%%%%%%%%%%%%%%%%%%%%%%%%%%%%%%%%%%%%%%%%%%%%%%%%%%%%%%%%%
4317H9%%%%%%%%%%%%%%%%%%%%%%%%qQ%%%%%%%%%%%%%%%%%%%%%%%%%%%%%%%%%%%%%%%%%%%%
4310H9%%%%%%%%%%%%%%%%%%%%%%%%%%%%%%%%%%%%%%%%%%%%%%%%%%%%%%%%%%qQ%%%%%%%%%%
4304H9%%%%%%%%%%%%%%%%%%%%%%%qQ%%%%%%%%%%%%%%%%%%%%%%%%%%%%%%%%%%%%%%%%%%%%%
4297H9%%%%%%%%%%%%%%%%%%qQ%%%%%%%%%%%%%%%%%%%%%%%%%%%%%%%%%%%%%%%%%%%%%%%%%%
4290H9Qq%%%%%%%qJ6q%%%%%qQ%%%%%%%%%%%qQ%%%%%%qQ%%%%%%%%%%%%%%%%%%%%%%%%%%%%%
4284H9qQ%%%%qQ%%%%%%%%%%%%%%%%%%%%%%%%%%%%%%%%%%%%%%%%%%%%%%%%%%%%%%%%%%%%qQ
4277H9%qQ%%%qQ%%%%%%%%%%%%%%%%%%%%qQqQqQ%%%%%%%%%%%%%%%%%%%%%%%%%%%%%%%%%%%%
4270H9%%%%%%%%%%%%%%%%%%%%%%%%%%%%%%%%%%%%%%%%%%%%%qQ%%%%%%%%q%QQj6Q%%%%%%%q
4264H1Q%%%%%%%%%%%%%%%%%%%%%%%%%%%%%%%%%%%%%%%%%%%%%%qQ%%%%%%%%%%%%%%%%%%%qQ
4257H9%q%Q%%qQ%%qQ%%qQ%%%%%%qQ%%%%%%qQ%%%%%%%qQ%%%%%%%qQ%%%%%%%qQ%%%qQ%%%%%%
4250H9%%qQ%%%%%%%%%%qQqQ%%%%%%%%%%%%qQ%%%q%QqQ%qQ%qQ%%%%%%%%%qQ%%%%%%%%qQ%%%
4244H9q%QqQ%%%%%%qQ%qQ%%%qQ%%qQqQ%%q%%qJ6%QqQj6QqQ%%%%%%%qQ%%%%%%%qQ%qQ%%%%q
4237H1Q%%qQ%%qQ%%%%%qQ%%%%%%%%%%%%%%%%%%%%%%%q%%QqQ%qQ%%%%%%qQ%%%%%%%%%%%%%%
4231H9qQ%%%%%%%%%%%%%%%%%qQ%%%%%%%%%qQ%%%%qQ%%%%qQ%%qQ%qQ%%%%%%qQ%%%%%%%%%%%
4224H9%%%%%%%%%%qQ%%%%%%%%q%Q%%q%Q%%qQ%%qQ%%%qQq%%Q%%qQ%%%%%%qQ%q%Q%%%qQq%Q%
4217H9%%%%%qQ%q%%Qq%%%Qq%Q%%%q%Qq%%Q%%%qQ%qQ%%q%Qq%%QqQ%%q%Q%%%%%%%%%%%%%%%%
4211H9qQq%%QqQ%%q%Q%%%%q%Q%%%%%%%%%%%%%qQ%%%%%%qQqQ%%%qQqQqQqQqQ%%%%qQqQ%%q%
4204H1%%%%%QqQqQq%%%Q%q%%Qq%%Q%q%%%Qq%%Qq%Qq%%%Q%q%%%%%QqQ%q%%Qq%%Qq%Q%%qQ%%
4197H9%qQ%q%Q%q%Q%qQqQqQ%%%qQ%qQ%%q%%QqQqQ%q%%Q%%qQ%q%Q%%%%%%%qQ%q%%%QqQ%q%Q
4191H9qQ%%qQqQ%%%%q%%%Qq%%Qq%%%%%%%Qq%%%%%Q%q%Qq%%%%Qq%%Q%qQ%%q%%%QqQ%qQq%%Q
4184H9q%%QqQq%Q%qQqQ%q%Q%%q%Qq%QqQq%%%%%%%Qq%%%Q%q%%%%Q%q%Q%q%%%%%%%%Qq%%%Qq
4177H1%Q%qQq%%%%%%%%%%%Q%%q%%%Q%%q%Q%qQ%%%q%%Qq%%Q%%q%%Q%%qQ%%qQ%%q%%%%%%%Qq
4171H1Q%q%%%Q%%q%%%%%%%%Q%q%%Q%qQ%qQ%q%%qQ%%%%Qq%%%%%Qq%%%Q%q%%%%%%QqQq%Qq%Q
4164H9q%%Q%%%%q%Q%qQqQ%%qQ%q%Qq%%Q%qQ%q%%%%%%%%%%%%%%%%QqQ%%qQ%%%q%Q%%q%Qq%Q
4157H9qQq%%%%%%%Qq%%%%Q%%%q%%%QqQ%q%%%%%%%%Qq%%%%%%%%%%%%Qq%%%%%%%%%%%%%%%%Q
4150H9qQ%q%%QqQq%%Qq%%QqQq%%%%Qq%%%%%%%%%%%%%%%%%%%%%%%%%%QqQq%%Qq%%Q%%qQq%Q
4144H9%%%%q%q%J6qQ%qQq%QqQq%Qq%%%%%%%%%%%%%%%%%%%%%%%%%%%%%%%Qq%%%%Qq%%%%%%%
4137H1%%%%%%%%%%%%%%%%%%%%%%%%%%%Qq%%%%%%%%%%%%Qq%%Q%q%%%%Q%q%%%QqQqQq%%%%%%
4131H1%%%%%%%Qq%%%%%%%%%%%%%%%%%%%%%%%%%Qq%%%%%%%%%%%%%%%%%%Qq%%%%%%Qq%%%%%%
4124H1%%%%%%%%%%%%%%%%%%%%%%%QqQq%%%Qq%%%%%%Qq%%%%%%%%%%%%%%Qq%%%%%%%%%%%%%Q
4117H9q%%%%Qq%%%%%%%%%%%%%%%%Qq%%%%%%%%%%%%%%Qq%%%%%%%%Qq%Qq%%%%%%%%%%%%%%%%
4111H1%%%%%%%%%%%%%%%%%%%%%%%%%%%%%%%%%%%%%%%%%%%%%%%%%%%%%%%%%%%%%%%%%%%%%%
4104H1%%%%%Qq%%%%%%%%%%%%%%%%%%%%%%%%%%%%%%%%%%%%%%%%%%%%Qq%%%%Qq%%%%%%%%%%%
4097H1%%%%%%%%%%%%%%%Qq%%%%%%%%QqQq%%Qq%%%Qj6QQq%%%%%%%%%%%%%%%%%%Qq%%%%%%%%
4091H1%%%%%%%%Qq%%%%%%%%%%%%%%%%%%%%%%%%%%%%%%%%%%%%%%%%%%%%%%%%%%%%%%%%%%%%
4084H1%%%%%%%%%%Qq%%%%%%%%%%%Qq%%%%%%%%%%%%%%%%%%%%%%%%%%%%%%%%%%%%%%%%%%%%%
4077H1%%QqQq%%%%%%%%%%%%%%%%%%%%%%%%%%%%Qq%%%%%%%%%%%Qq%%%%%%%%%%%%%%%%%%%%%
4071H1%%%%%%%%%%%%%%%%%%%%%%%%%%%%%Qq%%%%%%%%%%%%%%%%%%%%%%%%%%%%%%%%%%%%%%%
4064H1%%%%%%%%%%%%%%%%%%%%%%%%%%%%%%%%%%%%%%%%%%%%%%%%%%%%%%%%%%%%%%%%%%%%%%
4057H1%%%%%%%%%%%%%%%%%%%%%%%%%%%%%%%%%%%%%%%%%%%%%%%%%%%%%%%%%%%%%%%%%%%%%%
4051H1%%%%%%%%%Qq%%%%%%%%%%%%%%%%%%%%%%%%%%%%%%%%%%Qq%%%%Qq%%%%Qq%%%%%%%%%%%
4044H1%%%%%%%%%%%%%%%%%%%%%%%%%%%%%%%%%%%%%%%%%%%%%%%%%%%%%%%%%%%%%%%%%%%%%%
4037H1%%%%%%%%%%%%%%%%%%%%%%%%%%%%%%%%%%%%%%%%%%%%%%%%%%%%%%%%%%%%%%%%%%%%%%
4031H1%%%%%%%%%%%%%%%%%%%%%%%%%%%%%%%%%%%%%%%%%%%%%%%%%%%%%%%%%%%%%%%%%%%%%%
4024H1%%%%%%%%%%%%%%%%%%%%%%%%%%%%%%%%%%%%%%%%%%%%%%%%%%%%%%%%%%%%%%%%%%%%%%
4017H1%%%%%%%%%%%%%%%%%%%%%%%%%%%%%%%%%%%%%%%%%%%%%%%%%%%%%%%%%%%%%%%%%%%%%%
4010H1%%%%%%%%%%%%%%%%%%%%%%%%%%%%%%%%%%%%%%%%%%%%%%%%%%%%%%%%%%%%%%%%%%%%%%
4004H1%%%%%%%%%%%%%%%%%%%%%%%%%%%%%%%%%%%%%%%%%%%%%%%%%%%%%%%%%%%%%%%%%%%%%%
3997H1%%%%qQ%qQ%%%%%%%%%%%%%%%%%%%%%%%%%%%%%%%%%%%%%%%%%%%%%%%%%%%%%%%%%%%%%
3990H1qQq%Q%%%%%%%%%%%%%%%%%%%%%%%%%%%%%%%%%%%%%%%%%%%%%%%%%%%%%%%%%%%%%%%%%
3984H1%%%%%%%%%%%%%%%%%%%%%%%%%%%%%%%%%%%%%%%%%%%%%%%%%%%%%%%%%%%%%%%%%%%%%%
3977H1%%%%%%%%%%%%%%%%%%%%%%%%%%%%%%%%%%%%%%%%%%%%%%%%%%%%%%qQ%%%%%%%%%%%%%%
3970H1%%%%%%%%%%%%%%%%%%%%%%%%%%%%%%%%%%%%%%%%%%%%%%%qQ%%%%%%%%%%%%%%%%%%%%%
3964H1%%%%%%%%qQ%%qQ%%%%%%%%%%%%%%%%%%%%%%%%%%%%%%%%%%%%%%%%%%%%%%%%%%%%%%%%
3957H1%%%%%%%%%%%%%%%%%%%%%%%%%%%%%%%%%%qQqQ%%%%qQqQ%%%%%%%%%%%%%%%%qQ%qQ%%%
3950H1%%%%%%%%%%%q%%QqQ%Q%j6J6%%j6J6j6%K4j6%j6K4Qk4J6qj6J6qQqQqQ%q%%%QqQ%qQ%
3945H1%%%%qQ%%%%%%qQ%%%%%%%%%%qQ%%%%%%%%%%%%%%%%%%%%%qQ%qQ%%%%%%%%%%%%%%%%%%
3938H1%%%%%%%%%%%%%%%qQ%%%%%%%%%%%%qQ%%%%%%%qQ%%%%%%%%%%%%%%%%%%%%%%%%%%qQ%%
3932H1%%%%%%%%%%%%%%%%%%%%%%%%%qQqQ%%qQ%%%%%%%%%%%%%%%%%%%%%%%%qQ%qQqQ%%%%%%
3925H1%%%%%%%%%%%%%%%%%%%%%qQ%%%%%%%%%%%%%%%%%%%%%%%%%%%%%%%%%%%%%%%%%%%%%%%
3918H1%%%%%%%%%qQqQ%%%%%%%%%%%%%%qQ%%%%%%%%%%%%%%%%%%%%%%%%%%%%%%%%%%%%%%%%%
3912H1%qQqQ%%%%QqqQ%qQ%%%%%%%%%%%%%%%%%%%%%%%%%%%%%%%%%%%%%%%%%%%%%%%%%%%%%%
3905H1%%%%qQ%%%%%%%%%%%%%%%%%%%%%%%%%%%%%qQ%%%%%%%%%%%%%%%%qQ%%qQ%%qQ%%q%Qq%
3898G3Q%qQ%%%%%%%%%%%%%%qQ%%%%%%qQ%%%%%%qQ%%%%%%%%%%%qQ%%%%%%qQq%%%%%Q%%qQ%%
3892H1%%%%%%%%%%%%%%%%%%%q%Q%%%%%%%%%%%%%%%%%%%%%%%%%%%qQ%%%%qQq%Qq%Q%%%%%qQ
3885H1%%%%%%%%%%%%%%qQ%qQ%%%%%%%qQ%%%%%qQ%%%%%qQ%%%%qQ%%qQ%%%%%%%%%%%%%%%%%%
3878H1%%%%%%%%%%%%%%qQ%%%%%%%qQ%%%qQ%%%%%%q%%Qq%QqQ%%%%%%q%%%QqQq%QqQ%%%%%%q
3872G3%%Q%%%%%%%%qQ%%%%%%%%%%%%%%%%%qQ%%%qQ%qQ%%%%%%%%%%%%%%%%%%%%%%%%%qQ%%%
3865H1%%%qQ%%%%%%qQ%qQ%%qQ%%%%%%%%%%qQqQ%%%%q%%Q%%%%%qQ%%%%%%%%%%%%%%%%qQ%%%
3858H1%%%%%%%%%%qQ%%%%%%%%qQ%%%%%%%%%%%qQ%%%%%%%%%%%%%%%%%%%%%%%%%qQ%qQqQ%qQ
3852H1%q%%%%Q%%%%%%qqJ6%%%%%qQ%%qQ%qQ%%%%%%%%%%%%%%%q%Q%%qQ%q%Q%%qQ%%%%%%%%%
3845H1%%%%%%qQ%%%%%%%%q%Q%%%qQ%%%%%%%%%%%%%%%%%%%%%%%%%qQ%qQ%%%%%%%%%%%%%%%%
3838H1%%%%%%qQ%%%qQqQ%%%%%q%QqQ%%%q%Q%%%%q%Q%%%%%%%%%%qQ%%%%%%%%%%%%%%%%%%%%
3832H1%qQ%qQ%qQ%qQ%%%%qQ%%%qQqQ%q%Q%qQ%%q%Q%%%%%%%%%%%qQqQ%%%%%%%%qQ%QqqQ%%%
3825H1%%qQ%%%%q%Qq%%Q%%qQ%%%%%%%%%%qQ%q%%%%%Q%q%%%Qq%%%QqQ%q%Qq%%%Q%%qQq%%Q%
3818H1%q%%%%Qq%%Qq%%%Qq%Q%qQqQ%qQ%qQq%QqQ%qQ%%%%%%%%%%%%qQ%%%%q%%%Q%qQ%%%qQ%
3812H1%%%%%%%%%%%%%%%%%%qQq%%%%Q%q%%Q%%%%qQ%%%%%%%%q%%%Q%%%%q%Q%%qQqQ%%qQ%%%
3805H1%%qQ%%%%%qQ%%%%%%q%Q%%q%%Q%q%Q%%%q%%QqQq%Q%qQqQqQq%%%Qq%%%Q%q%QqQq%%Qq
3798G3QqQ%%qQ%%qQqQ%%qQ%%qQ%q%%%%Q%%qQ%%%%q%%Qq%Q%%qQ%%qQqQ%%%%%%%%qQ%%q%Q%q
3792G3Q%%%%%q%Qq%Q%%%%%%%qQ%%%%%%q%Q%qQ%q%Q%qQ%%q%%Q%%%%%q%Q%%%%%%%%qQ%%%qQq
3785G3%%%Q%%q%%Q%%q%Q%qQqQ%%%%%%%%q%Q%q%Q%%%q%%%Q%%%%q%%%Q%%q%QqQ%qQq%%Q%%qQ
3778H1%q%%Qq%Q%q%Q%qQqQq%Qq%%Q%%%%%%%%%q%%%%%%Qq%%%Q%%%q%%%Q%q%Q%q%%QqQqQ%%%
3771H1q%Q%%qQq%Q%%q%Q%%%qQ%qQq%Q%qQqQq%%%%QqQq%%Qq%Q%%%q%%Q%qQqQqQqQq%%%%%%Q
3765H1%%qQqQqQqQ%%%%%%%%%%%%%%%%%%%%%%%%%%%%%%%%qQ%%%%%qQ%%%%%%%%qQ%%qQ%%%%q
3758G3%Qq%Q%%%%qQ%%%%%%%qQ%qQ%%qQ%%qQ%%%q%QqQqQqQ%%qQ%%j6J6qQ%q%%%%qK4qqQqQ%
3752H1qQ%%%%qQ%%%%%%%%%qQ%%%%%%%%%%%%%%%q%%Q%q%%QqQ%q%%Qq%Q%%q%%Q%qQ%%%qQqQ%
3745H1%%qQq%Qq%Qq%QqQq%%%%%%QqQ%%%q%Q%%%%%%%%q%Qq%Qq%Q%%%q%%%%%%%%Q%qQq%%%Q%
3738H1qQq%QqQqQ%qQ%%%%qQqQ%%%q%%Q%%%%q%%%%Q%%q%Q%qQ%%%%qQ%%%q%%%Q%qQq%%%QqQ%
3732H1%q%Q%%%%%%%%qQ%%qQ%%%%%%qQ%%q%%%QqQqQqQqQqQ%q%%%%Q%%%q%Q%%q%%%%%Qq%%Qq
3725G3%%Qq%Q%qQ%%%%q%Q%%%q%%%Qq%%Qq%%%%%Qq%%%Qq%Qq%%Qq%Q%%q%Qq%%QqQqQq%Qq%Q%
3718H1%q%%Qq%%%QqQ%qQq%Q%%%q%Q%q%%Q%%%%%qQ%q%%Q%%%%%qQ%q%%%%%%%%%%Q%qQq%%%Qq
3712G3%Q%q%%Q%%%qQqQqQq%%%Q%qQq%%%%%%%%%QqQ%qQ%q%Q%%%%q%Q%%%%q%%QqQq%%Q%%qQq
3705G3%%Q%qQ%q%Q%Qj6%%QqQq%%%%Qq%%%QqQqQ%%%%q%Qq%%Qq%%Q%q%Qq%%%%%%Qq%%%QqQq%
3698G3%QqQ%qQ%%%%%%q%Q%%%qQ%%%%qQ%%%qQ%%%%qQqQ%%%q%%%%Qq%%%%%Qq%%%%%%%Qq%Q%%
3692H1%%%qQ%%q%QqQqQ%%q%Qq%QqQqQq%%Qq%%QqQqQ%qQ%q%%QqQ%q%Q%%%%q%%%%%Qq%QqQ%%
3685H1q%%QqQqQqQq%%QqQq%Q%%%%qQ%q%%%%%%%%QqQ%qQqQqQ%q%QqQq%QqQq%Q%qJ6q%%qQ%q
3679G3Q%q%%QqQq%%%%QqQq%%Q%qQ%%%q%%%%Qq%%%Qq%QqQq%%%%Q%%%qQq%QqQ%%%q%%%%Qq%%
3672G3%%%Q%qQqQ%q%Qq%%Q%qQq%%%QqQ%q%Qq%%%%%%%%QqQq%%%Qq%%%%%%%%Qq%%%QqQq%%Q%
3665H1qQq%Qq%%%%%%%%Q%qQqQqQ%%%%%q%%Q%%qQqQ%%%%q%%%%%%QqQq%%%%Qq%%%%Qq%Qq%%Q
3658H1%qQ%q%QqQ%qQqQqQq%Qq%QqQq%%%Q%%%%%q%Qq%J6j6%QqQ%j6J6q%%%Qq%%QqQqQ%qQq%
3652G3%%Qq%Qq%Q%%qQq%%%Q%%qQq%%%%Qq%QqQqQq%%%%Qq%%Qq%%%%%%%%%%%%%%%%%%%%%%%Q
3646H1q%%%%%Q%q%Qq%%Q%%%%%q%Q%qQ%q%%Q%%qQq%Q%qQq%Qq%Qq%%%%%%%%%QqQq%QqQqQqQq
3639G3Q%qQq%%%%%%%Q%%%%%%%%%%q%%%Qq%%%%Q%q%Qq%Q%q%Qq%%Qq%%%%%%%%%%Q%qQ%%%q%Q
3632H1%qQ%%%q%%%Q%%%qQq%Q%%qQ%q%%Qq%%%Qq%%%%Q%q%Qq%Q%q%Q%%qQq%Qq%Q%%q%%%%%%Q
3625H1%q%%%%Qq%%%QqQ%%%qQ%qQqQq%%%Q%qQq%%%%Qq%%%Qq%%Qq%%%%%%%%%%%%Q%%q%%Q%%q
3619G3Q%q%Q%q%Q%%qQ%qQ%%%q%%QqQq%Qq%%Q%q%QqQq%%%%Qq%Q%%qQ%%q%%Q%%q%%Qq%%Qq%%
3612G3Q%%%%%q%Qq%Qq%%%%%%%%%%%Qq%%%%%%QqQ%%q%Qq%Q%q%Qq%%Q%q%%%%Qq%Qq%J6j6%Q%
3606H1qQqQqQqQq%QqQ%%q%Qq%%%%%%%%%%%%QqQq%Qq%Qq%%%%QqQq%%Qq%%QqQq%%%%Q%q%%%%
3599G3QqQ%%q%%Q%q%Qq%Q%%q%%%%%Q%q%%%%%%%%%%Qq%%%%%%%Q%%%%q%%%Qq%Qq%Q%qQ%q%%Q
3592H1%qQqQ%q%%Qq%QqQq%%Q%%%%%%q%Q%%%%qQqQqQqQ%q%Q%%q%QqQq%%Qq%Q%qQ%q%QqQ%%%
3586H1%q%QqQqQ%q%%%Q%%%qQqQqQ%%%%%%%qQ%%%qQ%%%qQQj6Qq%%%QqQ%%q%QqQ%q%%Qq%Qq%
3579G3%%%%%%Qq%QqQqQqQq%%%Qq%QqQqQq%%%Qq%%%Qq%%Q%q%QqQq%%%%%%%%%%%%%%Qq%Qq%%
3572G3Q%q%%Qq%%%%%%%%%%Qq%%%Q%q%%%%%Q%q%Q%%%q%QqQq%Q%q%Qq%QqQqQq%%%%%%%QqQ%%
3566H1%%%%q%QqQqQqQq%QqQq%Q%q%Qq%Qq%Qq%Q%%q%%Qq%%Q%q%%Qq%Q%%%%%%qQ%q%Qq%%Qq%
3559G3Q%%%%%%Qq%qq%J6qqj6J6QJ6n6Q0M0q0P2p2j6QQ%K4qk4QqJ6j6Q%Q%q%%QqQq%%%%%%%
3554G3%Qq%%%Q%%q%%%%Q%q%%Qq%%%%Qq%%Q%qQ%%q%Q%%%%%q%%%%%%QqQ%qQqQq%Qq%%Q%qQq%
3547G3%Qq%%%%%Q%%qQq%Q%q%%%%%%Q%qQ%q%%%Qq%QqQqQ%%qQqQ%qQq%%Qq%%%Qq%%Q%q%Qq%%
3540G3%Qq%Qq%%%%%%%%%%Qq%%Qq%%%%%Q%q%%Q%%qQqQqQqQ%qQ%qQq%QqQ%%qQ%q%%QqQ%%q%Q
3534H1%%qQqQq%%%%%%Qq%Qq%Q%qQq%QqQq%%Qq%%%%%%Qq%Qq%QqQ%q%QqQq%%%%%%Qq%Q%qQ%%
3527H1%qQ%qQq%%%Qq%%%%QqQq%QqQqQ%%qQ%%%%%q%Qq%Q%%%%%q%Qq%QqQq%Q%qQ%%%%%qQq%Q
3520H1qQq%%%%%%%QqQ%qQq%Qq%Qq%Q%%%%%%%%%%%%qQ%%%%%q%%QqQqQq%%%%Q%%%q%%%Q%%q%
3514G3Q%%%q%QqQ%qQ%%q%Q%%%q%%%%QqQqQ%qQ%q%%Qq%%QqQqQq%Q%q%%Qq%Qq%%Q%q%Qq%%%Q
3507H1%%qQqQqQqQq%Qq%Q%%%q%%%%%%%%%%%%%Qq%%%Qq%Q%q%Q%%%qQqQq%%%%Q%qQqQq%%QqQ
3500H1%q%%Q%%%%%%%%%%%%%q%%QqQq%%QqQ%q%%%QqQ%%qQq%%%%Qq%Q%%%qQqQ%q%%%%Qq%Q%%
3494H1%q%%%%%%%Qq%Qq%QqQq%%%%QqQq%%%%Qq%%Qq%Q%qQ%%%qQ%qQqQqQ%%q%Q%q%Q%%qQ%%q
3487G3QqQ%%qQq%%QqQq%%%%%%Q%qQq%%%%%Q%qQ%qQ%qQq%Q%qQq%Q%%%%%qQ%%%%qQ%q%Q%qQq
3480G3%%%%%%%Qq%%%%%%%%%%%%%%%%Qq%%Qq%%Q%%qQ%%q%%Q%q%%Q%qQqQ%%%%qQ%%%%%%%%%%
3474H1%%%qQqQ%q%%%Q%%%qQqQ%%%qQq%%QqQq%%%%QqQq%Q%qQq%%%%%%Qq%%%%%%%%%%%%%%%Q
3467H1q%Qq%%QqQqQqQq%%QqQq%%%%%Q%%q%Qq%QqQq%QqQq%QqQqQq%%%%%%%Qq%Q%q%%%%%%Q%
3460H1%q%Q%qQ%j6QqJ6%q%Qq%Qq%Qq%%Q%q%%%%%%%Q%%qQq%Q%qQqQqQq%%%Q%qQ%%%q%%Q%%%
3454H1qQq%%%Q%%q%%Qq%Qq%%Q%qQqQ%%%qQ%%%%%qQ%q%%QqQqQq%QqQ%q%%%%Q%q%%Q%q%%Qq%
3447G3%%%%%QqQ%qQ%q%Qq%%Q%%%q%QqQ%%%%qQq%%%QqQ%%qQ%%%%%qQ%q%%%QqQqQ%q%Q%q%%Q
3440H1%qQq%%%%%%%%Qq%%%Qq%%QqQqQ%qQ%qQq%%%%%%Qq%%%Q%qQq%%QqQ%%qQ%%%qQ%%qQ%q%
3434G3%%%%%Q%%q%Q%qQq%%%%Qq%Q%%qQq%%Qq%%QqQq%%Qq%%%%%%%%Q%q%QqQ%qQq%%%%%Qq%Q
3427H1%%qQqQ%%q%%%%%Q%%qQq%%Q%qQq%QqQ%%%qQq%%%%%Q%q%QqQqQq%%Q%%%qQqQq%%%%%%Q
3420H1q%QqQqQ%%q%%Q%%%%%%qQq%Q%qQ%qQ%%%%%%%%%%%%qQq%%%%%Qq%Qq%Qq%QqQq%%QqQqQ
3414H1qQ%q%Qq%%Q%%qQ%q%%QqQqQq%%%%%%%%Q%qQ%q%%Q%qQqQqQ%%q%Q%q%%%%%Qq%%Q%q%%Q
3407H1%%%%q%%%QqQ%%q%%QqQqQ%qQ%q%Q%%%%q%Q%q%Q%%%%%%%%%%qQ%q%Q%qQ%q%Q%%%%qQ%%
3400H1qQ%%%%%%%qQ%%qQ%%qQq%%QqQ%%qQ%q%%%Q%q%Qq%%Q%%%%%%qQ%%q%%Q%%%q%QqQqQq%%
3394G3%Q%qQ%q%%Qq%Qq%%Qq%%Qq%%%%Qq%%%%%%QqQ%%qQ%%q%%%Qq%Qq%%Qq%%%%%%%%Qq%%%%
3387G3%Qq%Q%qQ%%q%Q%q%%QqQq%Q%q%Q%%%qQ%qQ%%%%%%qQ%q%%Q%%%%%%%qQq%%QqQ%qQ%%qQ
3380H1%%%%%%%qQqQ%qQqQ%%%%%%qQ%%%qQ%q%Q%%q%%%%%%Q%qQq%Q%%qQq%%%Q%%q%%%%%Q%q%
3374G3%%Q%%%qQ%qQqQqQqQq%Qq%Qq%QqQ%qQqQqQ%q%Qq%%Q%qQ%qQ%%%qQ%%%%%%q%QqQ%q%Qq
3367G3%%%%Qq%QqQqQ%q%Q%q%%Q%qQ%%%%%%%%%%%qQ%q%%Q%%%%Qj6%%Q%%Qj6Q%qQq%%%qJ6qQ
3361H1qJ6j6Q%%%%%q%QqQ%qQqQ%%q%%Qq%%QqQ%q%%Q%%%%%q%Q%%%qQq%%Q%q%Q%%%%qQ%%q%%
3354G3Q%%%%qQ%%%%%%%qQ%%%%%%%%qQ%%%%%%%%%%%%%%%%%q%Q%%qQ%%%%%%%q%%Q%qQ%%qQ%%
3347H1q%Qq%Q%%%%%qQ%%%%qQ%%qQ%%%%%%%%%%%%%%qQ%%q%Q%%q%%Qq%Q%%%qQ%q%Q%qQqQ%%%
3341H1%q%%%%Q%%q%%QqQqQqQq%%Q%qQq%%Q%qQ%%j6J6qQq%QqQ%qQqQ%%q%Q%%qQq%%%Q%%q%%
3334G3Qq%QqQ%qQ%%q%%Q%%%%%%%%%qQ%%%qQ%%%qQ%%%%qQ%%%%%%%%q%%Q%q%Q%q%%Q%%%%%%%
3328H1%q%Qq%QqQ%%q%%Q%%%%qQqQq%Q%q%%Qq%%Qq%Qq%QqQ%%q%Q%%qQ%%%%%%%%%%%%%%%%%%
3321H1q%Q%%qQqQ%%%%qQ%%%%%%q%Qq%%QqQqQ%qQq%Q%%%%%%q%QqQ%q%QqQqQqQq%QqQ%q%%%%
3314G3%QqQ%q%%%%Q%q%%%%%Qq%Q%q%Qq%%%Qq%%%%Q%%%q%%Q%%%%%%%%qQqQ%%q%Q%%%%%%%%%
3308H1%%q%Qq%%Q%q%Q%%%%%qQ%%%%%%%qQ%%%%qQ%%%%%%qQ%%%%%%qQq%Q%%%qQ%%q%Q%%%%%%
3301H1q%%%%Q%%%%%%%%%%%%q%%%Q%%qQq%%%Q%qQ%qQ%%q%Q%q%%Qq%QqQ%qQ%%q%Q%qQq%%%%Q
3294H1%%q%%Q%%%q%%%Q%%%qQq%%%Qq%%%%%Q%%%%%%%%%%%%qQqQ%%%%%%%%%%%%%%%%q%QQj6Q
3288H1qQ%%%%%q%%%%Q%%%%%%%%q%Q%%%%%qQ%%%%%%qQ%%%%%%%%qQ%%%%%%%qQqQ%%%%%%qQ%%
3281H1qQ%%%%%%%%%%%qQ%%%%%%%%qQ%%%%%%%%qQ%%%%%%%%%%%%%%q%QqQ%%%%%%qQ%%%%qQ%%
3274H1%%%%%%%%%%qQ%qQ%%%%qQ%%%%%%qQ%%%%%%%%qQq%Q%%%%q%Q%%%%%%%%%%%%%%%%qQ%%%
3268H1q%Q%%%%%qQ%%%%%%%%%%%%%qQ%qQ%qQ%%%%q%Qq%J6q%%qQqQqQ%q%Q%%%%q%QqQ%%qQ%%
3261H1%%%%%%%%%%%%%%%%%%%%%%%%%%%%%%%%%%%%%%%qQ%qQ%qQ%%qQ%%%%qQqQ%%%q%QqQ%qQ
3254H1qQ%%%%%qQ%%%%%%q%Q%%%q%Q%%%%%%%%%%%%%%%%%%%%%%%%%%%%%qQ%%q%Q%q%Q%%%%%%
3248H1%%%%qQ%%%%%%%%%%%%%%%%%%%qQ%%%%%%%%%%%%%%%%%%%%%%%%%%%%%%%%%%%%%%%%q%Q
3241H1%%q%%Q%qQ%q%QqQq%QqQ%qQ%%%%%%%%%%%%qQ%%%%%%%%%%%%%%%%%%%%%%%%%%%%%%%%%
3234H1%%%%%%%%%%%%%%%%%qQ%%qQ%%%qQ%qQ%%%%%%%%%%qQqQ%%qQqQ%%qQ%%qQ%%%%%%qQ%%%
3228H1%q%Q%qQ%%%%%%%%%%%%%%%%%%%%%%%qQ%%qQ%%%%%%%%%%%%%%%%%%%qQ%%%%%%qQ%%q%Q
3221H1%%%%%%%%%%%%%%%%%%%%%%%%%%%%%qQ%%%qQ%%%%%%%%%%%%q%Q%qQ%q%Q%%%%%qQ%%qQ%
3214H1%%qQqQ%%%%%%qQ%%%%%%%%%%qQqQ%%%%%%%%%%q%Qq%%QqQ%qQqQ%%%%%%%%%%%%%%%%%q
3208G3Q%%%%%%%%%%%%%%%%%%%%%%%%%%%%qQ%%%%%%%%%%%%%%%qQ%qQqQqQ%%%%%%%%%%%%%%%
3201H1%%%%%%%%%%%%%%%%%%%%%%%%%%%%%%%%%%%%%%%%%%%%%%%%%%%%%%%%%%%%%%%%%%%%%%
3194H1qQ%%%%%%%%%%%%%%%%%%%%%%%%%%%%%%%qJ6q%%%%%%qQ%%%%%%%%%%%%%%%%%%%%%%%%%
3188H1%%%%%%%%%qQ%%%%%%%%%%%%qQ%%%%%%%%%%qQ%%%%%%%%%%%%%%%%%%%%%%%%%%%%%%%%%
3181H1%%%%%%%%%%%%%%%%%%%%%%%%%%%%%%%qQ%%%%%%%qQ%%%%%%%%%%%%%%%%%%%%%%%%%%%%
3174H1qQ%%%%%%%%%%%qQqQ%%%%qQ%qQ%%qQ%%qQ%%%%qQ%%%%qQ%%%%%%%%%%%%%%%%qQ%qQqQ%
3168H1%qQj6Q%Q%%%q%K4q%%j6%K4j6q%Qq%Q%%%%%Qq%%%%%qQ%%%%%qQ%%%q%QqQ%%%qQ%qQ%%
3162H1%%%%qQqQqQ%%%q%Q%%%%%%%%%%%%%%%%%%%%%%%%%%%%%%%%%%%%%%%%%%%%%%%%%%%%%%
3155H1%%%%%%%%%%%%%%%%%%%%%%%%%%%%%%%%%%%%%%qQ%%qQ%%%%%%%%%%%%%%%%%%%%%%%%%%
3148H1%%%%%%%%%%%qQ%%%%%%%%%%%%%%%%%%%%%%%%%%%%%%%%qQ%%%%%%%%%%%%qQ%qQq%Q%%%
3141H1%%%%%%%%%%%%%%%%%%%%%%%%%%%%%%%%%%%%%%%%%%%%%%%%%%%%%%%%%%%%%%%%%%%%%%
3135H1%%%%%%%%%%%%%%%%%%%%%%%%%%%%%%%%%%%%%%%%%%%%%%%%%%%%%%%%%%%%%%%%%%%%%%
3128H1%%%%%%%%%%%%%%%%%%%%%%%%%%%%%%%%%%%%%%%%%%%%%%%qQ%%%%%%%%%%%%%%%%%%%%%
3121H1%%%%%%%%%%%%%%%%%%%%%%%%%%%%%%%%%%%%Qq%%%q%QqQ%%%%%%qQ%%%%%%%%%%%%%%%%
3115H1%%%%%%%%%%%%%%%%%%%%%%%%%%%%%%%%%%%%%%%%%%%%%%%%%%%%%%%%%%%%%%%%%%%%%%
3108H1%%%%%%%%%%%%%%%%%%%%%%%%%%%%%%qQ%%%%%%%%%%%%%%%%%%%%%%%%%%%%%%%%%%%%%%
3101H1%%%%%%%%%%%%%%%%%%%%%%%qQ%%%%%%%%%%%%%%%%%%%%%%%%%%%%%%%%%%%%%%%%%%%%%
3095H1%%%%%%%%%%%%Qq%%%%%qQ%Qq%%%%%%%%%%%%%%%%%%%%%%%%%%%%%%%%%%%%%%%%%%%%%%
3088H1%%%%%%%%%%%%%%%%%%%%%%%%%%%%%%%%%%%%%%%%%%%%%%%%%%%%%%%%%%%%%%%%%%%%%%
3081H1%%%%%%%%%%%%%%%%%%%%%%%%%%%%%%%%%%%%%%%%%%%%%%%%%%%%%%%%%%%%%%%%%%%%%%
3075H1%%%%%%%%%%%%%%%%%%%%%%%%%%%%%%%%%%%%%%%%%%%%%%%%Qq%%%%%%Qq%%%qQJ6j6Qq%
3068H1%%%%%%%Qq%%%Qq%Qq%%%%%%%%%%%%%%%%%%%%%%%%%%%%%%%%%%%%%%%%%%%%%%%%%%%%%
3062H1%%%%%%%%%%%%%%%%%%%%%%%%%%%%%%%%%%%%%%%%%%%%%%%%%%%%%%%%%%%%%%%%%%%%%%
3055H1%%%%%%%%%%%%%%%%%%%%%%%%%%%%%%%%%%%%%%%%%%%%%%%%%%%%%%%%%%%%%%%%%%%%%%
3048H1%%%%%%%%%%%%%%%%%%%%%%%%%%%%%%%%%%%%%%%%%%%%%%%%%%%%%%%%%%%%%%%%%%%%%%
3042H1%%%%%%%%%%%%%%%%%%%%%%%%%%%%%%%%%%%%%%%%%%%%%%Q%q%%%%%%%%%%%%%%%%%%%%%
3035H1%%%%%%%%%%%%%%%%%%%%%%%%%%%%Qq%%%%%%%%%%%%%%%%%%%%%%%%%%%%%%%%%%%%%%%%
3028H1%%%%%%%%%%%%%%%%%%%%%%qQ%%%%%%%%%%%%%%%%%%%%%%%%%%%%%%%%%%%%Qq%%%%%%%%
3022H1%%%%%%%Qq%%%%%%Qq%%%Qq%Qq%QqQq%%%%%%%%%%%%%%%%%%%%%%%%%%%%%%Qq%%%%%%%%
3015H1%%%%Qq%%%%%%Qq%%%%%%Qq%%%%Qq%%%%%%%%%%%Qq%%%%%%%%%%%%%%%%%%%%%%%%%%%%%
3008H1%%%%%%%%%%%%%%%%%%%%%%%%%%%%%%%%%%%%%%%%%%%%%%%%%%%%%%%%%%%%%%%%%%%%%%
3001H1%%%%%%%%%%%%%%%%Qq%Q%q%%%%%%%%%%%%%%%%%%%%%%%%%%%%%%%%%%Qq%%%%%%Qq%%%%
2995H1Qq%%%%%%%%%%%%%%%%%%%%%%%%%%%%%%%%%%%%%%%%%%%%%%%%%%%%%%%QqQqQq%Qq%QqQ
2988H9%q%%%%%%%%%%%%%Qq%%%%QqQq%%%%%%%%%%%%Qq%%%%%QqQq%%%%%%%%%%%%%%%%%%%%%%
2981H1%Qq%%Qq%%%%%%%%%%%%%%%%%%%%%%%%%%%%%%%%Qq%%%%%%%%%%%%%%%%%%%%%%Qq%%%%%
2975H1%Qq%%%%QqQqQ%qQ%%%%qQq%%%%%%%%QqQ%qqQ%QqqK4q%qqQQq%QqQqQqQ%qQ%q%Qq%%%%
2968H1%%%%%%%%%%%Qq%%%%%%%%%Qq%%%%%%%%%%%%%Qq%%%%%%%Qq%%%%Q%q%Qq%%%%%%%%%%%%
2962H1Qq%%%%%%Qq%%%%Qq%%Qq%%%%QqQq%QqQ%qQq%%%Qq%Qq%%%Q%%%q%%%%Q%%%qQqQ%qQq%Q
2955H9%q%%%%Qq%Qq%Qq%Q%qQq%Q%%%qQqQ%%qQqQ%qQ%qQqQ%%%%%%qQq%Q%qQqQ%%q%Qq%QqQq
2948H1%%%QqQq%%%%%%%%%%%%%%%%Qq%%%%%%%%%Qq%%Q%%%qQq%Q%%q%%Qq%%%%%%%%QqQ%q%%%
2942H1%%%%%%%%Q%q%%Q%qQ%q%%%Qq%Qq%Q%q%%%%%%%%%%%%%%Qq%%Qq%%%%%%%%%%%%%%%%Q%q
2935H1QqQq%%%%QqQ%q%Qq%Qq%Q%%qQq%%Q%q%%%%%%Qq%%%%%Qq%QqQqQ%%qQq%%%%%Q%%q%%%%
2928H1Q%qQqQ%qQ%qQ%%qQ%q%QqQq%Q%%%q%Qq%%Q%q%%Qq%%Q%q%Qq%Q%%%q%%Q%q%QqQqQ%qQq
2921H1Q%q%Qq%Q%q%%%%Q%%q%Qq%QqQ%%q%Q%qQ%%qQ%%qQ%qQq%Q%%qQqQ%%qQq%%%%%QqQ%q%%
2915H1%%%%QqQ%q%QqQq%%%%%%%%%%%%%%QqQqQqQ%%qQq%%%Q%%%q%Qq%%Qq%Q%%qQ%%%%%%%%%
2908H9q%Q%%qQqQ%%%%%%q%%Q%qQ%%%q%%Q%%%%q%Q%%%%%%q%Q%qQq%%Qq%%QqQqQ%%%%%%%%%%
2901H9%%%%%%%qQ%%%qQq%Q%%q%Q%qQ%%q%Q%%%%%%%qQq%Q%q%%Q%%q%Q%%qQqQ%%%%%%%q%QqQ
2895H9%%qQq%%QqQ%%%%%qQ%qQqQqQ%qQ%%qQqQ%qQ%%%%%%%%%%%qQ%%%%%%%qQ%%%%%%%%qQ%%
2888H9%%%qQ%%%%%%%qQq%Q%%qQ%%q%Q%%%%%%%%%qQ%%%%%%%%%%%%qQ%%%%%%%%%qQ%%%qQ%%%
2881H9%%%%%%%%%qQqQ%%q%Q%%%%%%%%%%%%%%%%%%%%qQ%%%%%%%%%qQ%qQ%%%%%%%%%%%%%%qQ
2875H9%%%%%%%%q%Q%Qq%%%j6J6qJ6q%%%%%%%%%%%%qQ%%%%%%%%%q%Q%%%%%%%%%%%%%q%Q%%%
2868H9%%%%%%%q%QqQ%%qQqQqQ%%%%%%qQ%%%%%%%%%%%%%%qQqQq%Q%%qQ%qQ%%qQqQ%%%%%%%%
2862H9%%qQ%%%%qQ%%%%%%%%%%%%%%%%qQqQ%%%%%%%%%%%%%%%%%%%%qQ%%qQ%%%%qQ%%%%%%%%
2855H9%%%%%%%%%%%%%%%%%%%%%%%%%%%%%%%%%%%%%%%%%%%%%%%%%%%%%%%%%%q%Q%%qQ%%%%q
2848H1Q%%%%%%%%%%%%%%%%%%%%q%Q%%%%%%%%%%%%%%%%%%%%%%%%%%%%%%%%%%%%%%qQ%%%%%%
2842H9%%%%%%%%%%%%%%%qQ%%%%%%%%%%%%%%%%%%%%%%%%%%qQ%qQ%%%qQ%%%%%%%%%%%%%%%%%
2835H9%%%%%%%%%%%%%%%%%%%%%%%%%%%%%%%%%%%%%%%%%%%%%%%qQ%%%%%%%%%%%%%%%%%%%%%
2828H9%%%%%%%%%%%%%%%%%%%%%%%%%%%%%%%%%%q%Q%qQ%qQ%%%%%%%%%Qq%%%%%%%%%%%%%%%%
2822H9%%%%%%%%%%%%%%%%%%%%%%%%%%qQ%%%%%%%%qQ%%%%%%%%%%%%%%%%%%%%%%%%%%%%%%%%
2815H9%%%%%%%%%%%%%%%%%%%%%%%%%%%%%q%Q%%%%%%%%%%%%%%%%%%%%%%%%%%%%%%%%%%%%%%
2808H9%%%%%%%%%%%%%%%%qQ%%%qQ%%%%%%%%%%%%%%%%%%%%%%%%%%%%%%%%%%%%%%%%%%%%%%%
2802H9%%%%%%%%%%%%qQ%%%%%%%%Qq%%%%%%%%%%%%%%%%%%%%%%%%%%%%%%%%%%%%%%%%%%%%%%
2795H9%%%%%%%%%%%%%%%%%%%%%%%%%%%%%%%%%%%%%%%%%%%%%%%%%%%%%%%%%%%%%%%%%%%%%%
2788H9%%%%%%%%Qq%%%%%%%%%%%%%%%%%%%%%%%%%%%%%%%%%%%%%%%%%%%%%%%%%%%%%%%%%%%%
2782H9%%%%%%%%%%%%%%%%%%%%%%%%%qJ6qQq%%%%%%%%%%%%%%%qQ%%%%Qj6qK4j6J6j6Qj6QM0
2776A21m0J6Qk4L2k4J6qqqQ%%%%qJ6q%%%%%%%%QqQq%%%%%%%%%%%%%%%%%%%%%%%%%%%%%%%%
2770H9%%%%%%%%%%%%%%%%%%%%%%%%%%%%%%%%%%%%%%%%%%%%%%%%%%%%%%%%%%%%%%%%%%%%%%
2763H9Qq%%%Qq%%%%%%%%%%%%%%%%%%%%%%%%%%%%%%%%%%%%%%%%%%%%%%%%%%%%%%%%%%%%%%%
2756H9%%%%%%%%%%%%%%%%%%%%%%%%%%%%%%%%%Qq%%%%%%%%%%%%%%%%%QqQqQq%%%%%%%%%%%%
2750H9%%%Qq%%%%%%%%%%%%Qq%%%%%%%%%%%%%%%%%%%%%%%%%%%%%%Qq%%%%%%%%%%%%%%%%%%%
2743H9%%%%%%%%%%%%%%%%%%%%%%%%Qq%%Qq%%%Qq%%Qq%%%%%QqQq%%%Qq%%%%%%%%%%%%%%Qq%
2736H9%%Qq%Qq%%%%%%%%%%%%%%%%%%%%%%%%%%%%%Qq%QqQq%Qq%%%%%%%%%%%%%%%%%%%%%%%%
2730H9%%%QqQq%%%%%%%%%%%%%%%%Q%%j6QQ%%%qQ%%q%%%%Qq%%%Qq%Qq%%Qq%%%%Qq%%Qq%%%%
2723H9%Qq%%%%%%%%%%%%%%%%%%%%%%%%%%%%%%%%%Q%q%%%%%%%%%%%%%%%QqQq%%%%Qq%Qq%%Q
2716I7%q%Qq%QqQq%%Qq%Q%q%%Qq%%%%%%%%%Qq%Qq%Qq%%%%%%%%%%%%%%%%%%%Qq%%%%%%Qq%%
2710H9%%QqQ%q%QqQ%%q%%%Q%%%qQq%Q%%q%%Qq%%%%%%%%%%%%%%%%%%%%Qq%%%%%%%%Qq%%Qq%
2703H9%%%Q%qQqQq%%%%%%%Q%qQ%%%%%%q%%%%QqQq%Qq%%%%%%%%%%%%%%Qq%QqQ%q%QqQq%%%%
2696H9%Q%qQq%%%%%Q%qQq%Q%qQqQq%Qq%%%%%%Qq%%%Qq%Q%%%%%qQ%%%%q%%%%%Q%%q%%%QqQ%
2690I7%%qQ%%%%qQ%%q%Q%q%Q%%%%%qQq%%QqQq%QqQ%%%qQ%%qQ%q%%QqQ%qQ%qQ%%%%%q%%Q%%
2683I7%%%%qQqQq%Qq%Q%q%Q%%%%q%%%Qq%QqQ%%%%q%Q%%%%%%%%%%q%QQj6Qq%Q%%%q%Q%%%%%
2676I7%q%QqQq%%%Q%q%%%QqQqQ%qQ%%%qQ%%%%%%%%qQqQ%%%%%%%qQ%%%%%%%%qQ%%%%%%%%%%
2670I7qQ%%qQqQqQ%%qQ%%%qQq%%%%Q%%qQq%%QqQqQ%q%Qq%Q%q%Q%%%%%%%qQqQ%%%%qQ%%%%%
2663I7qQ%%%%%%qQ%%%%%%%%%%%%%%%%%%%%%%%%%%%%%%%%%%%%%%%%%%%%%%%%%%%%%%%%%%%%
2656I7%%%%%%%%%%%%%%%%%%%%%%%%%%%%%%%q%Q%%%%%%%%%qQqQ%%%qQ%%%%%%%%%%%%%%%%%%
2650I7%%%%%%%%%%%%%%%%%%%%%qQ%qQ%%%%%%%%%%%%%%%%%%%%%%%%%%%%%%qQ%%%%%%%%%%%%
2643I7qQ%%%%%%%%%%%%%%qQ%%%%%%%%%%%%%%qQ%%%%%%%%%%%%%%%%%%%%qQ%%%%%%%%%%%%%%
2636I7%%%%%%%%%%%%%%%%%%%%%%%%%%%%%%%%%%%%%%%%%%%%%%%%%%%%%%%%%%%%%%%%%%%%%Q
2630A05q%%%%%%%%%QqqQ%%%%%%%%%%%%%%%%%%%%%%%%%%%%%%%%%%%%%%%%%%%%%%%%%%%%%%%
2623I7%%%%%%%%%%%%%%%%%%%%%%%%%%%%%%%%%%%%%%%%%%%%%%%%%%%%%%%%%%%%%%%%%%%%%%
2617I7%%%%%%%%%%%%%%%%%%%%%%%%%%%%%%%%%%%%%%%%%%%%%%%%%%%%%%%%%%%%%%%%%%%%%%
2610I7%%%%%%%%%%%%%%%%%%%%%%%%%%%%%%%%%%%%%%%%%%%%%%%%%%%%%%%Qj6Q%%%%%%%%%%%
2603I7%%%%%%%%%%%%%%%%%%%%%%%%%%%%%%%%%%%%%%%%%%%%%%%%%%%%%%%%%%%%%%%%%%%%%%
2597I7%%%%%%%%%%%%%%%%%%%%%%%%%%%%%%%%%%%%%%%%%%%%%%%%%%%%%%%%%%%%%%%%%%%%%%
2590I7%%%%%%%%%%%QqQq%%%%%%%%%%%%%%%%%%%%%%%%%%%%%%%%%%%%%%QqQq%%%%%%%%%%%%%
2583I7%%%%Qq%Q%q%%%%%%%Q%q%Qqq%QQqqqQK4j6%%%%qQ%Qq%qQ%Qq%%%%%%%%%Qq%%%%%%%%%
2577I7%%%%%%%%%%%%%%%%%%%%%%%%%%%%%%%%%Qq%%%%%%%%%%%%%%%%%%%%%%%%%%%%%%%%%%%
2570I7%%%%%%%%%%%%%%%Q%%qQq%%%%%%%%%%%%%Qq%%%%Qq%%%%%%%%Qq%%%%%%Q%q%%%%%Qq%%
2563I7%%%%%%%%%%Q%q%%%%Qq%%%%%%%%%%%%%%%%%%%%%%Qq%%%%%%%%%%%%%%%QqQqQq%%%%%%
2557I7%%%%%%%%%%Qq%%%%%%%%%%%%%%%%%%%%%%%%%%%%%%%%%%%%%%%%Q%q%%%%%%%%%%%Qq%%
2550I7%%QqQqQq%%%%%%%%%%%%%%%%%%%%%%%%%%%%%Q%%q%%%%QqQqQqQq%%%%%%QqQ%%q%%Qq%
2543I7%%%%%%%%%%%%%%%%%%%%%%%%Qq%Q%q%%%%Qq%%%%%%%Q%qQ%qQ%%%qQq%QqQ%%%%%%q%Qq
2537I7Q%qQqQq%%%%%QqQ%%%%q%Q%qQ%q%Q%%qQ%qQqQ%%qQ%qQq%Qq%%%Q%%qQq%%QqQqQqQq%Q
2530A05q%Q%%%%qQq%%Q%%%qQ%%%q%Qq%%%%%%QqQ%q%Q%%qQ%%%%qQ%%%%%q%Q%%%qQ%qQqQ%qQ
2523A05%%qQq%Q%q%Qq%%%Q%%%%q%QqQqQ%%q%Q%%%%q%%Q%%%%%qQ%%%%%%%%%%q%Q%%%%%%%%%
2517A05%%q%Q%%%%qQqQ%%%%%%%%%%%%qQ%%%qQ%%%%%%%%qQ%%qQ%%%%%%%%%%%%%%%%%%%%%qQ
2510A05qQ%q%%QqQ%%q%Q%%%%q%QqQqQ%%q%QqQ%qQqQ%%qQ%%%%%%%%%%%%qQ%%%%%%%%%%%qQ%
2504A05%%%%%%%%%%%%%%%%qQqQqQqQqQ%%%%%%%%%%%%%%%q%Q%%%%%%%%%%%%%%%%%%%%%%%%%
2497A05%%%%%%%%%%%%%%%%qQ%%qQ%%%%%%%%%qQqQ%%%%qQ%%%%%%%%%%%%%%%%%%%%%%%%%%%%
2491A05%%%%%%%%%%%%%%%%%%%%%%%%%%%%%%%%%%%%%%%%%%%%%%%%%%%%%%%%%%%%%%%%qQ%%%
2484A05%qJ6q%%%%%%%%%%qQ%%qQ%%%%%%%q%Q%%%%%%%%%%%qQ%%%%%%%%%%%%%%%%%%%%%%%%%
2477A05%%%%%%%%%%%%%%%%%%%%%%%%%%%%%%%%%%%%%%%%%%%%%%%%%%%%%%qQ%%%%%%%%%%%%%
2471A05%%%%%%%Qq%%%%%%%%%%%%%%%%%%%%%%%%%%%%%%%%%%%%%%%%%%%%%%%%%%%%%%%%%%%%
2464A05%%%%%%%%%%%%%%%%%%%%%%%%%%%%%%%%%%%%%%%%%%%%%%%%%Qq%%%%%%%%%%%%%%%%%q
2458I7Q%%%%%%%%%%%%%%%%%%%%%%%%%%%%%%%%%%%%%%%%%%%%%%%%%%Qq%%%%%%%%%%%%%%%%%
2451A05%%%%%%%%%%%%%%%%%%%%%%%%%%%%%%%%%%%%%%%%%%%%%%%%%%%%Qq%%%Qq%%%%%%%%%%
2444A05%%%%%%%%%%%%%%%%%%%%%%%%%%%%%%%%%%%Qq%%%%%%%%%%%%%%%%%%%%%%%%%%%%%%%%
2438A05%%Qq%%Q%%q%%%%%%%%%%%%Qq%%%%%%%Qq%%Q%%%qQ%qQq%%%Qq%%%%Q%qQq%Qq%Qq%QqQ
2431A13q%%Qq%%QqQq%%%%%%%%%%%%%%Qq%%Qq%%%Qq%%%%%%%%%%%%%%%%%%%%%%%%%%%%%%%%%
2425A05Q%%%q%%%%%QqQq%%Q%%q%%%%%%Qq%%%%%QqQq%%%%%%%%%%%Qq%%%%%%%%%%Qq%%%%%Q%
2418A13q%%QqQqQ%q%%%%%%%%%Q%q%Q%%q%Qq%%%%%%Qq%%%%%%QqQ%%%%%qQ%qQ%q%%%%%Q%q%%
2412A05%%%Qq%Qq%%%Qq%%%Qq%%%Qq%Q%%q%%%Q%%q%Q%%%qQ%q%QqQ%q%%%%QqQ%%%%%%qQ%qQ%
2405A13%%qQ%%%%%%%%qQ%qQ%qQ%%%%%%%%%%%%%qQ%qQqQ%%qQ%q%Q%qQqQ%%%%qQ%%%%%qQ%%%
2398A13%%%qQ%qQ%qQ%%%qQqQ%qQqQ%%%%qQq%Q%%qQq%%Qq%Q%q%Q%%%qQ%%%%%%qQ%qQqQ%%%%
2392A13%%%%%qQ%%%%%qQ%%%q%QqQ%qQ%q%Q%qQ%qQ%%%%%%qQqQ%%q%%Q%%%%%%%%Qqq%QqQQ%q
2385A13%Qq%%K4k4q%QQj6%%%Qq%Q%%q%%Q%%%%%%%%%%%%%%%%qQ%%%%%%%qQ%%qQ%qQ%%%%%qQ
2379A13%qQ%%%%%%%%%%%%%%%qQ%%%%%%%%qQ%%%qQ%%%%%%%%%%%%%%%%%%%%%%%%%%%%%%qQ%%
2372A13%%%%%%%%%%%%%%%%%%%%%%%%%%%%%%%%%%%qQ%%%%%%%%%%%%%%%%%%%%%%%%%%%%%%%%
2366A13%%%%%%%%%%%%%%%%%%%%%%%%%qQ%%%%%%%%%%%%%%%%%%%%%%%%qQ%%%%%%%%%%%%%%%%
2359A13%%%%%%%%%%%%%%%%%%%%%%%%%%%%%%%%%%%%%%%%%%%%%%%%%%%%%%%%%%%%%%%%%%%%%
2353A13%%%%%%%%%%%%%%%%%%%%%%%%%%%%%%%%%%%%%%%%%%%%%%%%%%%%%%%%%%%%%%%%%%%%%
2346A13%%%%%%%%%%%%%%%%%%%%%%%%%%%%%%%%%%%Qq%%%%%%%%%%Qq%%%%%%%%%%%%%%%%%%%%
2339A13%%%%%%%%%%%%Qq%%%%%%%%%%%%%%%Q%q%Q%j6Q%%%%Qq%%%%%%Qq%%%%%%%%%%%%%%%%%
2333A13%%%%%%%%%%%%%%%%%%%%%%%%%%%%%%%%%%%%%%%%%%%%%%%%%%%%%%%%%%%%%%%%%%%%%
2326A13%%%%%%%Qq%%%Qq%%%%%%%QqQq%%%%%%%%%%%%%%%%%%%%%%%Qq%%%%%%%%%%%%QqQqQ%q
2320A13Q%q%%%%%Qq%Qq%QqQ%%%qQ%qQq%%Q%q%Q%q%Qq%%%%%%%%%Qq%%%Qq%Qq%%Q%qQ%q%%Qq
2313A13%%QqQq%%Q%q%Q%%%%qQ%q%%%Q%%%qQ%q%%%%%%%%%Qq%%Q%qQ%qQ%%%%qQ%qQ%%q%Qq%%
2307A13%Q%q%Q%q%%Q%q%Qq%Q%qQqQq%%Q%q%%Qq%QqQ%%%%qQ%qQqQ%%%%%qQ%qQ%qQq%Qq%Q%%
2300A21qQq%Q%%%%qQ%qQq%Q%q%%Q%%%%%q%QqQ%%%%qQ%%%qQ%qQ%%qQ%%qQ%%qQ%q%QqQqQ%%q
2293A13Qq%Q%%q%Q%%%%%%%%%qQ%%%%%%%%%%%%q%Q%%%%%%%%%qQ%%qQ%qQqQ%q%%J6j6J6j6qK4
2287A29j6%Q%%q%%QqQ%%%qQ%%%qQqQ%%q%Q%qQ%%qQ%%qQ%%%qQ%%q%%Q%%%%%%qQ%%qQq%%Q%%
2281A21%%%qQ%%%%%%%%%%%%%%%%%%%%%%%%%qQ%%qQ%%%%%%%%%%%%%%%%%%%%%%%%%%%%%%%%%
2274A21%%%%%%%%%%%%%%%%%%%%%%%%%%%%%%%%%%%%%%%%%%%%%%%%%%%%%%%%%%%%%%%%%%%%%
2268A21%%%%%%%%%%%%%%%%%%%%%%%%%%%%%%%%%%%%%%%%%%%%%%%q%QqQ%%%%%%%%%%%%%%%%%
2261A21%%%%%%%%%%%%%%%%%%%%%%%%%%%%%%%%%%%%%%%%%%%%Qq%%%%%%%%%%%%%%%%%%%%%%%
2254A21%%%%%%%%%%%%%%%%%%%%%%%%%%%%%%%%%%%%%%%%%%%%%%%%%%%%%%%%%%%%%%%%%%%%%
2248A21Qq%%%%Qq%%%%%%%%%%%%%%%%%%%%%%%%%%%%%%%%%%%%%%%%%%%%%%%%%%%%%%%%%%%%%
2241A21%%%%%Qq%%%Qq%%%QqQq%%%%%%%%Qj6Q%Qq%%qQ%%%%%%%%%%%%%%%%%%%%%%%%%%%%Qq%
2235A21%%%%%%%%%Qq%%Qq%%%%Qq%%%%%%%Q%q%%Qq%Q%q%%%%%%%%%%%%%%%%%%%%%%%%%%%%Qq
2228A21QqQqQq%%%%%%%%Q%%qQq%Qq%Qq%%%%%Qq%%%QqQq%%%%%%%%%%%%Qq%%%%%%%%%%Q%%qQ
2222A29%q%%%%Q%qQq%Qq%%%%%%%%%%%%%%Qq%%%Q%qQqQ%%%%qQqQ%qQ%qQ%%%%%%qQ%qQ%%q%%
2215A21Qq%%Q%qQ%q%Q%qQq%Q%q%QqQ%%q%Qq%QqQqQqQ%%%%qQ%qQ%%%%%qQ%%%%%%qQq%Q%%%q
2209A21QqQqQ%%%qQ%%%%%%%%%%%%%%%%%%%%%q%Q%%%%%%%%%%%%%%%%%%%%%%qQ%%%%%%%%%%%
2202A29%%%%%%%%%%%%qQ%%%%%%%%%%%%%%%%%%%%%%%%%%%%%%%%%%%%%%%%%%%%%%%%%%%%%%%
2195A29%%%%%%%%%%%%%%%%%%%%%%%%%%%%%%%%%%%%%%%%qQ%%%%qJ6q%%%%qJ6qqQQqqJ6q%qQ
2189A29%qQ%qQq%Q%%%%%%%%%%%%%%%%%%%%%%%%%%%%%%%%%%%%%%%%%%%%%%%%%%%%%%%%%%%%
2182A29%%%%%%%%%%%%%%%%%%%%%%%%%%%%%%%%%%%%%%%%%%%%%%%%%%%Qq%%qQ%%%%%%%%%%%%
2176A29%%%%%%%%%%%%%%%%%%%%%%%%%%%%%%%%%%%%%%%%%%%%%%%%%%%%%%%%%%%%%%%%%%%%%
2169A29%%Qq%%%Qq%%%%%%%%%%%%%%%%%%%%%%Qq%QqQ%qQ%%q%%%qQ%%%%%%%%%%%%%%%%%%%%%
2163A29%%%%%%%%%%%%%%%%%%%%%%%%%Qq%%%%%%%%%%%%%Qq%%%%%%%%%%%%%%%%%%%%%%%%%%%
2156A29%%%%%%%%%%%%%Qq%Qq%%%%%Qq%%%%%QqQqQ%q%Qq%Q%q%%%%%%%%%%Q%%qQ%qQqQq%Qq%
2150A29QqQ%q%%%%%%%%%%%%Qq%%%%%%Qq%%QqQq%%Qq%%Qq%%Q%q%QqQ%%%qQ%%%q%Qq%QqQq%Q
2143A37%qQ%%qQqQ%%qQ%%%%%%%Qj6QqQ%qQqQ%qQ%%%qQ%qQ%%%%qQqQ%%%qQ%q%%%%%Q%%qQ%q
2137A29%Q%%%%%%%%%%%%qQ%%%qQ%qQ%%%%%%qQqQ%qQ%%%%%%%%%qQqQ%qQ%qQq%QqQ%qQ%qQqQ
2130A37qQqQ%%qQqQqQ%%%%%%%%%%%%%%%%%%%%%%%%%%%%%%%%%%%%%%%%%%%%%%%%%%%%%%%%%
2123A37%%%%%%%%%%%%%%%%%%%%%%%%%%%%%%%%%%%%%%%%%%%%%%%%%%%%%%%%%%%%%%%%%%%%q
2117A29%%QqQ%qQ%%qQ%%%%%%%%%%%%%%%%%%%%%%%%%%%%%%%%%%%%%%%%%%%%%%%%%%%%%%%%%
2110A37%%%%%%%%%%%%%%%%%%%%%%%%%%%%%%%%%%%%%%%%%%%%%%%%%%%%%%%%%%%%%%qQ%%%%%
2104A37Qq%%%%%%%%%%%%%%%%%%%%%%%%%%%%%%%%%%%%%%%%%%%%%%%%%%%%%%%%%%Q%qQq%%%%
2097A37%%Qq%%%Q%q%%%%%%%%%%%%%%%%%%%%%%%%%%Qq%%%%qQ%%%%%j6J6%%Qj6Q%%Qq%%%%Qq
2091A37%%%%%Qq%%QqQqQq%%%%%%%%%Qq%%QqQq%%%%%%%%%%%Q%qQq%%%%Q%q%QqQ%qQqQq%%Qq
2084A37%%%QqQ%%q%%QqQq%%Q%%%%q%%%QqQq%%%Q%%%q%Q%qQ%q%Q%%qQ%q%%Qq%%Q%qQq%%QqQ
2078A45q%%QqQq%%QqQq%%%%%%%%%%%%QqQ%q%%%%%Qq%%%%QqQq%%Qq%%Qq%%QqQqQ%%qQq%QqQ
2071A45qQ%qQ%%%qQ%%q%%%%Q%%%%%%%%%%qQ%%qQq%%%%Q%qQ%%%%%%%%%%%%%%%%%%%qQ%%%%%
2064A45%%qQ%%%%%%%%%%%%%%%%%%%%%%%%%%%%%%%%%%%%%%%%%%%%%%%%%%%%%%%%%%%%%%%%%
2058A45%%%%%%%%%%%%%%%%%%%%%%%%%%%%%%%%%%%%%%%%%%%%%%%%%%%%%%%%%%%%%%%%%%%%%
2051A45%%%%%%%%%%%%%%%%%%%%%Qq%%%%%%%%%%%%%%%%%%%%%%%%%%%%%%%%%%%qQ%%%%%%%%%
2045A45%%%%%%%%%Qq%%%%%%QqQ%q%%%%%%%%%%%%%%%%%%%%%Qq%%%%%%%%%%%%%%%%%%%%%%%%
2038A45%%%%%%%%%%%%Qq%%%%%%%%%%%%%%%%%%%%QqQ%qQq%%%%Qq%%%%%%%%%%%%%%%%%%%%%%
2032A45Q%%%%%q%%%%%%%%%%%%%%%%%%%%%%%%%%%%%%%%%Qq%%%Q%q%%Qq%%%%%Qq%%%%Qq%%%Q
2025A53q%%%Qq%QqQq%%%%%%%QqQq%%%Q%q%Q%qQ%%q%%%Q%q%Qq%Q%%qQ%qQ%%%%%%qQqQq%Q%%
2018A53%qQqQ%%qQ%%%qQ%q%%%Q%%q%QqQqQ%%q%%Q%%%q%%QqQ%q%Q%%qQ%%%%%%%%%q%QqQqQ%
2012A53%q%Q%%qQ%%%qQ%%%%%%%%%%%%qQ%%qQ%%%%qQ%%%%%%%%%%%%%%qQ%%%%%%%%qQ%%%%%%
2005A53%%%%%%%%qQ%%%qQ%%q%Q%%%qQ%%%%%%%%qQ%%%%%%%%%%%%%%%%%%%q%Q%%%%%qQ%%%%%
1999A53%%q%Q%%%%qQqQ%%%%%%qJ6qQ%qQqqQq%%QQj6qQL2qQk4qK4k4J6m0J6J6%J6%qqqL2j6
1993A61Q%j6%Q%q%%%Qq%%%Qq%qQ%%%%%%%%%%%%Qq%%%%%%%%%%%%%%%%%%%%%%%%%%%%%%Qq%%
1987A53%Qq%%%%%%%%%%%%%Qq%Qq%Qq%%%%%Qq%%%%%%Qq%%%%%%%%%%Qq%%%%%%%%%%%%%%%%Qq
1980A53%%%%%%%%%%%%%%%%%%%%%%%%%%%%%%%%%QqQq%%%%%%%%%%QqQq%%%%%%%%Qq%%%%%%%%
1974A53%Qq%Qq%%Qq%%Qq%Q%%q%Q%qQ%q%%%%Qq%QqQ%%%qQ%qQq%Q%q%Q%%%%%qQ%%%q%QqQq%Q
1967A61%%%%%%qQq%QqQ%q%Q%%%%%%qQqQ%%%%q%%%Q%%qQ%qQ%qQ%%%%qQqQ%qQ%%%%%%qQ%%%%
1960A61%qQ%%%%qQ%q%%%QqQ%%%%%%qQqQ%qQ%%qQqQ%%%%%%%%%%%%%%%%%%%%%%%%%%%%%%%qQ
1954A61%qQ%%%%%%%%%%%%%%%%%%%%%%%%%%%%%%%%%%%%%%%%%%%%%%%%%%%%%%%%%%%%%%%%%%
1947A61%%%%%%%%%%%%%%%%%qQ%%%%%%%%%qQ%%%%%%%%%%%%%%%%%%%Qq%%%%%%%%%%%%%%%%%%
1941A61%%%%%%%%%%%%%%%%%%%%%%%%%%%%%%%%%%%%%%%%%%%%%%%%%%%%%%%%%%%%%%%%%%%%%
1934A61%%%%%Qq%%Qq%Qq%%%%%%%%%%Qq%%Qq%%%Qq%%%%%%%Qq%%Q%%q%%%Qq%%%%%%%Qq%Qq%%
1928A61Qq%%%Qq%%%%%Qq%Qq%%%Qq%%%%%%%Qq%%%%%Q%q%%%QqQ%qQq%%%Qq%%%QqQqQq%%QqQq
1921A61%%%%Qq%%%%Qq%QqQqQ%qQ%qQ%%qQ%qQ%%%%qQq%%Q%%%%%qQ%%qQ%q%Q%%%%%qQ%%%%%%
1914A69%%%%%%%qQ%%%%%%%%%%%%%%%%%%%%%%%%%%%%%%%%%%%%%%%%%%qQ%%%%%%qQ%%%%%%%%
1908A69qQ%%%%%%%%%%%%%%%%%%%%%%%%%%%%%%%%%%%%%%%%%%%%%%%%%%%%%%%%%%%%%%%%%%%
1901A69%%%%%%%%%%%%%%%%%%%%%%%%%%%%%%%%%%%%%%%%%%%%QqQ%j6Q%%%%%%%Qq%%%%%%%%%
1895A69%%%%%%%%%%%%%%%%%%%%%%%%%%%%%%%%%%%%%%%Qq%%%%%QqQq%%%%%%%%%%%%%%%%%%%
1888A69%%%%%%Q%qQq%%%%%%%%%%%%%%%%%%Q%%q%%%Qq%%%%%%%%%%Qq%Qq%%%%%%%%%%%%Qq%%
1882A69%%%%%Qq%%%%%%%%%Q%qQq%%Q%q%%Q%qQq%Q%%%%%%qQ%%%%%%%%%%%%%%%%%%%qQ%%%qQ
1875A77qQ%%%%qQ%%qQ%%%%%%qQ%%qQ%qQ%qQ%%%%%%%%%%%%%%%%%%%%%%%%%%%%%%%%%%%%%%%
1868A77%%%%%%%%%%%%%%%%%qQ%%%%%qQ%%%%%%%%%%%%%%%%%%%%%%%%%%%%%%%%%%%%%qQ%%%%
1862A77%%%%%%%%%%%%%%%%%%%%%%%%%%%%%%%%%%%%%%%%%%%%%%%%%%%%%%%%%%%%%%%%%%%%%
1855A77%%%%%%%%%%%%%%%%%%%%Qq%%%%%%%%%%%%%%%%%%Qq%%%%%%%%Qq%%%%%%%%%%Qq%%%%%
1849A77Qq%Q%%qqQ%qQQq%%%%%%%%%%%%%%%%%%%%%%%%%%%%%%%%%%%%%QqQq%QqQ%q%%%%%%Qq
1842A77%Qq%%Q%%q%Q%q%%%QqQq%%%%%%Q%q%%%Q%%qQ%q%%Q%%qQ%q%Q%qQ%%qQ%%%qQ%%%qQq%
1836A77%%Q%qQq%Q%q%%Q%%%%qQ%%%%%q%Qq%%Qq%%Qq%%Q%%qQ%%%%%%%%%%%%%%%%%%%%%%%%%
1829A85%%%%%%%%%%%%%%%%%%%%%%%%%%%%%%%%%%%%%%%%%%%%%%%%%%%%%%%%Qq%%%%%%%%%%%
1822A85%%%%%%%%%%%%%%%%%%%%%%%%%%%%%%%%%%%%%%%%%%%%%%%%%%%%%%Qq%%%%%%%%%%%%%
1816A85%%%%%%%%%%%%%%%%%%%%%%%%%%%%%%%%%%%%%%%%%%%Qq%%%%Q%qQq%%%%%%%%%%%%%%%
1809A85%%%%%Qq%Qq%%%%%Qq%%Qq%%%%%%%%%%%%%%%%%%%%%%%%%%%%%QqQq%%%Q%%%%%qQ%%q%
1803A85Q%%q%QqQ%%qQ%qQ%%%%%%%%q%%Q%%qQq%Qj6QQqJ6%qQqqQqJ6j6QQj6Q%%%%qQqQ%%%q
1797A85Q%%%%%%%%%qQ%q%Q%%%%%%qQ%qQ%qQ%qQ%%%%qQ%%%%%%%%%%%%%%%%%%%%%%%%%%%%%%
1790A93%%qQ%%%%%%%%%%%%%%%%%%%%%%%%%%%%%%%%%%%%%%%%%%%%%%%%%%%%%%%%%%%%%%%%%
1783A93%%%%%%%%%%%%%%%%%%%%%%%%%%%%%%%%%%%%%%%%%%%%%%%%%%%%%%%%%%%Qq%%%%%%%%
1777A93%%%%%%%%%%%Qq%%%Qq%%%%Qq%%Q%q%Qq%Qq%%Qq%%%%%QqQ%%q%%%%%%%%%%Q%%q%%%%%
1770A93%%%QqQqQ%%%q%Q%qQ%qQ%%%%%%%%%%qQ%%%qQ%%%%%%qQ%%%qQ%%q%%Q%%%qQq%QqQ%qQ
1764B01%qQqQ%qQ%qJ6j6Q%%%%%%%%%%%%%%%%%%%%qQ%%%q%Q%%%%%%%%%%%%%%%%%%%%%%%%%%
1757B01%%%%%%%%%%%%%%%%%%%%%%%%%%%%%%%%%%%%%%%%%qQ%%%%%%%%%%%%%%%%Qq%%%%%%%q
1751A93%%J6qqQQq%qQ%%%QqQq%%%%%%%%%%%%%%%%%%%%%%%%%%%%%%%%%%%%%%%%%%%%%Q%%%q
1744B01%Qq%%Q%qQqQq%%%%%%%%%Qq%%%Qq%Q%%q%%%%%QqQq%Qq%%%%%%%Q%q%%%%%%Qq%%%%%Q
1738B09%%%%%qQ%qQqQqQqQqQ%qQ%%qQ%%%%%qQ%%%%%%%%%%%qQ%%%%%%qQ%%%%%qQ%q%Q%%%%%
1731B09%%%%%%%%%%%%%%%%%%%%%%%%%%%%%%%%%%%%%%%%%%%%%%%%%%qQ%%%Qj6Q%%%%%%%%%%
1725B09%%%%%%%%%%%%%%%%%%%%%%%%%%%%%%%%%%%%%%%%%%%%%%%%%%%%%%%%%%%%%%%%%%%%%
1718B09%%%%%%%%%%%%%%%%%%%%%%%%%%%%%%QqQq%%%%Qq%%%Qq%%%%%%%%%%%%Qq%%Qq%%%%%%
1711B09%%QqQ%%q%%%Q%%%qQ%qQ%%q%%Q%%q%%%%%Q%qQqQ%%%%%%qQqQq%Q%%%%%%%%%%%%%%%%
1705B17q%%Q%%%qQ%%%%%qQ%%%%%%%%qQ%qQQq%%%qQ%%%%qJ6q%%qQ%%%%%%%%%%%%%%%%%%%%%
1698B17%%%%%%%%%%%%%%%%%%%%%%%%%%%%%%%%%%%%%%%%%%%%%%%%%%%%%%%%%%%%%%%%%%%%%
1692B17%%%%%%%%%%%%%%%%%%%%%%%%Q%q%%%%%%%%%%%Qq%%%%Q%q%%%%Qq%%%%%%%%%%%%%%Q%
1685B25qQ%q%%QqQq%%%%%Q%qQq%%QqQqQq%%Q%q%%%QqQq%QqQqQ%%%%%qQqQqQ%%%%%qQ%q%Qq
1679B17%QqQqQ%%qQq%Qq%%%QqQqQ%%%%%%%%%%%%%%%%%%%%%%%%%%%%%%%%%%%%%%%%%%%%%%%
1672B25%%%%%%%%%%%%%%%%%%%%%%%%%%%%%%%%%%%%%%%%%%%%%%%%%%%%%%%%%%%%%%%%%%%%%
1665B25%%%%%%%%%%%%%Qq%%%%%%%%%%%%%%%%%%%%%%%%%%Qq%%%%%%%%%%%Q%%q%Q%%%%%%q%%
1659B25QqQq%Qq%Q%qQ%%q%%%%Qq%Qq%Qq%Q%q%Q%qQq%Q%qQ%%%%qQ%q%%Q%%%qQ%%qQqQQj6Q%
1652B33qQ%%%%%%%%%%%qQ%%%%%%%%%%%%%%%%%%%%%%qQ%%%%%%%%%%%%%%%%%%%%%%%%%%%%%%
1646B33%%%%%%%%%%%%%%%%%%%%%%%%%%%%%%%%%%%%%%%%%%%%%%%%%%%%%%%%%%%%%%%%%%%%%
1639B33%%%%%%%%%%%%%%%%%%%%%%%%%%%%%Qq%%%%%%QqQq%%%%QqQq%%%%%%Qq%%%%QqQqQqQq
1633B33%Q%%%%qQ%%%%%%%%qQ%%%qQ%%%%%%%%%%%%%%%%%%%%%qQqQ%q%Qq%Q%%%%%%%%%%%%%%
1626B41%%%%%%%%%%%%%qQ%%%%%%%%%%%%%%%%%%%%%%%%%%qQ%%%%%%%%%%%%%%%%%%%%%%%%%%
1619B41%%%%%%%%%%%%%%%%%%%%%%%%%%%%%%Qq%%%%%%%%qQ%%%%%%%%%%%%%QqQq%%Qq%Q%qQq
1613B41%%%Q%q%Qq%QqQqQ%%q%%%%Q%q%Q%q%Q%q%QqQ%q%%%Qq%%QqQ%q%QqQ%q%Q%%%%q%Q%%%
1606B49qQ%%%%%%%%qQ%%%%%Qq%QqJ6l2QJ6k4J6%qQJ6q%%%qqQ%%%%qQ%%%qQ%qQ%%%%%%%%%%
1600B49%%%%%%%%%%%%%%%%%%%%%%%%%%%%%%%%%%%%%%Qq%%%%%%%%%%%%%%%%%Qq%%%Qq%%%%%
1594B49%%%%%%%%%QqQq%Qq%%%%%Qq%%%%%%Q%q%%%%%Q%q%%%%Qq%%%Q%qQ%%q%%Q%%%q%Q%%%%
1587B57%%%%%qQ%%%%%%%%%%%%%%%%%%%%%%%%%%%%%%%%%%%%%%%%%%%%%%%%%%%%%%%%%%%%%%
1581B57%%%%%%%%%%%%%%%%Qq%%%%%%%%%%%%%%%%%%%%%%%%%%%%%%%%%%%%%%%%%%%%%%%%%%%
1574B57%%%%%%%Qq%%%%%%%%%%%%Qq%%%%%%%%%%%%%%%%Qq%%Qq%Qq%%%%%%%%%Qq%%%Qq%Qq%%
1567B57%Q%%%%%q%QqQ%q%QqQ%%%q%%%Q%%%qQ%%%qQ%%%%%%%%%qQ%%%%%%%%%%%%%%%%%%%%%%
1561B65%%%%%%%%%%%%%%%%%%%%%%%%%%%%%%%%%%%%%%%%%%%%%%%%%%%%%%%%%%Qq%qQQqQq%%
1554B65%%Qq%%Qq%%%%%%%%%Qq%Qq%%%%Q%qQq%Qq%%%%%%QqQqQ%q%%QqQ%qQqQ%qQ%qQqQ%%%%
1548B73%%%%%%%%%%%%%%%%%%%%%%%%%%%%%%%%%%%%%%%%%%%%%%%%%%%%%%%%%%%%%%%%%%%%%
1541B73%%%%%%%%%%%%%%%%%%%%%%%%%%%%%%%%%%%%%%%%%%%%%%%%%%%%%%Qq%%%%%%%%%%%%%
1534B73%%%%QqQ%qQ%qQ%qQq%QqQ%qQqQ%%%%qQqQ%%%%qQ%qQ%%%qQqQ%%%%%%%%%%%%%%%%%%%
1528B81%%%%%%%qQ%%%%%%%%%%%%%%%%%%%%%%%%%%%%%%%%%%%%%%%%%%%%%%%%%%%%%%%%%%%%
1521B81%%%%%%%%%%%%%%%%%%%%Qq%%%%%%%QqQqQq%%%Q%%qQqQq%%%%%%Qq%%%%QqQq%%%%%%%
1515B81%%%%Q%qQ%q%%%%%Qq%%%%%%Q%qQqQ%qQ%qQ%%%%%%%%%%%%%qQ%%%%%%%%%%%%%%%%%%%
1508B89%%%%%%%%%%%qQ%%%Q%qqK4j6%Qj6J6j6%J6q%%Qq%%%%%%%%%%%%%%%%%%%%%%%%%%%%%
1502B89QqQq%%%%%%%%Qq%%%%%Q%q%Qq%Qq%QqQ%%%%%%%%%%q%%%%%%Q%%%%qQq%Q%%%%%%%%%q
1496B89Q%qQ%%qQ%%%%%%%qQq%QqQ%%%%%%%%%%%%%%%%%%%%%%%%%%%%%%%%%%%%%%%%%%%%%%%
1489B97%%%%%%%%%%%%%%%%%%%%%%%%%%%%%%%%%%%%%%%Q%q%%%%%Qq%%%%%%Qq%%Q%q%Q%%q%Q
1482C05%q%Q%qQ%qQqQ%%qQqQ%%%%%%%%%qQ%%%qQ%%%%%%%%%%%%%%%%%%%%%%%%%%%%%%%%%%%
1476C05%%%%%%%%%%%%%%%%%%%%%%%%%%%%%%%%%%%%%%%%%%%%%%%%%%%%QqQqQq%Q%q%Qq%%%Q
1469C13q%%%%%%Q%%qQq%Qq%%Q%q%%%Q%%qQ%q%%Q%%qQqQqQ%%%%qQ%%%%qQ%qQ%%%%%%qQ%%%%
1463C13%%%%%%%%%%%%%%%%%%%%%%%%qQ%%qQ%%%%%%%%%%%%%%%%%%%%%%%%Qq%%qQ%%%%%%%Qq
1456C13%%%%%%%%Qq%%Q%qQq%%%Q%q%%%%%%Qq%%%%%%Q%%q%%%Q%qQ%qQ%qQ%%q%QqQ%%%%qQ%%
1449C21%%%%%%%%%%%%%%%%%%%%%%%%%%%%%%%%%%%%%%%%%%%%%%%%%%%%%%%%%%%%%%%%%%%%%
1443C21%%%%%%%%%%%%%%%%%%%%%%%Q%%q%%%%%QqQqQ%q%%Qq%%%QqQ%q%QqQqQ%%%%%%%%qQ%%
1436C29%%%%%%q%Q%%%%%%%%%%%%%%%%%%%%%%%%%%%%qQ%Qq%%%%%%%%%%%%%%%%%%%%%%%%%%%
1430C29%%%%%%%%%%%%%%%%%%Qq%%%%%%%%Q%q%Qq%%%%Q%q%QqQqQ%q%%Qq%Q%%%%%%qQq%Qq%Q
1423C37qQqQ%%%%%%%%%%%%%%%%%%%%%%%%%%%%%%%%%%%%%%%%%%%%%%%%%%%%%%%%%%%%%%%%%
1417C37%%%%%%%%%%%%%%%%%%%%QqQq%%Q%qQ%%%qQq%QqQ%q%%%Q%%q%Qq%%%Q%%%qQq%QqQqQ%
1410C45%%%%q%Q%q%QqJ6j6QqQQQj6%%Qq%%%qJ6q%%%qQ%qQ%%%%%%%%%%%%%%%%%%%%%%%%%%%
1404C45%%%%%%%%%Qq%%%%%%%%%Qq%Qq%%%Q%q%%%%%%%Q%%qQ%qQ%%q%Q%%%%%qQ%%%%%q%Q%%%
1397C53%%%%%%%%qQ%qQ%%%%%%%%%%%%%%%%%%%%%%%%%%%%%%%%%%%%%%%%%%%%%%%%Qq%%%%%%
1391C53QqQq%%%%%%Q%q%QqQqQ%q%QqQ%%qQ%%q%QqQqQ%%qQqQq%Q%qQ%%qQ%%%%%%%%%%%%%%q
1384C53Q%%%%%%%%%%%%%%%%%%%%%%%%%%%%%%%%%%%%%%%%%%%%%%%%%%%%%%%%%%%%Qq%%%Qq%
1377C61%Qq%Qq%QqQ%qQ%qQ%%%%%%%%%%%%qQ%%%%%%%%%%%%%%%%%%%%%%%%%%%%%Qq%%%%%%%%
1371C69%%%%%%%%%%%%%%%%%%%%%%%%%%%%Qq%%%%Q%q%%Q%qQq%%%%%QqQq%QqQ%%qQ%qQ%qQ%%
1364C77%%%%%%%%%%%%%%%%%%%%%%%%%%%%%%%%%%%%%%%%%%%%%%%Qq%%%%Q%q%Qq%%%%%%%%%%
1358C77%%%%%QqQq%%%%%%%%%Q%q%%%Q%q%QqQqQ%%%%%%%%%qQ%%%%%%%%%%%%%%%%%%%%%%%%%
1351C85%%%%%%%%%%%%%%%%%%%%%%%%%%%%%%%%%%%%%qJ6q%%Qq%%Q%qQq%%%%%%%%QqQ%qQ%%q
1345C85%%Q%q%Q%%%%%%%%%%%%%%%%%%%%%%%%%%%%%%%%%%%%%%%%%%%%%%%%%%%%%%%%%%%%%%
1338C93%%%%%%%%%%%%%%Q%q%Qq%Qq%QqQq%Qq%QqQ%q%%Q%%q%%Q%%%%qQ%%%%%%qQ%%%%%%%%%
1332D01%%%%%%%%%%%%%%%%%%%%%%%%%%%%%%%%%%%%%Qq%Qq%%%%%%%%Qq%Qq%%%%Qq%%%%Q%%%
1325D09%%%qQqQ%q%Q%%%%%%%%%%%%%%%%%%%%%%%%%%%%%%%%%%%%%%%%%%%%%%%%%%%%%%%%%%
1318D09%%%%%%%%%Qq%Q%qQ%%q%%%%%%Q%%q%QqQ%%%%%%%%%%q%Q%%%%%%%%%%%%%%%%%%%%%%%
1312D17%%%%Qj6Q%QqQqQ%qQ%q%%%%%%%%%%Qq%%%%Qq%Qq%%Qq%Qq%QqQq%%%%Q%%%%%%%qQqQq
1305D17Q%%%%%%%%%%%%%%%%%%%%%%%%%%%%%%%%%%%%%%%%%%%%%%%%%%%%%Q%q%%Qq%%%QqQq%
1299D25QqQqQq%Q%%%%%%qQ%%%%%%%%%%qQ%%%%%%%%%%%%%%%%%%%%%%%%%%%%%%%%%%%%%%%%%
1292D33%%Qq%%%%%%%%%%%%%%Qq%%Qq%Q%%%qQ%%%%qQqQ%%%%%%%%%%qQ%%qQ%%%%qQ%qQ%%%%%
1286D41%%%%%%%%%%%%%%%%%%%%%Qq%%%Qq%Qq%Q%q%%%%%%%%%%%%%Q%qQ%q%%QqQ%qQ%qQ%qQ%
1279D49%q%Q%%%%%%%%%%%%%%%%%%%%%%%%%%%%%%%%%%%%%%%%%%Q%qQ%%qQ%%%qQ%%%%%%%%%%
1272D57%%%qQ%%%%%%%%%%%%%%%%%%%%%%%%%%%%%%%%%%%%%%%%%Qq%Qq%%%%%%%%%Qq%QqQ%qQ
1266D65qQ%%%qQ%%%%%qQ%%%%%%%%%%%%%%%%%%%%qQQq%%QqQ%q%%%%%%Qq%%%%%%%%%%%%%%Qq
1259D65%Qq%QqQq%Qq%%%Qq%%%%Q%%%qQ%%%%%%%%%%%%%%%%%%%%%%%%%%%%%%%%%%%%%%%%%%%
1253D73%Qq%%%%%%%%%%%%%%%Qq%%%%%%QqQ%%%%qQ%%qQ%%qQ%%%%%%%%%%%%%%%%%%%%%%%%%%
1246D81%%%%%%%%%%%%%%%%%%%Qq%%Qq%%QqQqQ%%qQ%%%%%%%%%%%%%%%%%%%%qQ%%%%%%%%%%%
1239D89%%%%%%%%%%%%%%%%Q%q%Qq%%Q%qQ%q%QqQ%%qQ%%%%%%%%%%%%%%%%%%%%%%%%%%%%%%%
1233D97%%%%%%%%%%%%%%%%%%%Qq%%%Qq%%%%%%%QqQ%%%%%%%%%%%%%%%%qQ%%%%%%%%%%%%%%%
1226E05%%%%%%%%%%%Q%q%%%%%%%%%%%%%%Q%%q%Qq%Q%%q%Q%q%Q%%%%%%%%%%%%%%%%%%%%%%%
1220E13%%%%%%%%%Qq%%%%%%%%%%%%Qq%%Qq%Qq%QqQ%%%%qQ%qQqQ%qQ%qQq%J6j6Q%%qQ%QQj6
1213E21j6M0q%Qm0K4qQK4l2Q%%q%Qq%Q%q%QqQqQ%qJ6q%%%%%%qQq%Q%qQqQ%%%qQ%%qQ%%qQ%
1208E29%%%%%%%%%%qQ%%%%%%%%%%%%%%Qq%%Q%%qQ%%%%qQqQ%%%%%%%%%%%%%%%%%%%%%%%%%%
1201E37%%%%%%%%%%%%%%%%%%%%%%%%%%%QqQq%%Q%%%%%%%%%%%%%%%%%%%%%%%%%%%%%%%%%%%
1194E45%%%%%%%%%%Qq%%Qq%%Qq%%%Q%q%QqQ%q%Q%%%%%%%%%%%%%%%%%%%%%%Qq%%%Qq%Qq%%%
1188E53%%Q%q%%Qq%%QqQq%%QqQ%q%Q%%%%%%%%%%%%%%%%%%%%%%%%%%%Qq%%%%Qq%%Qq%%Qq%%
1181E61Q%q%QqQq%Q%%%%%%%%%%%%%%%%%%%%%%%%%%%%%%%%%%%%%%Qq%%Q%q%QqQqQq%QqQ%%%
1175E77%%%%%%%%%qQ%%%%%%%%%%%%%%%%%%%%%%%%%%%%%%%%Q%qQqQ%qQ%q%%Q%qQ%qQqQ%%%%
1168E85%%%%%%%%%%%%%%%%%%%%%%%%%%%%%%%%%%QqQj6Q%Qj6Q%Q%%q%Q%%%%%%%%%%%%%%%%%
1162E93%%%%%%%%%%%Qq%%%%%%%%Qq%QqQ%%%%%%%%%%%%%%%%%%%%%%%%%%%%%%%%%%%%%%%%%%
1155F01%%%%%%%%Q%q%%Qq%Q%qQ%%%%%%%%%%%%%%%%%%%%%%%%%%Qq%%%%%%%%%%Qq%%%QqQ%%%
1149F17%%%%%%%%%%%%%%%%%%%%%%%%%%%%%%%%Q%qQqQ%%%%%%%%%%%%%%%%%%%%%%%%%%%%%%%
1142F25%%%%%%%%%%%%Qq%%%%Qq%QqQ%%%qQ%%%%%%%%%%%%%%%%%%%%%%%%%%%%%%%%%%%%%%Qq
1135F33Q%%%%%%%%%%%%%%%%%%%%%%%%%%%%%%%%%%%%%%%%%%%%%%%%%%%%%Q%%%%qQqQ%%%%%%
1129F49%%%%%%%%%%%%%Qq%%%%%%%%%%%%%Q%q%Q%%%%%%%%%%%%%%%%%%%%%%%%%%%%%%%%%%%%
1122F57%%%Qq%%Q%%%%qQ%%%%%%%%%%%%%%%%%%%%%%%%%%%%QqQ%qQq%Qq%%Q%q%Q%%%%%%%%%%
1116F73J6j6J6j6Qq%Q%q%%%%%%Qq%Q%q%Q%q%Q%qQq%Qq%Q%%%%%%%%%%%%%%%%%%%%%%%%%%Qq
1109F81Qq%%%%%Q%%%%%%%%%%%%%%%%%%%%%%%%%%Qq%%%%%%%%%%%%%%%Q%%%%%%%%%%%%%%%%%
1103F97%%%%Qq%%Qq%%%%%%%%%%QqQqQ%q%Q%qQ%%qQ%%%%%%%%%%%%%%%%%%Qq%%%Qq%%Q%%%%%
1096G13%%%%%%%%%%%%%%%%%%%%%%%%%%QqQ%q%%Q%%%%%%%%%%%%%%%%%%%%%%%%%%%%%QqQq%%
1090G21Qq%%Q%%%q%Qq%Q%%%%%qQ%%%%%%%%%%%%%%%%Qq%Q%%%qQ%%%%%%%%%%%%%%%%%%%%%%%
1083G37%%%%%%%%%Qq%%QqQ%%%%%%%%%%%%%%%%%%%%%%%%%%%Qq%%Q%%qQ%%%%%%%%%%%%%%%%%
1077G53%%%%%%%%%%%%%Q%%qQ%qQ%%%%%%%%%%%%%%%%%%%%%%%%%%%%%%%%%Q%%%%%%%%%%%%%%
1070G69%qQ%%%%%%%%%%%%Qq%Qq%Q%%%q%Q%qQqQ%%%%%qQ%%%%%%%%%%%Qq%%%QqQqQqQ%%%%%%
1063G85%%%%%%%%%%%%%%%%%%%%%%%%%%%QqQ%%%%%%%%%%%%%%%%%%%%%Qq%%%Q%qQ%%%%%%%%%
1057H01%%%%%%%%%%%%%%%%%%%%Qq%Q%qQqQ%qQ%%%%%%%%%%%%%%%%%%%%%Qq%%Q%%%%%%%%%%%
1050H17%%%%%%%%%%%%%%%QqQ%%%%%%%%%%%%%%%%%%%%%%%%%%%%%%Q%qQ%%%qQ%%%%%%%%%%%%
1044H33%%%%%%%%Qq%Qq%%QqQq%QqQqQ%%%%%%%%%%%%%%Qq%Q%q%%Q%%%%%%%%%%%%%%%%%%%%%
1037H49%%Qq%Q%qQq%QqQ%%%%%%%%%%%%%%%%%%%%%%Qq%Q%%qQ%qQ%%%%%%%%%%%%%%%%%%%%Q%
1030H73%%%%%qQqQ%%%%%%%%%Qq%%%%%%QqQ%qQ%%%%%%%%%%%%%%%Qq%%%%%%Q%%%%%%%%%%%%%
1024H89%%%%%%%%%%%%%%%%Qq%Qq%Q%qQ%qQ%%%%%%%%%%%%%Qq%Q%qQqQ%%%qQqQ%qQ%QqQq%%%
1017I05%qJ6%q%Qj6QQ%%%qQ%%%%%%%%%%%%%%%Q%%%qQ%%%%%%%%%%%%%%%%%%%%Qq%Q%q%%Q%%
1011I29%%%%%%%%%%%%%%%%%%%%%%Q%%%%%%%%%%%%%%%%%%%%%%QqQ%%%%q%Q%qQ%%%%%%%%%%%
1004I45%%%%%%%%Q%%%%%%%%%%%%%%%%%Qq%%%Q%%qQ%%%%%%%%%%%%%%%%Qq%Qq%%%Q%%%%%%%%
998I69%%%%%%%%%%%Q%%qQ%%%%%qQ%%%%%%%%%%%%%Q%%%%%%%%%%%%%%%%%%%%QqQ%%%%%%%%%%
991I93%%%%%%%%%%%%%%QqQqQ%%qQ%%%%%%%%%Qq%QqQ%%%%%%%%%%%%%%%%%%%%%%%%Q%%qQ%%%
984A017%%%%%%%%%%%%%%%%Q%%%%%%%%%%%%%%%%%%%%%%Q%%qQ%%%%%%%%%%%%%%%Qq%%%Q%%%%
978A041%%%%%%%%%%%%%%%%%%%Q%%%%%%%%%%%%%%%%%Q%qQ%%%%%%%%%%%%%%%%%%Q%%%%%qQ%%
971A065%%%%%%%%%QqQq%Q%%%%%%%qQqQ%%qQ%%%%Q%%q%QqQ%%%%%%%%%%%Qq%Q%%%%%%%%%%%%
965A089%%%%%%%%Q%%%%%%%%%%%%%%%%%%%Qq%%Q%%%%%%%%%Qq%%%%%QqQ%qQ%%%%%%%%%%%Q%%
958A121qQ%%%%%%%%%%%%%%%Q%%q%Q%%%%%%%%%%%%Qq%%%%Q%%%%%%%%%%%%%%Qq%QqQ%%%%%%%
951A145%%%%%%%Qq%%Q%%q%Q%%%%%%%Qq%%Q%%%%%%%%%%%%%%%Qq%%%%QqQ%%%%%%%%%%%QqQ%%
945A177%%%%q%Q%%%%%%%%%QqQqQ%%%%%%%%%%%%%%Q%%%%%%%%%%%%%%%%%%Q%qQ%%%%%%%%%%%
938A201Q%%%q%Q%%%%%%%%%%%%%%%%Q%%%%%%%%%%%%%%%Qq%Q%%%%%%%%%%%%QqQq%Q%%%%%%%%
932A233%%%%QqQ%%%%%%%%%%%Qq%Q%%%%%%%%%%%%%%%%%%Qq%Q%%%%%%%%%%%Qq%Q%%%%%%%%%%
925A265%Qq%Q%%%%%%%%%%%Q%%q%QqQ%%%%%%%%%%%%%%Q%%%%%%%%%%%Q%qQj6J6%%%%%qJ6q%Q
919A305q%%QqQqQ%%%%%%%Qq%Qq%Qq%Q%%%%%%%%%Q%%%%%%%%%%%%%%%QqQq%Q%%%%%%%%%Qq%Q
912A337%%%%%%%%%%%%%%Q%%%qQ%%%%%%%%Q%%%%%%%%%%Q%qQqQ%%%%%%%%%%%%Q%%%%%%%%%%%
906A369%%%%Qq%Q%%%%%%%%%%%%Q%%%%%%%%%%%QqQ%%qQ%%%%%%%Q%%%%%%%%%%%%%%%Q%%%%%%
899A409%%%%%%Q%qQ%%%%%%%%Qq%%Q%%%%%%%%Qq%Q%%qQ%%%%%%%%%%%Q%%%%%%%%%%%QqQqQ%%
893A449%%%%%%%QqQ%%%%%%%%%%Q%%%%%%%%%Qq%%Q%%%%%%%%%%%%%Q%%%%%%%%Qq%QqQ%%%%%%
886A489%%%%Q%%%%%%%%%%%QqQ%%%%%QqQqQq%QqQ%%%%%%Q%q%Q%%%%%%%Q%%%%%%%%%%%%%%%Q
879A537%%%%%%%%%%Q%%%%%%%%%%%%QqQ%%%%%%%%%%Q%%%%%%%Q%qQ%%%%%%%%%%%%Q%%%%%%%%
873A577%%%QqQ%%%qQ%Q%qQq%J6qqJ6%q%%%%Q%%%%%%%%%QqQ%%%%%%%%%%%Q%%%%%%%Q%%%%%%
866A625%%%%Q%%%%%%%%%%%Q%qQ%%%%%%%Qq%Q%%%%%%%Q%%%%%%%%%%Q%%%%%%%%%%Q%%%%%%%%
860A673%%QqQ%%%%%%%%Q%%%%%%%%Qq%%Q%%%%%%%Qq%Q%%%%%Qq%%Q%%%%%%%%%Q%%%%%%%%%%Q
853A729%%%%%%%Q%%%%%%%%%%%%%Q%%%%%%QqQ%%%%%Qq%%Q%%%%%%%%Q%%%%%%%%%%%Q%%%Q%q%
847A777QqQ%%%%%%Q%%%%%%%%%QqQ%%%%%%Q%%%%%%%%QqQ%%%%%%%Q%%%%%%%%%%%Q%%Qq%%%%Q
840A841%%%%%%%%%Q%%%%%%%%QqQ%%%%%%%Q%%%%%%%%%Q%%%%Qq%%Q%%%%%%%%Q%%%%%%%Q%%%%
834A897%%%%Q%%%%%%%Q%%%%%%%%QqQ%%%%Q%%%%%%%Q%%%%%%%%%%%%Q%%%%%%%Q%%%%%QqQ%%%
827A961%%%%%%Q%%%QqQqQ%%%%QqQqQ%qQqQ%Q%%QqqJ6q%%QqQqJ6j6Q%%J6Qq%%%%q%Q%QqQ%q
821B017J6q%%%Q%%%%%Q%qQ%%%%%%QqQ%%%%%Q%%%%%%%QqQ%%%%%%%Q%%%QqQ%qQ%%%%%%Q%%%%
814B089Qq%Q%%%%Q%%%%%%%%Q%%%%%%Q%%%%%QqQ%%%%%QqQqQ%%%%%Q%%%%%%Q%%%%%Q%%%%%%%
808B161%%Q%%%%Q%%%%%%%%Q%%%%%Q%%%%%%Q%%%%%%%Q%%%%%%%Q%%%%Qq%Q%%%%Q%%%%%%%Q%%
801B241%%%Q%%%%%QqQ%%%%Qq%Q%%%QqQ%%%QQq%qQ%%%Q%%%%%Q%%%%%%Q%%%%%%%Q%%%%Q%%%%
795B321%QqQ%%%%Q%%%%%%%Q%%%%Q%%%%%%%Q%%%%Q%%%%%%%Q%%%%QqQ%%%Q%%%%%%%Q%%%%%Q%
788B409%%%%%Q%%%Q%%%%%%%Q%%%Q%%%%%%%Q%%%%%Q%%%%%Q%%%%%%Q%%%%Q%%%%%Q%%%%%Q%%%
781B497Q%%%%%Q%%%%%%%Q%%Qq%%Q%%%Q%%%%%Q%%%%%Q%%%%Q%%%Q%%%%%%Q%%%%%%%Q%%%QqQ%
775B593%QqQ%%%QqQ%%Q%qQ%%%Q%%%Q%%%%%QqQ%%%Q%%%%%%Q%%%%Q%%Q%%%%%QqQ%%Q%%%%%%Q
768B697%%%Q%%%%Q%%%%%Q%%%%%Q%%%%Q%%%Q%%%%%Q%%Q%%%%%%Q%%Q%%%%%Q%%%%%Q%%%%Q%%Q
762B809qQ%%%%%Q%%%Q%%%%%Q%%%Q%%%Q%%%%%Q%%Q%%%%%%Q%%%%Q%%%Q%%%%%Q%%%Q%Qq%Q%%%
755B913Q%%%%Q%%%Q%%%Q%%%%Q%%%Q%%%%Q%%%%Q%%%%Q%%Q%%%%Q%%%Q%%%%%Q%%%%Q%%Q%%%Q%
748C041%%%%Q%%%Q%%Q%%%%Q%%%%Q%%%Q%%%Q%%%%Q%%%Q%%%%Q%%%Q%%%Q%%QqQ%%Q%%%Q%%%Q%
742C169%%%Q%%%Q%%%Q%%%Q%%%Q%%%Q%%Q%%%%%%QQ%%%%Q%%%Q%%%Q%%%Q%%%Q%%Q%%%Q%%%Q%%
735C305%%Q%%%Q%%%Q%%Q%%QqQ%Q%%%Q%%%Q%%%Q%%Q%%%%Q%%%Q%%Q%%Q%%%%Q%Q%%%%Q%%Q%%%
729C449Q%%Q%%%Q%%%%Q%%Q%%Q%%%Q%%Q%%QqQ%%QqQ%J6%%%Q%%Q%%%%%Q%QqQ%Q%%%%Q%Q%%%Q
722C609%%Q%%%%Q%%Q%%Q%%Q%Q%%%%Q%%Q%%Q%%Q%%Q%%%Q%%Q%%%Q%%%QQ%%%Q%%Q%%Q%%Q%%Q%
716C777%Q%%%Q%%Q%Q%%%Q%%Q%%%Q%%%QQ%%%%Q%QQqQ%%%Q%%Q%Q%%%Q%Q%%Q%%Q%%Q%%Q%%Q%%
709C953Q%%Q%%Q%%Q%%%Q%%Q%%Q%Q%%Q%Q%%%Q%Q%%Q%%Q%%Q%Q%%Q%%Q%%Q%%Q%%Q%Q%%Q%%Q%Q
702D153%%%Q%%Q%Q%%Q%%Q%Q%%Q%%%QQ%Q%%%Q%%Q%Q%Q%%Q%%Q%Q%Q%%Q%Q%%Q%%Q%Q%Q%%%Q%Q
696D361%%Q%Q%%Q%QqQQ%%Q%%Q%Q%%Q%Q%Q%%Q%%Q%Q%Q%%Q%Q%%Q%Q%%Q%Q%%Q%Q%Q%%Q%Q%Q%%
689D577Q%Q%Q%Q%Q%%Q%%Q%Q%%Q%Q%%Q%Q%Q%Q%Q%Q%%Q%Q%Q%Q%%Q%Q%%Q%Q%Q%%QQ%%Q%Q%Q%Q
683D825%Q%%Q%%QQ%Q%Q%%Q%QQ%%Q%Q%%QQ%%QQ%%Q%QQ%%Q%Q%Q%Q%Q%%QQ%Q%Q%Q%%QQ%%QQ%%
676E081Q%J6qQ%Q%QQ%%Q%Q%Q%QQ%%QQ%Q%Q%%QQ%%QQ%Q%Q%Q%Q%Q%Q%Q%Q%Q%QQ%%QQ%Q%%QQ%
670E361Q%QQ%%QQ%QQ%%QQ%Q%Q%QQ%%QQ%Q%Q%Q%Q%Q%QQ%Q%QQ%Q%Q%Q%QQ%Q%Q%Q%QQ%%QJ6%%
663E665Q%QQ%Q%QQ%Q%QQ%Q%QQ%QQ%Q%Q%Q%QQ%QQ%QQ%%QQ%QQ%QQ%Q%QQ%Q%Q%QQ%QQ%QQ%QQ%
657F001Q%QQ%QQ%QQ%QQ%QQ%Q%QQ%QQ%Q%QQQ%QQ%QQ%QQQ%%QQQ%QQQ%Q%Q%J6%%QQQ%QQ%QQ%Q
650F361Q%QQQ%QQQ%Q%QQQ%J6%Q%QQQ%QQ%QQ%QQQ%QQ%QQ%QQQ%QQQ%J6%%QQQQ%QQQ%QQQQQ%Q
644F753Q%Q%J6Q%Q%J6%QQ%QQQQ%QQQ%QQQQ%QQQ%QQQQ%QQQQ%QQQQ%J6%QQ%QQQQQQ%QQ%QQQQ
637G169QQ%QQQQQQQ%QQQQQ%QQQQQ%QQQQQ%QQQQQQ%QQQQQQQQ%QJ6%QQQQ%J6%J6%QQQQQ%QQQ
631G625QQQQQQQQQQ%QJ6%QQQQQQQQ%QQQJ6Q%QJ6%QQQQ%K4QqJ6QQQQQJ6qK4qJ6QQ%QQJ6%QQ
625H081QQQQQQJ6%QQQQQJ6%QJ6%QQQQQQQJ6QQQQQQQQQQQQQQQQQJ6QQ%J6QQ%J6QQQQQQQJ6Q
620H593QQQQQQQQQJ6%J6QQQQQQJ6QQQQQQQJ6QQQQQQQJ6QQQQQJ6QQQJ6Q%J6QQJ6QQQQQQJ6Q
614I129QQQJ6QQQQJ6QQQJ6QQQQQJ6QQJ6QQQQJ6QQQJ6QQQJ6QQQJ6QJ6QQQQJ6QQJ6QQJ6QQQQ
609I681J6J6QQQJ6QQJ6QQJ6QQJ6QQQJ6QJ6QQQJ6QQJ6QJ6QQJ6QQJ6QJ6QQJ6QQJ6QJ6QQJ6QJ6
604A0241QJ6QQJ6QJ6J6QQQQK4QQJ6QJ6QQJ6QJ6QJ6J6QJ6QQJ6J6QQJ6QJ6QJ6J6QJ6QJ6QJ6Q
599A0793J6QJ6QJ6QJ6QJ6J6QJ6QJ6J6QJ6QJ6QJ6QJ6J6QJ6QK4QQJ6J6QJ6QJ6J6QJ6QJ6J6QJ6
595A1353J6J6QJ6QJ6J6QJ6J6J6QJ6J6QJ6J6QJ6J6QJ6J6J6QJ6J6J6QJ6J6QJ6J6J6J6QJ6J6J6
591A1905J6QJ6J6J6QK4QJ6J6QK4QJ6J6J6QJ6J6J6J6J6J6QJ6J6J6J6J6J6QJ6J6J6J6J6J6J6
588A2465J6QJ6J6J6J6J6J6J6J6QJ6K4QJ6J6J6J6J6J6J6J6J6J6J6J6J6J6J6J6J6J6K4QJ6K4
584A3033QK4QK4J6J6J6J6J6J6J6J6J6J6J6K4QK4J6J6J6J6J6J6J6K4J6J6J6J6J6K4J6J6J6J6
581A3633K4J6J6J6J6J6J6K4J6K4QK4J6J6J6K4J6J6J6K4J6K4J6J6J6K4QJ6L2J6J6J6K4J6J6
577A4265K4J6J6J6K4J6J6K4J6K4J6J6K4J6K4J6K4J6J6K4J6J6K4K4J6J6K4J6K4J6K4J6K4J6
574A4921K4J6K4J6J6K4K4J6K4J6K4J6K4K4J6K4J6K4J6K4K4J6K4J6K4K4J6K4K4J6K4J6K4K4
571A5625J6K4K4K4J6K4K4J6K4K4K4J6K4K4J6K4K4K4K4J6K4K4K4K4J6K4K4K4K4J6K4K4K4K4
568A6377K4K4K4J6K4K4K4K4K4K4K4K4K4K4K4K4K4J6L2K4K4K4K4K4K4K4K4K4K4K4K4K4K4K4
564A7185K4K4L2K4K4K4K4K4K4L2K4K4K4K4L2J6L2K4K4K4L2K4K4K4L2K4K4K4L2K4K4K4K4L2
561A8057K4L2K4L2J6L2K4L2K4L2K4L2K4K4K4L2K4L2L2K4K4L2K4L2K4L2K4L2K4L2K4L2L2K4
558A8993L2K4L2L2K4L2L2K4L2L2K4L2L2K4L2L2L2K4L2L2K4L2L2L2L2K4L2L2L2K4M0L2K4L2
555B0009L2L2L2K4M0L2K4M0L2L2K4L2L2L2M0K4L2L2L2L2L2M0L2L2L2L2L2L2L2L2M0L2L2L2
552B1105L2M0L2L2L2L2M0L2L2M0L2L2M0L2M0L2L2M0L2L2M0L2M0L2M0L2M0L2L2M0M0L2L2M0
548B2297M0L2L2M0M0L2M0M0M0L2M0L2M0M0M0M0L2M0M0M0L2M0M0M0M0M0M0L2M0M0M0M0M0M0
545B3593M0M0M0M0M0M0M0M0M0M0M0M0M0M0M8M0M0M0M8M0M0M0M8M0M0M0M8M0M0M0M8M0M8M0
542B5001M8M0M0M8M0M0N6M0M0M8M8M0M8M8M0M8M0M8M8M8M0M8M8M0M8M8M8M0M8M8M8M8M0N6
539B6545M0M8M8N6M8M8M0N6M8M8M8M8M8M8M8N6M0N6M8N6M8M8M8N6M8M8N6M8N6M8M8N6M8N6
535B8233M8N6M8N6M8N6N6M8N6N6M8N6N6N6M8N6N6N6M8N6N6N6N6N6N6N6N6N6N6N6N6O4N6N6
532C0089N6N6N6N6N6O4N6N6O4N6O4N6N6N6N6P2N6N6O4O4N6P2N6N6O4N6P2N6M8O4P2N6O4P2
529C2129O4O4N6P2N6O4P2O4O4O4O4O4O4P2N6P2O4P2O4P2O4P2N6P2P2O4P2O4P2P2O4P2P2O4
526C4385P2P2P2P2O4P2Q0O4P2P2P2P2P2P2P2P2Q0P2P2Q0P2P2Q0P2P2Q0P2Q0Q0P2Q0P2Q0Q0
522C6897P2Q0Q0Q0Q0P2Q0Q0Q0Q0Q0Q0Q8Q0Q0Q0Q0Q0Q8Q0Q8Q0Q8Q0Q0Q8Q8Q0Q8Q0Q8Q8Q8Q8
519C9689Q0Q8Q8Q8Q8Q8Q8R6Q8Q0R6Q8R6Q8Q8R6Q8R6Q8Q8R6R6Q8R6R6R6R6Q8R6R6R6R6R6R6
516D2801J04R6R6J04R6R6R6J04J04R6J04R6J04J04R6J04J04J04J04J04J04J04J04J04J04J12
513D5449J04J04J12J04J04J12J12J04J12J12J04J12J12J12J12J12J12J20J12J12J12J20J12
511D7993J12J20J12J20J20J12J20J20J20J20J12J20J28J20J20J20J20J28J20J28J20J28J28
509E0761J20J28J28J28J28J28J28J28J28J28J36J28J28J36J36J28J36J28J36J36J36J36J36
507E3769J36J44J36J36J44J36J44J36J44J36J44J44J44J44J44J44J52J44J44J44J52J44J52
505E7057J52J52J44J60J52J52J52J52J52J60J52J60J52J60J60J60J60J60J60J60J60J68J60
502F0657J68J60J68J68J68J68J68J68J68J68J76J68J76J68J76J76J76J76J76J76J76J84J84
500F4617J76J84J76J84J84J84J92J84J84J84J92J84J92J92J92J92J92J92K00J92K00J92K00
498F8961K00K00K00K08J92K08K08K00K08K08K08K16K00K16K08K16K16K08K24K16K08K24K16
496G3769K24K16K24K24K32K16K32K24K32K24K32K32K32K32K40K32K40K32K40K40K40K48K40
494G9097K48K40K48K56K40K56K56K48K56K48K64K48K64K56K64K64K64K64K64K64K72K72K72
491H5025K72K72K80K72K80K80K80K80K88K80K88K88K88K96K88K88K96L04K96K96L04K96L04
489I1641L12L04L04L12L12L12L12L20L20L12L28L20L28L20L28L28L36L28L36L36L36L36L44
487I9065L44L44L44L52L52L52L52L60L52L60L60L68L60L68L68L76L68L76L76L84L76L92L84
485A07433L84L92L92L92M00L92M00M08M00M08M08M16M08M16M16M24M24M24M32M24M32M40M32
483A16897M40M40M48M48M48M56M56M56M56M64M64M72M72M72M72M80M88M72M96M88M96M96M96
480A27673N04N04N12N12N12N12N20N28N28N28N36N28N44N44N44N52N52N52N60N60N68N68N76
478A40017N76N84N76N92N92N92O00O08O08O08O08O24O16O32O24O32O40O40O48O48O56O56O64
476A54241O72O64O80O80O80O88O96O96P04P04P20P12P28P20P36P28P44P44P52P52P68P68P68
474A70745P76P84P84P92Q00Q08Q08Q16Q16Q24Q40Q32Q48Q48Q56Q64Q64Q72Q88Q80Q96Q96R12
472A90049R12R20R20R36R36R44R60R60R68R68R84R84J000J000J008J024J024J032J040J048
470B09617J064J064J072J080J088J104J104J112J128J128J144J152J160J168J176J184J200
468B28745J200J216J224J232J240J264J264J272J288J288J304J320J328J336J352J360J368
467B50601J384J392J408J416J424J448J448J472J472J488J504J520J528J544J552J568J576
465B75745J600J616J616J640J656J664J688J696J704J728J744J760J776J784J808J824J840
463C04889J856J872J888J912J920J944J960J984J992K016K040K056K072K088K120K136K152
462C38897K176K200K216K240K256K280K312K328K352K376K392K424K448K472K496K520K544
460C78929K576K600K624K656K680K704K736K768K792K824K848K888K912K944K976L008L040
458D26505L072L112L136L176L208L248L280L312L352L392L432L464L512L544L592L624L672
457D83633L704L760L800L840L896L928L976M032M072M120M176M224M272M328M376M432M488
455E53057M536M600M656M712M776M824M896M952N016N088N144N216N280N344N424N488N568
454F38577N632N712N784N872N944O024O104O192O280O360O448O544O624O728O824O912P016
452G45577P112P216P328P424P536P648P760P872P992Q112Q232Q352Q488Q616Q744Q880R016
450H81905R160R304R448R600R752R904J0064J0224J0400J0560J0736J0920J1096J1280J1472
449A035825J1664J1864J2072J2272J2488J2696J2928J3152J3384J3616J3872J4112J4376J4632
448A218953J4896J5184J5456J5744J6048J6344J6656J6976J7304J7640J7984J8336J8704J9072
446A455297J9456J9848K0248K0664K1096K1528K1976K2440K2912K3408K3904K4424K4960K5504
445A767665K6064K6656K7248K7864K8496K9152K9824L0528L1232L1984L2744L3536L4336L5184
444B192513L6064L6944L7872L8840L9816M0848M1904M3000M4144M5312M6520M7792M9096N0456
442B791121N1856N3312N4832N6400N8032N9728O1488O3320O5224O7208O9272P1416P3656P6000
441C672865P8424Q0960Q3608Q6368Q9264R2288R5432R8728J02192J05816J09592J13576J17736
440D926849J22112J26704J31536J36608J41944J47560J53488J59728J66312J73256J80600
439F566697J88368J96576K05280K14488K24272K34656K45680K57416K69904K83208K97416
438I183961L12568L28768L46120L64712L84648M06064M29104M53896M80656N09552N40784
436A3740833N74640O11368O51288O94744P42160P93960Q50688R12927R81377J056816J140175
435B2750976J232473J334993J449142J576632J719440J879946K060974K265818K498592K764157
434D1533143L068419L418669L823848M295050M846145N494567O262609P178594Q279515R613525
434I7814084J1244384J3257584J5768810J8937013K2983573K8220740L5095550M4254938N6643644
433C44220320P3642170R7234791J30120840J75409547K34749065L02006056L48728596L10920289
432B017031674J30451973j30451973l10920289l48728596l02006122k34749065j75409481
431F45218121j30120840r7234791p3642170n6643677m4254921l5095534k8220740k2983557
430A57021891j8937046j5768793j3257584j1244400r613509q279499p178627o262584n494583
430F0985266m846145m295042l823856l418670l068418k764149k498592k265832k060954j879952
429C0063656j719440j576632j449142j334993j232481j140167j056816r81377r12927q50688
428A7808993p93960p42152o94744o51296o11368n74640n40792n09544m80656m53896m29096
427A1326849m06072l84648l64704l46128l28776l12568k97408k83208k69904k57416k45680
426G830337k34648k24272k14496k05280j96576j88368j80600j73264j66304j59728j53480
425E733321j47568j41944j36608j31536j26704j22112j17736j13576j09600j05808j02184
424D377945r8736r5440r2280q9256q6376q3608q0960p8424p6000p3656p1416o9272o7208o5232
422C250081o3312o1488n9736n8024n6400n4832n3312n1864n0448m9096m7792m6528m5312m4136
421B507801m3000m1904m0848l9824l8832l7872l6952l6048l5184l4344l3536l2744l1976l1240
420A993497l0528k9824k9152k8496k7864k7248k6648k6072k5504k4960k4424k3904k3400k2920
418A622553k2440k1976k1528k1096k0664k0248j9848j9456j9072j8704j8336j7984j7640j7304
417A346257j6976j6656j6344j6048j5744j5456j5176j4904j4632j4376j4112j3864j3624j3384
416A134961j3152j2928j2704j2480j2272j2072j1856j1672j1472j1280j1096j0920j0736j0560
414I69761j0392j0232j0064r912r752r592r448r304r160r016q880q744q616q480q360q232
413H21577q112p992p872p760p648p536p432p320p216p112p016o920o816o728o632o536o448
411F98481o360o280o192o104o024n944n872n784n712n640n560n488n424n344n280n216n144
409F01113n088n016m952m896m824m776m712m656m600m536m488m432m376m328m272m224m168
408E22769m128m072m024l984l928l896l840l800l760l704l672l632l576l552l504l472l432
406D58793l384l360l312l288l240l208l176l144l104l072l040l008k976k944k912k888k848
405D05889k824k792k768k736k704k680k656k624k600k576k544k520k496k472k448k424k392
403C61633k376k352k328k304k288k256k240k224k192k176k152k136k112k096k072k056k032
401C24241k024j992j984j960j944j928j904j888j872j856j840j824j808j784j776j760j744
400B92353j728j704j704j680j664j656j632j624j616j592j584j568j552j544j528j520j504
398B64953j488j480j464j456j440j424j416j408j392j384j368j360j352j336j328j312j312
396B41233j288j288j272j272j248j240j240j224j216j208j192j184j176j168j160j152j144
395B20561j128j128j112j104j104j088j080j072j064j056j048j048j032j024j016j016j000
393B02441r92r92r84r76r68r52r60r44r36r36r20r20r12r12q96q96q80q88q72q64q64q56q48
391A81273q48q32q32q32q16q16q08q08q00p92p84p84p76p68p68p60p60p52p44p36p36p36p28
389A63257p20p12p20p04o96p04o96o88o80o80o80o72o64o64o56o56o48o48o40o40o32o32o16
387A47809o24o24o08o08o08o08n92o00n84n92n84n76n84n68n76n60n68n60n52n52n52n44n44
384A34441n44n28n36n28n28n20n28n12n20n04n04n12n04m96n04m88m88m88m80m88m72m80m72
382A22817m72m72m64m64m56m56m64m48m48m48m48m40m40m40m32m32m32m24m24m24m24m16m16
380A12633m16m08m08m08m08m00m00m00l92m00l84l92l84l84l92l76l84l76l76l68l76l68l68
378A03665l60l68l60l60l60l52l52l52l52l52l44l52l36l44l36l36l36l36l28l36l28l28l28
376I5729l20l20l28l12l20l20l12l12l12l12l04l12l04k96l04l04k96l04k96k88k96k96k88
373H8673k88k88k88k80k88k80k80k80k80k72k80k72k72k72k72k64k72k64k64k64k64k56k64
371H2369k56k64k56k56k48k56k56k40k56k48k40k48k48k40k40k48k40k40k40k32k32k40k32
369G6713k32k32k32k32k24k24k32k24k16k24k32k16k24k16k24k08k24k16k08k16k16k08k16
367G1617k08k08k08k08k00k08k08k00k00k08k00k00j92k00k00k00j92j92k00j92j92j92j92
365F7017j92j84j92j84j84j84j92j84j84j76j92j76j84j76j84j76j76j76j76j76j76j76j68
362F2849j76j68j76j68j68j68j68j68j68j68j68j60j68j60j60j68j60j60j60j60j60j60j52
360E9057j60j60j52j60j52j52j52j52j60j44j52j52j52j44j52j44j52j36j52j52j44j44j44
358E5593j44j44j44j36j44j36j44j36j44j36j36j44j36j36j36j36j28j36j36j36j28j36j28
356E2433j28j36j28j36j28j28j28j28j28j28j28j28j20j28j20j28j20j28j28j20j20j20j20
354D9529j28j20j12j20j20j20j20j12j20j20j12j20j12j20j12j12j12j20j12j12j12j12j12
352D6857j04j20j04j12j12j04j12j04j12j12j04j04j12j04j04j04j04j04j04j04j04j04j04
349D4401j04r6j04j04r6j04r6j04j04r6r6j04r6r6r6r6j04r6r6r6r6q8r6r6r6r6q8r6r6r6
346D1473q8r6q8r6q8q8r6q8q8r6q8q8q8q8q8q8q8q8q8q0q8q8q8q8q0q8q8q0q8q0q8q0q8q0
343C8497q0q0q8q0q0q0q0q0q8p2q8q0q0q0p2q0q0q0q0p2q0q0p2q0q0p2q0p2p2q0p2q0p2q0
340C5825p2p2p2q0o4q0p2p2p2p2p2p2p2p2p2o4p2p2p2p2o4p2p2o4p2p2p2o4o4p2o4p2o4p2
337C3425o4o4o4p2o4o4p2o4o4o4o4o4o4p2n6o4o4o4o4o4o4n6p2p2n6n6n6o4p2n6o4o4m8p2
333C1257n6o4n6o4n6n6o4o4n6n6n6o4n6n6n6o4n6n6n6o4n6n6n6n6n6n6n6n6n6n6n6n6n6n6
330B9297n6m8n6n6n6n6m8n6n6m8n6n6m8n6m8n6n6m8n6m8n6m8m8n6n6m8m8n6m8m8n6m8m8n6
327B7513m8m8m8n6m8m8m8m8m8m8m8m8n6m0m8m8m8m8m8m8n6m0m8m8m8m8m0m8m8m8m8m0m8m0
324B5897m8m8m8m8m0m0m8m0m8m8m8m0m0m8m8m0m0m8m0m8m8m0m0m0m8m0m0m8m0m8m0m0m0m8
321B4401l2m0m8m0m8l2m8m0m0m0m0m0m0m0m0m0m0m0m0m0m0m0m0m0m0m0m0m0m0l2m0m0m0m0
317B3041l2m0m0l2m0m0m0m0l2m0l2m0m0m0l2m0l2m0l2m0m0l2l2m0m0l2l2m0l2m0l2m0l2l2
314B1801m0m0l2l2l2m0l2m0l2l2m0l2l2l2l2m0l2l2m0l2l2l2l2m0l2l2l2l2l2l2l2m0l2l2
311B0641l2l2l2l2l2l2l2k4m0l2k4m0l2l2k4l2l2l2l2l2l2l2k4l2l2l2l2l2k4l2l2k4m0k4
308A9585l2l2l2k4l2l2l2k4l2k4l2l2l2k4k4l2l2k4l2l2k4l2k4l2l2k4l2k4k4l2l2k4l2k4
304A8601l2k4k4l2k4l2l2k4k4l2k4k4l2k4k4k4l2k4k4l2k4l2k4k4k4l2k4k4l2k4k4k4k4l2
301A7689k4k4k4k4k4l2k4k4k4l2k4k4k4k4k4k4l2k4k4k4k4k4k4k4k4k4k4k4k4k4k4k4l2j6
298A6849k4l2j6k4k4k4l2j6k4k4k4j6l2k4k4j6k4k4k4k4k4k4j6l2j6k4k4k4k4k4j6k4k4k4
295A6057k4j6k4k4j6k4k4k4j6k4k4k4j6k4k4k4j6k4j6k4k4k4j6k4j6k4k4j6k4k4j6k4j6k4
291A5329k4k4j6j6k4k4j6k4j6k4j6k4k4j6j6k4k4j6j6k4k4j6j6k4j6k4j6k4j6k4j6j6k4j6
288A4649k4j6j6k4j6k4j6k4j6j6j6k4j6k4j6k4j6j6k4j6j6j6k4j6j6l2%k4j6k4k4j6k4qj6
285A3993k4j6j6j6k4j6j6j6k4j6j6j6j6j6k4j6j6j6k4qk4j6j6j6k4j6j6j6j6j6k4qk4j6j6
281A3377j6j6j6k4qk4j6qk4j6j6j6j6j6j6j6j6j6j6j6k4qk4qk4j6qk4j6j6j6j6j6j6j6j6j6
278A2769j6j6j6j6j6qk4qk4qj6j6j6j6j6j6j6qj6k4qj6j6j6j6j6j6qj6j6j6j6j6j6j6qj6j6
274A2193j6j6j6qk4qj6qk4j6qj6j6qk4qj6j6j6qj6j6j6qj6j6qj6j6j6qj6j6j6j6qj6j6j6q
270A1625j6qj6j6qj6j6qj6j6j6qj6j6j6qj6qj6j6qj6j6qj6j6j6qj6qj6j6qj6qj6qj6j6qj6
267A1081j6qj6qj6j6qj6qj6qj6j6qj6qj6qj6qj6qj6qj6qj6qj6j6qqj6j6qj6qj6qj6qj6qqj6
262A0529j6qj6qqj6qj6j6qqj6qj6qqqj6j6qj6qqj6qj6qj6qqj6qj6qqqj6qj6qj6qqj6qqqj6
258I985j6qqqj6qqj6qqj6qj6qqj6qqj6qqqj6qj6qqj6%j6qj6qqqj6qqj6qqqj6qqj6qqqj6qq
253I441qj6qqqj6qqqj6qqqqj6qqqj6qqqqj6qqqj6qqqqqqj6qqqj6%j6qj6qqqqqqqj6%j6qqq
247H905j6qqqqqqqqj6qqqqqqqj6qqqqqqj6%j6qqqqqqqqqj6qqqqqqqqqqj6%qqqj6qqqqqqqq
242H369qqqqqj6%qqqqqj6qqq%j6%j6qqqq%j6qqqqq%qj6q%j6qq%j6qj6%qqq%j6%qqqQl2Qqj6
236G905k4%%q%j6%j6%j6q%qqqqqqqqqqqq%qj6%qj6%qqqqqqq%qqj6%qqqqqqq%qqq%qj6qq%q
230G457qqqqq%qqqqqqq%qqqqq%j6%qqqqq%qqqqq%qqqq%qqqq%qqqqq%qj6%qq%j6%%j6qq%qq
224G017q%qqqq%qq%j6%qqq%qqq%qqqq%qqqq%qqq%qqqq%q%qqqqq%qqq%qqq%qqq%q%j6q%q%q
218F609qq%qq%qqq%qqq%qqq%qq%qq%qq%qqq%qqq%qq%q%qqqq%qq%q%qqq%qqq%q%q%qq%j6%q
211F225%qq%qq%qqq%qq%q%qq%q%qqq%q%qq%qqq%q%qq%qq%q%qq%q%qqq%%qqq%qq%q%q%qq%q
205E873q%q%qq%q%qq%qq%q%q%qq%qq%%qqq%%qq%q%qq%qq%%qq%q%q%qq%q%qq%q%qq%q%qq%q
198E545%q%q%qq%q%qq%%qq%%q%qq%q%q%qq%q%q%q%qq%q%q%q%q%qq%%q%q%qq%q%q%q%q%q%q
191E249%q%qq%%q%qq%%q%qq%q%q%%qq%q%%qq%%q%q%%j6%%q%qq%%q%q%qqQqq%q%q%q%q%q%%
185D985q%qq%%q%q%qq%%q%q%q%q%q%%qq%%q%q%q%q%q%%q%q%q%%qq%%q%q%q%q%q%%q%qq%%q
178D721%%q%q%q%%q%q%q%%q%qq%%q%%qq%%%q%q%q%%q%q%q%q%%q%q%q%%%qq%%q%%q%q%q%q%
172D489%%q%q%q%q%%q%%q%q%%q%q%%q%q%%q%%q%q%q%q%%q%%%q%q%q%%q%%q%q%%q%%q%q%q%
165D273%%q%q%%q%qqQq%q%%%q%q%qQqq%%q%q%q%%%q%%q%q%q%%%q%%q%%q%q%%q%%%q%q%q%%
159D073%q%q%%q%q%%%q%%q%q%%q%%q%q%%%q%%q%%q%q%%q%%q%%q%%q%%q%%%q%%q%q%%q%%%q
152C881%%q%q%%%q%%q%%q%%q%%q%%q%%%q%%%q%q%%q%%%q%q%%%q%q%%qQq%q%%q%%q%%q%%%%
145C713q%%q%q%%q%%%q%%%q%q%%%q%q%%%q%%q%%%%q%%q%%q%%%q%%%q%qQqq%%%%%q%%j6Q%%
139C553qq%Qj6Qq%%q%%q%%%q%%q%%%q%%%q%%q%%%%q%%q%%%q%%q%%%q%%%q%q%%%%q%%q%%%q
132C393%%q%%%q%%%q%%q%%%q%%%q%%%q%%%q%%q%%%q%%qQ%q%%q%%%q%%%q%q%%%q%%%%%q%%%
126C257q%%q%%%%q%%q%%%%q%%q%%%%q%%q%%%q%%%q%%%q%%%q%%%q%%%q%%%qQq%%%q%%%q%%%
119C121q%%%%q%%%q%%%q%%%%q%%%q%%q%%%%%q%qQq%%%q%%q%%%%%q%%%q%%qQq%%%q%%%%q%%
113B993%%q%%%q%%%%q%%%q%%%q%%%%q%%%q%%%%%q%%%q%%%%q%%%q%%%q%%%%q%%%%%q%%%q%%
106B873%q%%%%%q%%%q%%%%q%%%q%%%%q%%%%q%%%%q%%%qQq%%%%q%%%%%q%%%q%%%%%%q%%%%q
100B761%%qQq%%q%%%%%q%%%%q%%%%%q%%%q%%%%q%%%%%q%%%q%%%%%q%%%%%%q%%%q%%%%q%%%
93B657%q%%%%%qQq%%qQq%%%%q%%qQ%qQj6%Qq%%%%q%%%q%%%%%q%%%%%q%%%%%q%%%%q%%%%%q
86B553%%%%%q%%%%q%%%%%%q%%q%%%%%%%q%%%%%q%%%%%q%%%%%q%%%%%q%%%%q%%%%%qQq%%%%
80B465q%%%%%%q%%%%%q%%%qQ%q%qQ%q%%%%q%%%%%q%%%%%%q%%%%%q%%%%%%q%%%%%q%%%%%%q
73B369%%%%q%%%%%%%qQq%%q%%%%%%q%%%%%%q%%%%%q%%%%%qQ%q%%%%q%%%%%%q%%%%%qQq%%%
66B289qQ%%q%Qqq%Qq%%%%q%%%%%%q%%%%%%q%%%%%q%%%%%%%q%%%%q%%%%%qQ%q%%%%q%Qq%%%
60B209%%q%%%%%%%q%%%q%%%%%%%%%q%%%%%%%q%%qQq%%%%%%q%%%%%%q%%%%%qQ%q%%%%qQq%%
53B129%%q%%%%%%%%q%%%%%%%%q%%%%%%qQ%q%%%%q%%%%%%%q%%%%qQ%q%%%%%%%%q%%%%%%q%%
46B057%%%%%q%%%%%%%%q%%%%qQq%%%%%%q%%%%%%%qQq%q%Q%qQ%j6Qj6%L2l2%J6Q%j6j6QJ6q
40B001q%%Qj6Q%qQqQq%Qq%%q%%%%%%%%q%%%%%%%q%%%%%%%q%%%%%%%q%%Qq%%%%%q%%%%%%qQ
34A937q%%%%%%%%q%%%qQ%q%%%%%%%%%q%%%%%q%%%%%%%%%qQ%q%%%%%%%q%%%%%%%%q%%%%%%%
27A873%%q%%%%%%%qQq%%%%%%%q%%%%%%%%q%Qq%%%%%%q%%%%%%%%q%%%%%%%%%q%%%%%%%%qQq
21A809%%%%%%%q%%%%%%%%%q%%%%%%%%%q%%%%%%%qQ%%q%qQ%%%q%%%%%%%%%%qQq%%%%%%%%q%
14A753%%%%%%%q%%%%%%%%q%%%%%%%%%q%Qq%%%%%%%%q%%%%%%%%qQq%%%%%%%qQq%%%%%%%%%q
7A697%%%%%%%%%%%q%%%%%%%%%q%Q%q%%%%%q%%Qq%%qQ%%%q%%%%%%%%%q%%%%%%%%q%%%%%%%%
0A649%%%
0A649
##$OBSERVED MULTIPLETS=	(I, X, Y, Hs, Vs, An, H, C, N, (J))
$$ I: Multiplet Index
$$ X: Strt Coordinate
$$ Y: End Coordinate
$$ Hs: Horizontal Chemical Shift
$$ An: Normalised Integral Area
$$ H: Hydrogens
$$ C: Category
$$ N: Name
$$ (J): Coupling Constants
(1, 0.84565274626716424589, 0.88165297126857045118, 0.86365285876786734853, 6, 6, s, 1&comma;2)
##$OBSERVED MULTIPLETS AREAS=	
(1, 3.0053632800408527359)
##$OBSERVED MULTIPLETS PEAKS=	(I, X, Y)
$$ I: Multiplet Peak Index
$$ X: Peak x Position
$$ Y: Peak Intensity
(1, 0.86365285876786734853, 0.24285118281841278076)
##$PREDICTED PEAKS=	(X Y T A)
(0.86369739146408264219,  , 0.10000000000000000555, <1-a>)
(0.86369739146408264219,  , 0.10000000000000000555, <1-b>)
(0.86369739146408264219,  , 0.10000000000000000555, <1-c>)
(0.86369739146408264219,  , 0.10000000000000000555, <2-a>)
(0.86369739146408264219,  , 0.10000000000000000555, <2-b>)
(0.86369739146408264219,  , 0.10000000000000000555, <2-c>)
##$PREDICTEDCOUPLINGCONSTANTS=	J(A,B)	$$ (Hz)
6.16(1-a, 1-b)
6.16(1-a, 1-c)
6.16(1-b, 1-a)
6.16(1-b, 1-c)
6.16(1-c, 1-a)
6.16(1-c, 1-b)
6.16(2-a, 2-b)
6.16(2-a, 2-c)
6.16(2-b, 2-a)
6.16(2-b, 2-c)
6.16(2-c, 2-a)
6.16(2-c, 2-b)
##END=		$$ NMR SPECTRUM
##TITLE=	Predicted 1H NMR Spectrum
##JCAMP-DX=	6.0	$$ MestReNova 17.0.0-41178
##DATA TYPE=	NMR PEAK TABLE
##DATA CLASS=	PEAK TABLE
##BLOCK_ID=	4
##ORIGIN=	Mestrelab Research S.L.
##OWNER=	ctheodore
##CROSS REFERENCE=	NMR SPECTRUM: BLOCK_ID=3                                     
##.OBSERVE FREQUENCY=	500
##.OBSERVE NUCLEUS=	^1H
##NPOINTS=	1
##FIRSTX=	0.86365285876786734853
##LASTX=	0.86365285876786734853
##XFACTOR=	1
##YFACTOR=	1
##FIRSTY=	0.24285118281841278076
##XUNITS=	PPM
##YUNITS=	ARBITRARY UNITS
##PEAK TABLE=	(XYW..XYW)
0.86365285876786734853,0.24285118281841278076,0.0015026909555507464867
##$MNOVA/PEAK_DATA_TABLE=	(T,F,A,ST,SP,APT,APC)
$$ Complementary to PEAK TABLE
$$ T: Type
$$ F: Flags
$$ A: Annotation
$$ ST: Shape Type
$$ SP: Shape Parameter
$$ APT: Attached Peaks Type
$$ APC: Attached Peaks Count
Compound,None,,0,0,0,0
##END=		$$ NMR PEAK TABLE
##END=		$$ LINK
