##TITLE=	propane 13c
##JCAMP-DX=	6.0	$$ MestReNova 17.0.0-41178
##DATA TYPE=	LINK
##BLOCKS=	4    
##ORIGIN=	Mestrelab Research S.L.
##OWNER=	ctheodore
##$MNOVA/METADATA=	(DOCUMENT,BASE64)
eyJuYW1lIjoiL1VzZXJzL2N0aGVvZG9yZS9Eb2N1bWVudHMvY2xhc3Nlcy9OTVIgZXhwZXJpbWVudC9
naXRodWIgZmlsZXMvcHJvcGFuZS9wcm9wYW5lIDEzYy5tbm92YSIsInBhZ2VzIjpbeyJpdGVtcyI6Wy
IxIiwgICAgICAgICAgICAgICAgICAgICAgICAgICAgICAgICAgICAgIjMiICAgICAgICAgICAgICAgI
CAgICAgICAgICAgICAgICAgICAgIF19XX0=
##TITLE=	
##JCAMP-CS=	3.7	$$ MestReNova 17.0.0-41178
##BLOCK_ID=	1
##ORIGIN=	Mestrelab Research S.L.
##OWNER=	ctheodore
##$MNOVA/METADATA=	(ITEM,BASE64)
eyJhbmdsZSI6MC4wLCJwb2ludHMiOlt7IngiOjUzMjEuMCwieSI6NTgzNS4wfSx7IngiOjU2MDYuMzc
0NjQ1MTU5NzgxLCJ5Ijo1ODM1LjB9LHsieCI6NTYwNi4zNzQ2NDUxNTk3ODEsInkiOjU5NjEuOTQ3Nz
QyMzIyNTA3fSx7IngiOjUzMjEuMCwieSI6NTk2MS45NDc3NDIzMjI1MDd9LHsieCI6NTMyMS4wLCJ5I
jo1ODM1LjB9XSwieiI6MS4wfQ==
##NAMES=	
##ATOMLIST=	
$$ AN	AS	NH
	1	C	3
	2	C	2
	3	C	3
##BONDLIST=	
$$ AN1	AN2	BT
	1	2	S
	2	3	S
##MAXRASTER=	32768
##XY_RASTER=	
$$ AN	X	Y	Z
	1	-32768	9456	0
	2	0	-9456	0
	3	32768	9456	0
##END=		$$ JCAMP-CS
##TITLE=	Predicted 13C NMR Spectrum
##JCAMP-DX=	6.0	$$ MestReNova 17.0.0-41178
##DATA TYPE=	NMR PEAK ASSIGNMENTS
##DATA CLASS=	ASSIGNMENTS
##BLOCK_ID=	2
##ORIGIN=	Mestrelab Research S.L.
##OWNER=	ctheodore
##CROSS REFERENCE=	STRUCTURE: BLOCK_ID=1                                     
NMR SPECTRUM: BLOCK_ID=3                                     
##.OBSERVE FREQUENCY=	125
##.OBSERVE NUCLEUS=	^13C
##NPOINTS=	3
##XUNITS=	PPM
##YUNITS=	ARBITRARY UNITS
##PEAKASSIGNMENTS=	(XYWA)
(16.244462672143946236, 0.30114412307739257813, 0.0060598600976202732227, <1>)
(16.940339999899997281, 0.11659095436334609985, 0.006060911219272213657, <2>)
(16.244462672143946236, 0.30114412307739257813, 0.0060598600976202732227, <3>)
##END=		$$ NMR PEAK ASSIGNMENTS
##TITLE=	Predicted 13C NMR Spectrum
##JCAMP-DX=	6.0	$$ MestReNova 17.0.0-41178
##DATA TYPE=	NMR SPECTRUM
##DATA CLASS=	XYDATA
##BLOCK_ID=	3
##ORIGIN=	Mestrelab Predictor
##OWNER=	ctheodore
##NUMDIM=	1
##$MNOVA/METADATA=	(ITEM,BASE64)
eyJhbmdsZSI6MC4wLCJheGVzIjp7IngiOnsibWF4IjoyMi41MjMyNjA5MzcwMDUxNjYsIm1pbiI6MTI
uMDA3NjI5ODk0NDkzODc4fSwieSI6eyJtYXgiOjAuMzMxMjU4NTM1Mzg1MTMxODQsIm1pbiI6LTAuMD
MwMTE0NDE1NDAzNTQ1NzU4fX0sInBvaW50cyI6W3sieCI6NTMyMS4wLCJ5Ijo1ODM1LjB9LHsieCI6O
DcyMi4wLCJ5Ijo1ODM1LjB9LHsieCI6ODcyMi4wLCJ5Ijo4MjA4LjB9LHsieCI6NTMyMS4wLCJ5Ijo4
MjA4LjB9LHsieCI6NTMyMS4wLCJ5Ijo1ODM1LjB9XSwieiI6MC4wfQ==
##.OBSERVE FREQUENCY=	125
##.OBSERVE NUCLEUS=	^13C
##.SOLVENT NAME=	DMSO-d6
##.PULSE SEQUENCE=	
##.ACQUISITIONMODE=	SIMULTANEOUS (DQD)
##$ORIGINAL FORMAT=	Predictor
##$MNOVA/SCALES_VERSION=	9
##$PARAMETER FILE=	(parameters, ASCII, , 0)
$$ <?xml version="1.0" encoding="utf-8"?>
$$ <PredictorParameters>
$$     <Title>Predicted 13C NMR Spectrum</Title>
$$     <Origin>Mnova: NMR Prediction</Origin>
$$     <Name>Mestrelab Predictor</Name>
$$     <Version>1.7</Version>
$$     <Nucleus>13C</Nucleus>
$$     <Solvent>DMSO-d6</Solvent>
$$     <From>-10</From>
$$     <To>230</To>
$$     <Frequency>125</Frequency>
$$     <LineWidth>1.5</LineWidth>
$$     <Size>131072</Size>
$$     <DEPT>0</DEPT>
$$     <ProtonatedCarbons>0</ProtonatedCarbons>
$$     <ExcludeLabile>false</ExcludeLabile>
$$     <FastPrediction>0</FastPrediction>
$$     <ProtonDecoupled>1</ProtonDecoupled>
$$     <Reference/>
$$     <Options>
$$         <Settings>
$$             <Predictor Name="Mestrelab Predictor">
$$                 <Settings>
$$                     <Model>/Applications/MestReNova.app/Contents/Resources/data/13C.mbst</Model>
$$                 </Settings>
$$             </Predictor>
$$         </Settings>
$$     </Options>
$$     <MoleculeID>{a952c942-ea7b-49dd-9ffd-5917d965a021}</MoleculeID>
$$ </PredictorParameters>
$$ 
##XUNITS=	HZ
##YUNITS=	ARBITRARY UNITS
##FIRSTX=	28750
##LASTX=	-1249.7711181640625
##DELTAX=	-0.2288818359375
##XFACTOR=	1
##YFACTOR=	1.4023116008267911996E-10
##FIRSTY=	2.2706727165200391028E-08
##MINY=	-3.0958065000419310309E-09
##MAXY=	0.30114412307739257813
##NPOINTS=	131072
##XYDATA=	(X++(Y..Y))
28750A62%%%qQ%%q%Qq%Q%%%%qQ%qQ%%%%qQ%%%%%%%%qQ%%%%%%%%%%%%%%%%%%%%%%%qQ%%%q%
28734A54%%%%QqQ%%q%%Q%q%%%%%%%%%%%%%QqQ%%q%%%%%%%%Q%%%%q%%%QqQqQq%%%%Qq%QqQ%
28719A62q%%%%%%%%%%%%%%%%%%%%%%%%%%%%%%%%%%%%%%%%%%%%%%%%%%%%%%%%%%%%%%%%%%%
28703A54%%%%%%%%%%%%%%%%%%%%%%%%%%%%%%%%%%%%%%%%%%%%%%%%%%%%%%%%%%%Qq%%%%%%%
28688A54%%%%%%%%%%%%%%%%%%%%%%%%%%%%%%%%%%%%%%%%%%%%%%%%%%%%%%%%%%%%%%%%%%%%
28672A54%%%%%%%%%%%%%%%%%%%%%%%%%%%%%%%%%%%%%%%%%%%%%%%qQ%%%%%%%%%%%%%%%%%qQ
28657A54%%qQ%%%%%%%%%qQ%%%%%%%%qQ%%%%%%%qQ%%%%%%%%%%%%%q%%Q%%%%%%%qQ%%%%%%%%
28641A54%q%%%%Q%%%%%q%%%%%Q%%%qQ%q%QqQ%%qQ%q%%Q%%%%%qQq%%%%%%%%%%%%%%%%%%%%%
28625A46%%%%%%%%%%%%%%%%%%%%%%%%QqQ%qQq%%%%%%%Qq%%%%%%%%%%%%%%%%%%%%%%%%%%%%
28610A46%%%%%%%%%%%%%%%%%%%%%%%%%%%%%%%%%%Qq%%%%%%%%%%%%%%%%%%%%%%%%%%%%%%%%
28594A46%%%%%%%%%%%%%%%%%%%%%%%%%%%%%%%%%%%%%%%%%%%%%%%%%%%%%%%%%%%%%%%%%%%%
28579A46%%%%%%%%%%%%%%%%%%%%%%%%%%%%%%%%%%%%%%%%qQ%%%%%%%%%%%%%%%%%%%%%%%%%%
28563A46%%%%%%%%%%%%%%%%%%%%%%%%q%Q%%%%%%%%%%%q%%%%%%%%%%%Q%q%%%%%%%Q%%%%%%%
28548A46q%%Q%%qQqQ%%%%%%q%Q%%%q%%Q%%qQqQq%%%%%%%%%%Qq%%%%%%%%%%%Qq%%%%Q%%q%Q
28532A46%%q%%Q%q%%%%%%%%%Qq%%%%%%%%%%%%%%%%%%%Qq%%%%%%%%%%%%%%%%%%%%%%%%Q%qQ
28517A46q%qQ%qJ6j6%QqQ%%%%%QqQq%%%%%%%%%%%%%%Qq%%%%%%%%%%%%%%%%%%%%%%%%%%%%%
28501A38%%%%%%%%%%%%%%%%%%%%%%%%%%%%%%%%%%%%%%%%%%%%%%%%%%%%%%%%%%%%%%%%%%%%
28486A38%%%%qQ%%%%%%%%%%%%%%%%%%%%%%%%%%%%%%%%%%%%%%%%%%%%%%%%%%%%%%%%%%%%%q
28470A30Q%%%%%%%%%%%%%%%%%%%%%%%%%%%%%%%%%%%%%%qQ%%%%%%%%%%%%%%%%%%%%%%%%%%%
28455A38%%%%%%%%%%%%%%%%%%%%%%%%%%%%%%%%%%%qQ%%%%%%qQ%%%%%%%%%%%%%%%%%%%%%%%
28439A38%%qQ%%%%%%q%%%Qq%%%Q%qQqQ%q%Qq%%%Qq%%Qq%QqQqQq%%Q%qQ%%q%QqQ%%qQqQ%q%
28424A30%%%Qq%%QqQq%%Qq%%%%%%%%%%%%%%%%%%%%%%%%%%%%%%%%%%%%%%%%%%%%%%%%%%%%%
28408A30%%%%%%%%Qq%%%%%%%%%%%%%%%%%Qq%%%QqQ%qQq%%%%%QqQ%qQq%%%%%%%%%%%%%%%%%
28392A30%%%%%%%%%%%%%%%%%%%%%%%%%%%%%%%%%%%%%%%%%%%%%%%%%%%%%%%%%%%%%%%%%%%%
28377A30%%%%%%%%%%%%%%%%%%%%%%%%%%%%%%%%%%%%%%%%%%QqQqqQ%%%%%%%%%%%%%%%%%%%%
28361A30%%%%%%%%%%%%%%%%%%%%%%%%%%%%%%%%%%%%%%%%%%%%%%%%%%%%%%%%%%%%%%%%%%%%
28346A30%%%%%%%%%%%%%%%%%q%QqQ%%%%%%%%qQ%%qQqQ%%%%%%%qQ%%%%%%%%%%%%%%qQ%%%%%
28330A30%%%%%%%%%%%qQ%%%%qQ%qQ%q%Qq%%Qq%%%QqQqQqQqQqQ%%qQq%Q%%qQ%%q%Q%%qQq%Q
28315A30%%qQ%%%%%%%%%%%%q%%%%%Q%%%%%%%q%%Q%q%%QqQ%%qQqQ%%%%qQqQqQq%%%%Qq%%%%
28299A22%%Q%q%Qq%Qq%%%%Qq%%%%%%%%Qq%%%%%%%%Qq%%%%%%%%Qq%%%%Qq%QqQ%q%QqQ%%q%%
28284A22qQQk4L2qj6J6%qqQq%j6J6J6%%%q%qQJ6k4Q%%%%%%QqQ%q%%%Q%q%%%Qq%%%%%%%%%Q
28270A30q%QqQq%Qq%%%%%%%%%%%%Qq%%%%%%%%%%%%%%%%%%%%%%%%%%%%%%%%%%%%%%%%%%%%%
28254A22%%%%%%%%%%%%%Qq%%%%qQ%%%%%%%%%%%%%%%%%%%%%%%%%%%%%%%%%%%%%%%%%%%%%%%
28239A22%%%%%%%%%%%%%%%%%%%%%%%%%%%%%%%%%%%%%%%%%%%%%%%%%%%%%%%%%%%%%%q%Q%%%
28223A22qQ%%%%qQ%%%%%%%%%%%%%%%%%%%%%%%%%%%%%%%%%%%%%%%%%%%%%%%%%%%%%%%%qQqQ
28208A22%%q%%%%Q%%qQ%%qQ%%%qQ%%%%%%%%%%%%%qQ%%%%%%%%%%%%%%%%%qQ%%%%q%Q%%q%Qq
28192A14Q%%%%%%%%%%%%q%%%%%%%%Qq%%%Q%%%q%Q%%%%%%q%QqQ%qQq%%%Q%%%%%%%%qQq%Q%q
28177A14%Q%%q%QqQq%Q%qQq%Q%qQq%%%%%%%%QqQq%%%%Qq%%Q%q%%%%Q%%q%Q%q%%%%%%%%%%%
28161A14%%Q%q%Q%q%%%%%%%%%%%%%%%%%%%%%%%%%%%%%%%%%%%%%%%Qq%%%%%%%%%%%%%%%%%%
28146A14%%%%%%%%%%%%%%%%%%%%%%%%%%%%%%%%%%%%%%%%%%Qq%%%%%%%%%%%Qq%%%%%%%%%%%
28130A14%%%%%%%%%%%%%%%%%%%%%%%%%%%%%%%%%%%%%%%%%%%%%%%%%%%%%%%%%%%%%%%%%%%%
28114A14%%%%%%%%%%%%%%%%%%%%%%%%%%%%%%%%%%%%%%%%%%%%%%%%%%%%%%%%%%%%%%%%%%%%
28099A14%%%%%%%%%%%%%%%%%%%%%%%%%%%%%%%%%%%%%%%%%%%%%%%%%%%%%%%%%%%%%%%%%%%%
28083A14%%%%%%%%%%%%%%%%%%%%%%%%%%%%%%%%%%q%Q%qQ%%%%%%%%%%%%%%%%%%%%%%%%%%%%
28068A14%%%%%%%%%%%%qQ%%%%%%%%%%%%%%%%%%%%%%qQ%%%%%%%%%%qQ%%%%%%%%%%%%%%%%%%
28052A14%%%%%%%qQqQq%Q%%q%%QqQqQ%%%Qj6Qq%Q%q%Q%qQ%qQqQ%%%%%%qQ%%%qQ%%%%%q%%Q
28037A14%%%%q%%%Q%%%qQ%%%%%qQ%%%%%%q%%Qq%%%%%%%%%%Qq%%QqQ%%%%qQq%QqQq%Q%%%qQ
28021A14q%%%%%Qq%Q%qQ%q%%%%Q%qQqQqQqQ%qQqQq%%%%%Q%%%q%%%%QqQq%%%%%%%%%%%%%%%
28006A06%%%%%%Qq%%%%%%%%%%%%%%%%%%%%%%%%%%%%%%%%%%%Qq%%%Qq%%%%%%%%%%%%%%%%%%
27990A06%%%%%%%Q%q%Qq%Q%%q%%%%%%%%%%%%%%%%%%%%%%%%%%%%%%%%%%%%%%%%%%%%%%%%%%
27975A06%%%%%%%%%%%%%%%%%%%%%%%%%%%%%%%%%%%%%%%%%%%%%%%%%%%%%%%%%%%%%%%%%%%%
27959A06%%%%%%%%%%%%%%%%%%%%%%%%%%%%%%%%%%%%%%%%%%%%%%%%%%%%%%%%%%%%%%%%%%%%
27943A06%%%%%%%%%%%%%%%%%%%%%%%%%%%%%%%%%%%%%%%%%%%%%%%%%%%%%%%%%%%%%%%%Qq%%
27928A06%%%%%%%%%%%%%%%%%%%%%%%%%%%%%%%%%%%%%%%%%%%%%%%%%%%%%%%%%%%%%%%%%%%%
27912A06%%%%%%%%%%%%%%%%%%%%%%%%%%%%%%%qQqQ%%%%%%%%%%%%%%%%%%%%%q%Q%%%%%%%%%
27897A06%%%%%%%%%%%%%qQ%%%%q%Q%%%%%%%%q%%Qq%%%%%%Q%%%q%Q%%%%%%%%qQ%%%%%%%%%%
27881A06%%%qQ%%qQq%Q%%%%%%%q%Q%q%Q%%%qQ%qQ%qQ%%%%qQ%%qQ%qQ%%q%%Q%%%qQ%qQ%%%%
27866A06q%Q%%%q%%%%Q%qQ%q%Qq%%%%%%Q%qQqQqQ%%qQ%%qQ%%q%%%%Qq%%%%%%%%%%%%%%%Qq
27850I8%%%%%%QqQq%%QqQqQqQq%%%%%%%%%%%%%%%Qq%Q%q%QqQ%q%%%%%%%%%%%%%%%%%%%%%%
27834I8%%%%%%%%%%%%%%%%%%%%%%%%%%%%%%%%%%%%%%%%%Qq%%%%%%%%%%%%%%%%%%%%%%%%%%
27818I8%%%%Qq%%%%%%%%%%%%Qq%Q%q%%%%%Qj6J6q%%%%%%%%%%Q%q%%%%%%%%%%%%%%%%%%%%%
27803I8%%%%%%%%%%%%%%%%%%%%%%%%%%%%%%%%%%%%%%%%%%%%%%%%%%%%%%%%%%%%%%%%%%%%%
27787I8%%%%%%%%%%%%%%%%%%%%%%%%%%%Qq%%%%%%%%%%%%%%%%%%%%%%%%%%%%%%%%%%%%%%%%
27772I8%%%%%%%%%%%%%%%%%%%%%%%%%%%%%%%%%%%%%%%%%%%%%%%%%%%%%%%%%%%%%%%%%%%%%
27756I8%%%%%%%%%%Qq%Qq%%%%%%%%%%%%%%%%%%%%%%%%%%%%%%%%%%%%%%%%%%%%%%%%%%%%%%
27740I8%%%%%%qQ%%%%%%%%%%%%%%%%%%%%%%%%%%%%%%%qQ%%%%%%%%%%%%%%%%%%%%%%%%q%Qq
27724I0%%Qq%Q%qQ%%q%Q%qQ%%%%%%%%%%%%%%%%%%%%%%%%%%%%%%%%%%%%%%%%%%%%%%%%%%%%
27708I8%%%%%%%%%%%%%%%%%q%Q%qQq%Q%qQ%%%%%%qQqQ%%%%%%%%%%%%%qQ%%q%%Q%%q%%Q%%q
27693I0%Q%%q%Q%%%%qQq%Q%qQq%%%%Qq%%%%%%Qq%%Qq%Q%qQ%%qQqQ%%%%%qQqQ%%%%qQ%%qQ%
27677I8%%q%%Q%q%%%Q%qQ%%%qQ%%%%%%%%%qQqQ%qQ%%%%qQq%%%Q%%q%QqQ%qQ%q%%Qq%QqQ%q
27661I0%%Qq%Qq%%%%Qq%%%%%Qq%%%Qq%%%Qq%QqQq%%%%%%Q%qQq%Qq%%%%%%%%%%%%%%%%%%%Q
27645I8q%Qq%%%%%%%%%%%%Qq%Qq%%%%%%Qq%%%%%%%%%%Qq%%%%%%%%%%%%%%%%%%%%%%%%%%%%
27629I0%%%%%%%%%%%%%Qq%%%%%%%%%%%%%%%%%%%%%%%%%%%%%%%%%%%%%%%%%%%%%%%%%%%%%%
27614I0%%%%%%%%%%%%%%%%%%%%%%%%%%%%%%%%%%%%%%%%%%%%%%%%%%%%%%%%%%%%%%%%%%%%%
27598I0%%%%%%%%%%%%%%%%%%%%%%%%%%%%%%%%%%%%%%%%%%%%%%%%%%%%%%%%%%%%%%%%%%%%%
27582I0%%%%%%%%%%%%%%%%%qQQj6Q%%%qQ%%%%%%%%%%%%%%%%%%%%%%%%%%%%%%%%%%%%%%%%%
27566I0%%%%%%%%%%%%%%%%%%%%%%%%%%%%%%%%%%%%%%%%%%%%%%%%%%%%%%%%%%%%%%%%%%%%%
27551I0%%%%%%%%Qq%%%%%%%%%%%%%%%%%%%%%%%%%%%%%%%%%%%%%%%%%%%%%%%%%%%%%%%%%%%
27535I0%%%%%%%%%%%%%%%%%%%%%%%%%%%%%%%%%%%%%%%%%%%%%%%%%%%%%%%%%%%%%%%%%%%%%
27519I0%%qQ%%%%%%%%%%%%%%qQ%%%%%%qQ%%%%%%%%%%%%%%%%%%%%%%%%%%%%%%%%%%%%%%%%%
27503I0qQ%%%%%%%%%%%%%%%%%%%%%%%%%%%%%%%%%%qQ%%qQqQ%qQ%qQ%%qQ%%%%%%%qQ%%%%qQ
27487I0%%%%%%%%%%%%q%%%%%Q%q%QqQqQq%%%Q%%%%%%%%%qQq%%Qq%%%%QqQ%%%qQqQ%q%%%%%
27472H2Qq%Q%qQ%q%%%%%Qq%%%%Q%q%%%%%%Q%%%%%q%Q%q%Q%%%%qQ%%q%%%Q%q%Q%%qQq%%Qq%
27456H2%%%%%%%%%%%Qq%%Qq%%%%%%%Qq%%%%%%%%Q%q%Qq%%%%Q%q%QqQ%%%qQqQ%q%Qq%Q%q%%
27440H2%%%%%%%%%%%%%%%%%%%%%%%%%%%%%%%%%QqQq%%%%Q%%q%Qq%Q%q%%%%%%%%%%%%%%%%%
27424H2%%%%%%%%%%%%%Qq%%%%%%%%%%Qq%%%%%%%Qq%%%%%%%%%%%%%%%%%%%%%Qq%%%%%%%%%Q
27409I0q%%%%%%%%%%%%%%%%%%%%%Qq%%Q%q%%%%%%%%%%%%%%Qq%%%%%%%%%%%%%%%%%%%%%%%%
27393H2%Qq%%%%%%%%%%%%%%%%%%%Qq%%%%%%%%%%%%%%%%%%%%%%%%%%%%%%%%%%%%%%%%%%%%%
27377H2%%%%%%%%%%%%%%%%%%%%%%%Qq%%%%%%%%%%%%%%%%%%%%%%%%%%%%%%%%%%%%%%%%%%%%
27361H2%%%%%%%%%%%%%%%%%%%%%%%%%%%%%%%%%%%%%%%%%%%%%%%%%%%%%%%%%%%%%%%%%%%%%
27345H2%%%Qq%qQqqL2k4L2m0J6%%Q%qQq%%%%%%%%%%%%%%%%%%%Qq%%%%%%%%%%%%%%%%%%%%%
27331H2%%%%%%%%%%%%%%%%%%%%%%%%%%%%%%%%%%%%%%%%%%%%%%%%%%%%%%%%%%%%%%%%%%%%%
27315H2%%%%%%qQ%%%%%%%%%%%%%%%%%%%%%%%%%%%%%%%%%%%%%%%%%%%%%%%%%%%%%%%%%%%%%
27299H2q%Q%%%%%%%%%%%%%%%%%%%%%%%%%%%%%%%%%%%%%%%%%%%%%%%%%%%%%%%%%%%%%%%%%%
27283H2%%%%%%%%%%%%%%%%%%%%%%%%%%%%%%%%%%%%%%%%%%%%q%QqQq%Q%%%qQ%qQ%%%%%%%%%
27268H2%%%%%%%%%%%%%%%%%%%%%%%%%%%%%%%%%%%%%%%%%%%%%%%qQ%%%%%%%%%%%%%%%%%%%%
27252H2%%%%%%%%%%%%%%%%%q%Qq%%Q%%%%%%%%%q%Q%%%%%%%%%%%%%%qQ%q%QqQqQ%%%%%qQ%%
27236H2%%%%%qQ%%%qQqQ%qQ%%qQ%qQ%%%%%%%%q%%Q%qQq%Qq%%Q%q%QqQqQ%q%%%%QqQq%QqQq
27220G4Q%%qQ%q%Q%%%%%%qQqQ%%%%%%%%qQ%%%%%qQ%%%%qQq%Q%q%%Qq%%%%%%%%%%%%Q%q%Q%
27204H2%q%%%%Qq%%%%%Q%qQq%%%Q%%%q%%Qq%%%Qq%Q%qQqQqQqQ%%%q%%Q%%q%%%QqQ%%q%%Qq
27189G4Qq%%%%%%%%%%%Qq%%QqQ%%qQq%%%QqQq%%%%%%%%%%%%%%%%%%%%%%%%%%%%%%%%%%%%%
27173G4%%%%%%%%%%%%%%%%%%%Qq%%%%Qq%Qq%%%%%Qq%Q%%%%%q%%%%%%%%%%%%%%%%%%%%%%%%
27157G4%%%%%%%%%%%%%%%%%%%%%%%%%%%%%%%%%%%%%Qq%%%%%%%%%%%%%%%%%%%%%%%%%%%%%%
27141G4%%%%%%%%%%%%%%%%%%%%%Qq%%%%%%%%%%%%%%%%Qq%Qq%%%%%%%%%%%%%%%%%%%%%%%%%
27125G4%%%%%%Qq%Qq%%%%%%%%%%%%%%%%%%%%%%%%%%%%%%%%%%%%%%%%%%%%%%%%%%%%%%%%%%
27110G4%%%QqQqQqQq%%%%%Qq%%%%%%%%%%%%%%%%%%%%%%%%%%%%%%%%%%%%%%%%%%%%%%%%%%%
27094G4%%%%%%%%%%%%%%%%%%%%%%%%%%%%%%%%%%%%%%%%%%%%%%%%%%%%%%%%%%%%%%%qQ%%%%
27078G4%%%%%%%%%%%%%%%%%%%%%%%%%%%%%%%%%%%%%%%%%%%%%%%%%%%%%%%%%%%%%%%%%%%%%
27062G4%%%%%%%%%%%%%%%%%%%%%%%%%%%%%%%%%%%%%%%%%%%%%%%%%%qQ%%qQ%%%%%%%%%%%%%
27046G4%%%%%%%%%%%%%%%%%%%%%%%%%%%%%%%%%%%%%qQ%%%%%%%%qQ%%%%%%%%%%%%%%%%%%%%
27031G4%%%%%%%%%%%%%%%%%%%%%%%%%%%%%%%%%%%%%%%%%%%%%qQ%%%%%%%qQ%%%%%%%%%%%%%
27015G4%%%%%%%%%%%%%%%%%%%%%%%%%%%%%%%%%%%%%%%%%%%%%%%%%%%%%%%%%%%%%%%%%%%%%
26999G4%%%%%%%%%%%%%%%%%%%%%%%%%%%%qQqQ%%%%%qQ%%%%%q%Q%%%%%%%%%%%%qQ%qQqQq%Q
26983G4%%%%%%%%%%%%%%%%%%%%%qQ%%%%%%%%%%%%%%%%qQ%%%%%%%%%%qQ%%%%%%%%%qQqQ%%%
26967G4%%%%%%%%%%%%%%%%qQ%%%%%%%q%QqQqQ%%%%q%QqQ%qQ%%%%%%%%%%%%%%%%%%%%%%%%%
26952G4%%%%%%%%%%%%%%%%%%%%%%%%%%%%%%%%%%%%%%%%%%%%%%%%%%%%%qQ%%%qQ%qQ%q%QqQ
26936G4q%Q%qQqQ%qQ%qQqQ%%%%%%qQ%qQ%qQqQ%%%%q%%%%%%%%%%Q%%%%%%%qQ%%%%%%qQq%%%
26920F6%QqQq%Q%q%Q%%%q%Q%%%%q%%%Q%%%%%%%q%%%%%%Qq%%QqQ%q%Qq%Q%q%%%%Q%q%QqQqQ
26904G4q%QqQ%q%%%QqQq%%Qq%%%QqQ%qQq%%Q%qQq%%Qq%%%Qq%%%QqQqQq%%Q%%%%q%%%%Q%%q
26889F6Qq%%Q%%q%%%%%%QqQ%qQ%qQqQqQq%%%%Q%q%%%%%%Qq%%%%%%Q%%q%QqQqqJ6q%%QqqQ%
26873F6Q%q%%Qq%Qq%%%%Qq%%Qq%%%%%%Q%q%%%%%%Q%qQq%QqQ%%%%q%%%QqQq%%%%%%%%%%%%%
26857F6%%%%%%%%%%%%%%%%%%%%%%%%%%%%%%%%%%%%%Qq%%%%%%%%%QqQq%%QqQq%%%%%%%%%%%
26841F6%%%%%%%%%%%%%%%%%%%%%%%%%%%%%%Qq%%%%%%%%%%%%%%%%%%%%%%%%%%%%%%%%%%%%%
26826F6%%%%%%%%%%%%%%%%%%%%%%%%%%%%%Qq%%Q%%q%Q%%%q%%Qq%%%%%%%%%%%%%%%%%%%%%%
26810F6%%%%%%%%%%%%%Qq%%%%%%%%%%%%%%%%%%%%%%%%%%%%%%%%%%%%%%%%%%%%%%%%%%%%%%
26794F6%%%%%%%%%%%%%%%%%%%%%%%%%%%%%%%%%%%%%%%%%%%%%%%%%%%%%%%%%%%%%%%%%%%%%
26778F6%%%%%%%%%%%%%%%%%%%%%%%%%%%%%%%%%%%%%%%%%%%%%%%%%%%%%%%%%%%%%%%%%%%%%
26762F6%%%%%%%%%%%%%%%Qq%%%%%%qQ%%%Qq%%%%%%%%%%%%%%%%%%%%%%%%%%%%%%%%%%%%%%%
26747F6%%%%%%%%%%%%%%%%%%%%%%%%%%%%%%%%%%%%%%%%%%%%%%%%%%%%%%%%%%%%%%%%%%%%%
26731F6%%%%%%%%%%%%%%%%Qq%%%Qq%%%%%%%%%%%%%%%%%%%%%%%%%%%%%%%%%%%%%%%%%%%%%%
26715F6%%%%%%%%%%%%%%%%%%%%%%%%%%%%%%%%%%%%%%%%%%%%%%%%%%%%%%%%%%%%%%%%%%%%%
26699F6%%%%%%%%%%%%%%%%%%%%%%%%%%%%%%%%%%%%%%%%%%%%%%%%%%%%%%%%%%%%%%%%%%%%%
26683F6%%%%%%%%%%%%%%%%%%%%%%%%%%%%%%%%%%%%%%%%%%%%%%%%%%%%%%%%%%%%%%%%%%%%%
26668F6%%%%%%%%%%%%%%%%%%%%%%%%%%%%%%%%%%%%%%%%%%%%%%%%%%%%%%%%%%%%%%%%%%%%%
26652F6%%%%%%%%%%%%%%%%%%qQ%%%%%%%qQ%%%%%%%%%%qQ%%%%%%%qJ6j6J6j6J6q%%%qQ%%%%
26637F6%%%%%%%%%%%%%%%%%%%%%%%q%Q%%%%%%%%%%%%%%%%%%%%%%%%%%%%%%%%%%%%%%%%%%%
26621F6%qQ%%qQ%%%%%%%%%%%%%%%%%%qQ%%%%%%%%%%%%%%qQ%%%%qQ%%q%Q%%%%%%%%%%%%%%q
26606E8Q%%%%%%%%%%q%QqQ%%%%%%%%%%%%%%qQ%%%qQq%%Q%%%%%%qQqQ%%qQ%%%%%%%%%%%%%%
26590F6%%%%%q%QqQ%%%%%%%%%%%%%%qQ%%qQ%qQq%%QqQ%q%%Q%%qQ%%qQ%%qQ%%%qQ%qQqQqQq
26574E8%%Q%%qQq%%%Qq%Q%qQ%%%%q%%%%%%Qq%%%Q%qQq%Q%%qQ%%%q%Q%qQ%%%%%%%qQ%qQ%q%
26558E8Q%%q%Qq%%Q%q%%%%%%%Q%%%qQqQ%qQq%Qq%Q%%q%%QqQq%%%%Q%q%Qq%%Q%%qQ%%%%%%q
26542E8Qq%%%Qq%%%%%%%%%%Qq%Q%q%Qq%QqQq%Qq%%%%%%%%QqQ%%%%%%%%%%qQqQ%%qQ%q%Q%%
26527F6%%%%q%%%%Qq%Q%q%%%%%%QqQ%qQ%%%%%%q%Qq%%%Q%qQq%%Qq%%%Q%q%Q%qQq%%QqQqQq
26511E8%%%%Qq%%%%%%%%QqQq%%Qq%%%%Q%%%%%qQ%qQqQq%%%Qq%%%Q%qQqQq%%QqQq%%%QqQqQ
26495F6%qQqQq%Q%%%q%%%Q%q%%%Q%q%QqQ%q%%%%%Qq%%%%Q%q%%%%%%%%%%Q%q%%%%%%Qq%Q%%
26479F6%%qQqQ%qQq%Qq%%%%%%%%%%%%%%%%%%%%%%%%%%%%%%%Qq%%%%%Q%%qQq%Q%q%%Qq%%Qq
26463E8Qq%%%%%%%%%%%%%%%%%%%%Qq%%%%%Q%qQq%%%%%%%%%%%%%%%%%%%%%%%%%%%%%%%%%%%
26448E8%%%%%%%%%%%%%%%%%%%%%%%%%%%%%%%%%%%%%%%%%%%%%%%%%%%%%QqQ%qQq%%%%%%%%%
26432E8%%%%%%%%%%%%%%%%%%%%%%%%%%%%%%%%%%%%%%%%%%%%%%%%%%%%%%%%%%%%%Qq%%Qq%%
26416E8%%%%%%%%%%%%%%%%%%%%%%%Q%q%Qq%%%Qq%%%%%Qj6Q%J6qk4%Q%%%qJ6%qQqQ%%QqQq%
26401E8%%qQ%%%%%%%%%%%%%%%%%%%%%%%%%%%%%%%%%%%%%%%%%%%%%%%%%%%%%%%%%%%%%%%%%
26385E8%%%%%%%%%%%%%%%%%%%%%%%%%%%%%%%%%%%%%%%%%Qq%%%%%%%%%%%%%%%%%%%%%%%%%%
26370E8%%%%%%%%%%%%%%%%%%%%%%%%%%%%%%%%%%%%%%%%%%%%%%%%%%%%%%%%%%%%%%%%%%%%%
26354E8%%%%%%%%%%%%%%%%%%%%%%%%%%%%%%%%%%%%%%%%%%%%%%%%%%%%%%%%%%%%%%%%%%%%%
26338E8%%%%%%%%%%%%%%%%%%%%%%%%%%%%%%%%%%%%%%%%%%%%%%%%%%%%%%%%%%%%%%%%%%%%%
26322E8%%%%%%%%%%%%%%%%%%%%%%%%%%%%%%%%%%%%%%%%%%%%%%%%%%%%%%%%%%%%%%%%%%%%%
26306E8%%%%%%%%%%%%%%%%%%%%%%%%%%%%%%%%%%%%%%%%%%%%%%%%%%%%%%%%%%%%%%%%%%%%%
26291E8%%%%%qQ%%%%%%%qQ%%%%%%%%qQ%%%%%%%%%%%%%%%%%%%%%%%%%%%%%%%%%%%%%%%%%%%
26275E8%%%%%%%%%%%%%%%%%%%%%%%%%%%%%%%%%%%%%%%%%%%%%%%%%%%%%%%%%%%%%%%%%%qQ%
26259E8%%qQ%%%%%%%%%%%%%%%%%%%%%%%%%%%%%%%%%%%%%%qQ%%%%%%%%%%%%%%%%%%%%%%%%%
26243E8%%%%%%%%%%%%%%qQ%%%%%%%%%%%%%%%%%%%%%%%%%%%%%%qQqQ%%%qQqQ%qQ%%qQ%%%%%
26227E8%%%%%%%%%%%%%%%%%%%%%%%%%%%%%%%%%%%%%%%%%%%%%%%%%%%%%%%%%%%%%%%%%%%%%
26212E8%%%%%%%%%%%%%%%%%%%%%%qQ%%%%%%%%%%%%%%%%qQ%%%%%qQ%%%%%%%%%%%%%%%%%%%%
26196E8q%Q%%%%qQ%qQ%%%%%%%%%%%%%%%%%%%%%%%%%%%%%%%%%%%%%%%%%%%%%%%%%%%%%%%%%
26180E8%%%qQ%%%qQ%qQ%qQ%%%%%%%%%%%%%%%%%qQ%q%%J6j6Qq%Q%%%%%qQq%%Qq%%%Q%q%QqQ
26165E8%%%%%%%%%%qQ%%q%Q%qQ%q%Q%%%%%%%%%%%%%%%%%%%%%%%%%%%qQq%Q%%qQ%%qQ%%%%%
26149E8%qQ%%%%%%%%%%qQ%%%%%qQqQ%qQ%%%%%%%qQ%%qQ%q%Q%qQ%qQqQ%%%%%q%QqQq%Qq%Qq
26133E0%%%QqQ%q%Qq%%%Q%q%%Qq%QqQqQq%Q%%%%%%%%%%%%qQqQ%%%%qQqQ%%%qQ%%%%%%%%%%
26117E8%%%qQqQ%qQ%%qQ%%%qQ%%qQ%%%%%%qQ%qQqQ%q%%%%%%%%Qq%%%Qq%%Qq%%%%Q%%qQq%%
26102E0%%QqQ%%qQ%%%%%%%%%%%%%%%%%qQq%Q%q%%%%%%%%%QqQqQ%%%%%%%%%%%%%qQ%%%%qQq
26086E0Q%q%%QqQ%%qQ%qQ%%%qQ%%%%%%%q%%Qq%Q%%qQ%%q%Qq%%Qq%%%Q%q%%%%%%%%%%%%%Qq
26070E0%%%%%Qq%%%%%%Qq%%%%%%%Qq%Qq%%%%%%%%%%%%%%%%%%%%QqQq%%%%%%Q%q%Qq%Q%qQq
26054E0Q%qQq%%%Q%%q%Q%q%%%%%%%%%Qq%%%%Qq%%%%Qq%%%%%%%%%%%%%%Qq%%%QqQ%qQ%q%%%
26038E0%%Q%%qQ%%q%%%%%%%%%%%%%%%%%%%%%%%%%%Qq%%%%%%Qq%%%%%%%%%%%%%%%%Qq%Qq%Q
26023E8q%%%%%%%%%%%%%%%%%%%%%%%%%%%%%%%%%%%%%%%%%%%%%%%%%%%%%%%%%%%%%%%%%%%%
26007E0%%%%%%%%%%%%%%%Qq%Q%q%%%%Qq%%%%%%%%%%%%%%%%%%%Q%q%%%%%%%%%%%%%%%%Qq%%
25991E0Qq%%%%%%%%%%%%%%Qq%%%%%%%%%%%%%%%%%%%%%%%%%%%%%%Qq%%%%%%%%%%%%%%%%%%%
25975E0%%%%%%%%%%%%%%%%%%%%%%%%%%%%%%%%%%%%%%%%%Qq%%%%%%%%%%%%%%%%%%%%Qq%%%%
25959E0%%%%%%%%%%%%%%%%%%%%%%%%%%%%%%%%%%%%%%%%%%%%%%%%%%%%%%%%%%%%%%%%%%%%%
25944E0%%%%%%%%%%%%%%%%%%%%%%%%Qq%qQ%K4k4%%qQ%%qQ%%%%%%%%%Qq%%%%%%%%%Qq%%%%%
25928E0%%%%%%%%%%%%%%%%%%%%%%%%%%%Qq%%%%%%%%%%%%%%%%%%%%%%%%%%%%%%%%%%%%%%%%
25913E0%%%%%%%%%%%%%%%%%%%%%Qq%%%%%%%%%%%%%%%%%%%%%%%%%%%%%%%%%%%%%%%%%%%%%%
25897E0%%%%%%%%%%%%%%%%%%%%%%%%%%%%%%%%%%%%%%%%%%%%%%%%%%%%%%%%%%%%%%%%%%%%%
25881E0%%%%%%%%%%%%%%Qq%%%%%%%%%%%%%%%%%%%%%%%%%%%%%%%%%%%%%%%%%%%%%%%%%%%%%
25865E0%%%%%%%%%%%%%%%%%%%%%%%%%%%%%%%%%%%%%%%%%%%%%%%%%%%%%%%%%%%%%%%%%%%%%
25849E0%%%%%%%%%%%%%%%%%%%%%%%%%%%%%%%%%%%%%%%%%%%%%%%%%%%%%%%%%%%%%%%%%%%%%
25834E0%%%%%%%%%%%%%%%%%%%%%%%%%%%%%%%%%%%%%%%%%%%%%%%%%%%%%%%%%%%Qq%%%%%%%%
25818E0%%%%%%%%%%%%%%%%%%%%%%%%%%%%%%%%%%%%%%%%%%%%%%%%%%%%%%%%%%%%%%%%%%%%%
25802E0%%%%%%%%%%%%%%%%%%%%%%%%%%%%%%%%%%%%%%%%%%%%%%%%%qQ%%%%%%%%%%%%%%%%%%
25786E0%%%%%%%%%%%%%%%%%%%%%%%%%%%%%%%%%%%%%%%%%%%%%%%%%%%%%%%%%%%%%%%%%%%%%
25770E0%%%%%%%%%%%%%%%%%%%%%%%%%%%%%%%%%%%%%qQ%qQ%%%%%%%%%%%%%%%%%%%%%%%%%%%
25755E0%%%%%%%%%%%%%%%%%%%%%%%%%%%%%%%%%%%%%%%%%%%%%%%%%%%%%%%%%%%%%%%%%%%%%
25739E0%%%%%%%%%%%%%%%%%%%%%%%%%%%%%qQ%%%%%%%%%%%%%%%%%%%%%%%%%%%%%%%%%%%%%%
25723E0%%%%%%%%%%%%%%%%%%%%%%%%%%%%%%%%%%%%%%%%%%%%%%%%%%%%%%%%%%%%%%%%%%%%%
25707E0%%%%%%%%%%%%%%%%%qQ%q%J6j6Q%%%%%%%%%%%qQ%%%%%%%qQ%%%%%%%%%%%%%%%%%%%%
25692E0%%%%%%%%%%%%%%%%%%%qQ%%%%%%%%%%%%%%%%%%%%%%%%%%%%%%%%%%%%%%%%%%%%%%%%
25676E0%%%%%%%%%%%%%%%%%%%%%%%%%%%%%%%%%%%%%%%%%%%%%%%%%%%%%%%%%%%%%%%%%%%%%
25660E0%%%%%%%%%%%%%%%%%%%%%%%%%%%%%%%%%%%%%%%qQ%%%%%%qQ%%%qQ%%%%%%%%%%%%%%%
25645E0%%q%Q%%%%qQ%%qQ%q%%Qq%Q%%%q%Q%%%%%%%%%%%%%%%%%%%%%%%%%%%%%%%%%%%%%%%%
25629E0%%%%%%%%%%%%%%%%%%%%%%%%%%%%%%%%%%%q%Q%q%Q%%%%%%qQ%%%%%%%qQ%%q%Q%qQ%%
25613E0qQ%%%%%%%%%%%%%%%%%%%%%%%qQ%%%%q%QqQ%%%%qQ%%%%qQ%%%%%%%%%%%%qQ%%%%%%%
25597E0%%%%%%%%%%%%%%%%%%%%%qQ%%%%%%%qQ%%%%%%%%%%%%%%%%%%qQq%Q%q%%Q%%%%%%%%%
25581E0%%%q%Q%%%qQ%%%%%%%qQ%%%%%%%%%%%%%%%%%%%%%%%%%%%%%qQ%%q%%Q%%%qQq%Q%%%%
25566E0%%%%qQ%qQqQ%%%%%%qQq%%%Qq%QqQqQ%%qQqQ%%%%%Qq%%%q%%QqQ%qQ%qQ%%qQqQ%qQq
25550D2Q%qQ%%%%%%%%%%%%%%q%%Q%qQ%qQq%Qq%Q%%%q%%Qq%%Q%q%Qq%%%%%%Qq%%%QqQ%%q%%
25534D2Q%%%%%qQqQ%%%%qQ%%%%%q%Q%qQ%qQq%%Qq%%QqQ%%%%%%%%%q%%Q%%%qQqQ%q%%%%%%%
25518D2%%%Qq%%%%QqQqQqQqQqQq%QqQ%%%q%Qq%%%%Q%q%%%Q%qQ%%%%%%qQ%%qQqQq%%%%Q%%q
25502D2%%%%QqQqQqQ%%qQqQq%Q%%%%%%q%%Q%q%QqQ%%qQq%QqQ%qQ%%%%%%%%%%%%q%Qq%%%Qq
25487D2%%%%%%%%%%QqQq%%%%%%%Q%q%%Qq%%QqQq%Qq%Q%q%%%%Qq%%%Qq%%Qq%%%Qq%%Qq%%%Q
25471E0%qQq%Q%q%q%QqJ6qqJ6qJ6j6%QqQqQ%q%Qq%Q%%%q%%%%Q%%%qQqQqQqQ%qQq%%%Q%q%Q
25456E0q%%%Qq%%%%%%%%%%%%%%%%%%%Qq%Qq%QqQ%q%%%Qq%Qq%%%%%%%%%%%%%QqQq%%%%%%%%
25440D2%%%%%%%%%%%QqQqQq%%%%%%%%%%%%%%%%%%%%%%%%%%%%%%%%%%%%%%%%%%Qq%%%%%%%%
25424D2Q%q%Qq%%%%Qq%%%%%%%%%Qq%%%%%Qq%Q%%q%%Qq%%%%%%%%%%%%Qq%%%%Qq%%Qq%%%Qq%
25409D2%%Qq%%%%Qq%%%Q%qQq%%%%%%%%%%%%%%%%%%%%%%%%%%%%%%%%%%%%%%%%%%%%%Qq%%%%
25393D2%%%QqQq%Qq%%%%%%%%%%%%%%%%%%%%%%%%%%%%%%%%%Qq%%%%Qq%%%%%%Qq%%%Qq%%%%%
25377D2%%%%%%%%%%%%%%%%%%%%%%%%%%%%%%%%%%%%%%%%%%%Qq%Qq%%%%%%Qq%%%%%%%%%%%%%
25361D2%%%%%%%%%%%%%%%%%%%%%%%%%%%%%%%%%%%%%%%Qq%QqQq%%Qq%Qq%%%%%%%%%%%%%%%%
25345D2%%%%%%%%%%%%%%%%%%%%%%%%%%%%%%%%%%%%%%%%%%%%%%%%%%%%%%%%%%%%%%%%%%%%%
25330D2%%%%%%%%%%%%%%%%%%%%%%%%%%%%%%%%%%%%%%%%%%%%%%%%%%%%%%%%%%%%%%%%%%%%%
25314D2%%%%%%%%%%%%%%%%%%%%%%%%%%%%%%%%%%%%%%%%%%%%%%%%%%%%%%%%%%%%%%%%%%%%%
25298D2%%%%%%%%%%%%%%%%%%%%%%%%Qq%%%%%%%%%%%%%%%%%%%%%%%%%%%%%%%%%%%%%%%%%%%
25282D2%%%%%%%%%%%%%%%%%%%%%%%%%%%%%%%%%%%%%%%%%%%%%%%%%%%%%%%%%%%%%%%%%%%%%
25266D2%%%%%%%%%%%%%%Qq%%%%%%%%%%%%%%%%%%%%%%%%%%%%%%%%%%%%%%%%%%%%%%%%%%%%%
25251D2%%%%%%%%%%Qq%%%%%%%%%%%%%%%%%%%%%%%%%%%%%%%%%%%%%%%%%%%%%%%%%%%%%%%%%
25235D2%%qJ6q%%Qq%%%%%%%%%%%%%%%%%%%%%%%%%%%%%%%%%%%%%%%%%%%%%%%%%%%%%%%%%%%
25219D2%%%%%%%%%%%%%%%%%%%%%%%%%%%%%%%%%%%%%%%%%%%%%%%%%%%%%%%%%%%%%%%%%%%%%
25203D2%%%%%%%%%%%%%%%%%%%%%%%%%%%%%%%%%%%%%%%%%%%%%%%%%%%%%%%%%%%%%%%%%%%%%
25188D2%%%%%%%%%%%%%%%%%%%%%%%%%%%%%%%%%%%%%%%%%%%%%%%%%%%%%%%%q%Q%%%%%%%%%%
25172D2%%%%%%%%%%%%%%%%%%%%%%%%%%%%%%%%%%%%%%%%%%%%%%%%%%%%%%%%%%%%%%%%%%%%%
25156D2%%%%%%%%%%%%%%%%%%%%%%%%%%%%%%%%%%%%%%%%%%%%%%%%%%%%%%%%%%%%%%%%%%%%%
25140D2%%%%%%%%%%%%%%%%%%%%%%%%%%%%%%%%%%%%%%%%%%%%%%%%%%%%%%%%%%%%%%%%%%%%%
25125D2%%%%%%%%%%%%%%%%%%%%%%%%%%%%%%%%%%%qJ6q%%%%%%Qq%%%%%%%%%%%%%%%%%%%%%%
25109D2%%%%%%%%%%%%%%%%%%%%%%%%%%%%%%%%%%%%%%%%%%%%%%%%%%%%%%%%%%%%%%%%%%%%%
25093D2%%%%%%%%%%%%%%%%%%%%%%%%%%%%%Qq%%%%%%%%%%qQ%%%%%%%%%%%%%%%%%%%%%%%%%%
25077D2%%%%%%%%%%%%%%%%%%%%%%%%%%%%%%%%%%%%%%%%%%%%%%%%%%%%%%%%%%%%%%%%%%%%%
25062D2%%%%%%%%%%%%%%%%%%%%%%%%%%%%%%%%%%%%%%%%%%%%%%%%%%%%%%%%%%%%%%%%%%%%%
25046D2%%%%%%%%%%%%%%%%%%%%%%%%%%%%%%%%%%%%%%%%%%%%%%%%%%%%%%%%%%%%%%%%%%%%%
25030D2%%qQ%%%%%qQ%%%%%%%%%%%%%%%%%%%%%%%%%%%%%%%%%%%%%%%%%%%%%%%%%%%%%%%%%%
25014D2%%%%%%%%%%%%%%%%%%%%%%%%%%%%%%%%%%%%%%%%%%%%%%%%%%%qQ%%%%%%%%%%%j6L2j6
24999D2qJ6qq%Q%%%%%qQ%%%qQ%%%%%%%%%%%%%%%%%%%%%%%%%%%%%%%%%%%%%%%%%%%%%%%%%%
24983D2%%%%%%%%%%%%%%%%%%%%%%%%%%%%%%%%%%%%%%%%%%%%%%%%%%%%%%%%%%%%%%%%%qQ%%
24967D2%%%%%%%%%%%%%%%%%%%%%%%%%%%%%%%%%%%%%%%%%%%%%%%%%%qQ%%%%%%%%%%%%%%%%%
24952D2%%%%%%%%%%%%%%%%%%%%%%%%%%%%%%%%%%%%%%qQ%%%q%Q%%%%%q%QqQ%%%%%%%%%%%%%
24936D2%%%%%%%%%%%%%%%%%%%%%%%%%%%%%%%%%%%%%%%%%qQ%%%%%%%%%%%%%qQ%%%%%%qQ%%%
24920D2%%%%%%%%%%%%%%%%%%%%%%%%%%%%%%%%%%qQ%%%%q%%Qq%Q%%%qQ%%%%%%%%%%%%%%%%%
24904D2%%%%%%%%%%%%%%%%%%%%%%%%%%%%%%%%%%%%%%qQ%%%%%%%%%%%%%%%%%%%%%%%%%%%%q
24889C4Q%%%%%%%%%%%%%%%%%%%%%%qQq%%%%QqQ%%qQ%%%%%%%%%%%%%%%%%%%%%%%%%%%%%%%q
24873C4Q%q%Q%%%%%%%%%%%qQ%%qQ%%%qQ%%%%%%%%%%%%%%%%%%%%%%%%%%%%%%%%%%%%%%%%%%
24857D2%%%%qQ%%%%%%%%%%%%%%%qQ%%%%%%%%%%%%%%%%%%%%%%%%%%%%%%%%%%%%%%%%%%%%%%
24841D2%%%%%%%%qQq%QqQqQq%%%%%%%%%QqQqQq%%%Q%%qQ%q%Q%qQ%%%%%%%%%%%%%%%%%%%%%
24825D2%%qQqQ%%qQ%%%%%%%%%%%%%%%%%%%%%%%%%%%q%QqQq%QqQq%%%Qq%QqQ%%%%%%%%%%%%
24810D2%qQ%%%%%%%%%%%%%%%%%%qQq%QqQ%%%q%QqQ%q%%%%%%Q%qQ%qQ%%%%qQ%%%%%qQqQq%Q
24794D2%%%qQ%%%%%%%%%%%%%%%%qQ%qQ%qQqQ%q%%Qq%Qq%%%%QqQ%q%Q%q%Q%qQ%%%%%%%qQ%%
24778D2%%%%%%%%%%%%q%Q%%qQ%%q%Qq%Q%%%%%%%%%%%%%qQ%qQq%Q%%%qQ%qQqQqQqQj6QQqQq
24762C4%%Q%%%%qQ%%%%%q%QqQ%qQqQ%qQ%%%%%%%%%%%%%qQ%%%%%%%%%%%%%%%%%q%%Q%%q%%%
24747C4%Qq%Q%qQ%%q%%%Q%%%%%qQqQ%qQ%qQ%%q%QqQq%QqQq%%Q%q%%Q%%%q%%%%%Q%%q%Q%q%
24731C4Q%%%%q%QqQq%%%QqQ%%qQ%%qQ%%qQ%%%%%%%qQ%%%%%qQ%%q%%%Qq%%%Q%%%%%%%%q%%%
24715C4%%%%%Q%%%%%qQq%%%%%%%%%%%%%%Qq%%%%%Qq%%%Qq%%%QqQqQ%%%qQq%Q%%%%%%qQq%Q
24699D2qQ%%qQq%Q%q%%%%%%Q%qQ%%q%%QqQ%%%%%%%qQ%q%%Q%%%%q%Q%%%%%qQ%qQq%QqQqQ%q
24683C4%QqQq%%%%%Qq%%%%%%%QqQ%%q%QqQq%%%%Q%%q%%%%%%Qq%%QqQqQ%%%%%%%q%Q%qQqQ%
24668D2q%%Q%%%qQq%%%%%%%Q%q%%%%QqQqQq%%Qq%%%%%Q%%q%%Qq%Q%q%%Q%q%%%%%%%%%%%%%
24652C4%%%%%%%%Qq%%Q%q%Qq%%Q%qQq%%%Q%q%%%%%%%QqQ%%qQqQq%QqQqQq%Qq%Q%q%Q%q%%Q
24636D2%%q%QqQ%%qQ%q%%%%Qq%%Q%q%%QqQqQ%%%qQqQ%qQq%%%%%Qq%%Q%qQqQ%qQq%%%%%%Qq
24620C4%%%QqQq%%QQQj6k4J6q%%QQq%QqQ%q%%Q%q%Qq%%%%%Q%%q%%Q%%%%%qQ%%%%%%%%%q%Q
24605D2%%q%%Q%qQq%%%%%%%%%%%%%%QqQqQ%q%%%%%%Qq%%%%%%%%%%%Qq%%%%%Qq%Qq%%%%QqQ
24589D2%q%%Qq%%%%%%%%%%%Qq%%%%%%%%%QqQq%%%Q%q%%%%%%%%%%%%%%%%%%%%%Q%q%%%%%%%
24574C4%%Qq%Q%q%%%%%Q%q%%%Qq%%%%%%%%%%%%QqQqQq%%%%%%%%%%Q%q%%Q%%%%q%Q%q%%%Qq
24558C4%%%%%%%%Qq%%%%%Qq%%%%%%%Qq%%%%%%%%%%%%%%%%%%%%%%%%%%%Qq%%%%Qq%%%%%%%%
24542C4%%%%%%%%%%%%%QqQq%Qq%QqQqQ%qQqqJ6qJ6k4J6j6%J6j6QQQk4J6qQk4J6k4J6N6n6Q
24530C4Qj6J6j6J6qQ%%%%%qJ6j6Qq%QqQ%%%q%%Qq%%%%%%%%%%QqQq%Qq%%%%%%%%%%%Q%qQq%
24515C4QqQqQqQq%Qq%%Qq%%%%%%%%%%%QqQq%%QqQ%q%%%%%%%%%Q%qQq%Q%q%%%%%%QqQqQ%q%
24499C4%%%%%Qq%%%%Qq%%%%%Qq%%%%%%%%%%QqQq%%%%%%%%%%%%%%%%%%%%%%%%%%%%%%%%%%%
24484C4Qq%Qq%%%%%%%%%%%%%%%%%%%%%%%%%%%%%%Qq%Q%%q%%%QqQ%q%%%%%%%%Qq%%%%%%%%%
24468C4%%%%%%%%%%%%%%%%%%%%%%%%%%%%%%%%%%%%%%%%%%%%%%%%%%%%%%%%%%%%%%%%%%%%%
24452C4%%%%%%%%%%%%%%%%%%%%%%%%%%%%Qq%%%%%%Qq%%Qq%Qq%%%%%%%%%%%%%%%%QqQ%q%%%
24436C4%%%%%%%%%%%%%%%%%%%%%%%%%%%%%%%%%%%%%%Qq%Qq%%%%%%%%%Qq%%%%%%%%%%%%%%%
24420C4%%%%%%%%%%%%%%%%%%%%%%%%%QqQq%Qj6Q%%Q%q%%%%%%%%%%%%%%%%%%%%%%%%%%%%%%
24405C4%%%%%%%%%%%%%%%%%%%%%%%%%%%%%%%%%%%%%%%%%%%%%%%%%%%%%%%%%%%%%%%%%%%%%
24389C4%%%%%%%%%%%%%%%%%%%%%%Qq%qQ%%%%%%%%%%%%%%%%%%%%%%%%%%%%%%%%%%%%%%%%%%
24373C4%%%%%%%%%%%%%%%%%%%%%%%%%%%%%%%%%%%%%%%%%%%%%%%%%%%%%%%%%%%%%%%%%%%%%
24358C4%%%%%%%%%%%Qq%%%Qq%%%%%%%%%%%%%%%%%%%%%%%%%%%%%%%%%%%%%%%%%%%%%%%%%%%
24342C4%%%%%%%%%%%%%%%%%%%%%%%%%%%%%%%%%%%%%%%%%%%%%%%%%%%%%%%%%%%%%%%%%%%%%
24326C4%Qq%%%%%%%%%%%%%%%%%%%%%%%%%%%%%%%%%%%%%%%%%%%%%%%%%%%%%%%%%%%%%%%%%%
24310C4%%%%%%%%%%%%%%%%%%%%%%%%%%%%%%%%%%%%%%%%%%%%%%%Qq%Qq%%%%Qq%qJ6q%Qq%Qq
24295C4%%%%%%%%%%%%%%%%%%%%%%%%%%%%%%%%%%%%%%%%%%%%%%%%%%%%%%%%%%%%%%%%%%%%%
24279C4%%%%Qq%%%%%%%%%%%%%%%%%%%%%%%%%%%%%%%%%%%%%%%%%%%%%%%%%%%%%%%%%%%%%%%
24263C4%%%%%%%%%%%%%%%%%%%%%%%%%%%%%%%%%%%%%%%%%%%%%%%%%%%%%%%%%%%%%%%%%%%%%
24247C4%%%%%%%%%%%%%%%%%%%%%%%%%%%%%%%%%%%%%%%%%%%%Qq%%%%%%%%%%%%%%%%%%%%%%%
24231C4%%%%%%%%%%%%%%%%%%%%%%%%%%%%%%%%%%%%%%%%%%%%%%%%%%%%%%%%%%%%%%%%%%%%%
24216C4%%%%%%%%%%%%%%%%%%%%%%%%%%%%%%%%%%%%%%%%%%%%%%%%%%%%%%%%%%%%%%%%%%%%%
24200C4%%%%%%%%%%%%%%%%%%%%%%%%%%%%%%%%%%%%%%%%%%%%%%%%%%%%%%%%%%%%%%%%%%%%%
24184C4%%%%%%%%%%%%%%%%%%%%%%%Qq%%%%%%%%%%%%%%%%%%%%%%%%%%%%%%%%%%%%%%%%%%%%
24168C4%%%%%%%%%%%%%%%%%%%%%%%%%%%%%%%%%%%%%%%%%%%%%%%%%%%%%%%%%%%%%%%%%%%%%
24152C4%%%%%%%%%%qQ%qQ%%%%%qQ%%%%%%%%%%%%%%%%%%%%%%%%%%%%%%%%%%%%%%%%%%%%%%%
24137C4%%%%%%%%%%%%%%%%%%%%%%%%%%%%%%%%%%%%%%%%%%%%%%%%%%%%%%%%%%%%%%%%%%%%%
24121C4%%%%Qq%%%%%%%%%%%%%%%%%%%%%%%%%%%%%%%%%%%%%%%%%%%%%%%%%%%%%%%%%%%%%%%
24105C4%%%%%%%%%%%%%%%%%%%%%%%%%%%%%%%%%%%%%%%%%%%%%%%%%%%%%%%%%%%%%%%%%%%%%
24089C4%%%%%%%%%%%%%%%%%%%%%%%%%%%%%%%%%%%%%%%%%%%%%%%%%%%%%%%%%%%%%%%%%%%%%
24073C4%%%%%%%%%%%%%%%%%%%%%%%%%%%%%%%%%%%%%%qQqQ%%%%%%Qj6Q%q%QQq%%%%%%%%qQ%
24058C4%%%%%%%%%%%%%%%%%%%%%%%%%%%%%%%%%%%%%%%%%%%%%%%%%%%%%%%%%%%%%%%%%%%%%
24042C4%%%%%%%%%%%%%%%%%%%%%%%%%%%%%%%%%%%%%%%%%%%%%%%%%%%%%%%%%%%%%%%%%%%%%
24026C4%%%%%%%%%%%%%%%%%%%%%%%%%%%%%%%%%%%%%%%%%%%%%%%%%%%%%%%%%%%%%%%%%%%%%
24011C4%%%%%%%%%%%%%%%%%%%%%%%%%%%%%%%%%qQ%qQ%%%%%%%%%%%%%%%%%%%%%%%%%%%%%%%
23995C4%%%%%%%%%%%%%%%%%%%%%%%%%%%%%%%%%%%%%%%%%%%%%%%%%%%%%%%%%%%%%%%%%%%%%
23979C4%%%%%%%%%%%%%%%%%%%%%%%%%%%%%%%%%%%%%%%%%%%%%%%%%%%%%%%%%%%%%%%qQqQ%%
23963C4%%%%%%%%%%%%%%%%%%%%%%%%%%%%%%%%%%%%%%%%%%%%%%%%%%%%%%%%%%%%%%%%%%%%%
23947C4%%%%%qQ%%%qQQq%%qQ%%%%%%%%%%%%%%%%%%%%%%%%%%%%%%%%%%%%%%%%%%%%%%%%%%%
23932C4%%%%%%%%%%%%%%%%%%%%%%%%%%%%%%%%%%%%%%%%%%%%%%%%%%%%%%%%%%%%%%%%%%%%%
23916C4%%%%qQ%%%%%%%%%%%%%%%%%%%%%%%%%%%qQ%%%%%%%%%%%%%%%%%%qQ%%%%%%%%%%%%%%
23900C4%%%%%%%%%%%%%%%%%%%%%%%%%%%%%%%%%%%%%%%%%%%%%%%%%%%%%%%%%%%qQ%qQ%qQ%%
23884C4%%%%%%%%%%%%%%%%%%%%%%%%qQ%%%%%%%%%%%%%%%%%%%%%%%%qQ%%%%%%%%%%%%%%%%%
23868C4%%%%%%%%%%%%%%%%%%%%%%%%%%%%%%%%%%%%%%%%%%%%%qQ%%%%qQ%%%%%%%%%%%%%%%%
23853C4%%%%%%%%%%%%%%%%%%%%%%%%%%%%%%%%%%%%%%%%%%%%%%%%%%%%%%%%%%%%%%%%%%%%%
23837C4%%%%%%%%%%%%%%%%%%%%%%%qQ%%qQ%%%%%%%%qQ%%q%Q%%%%%qQ%%%%%%%%%%%%%%%%%%
23821C4%%%%%%%%%%%%%%%%%%%%%%%%%%%%%%%%%%%%qQq%Q%%%%%%%%%%%%%%%%%%%qQ%qQ%%%%
23805C4%qQ%q%Q%%%q%Q%%%%%%%%%%%%%%q%Q%qQ%q%QqQ%%%%%%%%%%%%%%%%%%%%%%%%%%%%%%
23789C4%%%%%%%%%%%%%%%%%%%%%%%%%%%%%%%%%%%%%%%%%%%%%%%%%%%%%%%%%%%q%QqQ%%%%%
23774C4%%%%%%%%%%%qQ%%%%%%%qQ%%%%%%%%%%%%%%%%%%%%%%%%%%%%%qQ%%%%%%%%%%%%%%%%
23758C4%%%%%%%%%%%%%%%%%%qQ%%%%%%%%%%%%%%%%%%%%%%%%%%%%%%%%%%%%%%%%%qQ%%%qQ%
23742C4%%%qQ%%qQ%qQ%%%%%%%%%%%%%%%%%%%%%%%%%%%%qQ%%%%%%%%%%%%%%%%%%%%%%%%%%%
23726C4%%%%%%%%%%%%%%%%%%%%%qQ%%%%%%%qQ%%%%%%%%qQ%qQ%qQ%qQ%%q%Q%%%%%qQ%%%%qQ
23710C4%%%qQ%q%%Q%qQ%qQ%%%%%%%%qQ%%%%%%qQ%%%%%q%%Q%q%%Q%%%%%%%%%%%%%%%%qQ%%%
23695C4%qQ%qQqQq%Q%%qQ%%%%%%%%%%%%%%%%%%%%%%%%%%%%%%%%q%Q%q%Q%qQ%%qQQj6Q%%%%
23679C4%q%%%%Qq%%QqQ%%%%%%%%%%qQ%%%%%%%%%%%%%%%%%%%%%%%%%%%%%%%%%%%%%%%%%%%%
23663C4%%%%%%%%%%%%%%%%%%%%%%%%%%%%%%%%%%qQ%%q%Q%%qQ%%%qQ%%q%Q%%%%%%%%%%%%%%
23648C4%%%%%%%%%%%qQ%qQ%%%%%%%qQ%%%%%%%%%%%%%%%%%%%%%%%%%%%%qQ%%%%%%%%%%qQ%q
23632B6QqQq%Q%q%%%%%%Qq%Qq%%Q%%%%%%%%%%q%Q%%%%%%%%%qQ%%%%%qQ%%%%%%%%%%%%%%%%
23616C4%%%%%%%%%qQ%qQ%q%%%Qq%%%%%%QqQqQq%Qq%%%Q%%%qQ%qQ%%%%qQ%%qQ%qQq%%%Q%q%
23600B6Q%%%%%qQ%qQ%%%qQ%q%Qq%%%%%QqJ6j6%qqQK4q%%qQ%qQqQ%q%Q%%%%%%%%qQqQ%qQ%%
23585C4%%%q%%%%Q%q%%%Q%%q%%%%%%Qq%%Q%%%%%%qQq%Q%%qQ%qQ%%%%%%%%%%%%%%%%%%%%%%
23569C4%%%%q%QqQqQqQ%%qQqQ%%%%%%%%%qQq%Q%%%%%%%%%%%%%%%%%%%qQ%q%Q%%qQ%%qQ%%%
23553C4%q%%%Q%%%%%%%%%%%%%%%qQ%%q%QqQq%Qq%%Q%%%%qQq%%Q%%%qQ%%%qQ%qQqQ%%%%qQ%
23538C4%qQqQqQ%%%qQ%%%q%QqQqQ%%qQ%%%%%qQqQ%%%%%%qQ%%%%%%%qQ%%qQ%%qQ%%q%Q%%%%
23522C4%%q%%%%%%Qq%%%%%%Qq%%%%Qq%%Qq%%%%%%%%QqQq%Q%qQ%qQ%%q%%Qq%Q%q%QqQ%%q%%
23506B6Q%%q%%QqQ%%qQqQq%Q%q%Q%qQq%%%%%%%%%Q%%q%Qq%%%%%%%%%%QqQ%q%%Q%%%%%qQ%%
23490C4%%q%Q%q%Qq%QqQq%Q%%%%%qQqQ%qQq%%%QqQ%%qQqQqQ%%%%qQqQ%%qQqQq%Q%%qqJ6qQ
23475C4qQ%%q%%Q%%%%%qQ%%%q%Q%%qQ%qQ%%%qQ%q%QqQ%%q%Qq%QqQ%q%%%Qq%Q%qQ%qQ%qQ%%
23459C4%%%q%%%QqQ%qQ%%q%%Qq%QqQ%qQ%%%%qQq%%Q%%qQqQ%%%%q%%%%Qq%%QqQqQq%Q%q%%%
23443B6QqQ%%%%%q%%%%Q%%qQq%Q%%%%q%Q%%%%%%q%Q%%%qQ%q%Qq%Qq%Q%%qQqQqQq%%Qq%%%%
23427B6%%%%%%%%%Q%qQ%%%%%qQ%%%%%%%qQ%qQ%%%%%qQ%%%q%Qq%Q%qQq%%%Q%%q%%%%%Qq%%%
23412B6QqQ%q%%Qq%%Q%q%Qq%%%%%%%%%Q%qQ%%q%Qq%Q%q%%%%%Qq%%%Q%qQ%%%%q%Qq%QqQq%Q
23396C4q%%%Q%%%%q%%%Q%q%%%Qq%Qq%%QqQq%%%%%Q%qQq%%Q%q%%%%%%%%%%%%%Q%q%Qq%%%%%
23380B6%%Qq%%%%%%%%%%%%%%%%%%%Q%%q%Q%qQ%%q%QqQqQ%q%Qq%%%%%%%%%Qq%Q%%%%q%%Q%q
23364B6%%%%%%%%%%Qq%%%%%Qq%%%Q%%qQ%q%%%%%%Q%%q%%%%Qq%Q%%%qQq%%Qq%Q%qQ%%qQqQq
23348B6Q%%%%%%%%%q%Q%qQq%%%%Q%%q%%QqQq%%%Qq%%%%%%%%%%%%QqQqQ%%%%q%%%%%%%Qq%%
23333B6%%%%%%%%Qq%%Qq%%%%%Q%%q%Qq%%%Qq%%%%%%%%%%%%%%%%%%%Q%q%%%Qq%%%%%%%%%%%
23317B6%%%%Qq%QqQqQq%QqQq%%%Qq%%Qq%%%%%%%%%%%%%%%%%%%%%%%%%%%%Qq%%%%Q%q%Q%q%
23301B6%%Q%q%%%%%%%%%%%%%%%%%%%Qq%%QqQq%%Q%q%Qq%%%%%%%%%%%%%%%%%%%%Q%%%%%qQ%
23285C4qQq%%%%%%%%%%%%%%%%%Qq%Q%%qQqQq%Q%q%Q%q%QqQq%%%%Qq%%%%%%%Qq%%Qq%%%%%Q
23269C4q%%%%%%%Qq%%%%Qq%QqQq%%%%Qq%%%%Q%%q%%%%%%%%%%%%%Qq%Qq%Qq%Q%q%%%%%%%%%
23254B6%%%%%%%%%%%%%%%%%%%%%%%%QqQ%%qQ%qQq%Qq%%%Qq%%Qq%%Qq%%%QqQq%%Q%qQ%%%%%
23238C4%q%Q%%%%qQq%%%%%%%%Qq%%Qq%%%%Qq%%%%%%%%%%%Q%qQqQq%%Qq%%%%%%%%%%%%Qq%%
23222B6%%%%%%%%%%%Qq%%Qq%%%%%%%%%%%%%%%%%%%%%%%%%QqQ%q%%Qq%%%%%%%%%%%%%%%%%Q
23206C4q%Q%%%q%%%%%%%%%%%%%%%%QqQq%%%%%%%%Qq%%%%%%%%%%%%%%%%%%%%%%Qq%%%%%Qq%
23190B6%%%%%%%%%%%%%%%%%%%%%%%%%%%%%%%%Qq%%Qq%%%%%%%%%%%%%%%%%%%%%%%%%Q%%%%%
23175C4%%%q%%%%%%%Qq%%%%%%Qq%%%%%%Q%q%Qq%%%%%%%%%%%%%%%%%%%Qq%%%%%%%%%%Qq%%%
23159B6%%%%%%%%%Qq%%%%%%%%%QqQq%%Q%%%q%%%%%Q%q%%%%%%%%%%%%%%%%%%%%%%%%%%%%%%
23143B6%%Qq%%%Qq%%%%%%%%%%Qq%%%%%%%%%%%%%%%%%%%%%%%%%%%%%%%%%%%%%%%%%%%%%%%%
23127B6%Qq%%Qq%%QqQq%j6J6Qq%qQ%%%%%%%%%%%%%%%%%%%%Qq%%%%%%%QqQ%q%%%%%%%%%%%%
23112B6%%%%%%%Qq%%%%%%%%%%%%%%%%%%%%%%%%%%%%%%%%%%%%%%%%%%%%%%Qq%%%%%%%%%%%%
23096B6%%Qq%%Qq%QqQq%%%Qq%%%%%%%%%%%%%%%%%%%%%%%%%%%%%%%%%%%%%%%Qq%%%%%Qq%%%
23080B6%%%%%%%%%%%%%%%%%%%%%%%%%%%%%%%%%%%%%%%%%%%%%%%%%%QqQq%%%%%%%QqQq%%%%
23065B6%%%%%%%%%%%%%%%%%%%%%%%%%%%%%%%%%%Q%q%%%%%%%%%%%%%%%%%%%%%%%%%%%%%%%%
23049B6%%%%%%%%%%%%%%%%%%%%%%%%%%%%%%%%%%%%%%%%%%%%%%%%%%%%%%Qq%%Qq%%%%%%%%%
23033B6%%%%%%%%%%%%%%%%%%%%%%%Q%q%%%%%%%%%%%%%%%%Qq%%Qq%%%%%Qq%%%%%%%%%%%%%%
23017B6%%%%%%%%%%%%%%%%%%%%%%%%%%%%%%%%%%%%%%%%QqQqQqQ%q%Qq%%%%Qq%%%Qq%%%%%%
23001B6%%%%%%%%%%%%%%%%%%%%%%%%%%%%%%%%%%%%%%Qq%%%%%%%%%%%%%%%%%%%%%%%%%%%%%
22986B6%%%%%%%%%%%%%%%%%Qq%%%%%%%%%%%%%%%%%%Qq%%%%%%%%%%%%%%%%%%%%%%%%%%%%%%
22970B6%%%%%%%%%%%%%%%%%%%%%%%%%%%%%%%%%%%%%%%%%%%%%%%%%%%%%%%%%%%%%%%%%%%%%
22954B6%%%%%%%%%%%%%%%%%%%%%%%%%%Qq%%%%%QqQ%q%%%%%%%%%%%%%%%%%%%%%%%%%%%%%%%
22938B6%%%%%%%%%%%%%%%%%%%%%%%%%%%%%%%%%%%%%%%%%%%%%%%%%%%%%%%%%%%%%%%%%%%%%
22922B6%%%%%%%%%%%%%%%%%%%%%%%%%%%%%%%%%%%%%%%%%%%%%%%%%%%%%%%%%%%%%%%%%%%%%
22907B6%%%%%%%%%%%%%%%%%%%%%%%%%%%%%%%%%%%%%%%%%%%%%%%%%%%%%%%%%%%%%%%%%%%%%
22891B6%Qq%%Qq%%%%%%%Qq%%%%%%%%Qq%%%%%%%%%%%%%%%%%%%%%%%%%%%%%%%%%%Qq%%%%%%%
22875B6%%%%%%%%%%%%%%%%%%%%%%%%%%%%%%%%%%%%%%%%%%%%%%%%%%%%%%%%%%%%%%Qq%%%%%
22859B6%%%%%%%%%%%%%%%%%%%%%%%%%%%%%%%%%%%%%%%%%%%%%%%%%%%%%%%%%Qq%%%%%%%%%%
22843B6%%%%%%%%%%%%%%%%%%%%%%%%%%%%%%%%%%%%%%%%%%%%%%%%%%%%%Q%q%%%%%%%%%%%%%
22828B6%%%%%%%%%%%%%%%%%%%%%%%%%%%%%%%%%%%%%%%%%%%%%%%%%%%%%%%%%%%%%%%%%%%%%
22812B6%%%%%%%%%%%%%%%%%%%%%%%%%%%%%%%%%%%%%%%%%%%%%%%%%%%%%%%%%%%%%%%%%%%%%
22796B6%%%%%%%%%%%%%%%%%%%%%%%%%%%%%%%%%%%%%%%%%%%%%%%%%%%%%%%%%%%%%%%%%%%%%
22780B6%%Qq%%%%%%%%%%%%%%%%%%%%%%%%%%%%%%Q%q%%%%%%%%%%%%%%%%%%%%%%%%%%%%%%%%
22765B6%%%%%%%%%%%%%%%%%%%%%%%%%%%%%%%%%%%%%%%%%%%%%%%%%%%%%%%%%%%%%%%%%%%%%
22749B6%%%%%%%%%%%%%%%%%%Qq%QqQq%QqQQqq%%%%%%%%%%Qq%%%%%%%%%%%%%%%%%%%%%%%%%
22733B6%%%%%%%%%%%%%%%%%%%%%%%%%%%%%%%%%%%%%%%%%%%%%%%%%%%%%%%%%%%%%%%%%%%%%
22717B6%%%%%%%%%%%%%%%%%%Qq%%%%%%%%%%%%%%%%%%%%%%%%%%%%%%%%%%%%%%%%%%%%%%%%%
22701B6%%%%%%%%%%%%%%%%%%%%%%%%%%%%%%%%%%%%%%%%%%%%%%%%%%%%%%%%%%%%%%%%%%%%%
22686B6%%%%%%%%%%%%%%%%%%%%%%%%%%%%%%%%%%%%%%%%%%%%%%%%%%%%%%%%%%%%%%%%%%%%%
22670B6%%%%%%%%%%%%%%%%%%%%%%%%%%%%%%%%%%%%Qq%%%%%%%%Qq%%%%%q%QqJ6%%K4l2J6l2
22655A0M0l2%%Q%qQ%%Qq%%%%%qQ%%%%%%%%%%%%%%%%%%%%%%%%%%%%%%%%%%%%%%%%%%%%%%%%
22640B6%%%%%%%%%%%%%%%%%%%%%%%%%%%%%%%%%%%%%%%%%%%%%%%%%%%%%%%Qq%%Qq%%%%%%%%
22624B6%%%%%%%%%%%%%%%%%%%%%%%%%%%%%%%%%%%%%%%%%%%%%%%%%%%%%%%%%%%%%%%%%%%%%
22608B6%%%%%%%%%%%%%%%%%%%%%%%%%%%%%%%%%%%%%%%%%%%%%%%%%%%%%%%%%%%%%%%%%%%%%
22592B6%%%%%%%%%%%%%%%%%%%%%%%%%%%%%%%%%%%%%%%%%%%%%%%%%%%%%%%%%%%%%%%%%%%%%
22577B6%%%%%%%%%%%%%%%%%%%%%%%%%%%%%%%%%%%%%%%%%%%%%%%%%%%%%%%%%%%%%%%%%%%%%
22561B6%%%%%%%%%%%%%%%%%%%%%%%%%%%%%%%%%%%%%%%%%%%%%%%%%%%%%%%%%%%%%%%%%%%%%
22545B6%%%%%%%%%%%%%%%%%%%%%%%%%%%%%%%Qq%%%%%%%%%%%%%%%%%%%%%%%%%%%%%%%%%%%%
22529B6%%%%%%%%%%%%%%%%%%%%%%%%%%%%%%%%%%%%%%%%%%%%%%%%%%%%%%%%%%%%%%%%%%%%%
22513B6%%%%%%%%%%%%%%%%qQ%%%Qq%%%%%%%%%%%%%%%%%%%%%%%%%%%%%%%%%%%%%%%%%%%%%%
22498B6%%%%%%%%%%%%%%%%%%%%%%%%%%%%%%%%%%%%%%%%%%%%%%%%%%%%%%%%%%%%%%%%%%%%%
22482B6%%%%%%%%%%%%%%%%%%%%%%%%%%%%%%%%%%%%%%%%%%%%%%%%%%%%%%%%%%%%%%%%%%%%%
22466B6%%%%%%%%%%%%%%%%%%%%%%%%%%%%%%%%%%%%%%%%%%%%%%%%%%%%%%%%%%%%%%%%%Qq%%
22450B6%%%%%%%%%%%%%%%%%%%%%%%%%%%%%%%%%%%%%%%%%%%%%%%%%%%%%%%%%%%%%%%%%%%%%
22434B6%%%%%%%%%%%%%%%%%%%%%%%%%%%%%%%%%%%%%%%%%%%%%%%%%%qQ%Qq%%Qj6%J6q%%%%%
22419B6%%Qq%%%%%%%%%%%%%%%%%%%%%%%%%%%%%%%%%%%%%%%%%%%%%%%%%%%%%%%%%%%%%%%%%
22403B6%%%%%%%%%%%%%%%%%%%%%%%%%%%%%%%%%%%%%%%%%%%%%%%%%qQqQ%%%%%%%%%%%%%%%%
22388B6%%%%%%%%%%%%%%%%%%%%%%%%%%%%%%%%%%%%%%%%%%%%%%%%%%%%%%%%%%%%%%%%%%%%%
22372B6%%%%%%%%%%%%%%%%%%%%%%%%%%%%%%%%%%%%%%%%%%%%%%%%%%%%qQ%%%%%%%%%%%%%%%
22356B6%%%%%%%%%%%%%%%%%%%%%%%%%%%%%%%%%%%%%%%%%%%%%%%%%%%%%%%%%%%%%%%%%%%%%
22340B6%%%%%%%%%%%%%%%%%%%%%%%%%%%%%%%%%%%%%%%%%%%%%%%%%%%%%%%%%%%%%%%%%%%%%
22324B6qQ%%%%%%%%%%%%%%%%%%%%%%%%%%%%%%%%%%%%%%%%%%%%%%%%%%%%%%%%%%%%%%%%%%%
22309B6%%%%%%%%%%%%%%%%Qq%%%Qq%%%%%%%%%%%%%%%%%%%%%%%%%%%%%%%%%%%%%%%%%%%%%%
22293B6%%%%%%%%%%%%%%%%%%%%%%%%%%%%%%%%%%%%%%%%%%%%%%%%%%%%%%%%%%%%%%%%%%%%%
22277B6%%%%%%%%%%%%%%%%%%%%%%%%%%%%%%%%%%%%%%%%%%%%%%%%%%%%%%%%%%%%%%%%%%%%%
22261B6%%%%%%%%%%%%%%%%%%%%%%%%%%%%%%%%%%%%%%%%%%%%%%%%%%%%%%%%%%%%%%%%%%qJ6
22246C4qqQ%%%%%%%%%%%%%%%%%%%%%%%%%%%%%%%%%%%%%%%%%%%%%%%%%%%%%%%%%%%%%%%%%%
22230B6%%%%%%%%%%%%%%%%%%%%%%%%%%%%%%%%%%%%%%%%%%%%%%%%%%%%%%%%%%%%%%%%%%%%q
22214A8Q%%%%%%%%%%%%%%%%%%%%%%%%%%%%%%%%%%%%%%%%%%%%%%%%%%%%%%%%%%%%%%%%%%%%
22198B6%%%%%%%%%%%%%%%%%%%%%%%%%%%%%%%%%%%%%%qQ%%%%%%qQQj6QqJ6q%%%%%%%%%%%%%
22183B6%%%%%%%%%%%%%%%%%%%%%%%%%%%%%%%%%%%%%%%%%%%%%%%%%%%%%%%%%%%%%%%%%%%%%
22167B6%%%%%%%%%%%%%%%%%%%%%%%%%%%%%%%%%%%%%%%%%%%%%%%%%%%%%%%%%%%%%%%%%%%%%
22151B6%%%%%%%%%%%%%%%%%%%%%%%%%%%%%%%%%%%%%%%%%%%%%%%%%%%%%%%%%%%%%%%%%%%%%
22136B6%%%%%%%%%%%%%%%%%%%%%%%%%%%%%q%Q%%%%%q%Q%%%%%%%%%%%%%%%%%%%%%%%%%%%%%
22120B6%%%%%%%%%%%%%%%%%%%%%%%%%%%%%%%%%%%%%%%%%%%%%%%%%%%%%%%%%%%%%%%%%%%%%
22104B6%%%%%%%%%%%%%%%%%%%%%%%%%%%%%%%%%%%%%%%%%%%%%%%%%%%%%%%%%%%%%%%%%%%%%
22088B6%%%%%%%%%%%%%qQ%%%%%%%%%%%%%%%%%%%%%%%%%%%%%%%%%%%%%%%%%%%%%%%%%%%%%%
22072B6%%%%%%%%%%%qQqQ%%%%%%%%%%%%%%%%%%%%%%%%%%%%%%%%%%%%%%%%%%%%%%%%%%%%%%
22057B6%%%%%%%%%%%%%%%%%%%%%%%%%%%%%%%%%%%%%%qQ%%%%%%%%%%%%%%%%%%%%%%%%%%%%%
22041B6%%%%%qQ%%%%%%%%%%%%%%%%%%%%%%%%%%%%%%%%%%%%%%%%%%%%%%%%%%%%%%%%%%%%%%
22025B6%%%%%%%%%%%%%%%%%%%%%%%%%%%%%%%%%%%%%%%%%%%%%%%%%%%qQ%%%%%%qQ%%%%%%%%
22009B6%%%%%%%%%%%%%%%%%%%%%%%%%%%%%%%%%%%%%%%%%%%%%%%%%%%%%%%%%%qQ%qQ%%%%%%
21993B6%%%%%%%%%%%%%%%%%%%%%%%%%%%%%%%%%%%%%%%%%%%%%%%%%%%%qQ%%%%%%%%%%%%%%%
21978B6%%%%%%%%%%%%%%%%%%%%%%%%%%%%%%%%%%%%%%%%%%%%%%qQ%%%%%%%%%%%%%%%%%%%%%
21962B6%%%%%%%%%%%%qQ%%%%%%%%%%%%%%q%Qq%Q%%q%Q%qQj6QQ%%%%%%q%Q%%%%%%%%%%%%%%
21946B6%%%%%%%%%%%%%%%%%%%%%%%%%%%%%%%%%%%%%%%%%%%%%%%%%%%%%%%%%%%%%%%%%%%%%
21930B6%%%%%%%%%%%%%%%%%%%%%%%%%%%%%qQ%%%qQqQ%qQ%%%%%q%%Q%%%%%qQ%%%%%%%%%%%%
21915B6%%%%%%%%%%%%%%%%%%%%%%%%%%%%%%%%%%%%%%%%%%%%%q%Q%%%%%%%%%%%%%%%%%%qQ%
21899B6%%%%%%%%%%%%%%%%%%%qQ%%qQqQ%%%%%%%%%%%%%%%%%%%%%%%%%%%%%%%%%%%%%%%%%%
21883B6%%%%%%%%%%%%%%%%%%%%%%%qQ%%%%%%%%%%%%%%%%%%%%%%%%%%%%%%%%%%%%%%%%%%%%
21867B6%%%%%qQ%%%%%%%%%%%%%%%%%%%%%%%%%%%%%%%%%%%%%%%%%%%%%%%%%%%%%%%q%%Q%%%
21852B6%%%%%%%qQ%%%%%%%%%%%%%%%%%%%%%%%%%%%%%%%%%%%%%%%%%%%%%%%%%%%%%%%%%%%%
21836B6%%%%%%%%%%%%%%%%%%%%%%%%%%%%%%%%qQ%%%%%%%%%%%%%%%%%%%%%%%%%%%%%%%%%%%
21820B6%%%%%%%%%%%%%%%%%%%%%%qQ%%%%%%%%%%%%%%%%%%%%%%%%%%%%%%%%%%%%%qQ%%qJ6j6
21804A8%Q%%%%q%Q%%%%%%%%%%%%%%%%%%%%%%%%%%%%%%%%%%%%%%%%%%%%%%%%%%q%Q%%%%%%q
21789A8Q%%%%%%%%%%%%qQ%%%%%%%%%%%%%%%%%%%%%%%qQ%%%%%%%%qQ%%%%%qQ%%%%%%%%%%%%
21773B6%%%%%%%%%%%%%%%%%%%%%%%%%%%%%%q%%Q%%%%%%%%%%%qQ%%%%%%%%%%%%%%%%%%%%%%
21757B6%%%%%%%%%%%%%%%%%%%%%%%%%%%%%%%%%%%%%%%%%qQ%%qQ%%%%%qQ%%%%%%%%%%%%%%%
21741B6%%%qQ%%%%%%%%%%%%%%%%%%%%%%%%%%%%%%%%%%%%%%%%%%%%qQ%%%%%%%%%%%%%%%%%%
21725B6qQ%%%%%%%%%%%q%%QqQqQ%%q%%Qq%J6l2QK4%j6%J6j6Qq%Q%%%%%%%qQ%%%%%%%%%%%%
21711B6%%%%%%%%%%%qQ%%%%%%%%%%%%%qQ%%%%%%%%%%%%%%%%%%%%%%q%Qq%Q%q%%%Q%qQ%q%Q
21695B6qQ%%%%%%%%%%%%%%%%%%%%%%qQ%%%%%%%%%%%%%%%%%%%%%%%%%%%%%%%%%%%%%%%%%%%
21679B6%%%%%%%%%%%%%%%%%%%%%%%%%%%%%%%%%%%%%%%%qQqQ%%%%%%%%%%%%%%%%%%%%%%%%%
21664B6%%%%%%%%%%%%%%%%%qQ%%%%%%%%%%%%%%%%%%%%%qQ%%%qQ%qQ%%%qQ%%%%%%%%%%%%%%
21648B6%%%%%%%%%%%%%%%%q%Q%%%%%%%%%%%%%%%%%%%%%%%%%%%%%%%%%%%%%%%%%%%%%%%qQq
21632A8%Q%qQ%q%%Q%qQ%%q%%Q%%%%%%%%%%%%%%%%%%%%%%qQ%qQqQ%%%%%%%%%%%%qQ%%%%%%%
21616B6%%qQ%%%%%%%%%%%%qQ%%%qQ%%%%%%%%qQ%%%%%%%%%%%%%%%%%%qQ%%%%%%%%%q%%J6q%
21601B6%%%qQ%%%%%qQ%%%%%%%%%qQ%%%%%%%%%%%%%%%%%%%%%%qQ%%qQ%%%%%%%%%%%%%qQ%%%
21585B6%qQqQ%%qQ%%qQ%%%%%%%%%%%%%%%%%%%%%%%%%%%%%%%%%%qQ%%q%Q%%%%%qQ%%%qQ%%%
21569B6%%qQqQqQ%%%qQ%%%%%%%%%%%%%%%%qQq%%QqQq%%Q%%q%Q%qQ%%%%%%%%%%%%%%%%%%qQ
21553B6qQ%%%%%%%%%%%%%%%%%%%qQ%%%%%%%%%%%%%%qQ%%%%%qQ%q%Q%q%%%Q%qQqQ%%%%%%%%
21537B6%%%%%%%qQ%%%%%%%%%%%%%%qQ%%%%%%%%%%%%q%Q%%q%QqQ%%%%%%%%%%%%%%%%%%%%%%
21522B6%%%%%%%%%%%%%%%%%%%%%%%%%%%%%%%%%%%%%%%%qQqQ%%qQ%%%%%%%%%%qQqQ%%%%%%%
21506B6%%%%%%%%%%q%Q%%q%%%%QqQqQqQ%%%%%%%%%%qQq%QqQq%%%Q%qQ%q%%%%Q%%%%%%%qQ%
21490B6%%%%%%%%%%%%%%%%%qQ%qQ%%%qQ%%%%%%%qQ%%qQ%%%%%%%qQ%%%%%qQ%qQ%%%%%%%%%%
21474B6%%%%%%%%%%%%%qQ%%%%%%qQ%%%%%%%qQ%%%%%%%%%%%%%%%q%%%Q%%%%%%%%qQ%%%%%%%
21459B6%%%%%%%qQ%%qQ%q%Qq%%Qq%Q%%q%QqQ%%%%%%%%%%%%%%%%%%%%%%%%%%%%%%%%%%%%%%
21443B6%%qQ%%q%Q%%%%%qQ%%%%%%%%%%%%%%%%%%%%%qQ%%%qQ%%%%%%%%%%%%%%qQ%qQ%%qQ%%
21427B6%%%%%%qQ%%%%qQ%%q%QqQ%%%%%%%%%%%%%%%qQ%%%%q%%%Q%%%%%%%%%%%qQ%%%%%%%%%
21411B6%%%%%%%%%%qQ%%%%%qQ%%%%%%%%%qQ%%%qQ%%%%%%%%%%%%%%%%%%%%%%qQqQ%qQ%%q%%
21395A8QqQqQ%%%%%%%%qQqQ%%%%%%%%%%%%%%%%%%%%%%%%%%%%%%%%%%%%%%%%%q%Q%%%qQ%qQ
21380B6qQ%%%%%%%%%%%%%%%%%%%%%q%%QqQ%qQq%Qq%QqQ%%%qQ%q%%Q%%%q%Q%q%QqQ%qQ%%qQ
21364B6%q%Q%%%qQ%qQ%qQ%%%q%Q%%%%%%%%%%%%%%%%q%QqQ%%%qQqQ%q%%%Q%%%%%%qQ%%%%%%
21348B6q%QqQqQqQqQ%%%%%%%%%%qQqQ%%%%%%q%%%QqQq%Q%%qQ%q%Q%qQqQ%qQq%Q%qQ%%%%%%
21332B6%%%%%%%%qQ%%%%%%qQ%%%%%%%%qQqQ%%%%%%%qQ%%%q%Q%q%QqQqQq%Qq%%Q%q%Q%%%qQ
21316B6%qQ%qQ%qQq%%Q%%%%%%%%%qQ%%%%qQ%qQ%qQ%%%%qQqQqQ%qQ%%%%%qQ%%%%%%%%%%%qQ
21301B6%%%%%%%%%%%%%%%%%%%%%%qQqQ%%qQ%%%%%%%%%%%%%%%%%%%%%%%%qQ%%%%%%qQqQqQ%
21285B6q%%%QqQ%%%%%qQ%%%%%q%Qq%%QqQqQqQ%%%%%qQ%qQ%q%Q%%q%Q%%%%%%%%%%%%%q%Qq%
21269A8Qq%%%%%%QqQqQ%%%%%%%%%qQqQ%%%%%%%%%%%%%%%%%%qQ%%q%Qq%Q%%%%q%%Q%%%%%q%
21253A8Q%q%%QqQqQqQ%QqqQqQj6J6q%Q%%qQq%%%%%Q%q%QqQqQqQq%%%Q%qQ%%%%%%qQqQ%%%q
21238A8%Q%%%%%%%%%%%%qQ%%%%qQ%%%qQ%qQqQ%%%%%%%qQ%%%%qQ%%%q%%%%QqQ%qQ%q%%%Q%%
21222B6%%%%%%qQ%qQ%%%%q%QqQq%Q%%qQ%q%%%Q%%%%%%qQqQq%%QqQq%Qq%Qq%Q%%%%%%%%%%%
21206B6%%%%%%%%%%%%%%%%%%%qQ%q%%Qq%%Qq%%%%%%%%QqQ%qQqQ%%%%%%%%%%%%q%Q%qQ%%qQ
21190B6%%%qQ%qQ%q%%%%%%%%%%%Qq%Qq%%%%%%%QqQ%%q%%Q%%%%q%Q%%%%qQ%%%%%qQ%q%%%Q%
21175B6q%Q%q%Qq%%Q%qQqQq%Q%%%qQqQqQ%qQ%%%%%%qQ%%%%%%%%%%qQq%QqQ%%q%QqQq%QqQ%
21159B6qQ%%q%QqQ%%qQ%q%Q%%%%%%%%%%%%%%%%%%%%%%qQ%%%%%%qQq%%%%Qq%%%%%%%%Q%%%%
21143B6%%%%%qQ%%%%%%qQ%qQ%%q%QqQ%%%%%%%%%q%Qq%Q%qQ%%q%Q%%%%qQqQ%%qQ%qQ%%qQ%%
21127B6%qQ%q%%Q%qQ%%%%%%%%%%%%qQ%%%%qQ%%%%%%qQqQ%q%%%%%%%%%%%%%%%%%%%Q%%%%%%
21112B6%q%%%Qq%%%%Q%qQ%%%%%%%q%Q%%%%%%q%Q%q%%%Qq%%Qq%%%Q%q%%%%%QqQqQ%q%%%Q%%
21096B6%qQqQqQ%%qQqQ%%%%%%%%%%%q%%%%%%Q%qQq%%Qq%Q%qQq%%%%%%Q%q%%%%%%%%%%%Q%%
21080B6%%%%%%%%%%%%%%qQ%%%%%%%qQ%qQ%%qQqQqQ%%%%%%%%%%qQq%Q%qQ%%%%%%%%q%%%%Q%
21064B6%%%%%%%%%%%%%%%%%%%%qQ%%%qQqQ%%%qQ%%qQ%%qQ%%%qQq%Q%%%%%%%%%%%%qQ%qQ%%
21048B6%%%%qQ%%%%%%qQqQq%Qq%%Q%q%Q%%%q%%Q%%qQq%Qq%%QqQqQ%%q%Q%%%%q%Q%%%%%%q%
21033A8Q%%%%%%qQq%Q%%%qQ%%%%%%%%%q%%Q%%qQ%qQ%qQ%%qQq%%QqQ%%%%qQ%%q%QqQ%%%%%q
21017A8Qq%%%Q%%%Qj6Q%Qq%q%Qq%%Qq%%QqQq%Q%%qQqQ%q%QqQq%Q%q%%%QqQq%Qq%%%%%%%Q%
21001B6%%%%qQ%%qQqQ%%%%%%%%%%%%%%%%%%%%%qQqQ%qQq%%%QqQqQ%%qQ%qQ%qQqQ%q%%%Q%q
20985A8Q%%qQ%qQ%qQq%QqQ%q%Qq%Q%%q%Q%qQqQq%Qq%Q%%%%%%%%%%%%qQ%%qQq%Q%q%%Qq%Qq
20970A8Q%q%Qq%%Q%%q%Q%%q%Q%q%Q%%qQ%q%Q%%qQ%q%%%%Qq%%%Q%q%%QqQ%q%QqQq%%Qq%Q%q
20954A8Q%q%Qq%%Qq%Q%%%%%%q%Qq%%%%%%%QqQq%%%%Q%%q%%%%%Qq%Q%q%Q%%%%%qQ%%qQ%%%%
20938B6%%%%%%qQ%qQ%%%%q%Qq%%%%%%%%%%%Qq%%%%%%%%%%%%%%%%%%%%Q%qQqQqQq%Q%%qQ%%
20922B6%%%%%%%%%%%q%%%%Q%q%Q%%%qQqQ%q%Q%%qQ%%qQ%%%q%%Qq%%Qq%%%%%QqQ%q%Q%qQ%%
20906B6q%Q%%qQqQ%%q%Q%qQqQqQq%%%%%Q%%%%%%%qQq%%QqQq%QqQq%%%Q%%%qQqQqQ%q%%%%Q
20891B6qQ%qQ%%%q%%%%Q%q%Q%q%Q%q%%Q%q%Qq%%%%%Q%q%%Qq%%%Qq%%%Qq%%%QqQq%%%%%Qq%
20875A8QqQq%QqQq%Q%%%%q%Q%q%Q%q%%QqQQj6%%Qj6Q%%%QqQ%%q%Qq%Qq%QqQqQqQ%%%%%%q%
20860A8%QqQq%%Q%%%%%%%%q%Qq%Qq%%%Qq%%%%%%Qq%%QqQq%%%%%%%%%%%%QqQqQ%q%%%%QqQ%
20844B6%%%qQ%%%%q%%%Qq%%Q%qQq%Q%%%%%qQ%qQ%%%q%Qq%%%%%%%%%%Qq%%Q%%%%qQ%%%q%%Q
20828B6q%Q%%%%qQ%qQ%q%%%%%%%%%%Qq%%%%%QqQ%q%%QqQ%%%%q%%%QqQq%Q%%%%%qQ%%%q%%%
20812A8Q%%%qQqQqQqQ%%%q%QqQq%Q%%%%%q%%%%%%%%%%Q%q%%%%Q%qQq%%QqQ%%%%%%%%%%q%Q
20796B6q%Q%q%%%%Q%%%%q%%Q%%%qQ%%%q%%%QqQ%%qQq%%Q%q%%%%Q%q%%Qq%%%Qq%J6qQj6qj6
20781fJ6M0n6%M0%l2L2%j6QqQQj6QQqq%Qq%Q%qQ%qQqQ%%%q%Q%%q%%Qq%Qq%Qq%Q%%q%%Qq%%
20767A8Qq%%%%%%%%%%Qq%%%Q%qQq%%%%%Q%%%%%qQ%q%%%Qq%%Q%%%%%%%%%q%%Q%%%%q%%QqQ%
20751B6q%Qq%%Qq%Q%%qQ%q%%%Q%%%%qQ%%qQ%%qQ%%qQ%%%%%q%%%%%%Q%%%qQqQq%%%%%Qq%%%
20735A8%%%%Qq%%%Q%%%%qQ%%qQ%%%%%%q%%%%%%QqQ%q%%%%QqQq%%%Q%%%%q%%Q%%%qQq%%%%Q
20720B6%qQq%Qq%%%%%%%%Qq%%%%Qq%Q%q%%%%Qq%%%%%Qq%%%%%%%%%%%%%%%%%QqQ%q%%%%Q%q
20704A8%%%%%Qq%%%Qq%%%%%%%%%%%%%%%%%%%%%%%%Qq%QqQ%q%Qq%%%%Q%q%%%%%%%%%%%%%%%
20688A8%QqQ%q%Qq%%Qq%%Qq%%%%%%%%%QqQq%%%%%%%%%QqQqQq%%%Qq%QqQq%%Qq%%%%%QqQqQ
20672B6%%%%%qQq%Qq%%%Q%%qQqQ%%%q%Qq%%%Qq%%%%J6qq%%QqQ%%%%%q%QqQ%qQq%%%%%QqQq
20657A8%%%%%%%%%%%%%%%%%Q%q%%Qq%Qq%%%%%%%%Qq%%Qq%QqQq%%Qq%%Qq%%%%%%Qq%%Q%q%%
20641A8%%%%%%%%%Qq%%QqQqQq%%Q%%qQqQ%%qQqQ%q%%Qq%%%Qq%%%%%Qq%%%QqQq%Qq%Q%%%%%
20625B6q%%Qq%%%%%%Qq%Qq%%%%%%%%%%Qq%%Qq%Q%q%Q%q%%Q%qQ%q%%%%%%%%%%%%%%%%%%Q%%
20609B6%q%%%%%%%%%%Qq%Qq%%%%%Qq%%%%%%%%%%%%%%Qq%Qq%Qq%Qq%%Q%q%%%%%%%%%%%%%%%
20594A8%Qq%%Q%q%Qq%%Q%qQ%q%%%%%%%%%%Qq%%%%Qq%%%%%Q%%q%%%%%%%%Qq%%%%Qq%Q%%q%Q
20578B6q%%%%%%%%%Qq%%%Qq%Q%q%%%Q%%q%%Q%q%%%%%Q%qQqQq%%%%QqQq%%%%%%%%%%%%%%%%
20562A8%%%%%%%QqQ%%%qQq%%%%%%%%%%%%%%%%%%%%%%%%%%%%Qq%%%%%%%%%%%%%%%%%%%Qq%Q
20546B6q%%%%Qq%%%%Qq%%%%Qq%%%%QqQ%%qQqQqQq%%Qq%%Qq%%%%%%%%Qq%%%QqQ%q%%%%%QqQ
20530B6%q%%%%%%%%%%Qq%%%%%%QqQ%%qQ%q%%%%%%%%%%%QqQq%%%%%%%%Qq%%%Qq%%%%%Q%q%%
20515A8%%%%%%Q%q%%Qq%%%%%%%%%%%%%%%Qq%%%%%%%%%%%%%%%%%%%%%%QqQqQ%q%%%Qq%%%%%
20499A8%Qq%%%%%%Qq%Q%%%%%%%q%%%%%%%%%Qq%QqQ%qQq%%%%Qq%%%Qq%Qq%%QqQqQ%%%q%%%%
20483A8%%%%%%%%%%%%%%%%%%%%%%%%%%%%%%%Qq%%%%%%%%Q%q%QqQqQ%q%%Qq%%%%%%%%%%%%%
20467A8%%%Qq%%%QqQ%q%%%%%%%%%%%%%%%%%%%%%%%%%%%%%%QqQ%q%%%%%%%Qq%%%%%%%%%%Q%
20451B6q%%%%%%Q%%%qQ%qQ%%%%q%%%%%%%%%%QqQq%QqQq%%%%%Qq%%%%Qq%%%%%%Qq%%Qq%%%%
20436A8%%%Q%qQq%%%%%%Qq%%Qq%%%Q%qQqQq%Q%%%q%%%Q%%q%%%%Qq%Qq%%%%%%%%%%%%%%%Qq
20420A8%%%%%%%%%%%%%Qq%%Qq%%%%%Q%%qQqQq%%%Qq%Q%%%qQ%q%Qq%%%%%%%Qq%%%%%%%%%%%
20404A8%%%%%%QqQq%QqQq%%%%%qQ%%%Q%%q%%%%%%Q%%%q%%%Qq%%Qq%%%Qq%%%%%%%%%%%%%%%
20388A8Qq%%%%Qq%%%%%%%%%%%%%%%%%%%%%%%%%%%Qq%%%%%%%%%%%%%%Qq%%%%%%%Qq%Qq%%%%
20372A8%%%%%%%%Qq%QqQqQ%%qQq%Qq%%%%%QqQq%%%%QqQq%Qq%%%Qq%%%%%%%%%%%%%Qq%%%%%
20357A8Qq%%%%%%%%%%%QqQ%qQq%%%%%%%%%%Qq%%%%%%%%%%%%%%%%%%%%%%Qq%%%%Q%q%%%Q%q
20341A8%%Qq%Qq%%%%%%%%%%%%%%%%%%%%%%%%%%%%%%Q%%q%%%%%%Qq%Qq%%%%%%Q%q%%Qq%%%%
20325A8%%%%%Qq%%%%%%%%%%%%%%%%%%%%%%%%%%%%%%%%%%Q%q%%%QqQq%Qq%%qJ6j6%J6%qQqQ
20310B6%%q%%%%%%Qq%%%QqQq%%QqQ%%qQ%qQq%%%%%%QqQq%Q%qQqQ%%q%Qq%%QqQq%%%%%%%%%
20294A8%%%%%%%%%%%%%Qq%%%%%%%%%%%%%%%%%%%Qq%%%%QqQqQqQqQqQqQq%%%%Q%qQq%%%%%%
20278A8%%%%%%%%%%%%%%%%%%%%%%%%%%%Qq%%%%%%%%%%%%%%%%%%Qq%Qq%%%%%%%%%%%%%%%%%
20263A8%%%%%%%%%%%%%%%%%%%%%%%%%%%%%%%%%%%%%%Qq%Qq%%%%%%Qq%%Qq%%%%%%%%%%Q%q%
20247A8%%%%%%%%%%%%Qq%%%%%%%%%%%%%%%%%%%Qq%%%%%%%%%%%%%%%%%%%%%%%%%%%%%%%%%%
20231A8%%%%%%%%%%%%%%%%Qq%%%%%%Qq%%Q%%%%q%%%%Q%%%q%%Q%qQqQq%%%%%%%%%%%%%%%%%
20215A8Qq%%%%%%%%%%Qq%%%%%%%%%%%%%%%%%%%%%%%%%%%%%%%%%%%%%%%%%%%%%%%%%%%%%%%
20199A8%%%%%%%%%%%%%%%%%%%%%%%%%%%%Q%q%%%%%%%%%%%%%%%%%%%%%%%%%%Qq%%%%%%%%%%
20184A8%%%%%%%%%%%%%%%%%%%%%%%%%%%%%%%%%%%%%%Qq%%%%Qq%%%%%%%%%%%%%%%%Q%qQq%%
20168A8%Q%q%%%%%%%%%%%%%%%%%Qq%%%%%%%%%%%%%%%%%%%%%%%%%%%%%%%%%%%Qq%%%%%%%%%
20152A8%%%%%%%%%%%%%%%%%%%%%Qq%Qq%%%Qq%%%%%%%Q%q%Q%q%%Q%%q%Qq%%%%%%%%%Qq%%%%
20136A8Qq%%%%%%%%%%%%%%%%Qq%%%%%%%%%%%%%%%%%%%%%%%%%%QqQq%%%%%%%%%Qq%%%%%%Qq
20120A8%%%%%%%%%%%%%%%%%%%%%%%%%Qq%%%%%%%%%%%%%%%%%Qq%%%%%%%%%%%%%%%%%Qq%%%%
20105A8%%%%Q%q%%%%%%Qq%%%%%%%%%%%%%%%%%%%%%%%%%%%%%%%%%%%%QqQq%%%Qq%%%%%%%%%
20089A8%%%%%%%%%%%%%%%%%%%%%%%%%%%%%%%%%%%Qq%%Qq%%Qq%%Q%q%Q%%%%%qQqQq%%%%%%%
20073A8%%%%%%%%%%%%%Qq%Qq%%%%%%%%%%%%%%%%%%%%%%%%%%%%Qq%%%%%%%%%%%%%%%%%%%%%
20057A8%%%%%%%%Qq%%%%%%%%%Qq%%%%%%%%%%%%%%%%%%%%Qq%%%%%%%%%%%%%%%%%%%%Qq%%%%
20042A8%%%%%%%%%%%%Qq%%%%%Qq%%%%%%%%%%%%%%%%Qq%%%%%%%%%%%%%%%%%%%%%%%%%%%Qq%
20026A8%%%%%%%%%%%%%%%%%%%%%%%%%%%%%%%%%%%%Qq%%%Q%%q%%%Qq%%%%%%%%%%%%%%%%%%%
20010A8%%%%%%%%%%%%%%%%%%%%%%%%%%%%%%%%%%%%%%%Qq%%%%%%%%%%%%%%%%%%%%%%%%%%Qq
19994A8Q%qQq%%%%%%%%%%%%%%%%%Q%%%q%%%Q%%q%%Qq%%%%%%%%%%%%%%%%%%%%%%%%%%%%%%%
19978A8%%%%%%%%%Qq%%%%%Qq%%%%%%%%%%Qq%%Qq%%%%%%%%%%%%%%%%%%%%%%%%%%%Qq%%%%%%
19963A8%%%%%%%%%qJ6j6Q%%%%%Qq%%%%%%%%%%%%%%%%%%%%%%%%%%%%%%%%%%%%%%%%%%%%%%%
19947A8%%%%%%%%%%%%%%%%Qq%%%%%%%%%%%%%%%%%%%%%%QqQq%%%%%%%%%%%%%%%%Qq%%%%%%Q
19931B6qqJ6qqQQqQqQqQq%%%%%%%%%%%%Q%q%%%%%%%%Qq%%%%Qq%%%%%%%%%%%%%%%%%%%%%Qq
19916A8%%%%%%%%%%%%%%%%%%%%%%%%%%Qq%%%%%%%%%%%%%%%%%%%%%%%%%%%%%%%%%Qq%QqQ%q
19900A8%%%%%%%%%%%%%%%%%%%%%%%%%%%%%%%%%%%%%%%%%%%%%%%%%%%%%Q%q%%%%Qq%%Qq%%%
19884A8%%%Qq%Qq%%%%%%%%%%%%%%%%%%%%%%%%%%%%%%%%%%%%%%%%%%%%QqQq%%%%%%%%%%%%%
19868A8%%%%%%%%%%%%%%%%%%%%%%%%%%%%%%%%%%%%%%%%%%%%%%%%Qq%%%%%%%%%%%%%%%%%%%
19853A8%%%%%Qq%%%%%%%%%%%%%%%%%%%%%%%%%%%%Qq%QqQqQqqJ6%qqQ%%%%%%%%%%%%%%%%%%
19837A8%%%%%Qq%%%%%%%%%%%%%%QqQq%%Qq%%%%%%%%%Qq%%%%%%Qq%%%Qq%%%%%%%%%%%%%Qq%
19821A8Qq%%%QqQq%%Qq%%Qq%%%%%%%%%%%%%%%%%%%%%%%%%%%%%%%%%%%%%%%%%%%%%%%%%%%%
19806A8%%%%%%%%%%%%%%%%%%%%%%%%%%%%%%%Qq%%%%%%%%%%%%%%%%%%%%%%%%%%%%%%%%%%%%
19790A8%%%%%%%%%%%%%%%%%%%%%%%%%%%%%%%%%%%%%%%%%%%%%%%%%%%%%%%%%%%%%%%%%%%%%
19774A8%%%%%%%%%%%%%%%%%%%%%%%%%%%%%%%%%%%%%%%%%%%%%%%%%%%%%%%%%%%%%%%%%%%%%
19758A8%%%%%%%%%%%%%%Q%q%%Qq%%%%%%%%%%%%%%%%%%%%%%%%%%%Q%q%%%%%%%%%%%%%%%%%%
19742A8%%%%%%%%%%%%%%%%%%%%%%%%%%Qq%%%%%%%%%%%%%%%Qq%Qq%%%%%%%%%%%%%%%%%%%%%
19727A8%Qq%Qq%%%%%%%%%%%%%%%%%%%%%%%%%%%%%%%%%%%%%%%%%%%Qq%Qq%Qq%%%%%%%%%%%%
19711A8%%%%%%%%%%%%Qq%%%%%%%%%%%%%%%%%%%%%%%%%%%%%%%%%%%%%%%%%%%%%%%%%%%Qq%%
19695A8%%%%%%%%%%%%%%%%Qq%%%%%%%%%%%%%%%%%%%%%%%%%%%%%%%%%%%%%%%%%%%%%Qq%%%%
19679A8%%%%%%%%%%%%%%%%%%%%%%%%%%%%%%%%%%%%%%%%%%%Qq%%%QqQ%qQq%%%Qq%%%%%%%%%
19663A8%%%%%%%%%%%%%%%%%%%%%%%%%%%%%%%%%%%%%%%%%%%%%Qq%%%%%%%%%%%%%%%QqQ%q%%
19648A8%%%%%%%%%%%%%%%%%%%%%%%%%%%%%%%%%Qq%%%%%Q%%q%%%%%%%%%%%%%%%%%%%%%%%%%
19632A8%%%%%%Qq%%%%%%%%%%%%%%%%%%%%%%%%%%Qq%%%%%%%%%%%%%%%%%QqQq%%%%Qq%%%%%%
19616A8%%%%%%%%%%%%%%%%Qq%%%%%Qq%%%%%QQk4QQq%%%%%%%%%%Qq%Qq%%%%%%%%%QqQ%q%%%
19600A8%%%%%%%%%%%%%%%%%%%%%%%%%%%%%%%%%%%%%%%%%%%%%%%%Qq%%%%%%%%%%%%%%%%%%%
19585A8%%%%%%%%%%%%%%%%%%%%%%%%%Qq%%%%%%%%%%%%%%%%%%%%%%%%%%%%%%%%%%%%%%%%%%
19569A8%%%%%%%%%%%%%%%%Qq%%%%%%%%%%%%%%%%%%%%%%%%%%%%%%%%%%%%%%%%%%%%%%%%%%%
19553A8%%%%%%%%%%%%%Qq%%%%%Qq%Qq%%%%%%%%%%%%%%%%%%%%%%Qq%%%%%%%%%%%%%%%%%%%%
19537A8%%%%%%%%%%%%%%%%%%%%%%%%%%%%%%%%%%%%%%%%%%%%%%%%%%%%%%%%%%%%%%%%%%%%%
19521A8%%%Qq%%%%%%%%%%%%%%%%%%%%%%%%%%%%%%%%%%%%%%%%%%%%%%%%%%%%%%%%%%%%%%%%
19506A8%%%%%%%%%%%%%%%%%%%%%%%%%%%%%%%%%%%%%%%%%%%%%%%%%%%%%%%%%%Qq%%%%%Qq%%
19490A8%%%%%%%%%%%%%%%%%%%%%%%%%%%%%%%%%%%%%%%%%%%%%%%%%%%%%%%%%%%%%%%%%%%%%
19474A8%%%%%%%%%%%%%%%%%%%%%%%%%%%%%%%%%%%%%%%%%%%%Qq%%%%%%%%%%%Qq%%%%%%%%%%
19458A8%%%%%%%%%%%%%%%%%%%%%%%%%%%%%%%%%%%%%%%%%%%%%%%%%%%%%%%%%%%%%%%%%%%%%
19443A8%%%%%%%%Qq%Q%q%%%%%%%%%%%%%Qq%%%%%%Qq%Qq%%%QqQqQq%%%%%%%%%%%%%%%%%%%%
19427A8%%%%%%%%%%%%%%%%%%%%%%%%%%%%%%%%%%%%%%%%%%%%%%%%%%%%%%%%%%%%%%%%%%%%%
19411A8%%%%%%%%%%%%%%%%%%%%%%%%%%%%Qq%%%%%%%%%%%%%%%%%%%%%%%%%%%%%%%%%%%%%%%
19395A8%%%%%%%%%%%%%%%%%%%%%%%%%%%%%%%%%%%%%%%%%%%%%%%%%%%%%%%%%%%%%%%%%%%%%
19379A8%%%%%%%%%%%%%%%%Qq%%%%%%%%%qQ%%%%%Qq%%%%%%%%%%%%%%%%%%%%%%%%%%%%%%%%%
19364A8%%%%%%%%%%%%%%%%%%%%%%%%%%%%%%%%%%%%%%%%%%%%%%%%%%%%%%%%%%%%%%%%%%%%%
19348A8%%%%%%%%%%%%%%%%%%%%%%%%%%%%%%%%%%%%%%%%%%%%%%%%%%%%%%%%%%%%%%%%%%%%%
19332A8%%%%%%%%%%%%%%%%%%%%%%%%%%%%%%%%%%%%%%%%%%%%%%%%%%%%%%%%%%%%%%%%%%%Qq
19316A8%%%%%%%%%%%%%%%%%%%%%%%%%%%%%%%%%%%%%%%%%%%%%%%%%%%%%%%%%%%%%%%%%%Qq%
19300A8Qq%%%%%%%%%%%%%%%%%%%%%%%%%%%Qq%%%%%%%%%%%%%%%%%%%%%%%%%%%Q%q%%%%%%%%
19285A8%%%%%%%%%%%%%%%%%%%%%%%%%%%%%%%%Qq%%%%%%%%%%%%%%%%%%%%%%%%%%%%%%%%%%%
19269A8%%%%%%%%%%%%%%%%%%%%%%%%%%%%%%%%%%%%%%%%%%%%%%%%Qq%%%%%%%%%Qq%%%%Qq%%
19253A8%%%%%%%%%%%%%Qq%%%%%%%%%%%%%%%%%%%%%%%%%%%%%%%%%%%%%%%%%%%%%%%%%%%%%%
19237A8%%%%%%%%%%%%%%%%%%%%%%%%%%%%%%%%%%%%%%%%%%%%%%Qq%%%%%%%%%%%%%%%%%%%%%
19221A8%%%%%%%%%%%%%%%%%%%%%%%%%%%%%%%%%%%%%%%%%%%%%%%%%%%%%%%%%%%%%%%%%%%%%
19206A8%%%%%%Qq%%%%%%%%%%%%%%%%%%%%%Qq%%%%%%%%%%%%%%%%%%%%%%%%%%%%%%%%%%%%%%
19190A8%%%%%%%%%%%%%%%%%%%%%%%%%%%%%%%%%%%%%%%%%%%%%%%%%%%%%%%%%%%%%%%%%%%%%
19174A8%%%%%%%%%%%%%%%%%%%%%Q%q%%%%%%%%%%%%%%%%%%%%%%%%%%%%%%%%%%%%%%%%%%%%%
19158A8%%%%%%%%%%%%%%%%%%%%%%%%%%%%%%%%%%%%%%%%%%%%%%%%%%%%%%%%%%%%%%%%%%%%%
19142A8Q%q%Qq%QqQqQq%%%%%%%%%%%%%%%%%%%%%%%%%%%%%%%%%%%%%%%%%%%%%%%%%%%%%%%%
19127A8%%Qq%%%%%%%%%%%%%%%%%%%%%%%%%%%%%%%%%%%%%%%%%%%%%%%%%%%%%%%%Qq%%%%%%%
19111A8%%%%%%%Qq%%%%%%%%%%%%%%%%%%%%%%%%%%%%%%%%%%%%%%%%%%%%%%%%%%%%%%%%%%%%
19095A8%%%%%%%%%%%%%%%%%%%%%%%%%%%%%%%%%%%%%%%%%%%%%%%%%%%%%%%%%%%%%%%%%%%%%
19079A8%%%%%%%%%%%%%%%%%%%%%%%%%%%%%%%%%%%%%%%%%%%%%%%%%%%%%%%%%%%%%%%%%%%%%
19063A8%%%%%%%%%%%%%%%%%%%%%%%%%%%%%%%%%%%%%%%%%%%%%%%%%%%%%%%%%%%%%%%%%%%%%
19048A8%%%%%%%%%%%%%%%%%%%%%%%%%%%%%%%%%%%%%%%%%%%%%%%%Qq%%%%%%%%%%%%%%%%%%%
19032A8%%%%%%%%%%%%%%%%%%%%%%%%%%%%%%%%%QqQq%%Qq%%%%%%%%%%%%%%%%%%%%%%%%%%%%
19016A8%%%%%%%%%%%%%%%%%%%%%%%%%%%%%%%%%%%%%%%%%%%%%%%%%%%%%%%%%%%%%%%%%%%%%
19000A8%%%%%%%%%%%%%%%%%%%%%%%%%%%%%Qq%%Q%j6J6q%%Qq%%%%%%%%%%%%%%%%%%%%%%%%%
18985A8%%%%%%%%%%%%%%%%%%%%%%%%%%%%%%%%%%%%%%%%%%%%%%%%%%%%%%%%%%%%%%%%%%%%%
18969A8%%%%%%%%%%%%%%%%%%%%%Qq%%%Qq%%%%%%%%%%%%%%%%%%%%%%%%%%%%%%%%%%%%%%%%%
18953A8%%%%%%%%%%%%%%%%%%%%%%%%%%%%%%%Qq%%%%%%%%%%%%%%%%%%%%%%%%%%%%%%%%%%%%
18938A8%%%%%%%%%%%%%%%%%%%%Qq%%%%%%%%%Qq%%%%%%%%%%%%%%%%%%%%%%%%%%%%%%%%%%%%
18922A8%%%%%%%%%%%%%%%%%%%%%%%%%%%%%%%%%%%%%%%%%%%%%%Qq%Qq%%%Qq%qJ6q%%%qQQ%%
18906B6%q%K4l2QqQqQ%%%%%%%Qq%%%%%%%%%%%QqQq%%%Qq%%%%%%%%%%%%%%%%%%%%%%%%%%%%
18891A8%%%%%%%%%%%%%%%%%%%%%%%%%%%%%%%%%%%%%%%%%%%%%%%%%%%%%%%%%%%%%%%%%%%%%
18875A8%%%%%%%%%%%%%%%%%%%%%%%%%%%%%%%%%%%%%%%%%%%%%%%%%%%%%%%%%%%%%%%%%%%%%
18859A8%%%%%%%%%%%%%%%%%%%%%%%%%%%%%%%%%%%%%%%%%%%%%%%%%%%%%%%%%%%%%%Qq%%%%%
18844A8%%%%%%%%%%%%%%%%%%%%%%%%%%%%%%%%%%%%%%%%%%%%%%%%%%%%%%%%%%%%%%%%%%%%%
18828A8%%%%%%%%%%%%%%%%%%%%%%%%%%%%%%%%%%%%%%%%%%%%%%%%%%%%%%%%%%%%%%%%%%%%%
18812A8%%%%%%%%%%%%%%%%%%%%%%%%%%%Qq%%%%%%%Qq%%%%Qq%%%%%%%%%%%%%%%%%%%%%%%%%
18796A8%%%%%%%%%%%%%%%%%%%%%%%%%%%%%%%%Qq%QqqQ%%%%%%%%%%%%%%%%%%%%%%%%%%%%%%
18780A8%%%%%%%%%%%%%%%%%%%%%%%%%%%%%%%%%%%%%%%%%%%%%%%%%%%%%%%%%%%%%%%%%%%%%
18765A8%%%%%%%%%%%%%%%%%%%%%%%%%%%%%%Qq%%%%%%%%%%%%%%%%%%%%%%%%%%%%%%%%%%%%%
18749A8%%%%%%%%%%%%%%%%%%%%%%%%%%%%%%%%%%%%%%%%%%%%%%%%%%%%%%%%%%%%%%%%%%%%%
18733A8%%%%%%%Q%q%%%Q%q%%Q%q%%%%%%%%%%%%%%%%%%%%%%%%%%%%%%%%%%%%%%%%%%%%%%%%
18717A8%%%%%%%%%%%%%%%%%%%%%%%%%%%%%%%%%%%%%%%%%%%%%%%%%%%%%%%%%%%%%%%%%%%%%
18701A8%%%%Qq%%%%%%%%%%%%%%%%%%%%%%%%%%%%%%%%%%%%%%%%%%%%%%%%%%%%%%%%%%%%%%%
18686A8%%%%%%%%%%%%%%%%%%%%%%%%%%%%%%%%%%%%%%%%%%%%%%%%%%%%%%%%%%%%%%%Qq%%Q%
18670B6q%%%%%%%%%%%%%%%%%%%%%%%%%%%%%%%%%%%%%%%%%%%%%%%%%%%%%%%%%%%%%%%%%%%%
18654A8%%%%%%%%%%%%%%%%%%%%%%%%%%%%%%%%%%%%%%%%%%%%%%%%%%%Q%q%%%%%%%%%%%%%%%
18638A8%%%%%%%%%%%%%%%%%%%%%%%%%%%%%%%%%%%%%%%%%%%%%%%%%%%%%%%%%%%%%%%%%%%%%
18622A8%%%%%%%%%%%%%%%%%%%%%%%%%%%%%%%%%%%%Q%q%Qq%Q%q%%%%%%%%%%%%%%%%%%%%%%%
18607A8%%%%%%%%%%%%%%%%%%%%%%%%%%%%%%%%%%%%%%%%%%%%%%%%%%%%%%%%%%%%%%%%%%%%%
18591A8%%%%%%%%%%%%%%%%%%%%%%%%%%%%%%%%%%%%%%%%%%%%%%%%%%%%%%%%%%%%%%%%%%%%%
18575A8%%%%%%%%%%%%%%%%%%%%%%%%%%%%%%%%%%%%%%%%%%%%%%%%%%%%%%%%%%%%%%%%%%%%%
18559A8%%%%%%%%%%%%%%%%%%%%%%%qQ%%%%%%%%%%%%%%%%%%%%%%%%%%%%%%%%%%%%%%%%%%%%
18543A8%%%%%%%%%%%%%%%%%%%%%%%%%%%%%%%%%%%%%%%%%%%%%%%%%%%%%%%%%%%%%%%%%%%%%
18528A8%%%%%%%%%%%%%%%%%%Qq%%%%%%%%%%%%%%%%%%%%%%%%%%%%%%%%%%%%%%%%%%%%%%%%%
18512A8%%%%%%%%%%%%%%%%%%%%%%%%%%%%%%%%%%%%%%%%%%%%%%%%%%%%%%%%%%%%%%%%%%%%%
18496A8%%%%%%%%%%%%%%%%%%%%%%%%%%%%%%%%%%%%%%%%%%%%%%%%%%%%%%%%%%%%%%%%%%%%%
18480A8%%%%%%%%%%%%%%%%%%%%%%%%%%%%%%%%%%%%%%%%%%%%%%%%%%%%%%%%%%%%%%%%%%%%%
18465A8%%%%%%%%%%%%%%%%%%%%%%%%%%%%%%%%%%%%%%%%%%%%%%%%%%%%%%%%%%%%%%%%%%%%%
18449A8%%%%%%%%%%%%%%%%%%%%%%%%%%%%%%%%%%%%Qq%%%QqQqQq%%%%Qq%%%Q%q%Q%%qQq%%%
18433A8%%%%%%%%%%%%%%%Qq%%%%%%%%%%%%%%%%%%%%%%%%%%%%%%%%Qq%%%%%%%%%%%%%%%%%%
18417A8%%%%%%%%%%%%%%%%%%%%%%%%%%%%%%%%%%%%%%%%%Qq%%%%%%%%%%%%%%%%%%%%%%%%%%
18401A8%%%%%%%%%%%%%%%%%%%%%%%%%%%%%%%%%%%%%%%%%%%%%%%%%%%%%%%%%%%%%%%%%%%%%
18386A8%%%%%%%%%%%%%%%%%%%%%%%%%%%%%%%%%Qq%%%%%%%%%%%%%%%%%%%%%%%%%%%%%%%%%%
18370A8%%%%%%%%%%%%%%%%%%%%%%%%%%%Qq%%%%%%%%%%%%%%%%%%%%%%%%%%%%%%%%%%%%%%%%
18354A8%%%%%%%%%%%%%%%%%%%%%Qq%%%%%%%%%%%%%%%%%%%%%%%%%%%%%%%%%%%%%%%%%%%%%%
18338A8%%%%%%%%%%%%%%%%%%%%%%%%%%%%%%%%%%%%%%%%%%%%%%%%%%%%%%%%%%%%%%%%%%%%%
18322A8%%%%%%%%%%%Q%qQq%%%%%%%%%%%%%%%%%%%%%%%%%%%%%%%%%%%%%%%%%%%%%%%%%%%%%
18307A8%%%%%%%%%%%%%%%%%%%%%%%%%%%%%%%%%%%%%%%%%%%%%%%%%%%%%%%%%%%%%%%%%%%%%
18291A8%%%%%%%%%%%%%%%%%%%%%%%%%%%%%%%%%%%%%%%%%%%%%%%%%%%%%%%%%%%%%%%%%%%%%
18275A8%%%%%%%%%%%%%%%%%%%%%%%%%%%%%%%%%%%%%%%%%%%%%%%%%%%%%%%%%Qq%%%%%%%%%%
18259A8%%%%%%%%%%%%%%%%%%%%%%%%%%%%%%%%%%%%%%%%%%%%%%%%%%%%%%%%%%%%%%%%%%%%%
18243A8%%%%%%%%%%%%%%%%%%%%%%%%%%%%%%%%%%%%%%%%%%%%%%%%%%%%%%%%%%%%%%%%%%%%%
18228A8%%%%%%%%%%%%%%%%%%%%%%%%%%%%%%%%%%%%%%%%%%%%%%%%%%%%%%%%%%%%%%%%%%%%%
18212A8%%%%%%%%%%%%%%%%%%%%%%%%%%%%%%%%Qq%%Qq%%%qQ%%%%%%%%%%%%%%%%%%%%%%%%%%
18196A8%%%%%%%%%%%%%%%%%%%%%%%%%%%%%%%%%%%%%%%%%%%%%%%%%%%%%%%%%%%%%%%%%%%%%
18180A8%%%%%%%%%%%%%%%%%%%%%%%%%Qq%%%%%%Q%q%%Qq%%%%%%%%%%%%%%%%%%%%%%%%%%%%%
18164A8%%%%%%%%%%%%%%%%%%%%%%%%%%%%%%%%%%%%%%%%%%%%%%%%%%%%%%%%%%%%%%%%%%%%%
18149A8%%%%%%%%%%%%%%%%%%%%%%Qq%%%%%%%%%%%%%%%%%%%%%%%%%%%%%%%%%%%%%%%%%%%%%
18133A8%%%%%%%%%%%%%%%%%%%%%%%%%%%%%%%%%%%%%%%%%%%%%%%%%%%%%%%%%%%%%%%%%%%%%
18117A8%%%%%%%%%%%%%%%%%%%%%%%%%%%%%%%%%%%%%%%%%%%%%%%%%%%%%%%%%%%%%%%%%%%%%
18101A8%%%%%%%%%%%%%%%%%%%%%%%%%%%%%%%%%%%%%%%%%%%%%%%%%%%%%%%%%%%%%%%%Qq%%%
18085A8%%Qq%%%%%%%%%%%%%%%%%%%%%%%%%%%%%%%%%%%%%%%%%%%%%%%%%%%%%%%%%%%%%%%%Q
18070B6q%%%%%%%%%%%%%%%%%%%%%%%%%%Qq%%%%%%%%%%%%%%%%%%%%%%%%%%%%%%%%%%%%qQ%Q
18054B6qQq%%%%%%%%%%%%%%%%%%%%%%%%%%%%%%%%%%%%%%%%%%%%%%%%%%%%%%%%%%%%%%%%%%
18038A8%%%%%%%%%%%%%%%%%%%%%%%%%%%%%%%%%%%%%%%%%%%Qq%%%Qq%%%%%%%%%%%%%%%%%%%
18022A8%%%%%%%%%%%%%%%%%%%%%%%%%%%%%%%%%%%%%%%%%%%%%%%%%%%%%%%%%%%%%%%%%%%%%
18007A8%%%%%%%%%Qq%%%%%%%%%%%%%%%%%%%%%%%%%%%%%%%%%%%%%%%%%%%%%%%%%%%%%%%%%%
17991A8%%%%%%%%%%%%%%%%%%%%%%%%%%%%%%%%%%%%%%%%%%%%%%%%%%%%%%%%%%%%%%%%%%%%%
17975A8%%%%%%%%%%%%%%%%%%Qq%%Q%%%qQ%qk4L2%Qk4Q%Qj6J6q%%%%%%%%%%%%%%%%%%%%%%%
17960A8%%%%%%%%%%%%%%%%%%%%%%%%%%%%%%%%%%%%%%%%%%%%%%%%%%%%%%%%%%%%%%%%%%%%%
17944A8%%%%%%%%%%%%%%%%%%%%%%%%%%%%%%%%%%%%%%%%%%%%%%%%%%%%%%%%%%%%%%%%%%%%%
17929A8%%%%%%%%%%%%%%%%%%%%%%%%%%%%%%%%%%%%%%%%%%%%%%%%%%%%%%%%%%%%%%%%%%%%%
17913A8%%%%%%%%%%%%%%%%%%%%%%Qq%%%%%%%%%%%%%%%%%%%Qq%%%%%%%%%%%%%%%%%%%%%%%%
17897A8%%%%%%%%%%%%%%%%%%%%%%%%%%%%%%%%%%%%%%%%%%%%%%%%%%%%%%%%%%%%%%%%%%%%%
17881A8%%%%%%%%%%%%%%%%%%%%%%%%%%%%%%%%%%%%%Qq%%%%%%%%%%%%%%%%%%%%%%%%%%%%%%
17866A8%%%%%%%%%%%%%%%%%%%%%%%%%%%%%%%%%%%%%%%%%%%%%%%%%%%%%%%%%%%%%%%%Qj6Q%
17850A8%%%%%%%%%%%%%%%%%%%%%%%%%%%%%%%%%%%%%%%%%%%%%%%%%%%%%%%%%%%%%%%%%%%%%
17834A8%%%%%%%%%%%%%%%%%%%%%%%%%%%%%%%%%%%%%%%%%%%%%%%%%%%%%%qQ%%%%%%%%%%%%%
17818A8%%%%%%%%%%%%%%%%%%%%%%%%%%%%%%%%%%%%%%%%%%%%%%%%%%%%%%%%%%%%%%%%%%%%%
17803A8%%%%%%%%%%%%%%%%%%%%%%%%%%%%%%%%%%%%%%%%%%%%%qQ%qQ%%%%%%%%%%%%%%%%%%%
17787A8%%%%%%%%%%%%%%%%%%%%%%%%%%%%%%%%%%%%%%%%%%%%%%%%%%%%%%%%%%%%%%%%%%%%%
17771A8%%%%%%%%%%%%%%%%%%%%%%%%%%%%%%%%%%%%%%%%%%%%%%%%%%%%%%%%%%%%%%%%%%%%%
17755A8%%%%%%%%%%%%%%%%%%%%%%%%%%%%%%%%%%%%%%%%%%%%%%%%%%%%%%%%%%%%%%%%%%%%%
17739A8%%%%%%%%%%%%%%%%%%%%Qq%q%J6q%%%Qq%%%%%%%%%%%%%%%%%%%%%%%%%%%%%%%%%%%%
17724A8%%%%%%%%%%%%%%%%%%%%%%%%%%%%%%%%%%%%%%%%%%%%%%%%%%%%%%%%%%%%%%%%%%%%%
17708A8%%%%%%%%%%%%%%%%%%%%%%%%%%%%%%%%Qq%%%%%%%%%%%%%%%%%%%%%%%%%%%%%%%%%%%
17692A8%%%%%%%%%%%%%%%%%%%%%%%%%%%%%%%%%%%%%%%%%%%%%%%%%%%%%%%%%%%%%%%%%%%%%
17676A8%%%%%%%%%%%%%%%%%%%%%%%%%%%%%%%%%%%%%%%%%%%%%%%%%%%%%%%%%%%%%%%%%%%%%
17661A8%%%%%%%%%%%%%%%%%%%%%%%%%%%%%%%%%%%%%%%%%%%%%%%%%%%%%%%%%%%%%%%%%%%%%
17645A8%%%%%%%%%%%%%%%%%%%%%%%%%%%%%%%%%%%%%%%%%%%%%%%%%%%%%%%%%%%%%%%%%%%%%
17629A8%%%%%%%%%%%%%%%%%%%%%%%%%%%%%%%%%%%%%%%%%%%%%%%%%Qq%%%%%%%Qq%%%%%%%%%
17613A8%%%%%%%%%%%%%%%%%%%%%%%%%%%%%%%%%%%%%%%%%%%%%%%%%%%%%%%%%%%%%%%%%%%%%
17598A8%%%%%%%%%%%%%%%%%%%%%%%%%%%%%%%%%%%%%%%%%Qq%%%%%%%Qq%%%%%%%%%%%%%%%%%
17582A8%%%%%%%%%%%%%%%%%%%%%%%%%%%%%%%%%%%%%%%%%%%%%%%%%%%%%%%%%%%%%%%%%%%%%
17566A8%%%%%%%%%%%%%%%%%%%%Qq%%%%%%%%%%%%%%%%%%%%%%%%%%%%%%%%%%%%%%%%%%%%%%%
17550A8%%%%%%%%%%%%%%%%%%%%%%%%%%%%%%%%%%%%%%%%%%%%%%%%%%%%%%%%%%%%%%%%%%%%%
17534A8%%%%%%%%%%%%%%%%%%%%%%Qq%%%%%%%%%%%%%%%%%%%%%%%%%%%%%%%%%%%%%%%%%%%%%
17519A8%%%%%%%%%%%%%%%%%%%%%%%%%%%%%%%%%%%%%%%%%%%%%%%%%%%%%%%%%%%%%%%%%%%%%
17503A8%%%%%%%%%QqQ%qqQ%%%Qj6Q%%%%%%%%%%%%%%%%%%%%%%%%%%%%%%%%%%%%%%%%%%%%%%
17487A8%%%%%%%%%%%%%%%%%%%%%%%%%%%%%%%%%%%%%%%%%%%%%%%%%%%%%%%%%%%%%%%%Qq%%%
17471A8%%%%%%%%%%%%%%%%%%%%%%%%%%%%%%%%%%%%%%%%%%%%%%%%%%%%%%%%%%%%%%%%%%%%%
17456A8%%%%%%%%%%%%%%%%%%%%%%%%%%%%%%%%%%%%%%%%%%%%%%%%%%%%%%%%%%%%%%%%%%%Qj6
17440A0Q%%%%%%%%%%%%%%%%%%%%%%%%%%%%%%%%%%%%%%%%%%%%%%%%%%%%%%%%%%%%%%%%%%%%
17424A8%%%%%%%%%%%%%%%%%%%%%%%%%%%%%%%%%%%%%%%%%%%%%%%%%%%%%%%%%%%%%%%%%%%%%
17408A8%%%%%%%%%%%%%%%%%%%%%%%%%%%%%%%%%%%%%%%%%%%%%%%%%%%qQ%%%%%%%%%%%%%%%%
17392A8%%%%%%%%%%%%%%%%%%%%%%%%%%%%%%%%%%%%%%%%%%%q%%Q%%%%%%%%%%%%%%%%%%%%%%
17377A8%%%%%%%%%%%%%%%%%%%%%%%%%%%%%%%%%%%%%%%%%%%%%%%%%%%%%%%%%%%%%%%%%%%%%
17361A8%%%%%%%%%%%%%%%%%%%%%%%%%%%%%%%%%Qq%Qq%%%%%%%%%%%%%%%%%%%%%%%%%%%%%%%
17345A8%%%%%%%%%%%%%%%%%%%%%%%%%%%%%%%%%%%%%%%%%%%%%%%%%%%%%%%%%%%%%%%%%%%%%
17329A8%%%%%%%%%%%%%%%%%%%%%%%%%Qq%%%%Qq%%%%%%%%%%%%%%%%%%%%%%%%%%%%%%%%%%%%
17313A8%%%%%%%%%%%%%%%%%%%%%%%%%%%%%%%%%%%%%%%%%%%%%%%%%%%%%%%%%%%%%%%%%%%%%
17298A8%%%%%%%%%%%%%%%%%%%%%%%%%%%%%%%%%%%%%%%%%%%%%%%%%%%%%%%%%%%%%%%%%%%%%
17282A8%%%%%%%%%%%%%%%%%%%%%%%%%%%%%%%%%%%%%%%%%%%%%%%%%%%%%%%%%%%%%Q%q%%%Qq
17266A8%QqQ%%q%Qq%%%%%%%%%%%%%%%%%%%%%%%%%%%%%%%%%%%%%%%%%%%%%%%%%%%%%%%%%%%
17250A8%%%%%%%%%%%%%%%%%%%%%%%%%%%%%%%%%%%%%%%%%%%%%%%%%%%%%%%%%%%%%%%%%%%%%
17234A8%%%%%%%%%%%%%%%%%%%%%%%%%%%%%%%%%%%%%%%%%%%%%%%%%%%%%%%%%%%%Qq%%%%%%%
17219A8%%%%%%%%%%%%%%%%%%%%%%%%%%%%%%%%%%%%%%%%%%%%%%%%%%%%%%%%%%%%%%%%%%%%%
17203A8%%%%%%%%%%%%%%%%%%%%%%%%%%%%%%%%%%%%%%%%%%%%%%%%%%%%%%%%%%%%%%%%%%%%%
17187A8%%%%%%%%%%%%%%%%%%%%%%%%%%%%%%%%%%%%%%%%%%%%%%%%%%%%%%%%%%%%%%%%%%%%%
17171A8%%%%%%%%%%%%%%%%%%%%%%%%%%%%%%%%%%%%%%%%%%%%%%%%%%%%%%%%%%%%%%%%%%%%%
17156A8%%%%%%%%%%%%%%%%%%%%%%%%%%%%%%%Qq%%%%%%%%%%%%%%%%%%%%%%%%%%%%%%%%%%%%
17140A8%%%%%%%%%%%%%%%%%%%%%%%%%%%%%%%%%%%%%%%%%%%%%%%%%%%%%Qq%%%%%%%%%%%%%%
17124A8%%%%%%%%%%%%%%%%%%%q%QQj6qJ6qJ6Ql2M0l2J6q%QqQq%%%%qQQq%%%%%%%%%%%%%%%
17110A8%%%%%%%%%%%%%%%%%%%%%%%%%%%%%%%%%%%%%%%%%%%%%%%%%%%%%%%%%%%%%%%%%%%%%
17094A8%%%%%%%%%%%%%%%%%%%%%%%%%%%%%%%%%%%%%%%%%%%%%%%%%%%%%%%%%%%%%%%%%%%%%
17078A8%%%%%%%%%%%%%%%%%%%%%%%%%%%%%%%%%%%%%%%%%%%%%%%%%%%%%%%%%%%%%%%%%%%%%
17062A8%%%%%%%%%%%%%%%%%%%%%%%%%%%%%%%%%%%%%%%%%%%%%%%%%%%%%%%%%%%%%%%%%%%%%
17047A8%%%%%%%%%%%%qQ%%%%%%%%%%%%%%%%%%%%QqQj6QQq%%%%%%%qQ%qQ%Qq%qJ6k4J6%Qj6
17032A0qJ6%m0J6L2qQk4L2n6%M8J6m0QJ6%j6J6j6Q%Qq%%%%%qJ6%j6Q%%%%%%Q%qQq%%%%%%%
17020A8Qq%%%%%%%%%%%%%%%%%%%%%%%%%%%%%%%%%%%%%%%%%%%%%%%%%%%%%%%%%%%%%%%%%%%
17004A8%%%%%%%%%%%%%%%%%%%%%%%%%%%%%%%%%%%%%%%%%%%%%%%%%%%%%%%%%%%%%%%%%%%%%
16988A8%%%%%%%%%%%%%%%%%%%%%%%%%%%%%%%%%%%%%%%%%%%%%%%%%%%%%%%%%%%%%%%%%%%%%
16972A8%%%%%%%%%%%%%%%%%%%%%%%%%%%%%%%%%%%%%%%%%%%%%%%%%%%%%%%%%%%%%%%%%%%%%
16957A8%%%%%%%%%%%%%%%%%%%%%%%%%%%%%%%%%%%%%%%%%%%%%%%%%%%%%%%%%%%%%%%%%%%%%
16941A8%%%%%%%%%%%%%%%%%%%%%%%%%%%%%%%%%%%%%%%%%%%%%%%%%%%%%%%%%%%%%%%%%%%%%
16925A8%%%%%%%%%%%%%%%%%%%%%%%%%%%%%%%%%%%%%%%%%%%%%%%Qq%%%%%%%%%%%%%%%%%%%%
16909A8%%%%%%%%%%%%%%%%%%%%%%%%%%%%%%%%%%%%%%%%%%%%Qq%%%%%%%%%%%%%%%%%%%%%%%
16893A8%%%%%%%%%%%%%%%%%%%%%%%%%%%%%%%%%%%%%%%%%Qq%%%%%%%%%%%%%%%%%%%%%%%%%%
16878A8%%%%%%%%%%%%%%%%%%%%%%%%%%%%%%%%%%%%%%%%%%%%%%%%%%%%%%%%%%%%%%%%%%%%%
16862A8%%%%%%%%%%%%%%%%%%%%%%%%%%%%%%%%%%%%%%%%%%%%%%%%%%%%%%%%%%%%%%%%%%%%%
16846A8%%%%%%%%%%%%%%%%%%%%%%%%%%%%%%%%%%%%%%%%%%%%%%%%%%%%%%%%%%%%%%%%%%%%%
16830A8%%%%%%%%%%%%%%%%%%%%%%%%%%%%%%%%%%%%%%%%%%%%%%%%%%%%%%%%%%%%%%%%%%%%%
16814A8%%%%%%%%%%%%%%%%%%%%%%%%%%%%%%%%%%%%%%%%%%%%%%%%%%%%%%%%%%%%%%%%%%%%%
16799A8%%%%%%%%%%Q%j6Q%%%%%%%%%%%%%%%%%%%%%%%%%%%%%%%%%%%%%%%%%%%%%%%%%%%%%%
16783A8%%%%%%%%%%%%%%%%%%%%%%%%%%%%%%%%%%%%%%%%%%%%%%%%%%%%%%%%%%%%%%%%%%%%%
16767A8%%%%%%%%%%%%%%%%%%%%%%%%%%%%%%%%%%%%%%%%%%%%%%%%%%%%%%%%%%%%%%%%%%%%%
16752A8%%%%%%%%%%%%%%%%%%%%%%%%%%%%%%%%%%%%%%%%%%%%%%%%%%%%%%%%%%%%%%qQ%%%%%
16736A8%%%%%%%%%%%%%%%%%%%%%%%%%%%%%%%%%%%%%%%%%%%%%%%%%%%%%%%%%%%%%%%%%%%%%
16720A8%%%%%%%%%%%%%%%%%%%%%%%%%%%%%%%%%%%%%%%%%%%%%%%%%%%%%%%%%%%%%%%%%%%%%
16704A8%%%%%%%%%%%%%%%%%%%%%%%%%%%%%%%%%%%%%%%%%%%%%%%%%%%%%%%%%%%%%%%%%%%%%
16688A8%%%%%%%%%%%%%%%%%%%%%%%%%%%%%%%%%%%%%qJ6q%%%%%%%%%%%%%%%%%%%%%%%%%%%%
16673A8%%%%%%%%%%%%%%%%%%%%%%%%%%%%%%%%%%%%%%%%%%%%%%%%%%%%%%%%%%%%%%%%%%%%%
16657A8%%%%%%%%%%%%%%%Qq%%%%%%%%%%%%%%%%%%%%%%%%%%%%%%%%%%%%%%%%%%%%%%%%%%%%
16641A8%%%%%%%%%%%%%%%%%%%%%%%%%%%%%%%%%%%%%%%%%%%%%%%%%%%%%%%%%%%%%%%%%%%%%
16625A8%%%%%%%%%%%%%%%%%%%%Qq%%%%%%%%%%%%%%%%%%%%%%%%%%%%%%%%%%%%%%%%%%%%%%%
16610A8%%%%%%%%%%%%%%%%%%%%%%%%%%%%%%%%%%%%%%%%%%%%%%%%%%%%%%%%%%%%%%%%%%%%%
16594A8%%%%%%%%%%%%%%%%%%%%%%%%%%%%%%%%%%%%%%%%%%%%%%%%%%%%%%%%%%%%%%%%%%%%%
16578A8%%%%%%%%%%%%%%%%%%%%%%%%%%%%%%%%%%%%%%%%%%%%%%%%%%%%%%%%%%%%%%%%%%Qq%
16562A8Qq%Qq%%%%%%%%%%%%%%%%%%%%%%%%%%%%%%%%%%%%%%%%%%%%%%%%%%%%%%%%%%%%%%%%
16546A8%%%%%%%%%%%%%%%%%%%%%%%%%%%%%%%%%%%%%%%%%%%%%%%%%%%%%%%%%%%Qq%Q%q%%%%
16531A8%%%%%%%%%%%%%%%%%%%%%%%%%%%%%%%%%%%%%%%%%%%%%%%%%%%%%%%%%%%%%%%%%%%%%
16515A8%%%%%%%%%%%%%%%%%%%%%%%%%%%%%%%%%%%%%%%%%%%%%%%%%%%%%%%%%%%%%%%%%%%%%
16499A8%%%%%%%%%%%%%%%%%%%%%%%%%%%%%%%%%%%%%%%%%%%%%%%%%%%%%%%%%%%%%%%%%%%%%
16483A8%%%%%%%%%%%%%%%%%%%%%%%%%%%%%%%%%%%%%%%%%%%%%%%%%%%%%%%%%%%%%%%%%%%%%
16468A8%%%%%%%%%%%%%%%%%%%%%%%%%%%%%%%%%%%%%%%%%%%%%%%%%%%%%%%%%%%%%%%%%%%%%
16452A8%%%%%%%%%%%%%%%%%%%%%%%%%%qQ%%Qq%qQ%%%Qq%%%%%%%%%%%%%%%%%%%%%%%%%%%%%
16436A8%%%%%%%%%%%%%%%%%%%%%%%%%%%%%%%%%%%%%%%%%%%%%%%%%%%%%%%%%%%%%%%%%%%%%
16420A8%%%%%%%%%%%%%%%%%%%%%%%%%%%%%%%%%%%%%%%%%%%%%%%%%%%%%%%%%%%%%%%%%%%%%
16404A8%%%%%%%%%%%%%%%%%%%%%%%%%%%%%%%%%%%%%%%%%%%%%%%%%%%%%%%%%%%%%%%%%%%%%
16389A8%%%%%%%%%qQ%%%%Qq%%%%%%%%%%%%%%%%%%%%%%%%%%%%%%%%%%%%%%%%%%%%%%%%%%%%
16373A8%%%%%%%%%%%%%%%%%%%%%%%%%%%%%%%%%%%%%%%%%%%%%%%%%%%%%%%%%%%%%%%%%%%%%
16357A8%%%%%%%%%%%%%%%%%%%%%%%%%%%%%%%%%%%%%%%%%%%%%%%%%%%%%%%%%%%%%%%%%%%%%
16341A8%%%%%%%%%%%%%%%%%%%%%%%%%%%%%%%%%%%%%%%%%%%%%%%%%%%%%%%%%qQ%Qq%%%%%%%
16325A8%%%%%%%%%%%%%%%%%%%%%%%%%%%%%%%%%%%%%%%%%%%%%%%%%%%%%%%%%%%%%%%%%%%%%
16310A8%%%%%%%%%%%%%%%%%%%%%%%%%%%%%%%%%%%%%%%%%%%%%%%%%%%%%%%%%%%%%%%%%%%%%
16294A8%%%%%%%%%%%%%%%%%%%%%%%%%%%%%%%%%%%%%%%%%%%%%Qq%%%%%%%%%%%%%%%%%%%%%%
16278A8%%%%%%%%%%%%%%%%%%%%%%%%%%%%%%%%%%%%%%%%%Qq%%%%%%%%%%%%%%%%%%%%%%%%%%
16262A8%%%%%%%%%%%%%%%%%%%%%%%%%%%%%%%%%%%%%%%%%%%%%%%%%%%%%%%%%%%%%%%%%%%%%
16246A8%%%%%%%%%%%%%%%%%%%%%%%%%%%%%%%%%%%%%%%%%%%%%%%%%%%%%%%%%%%%%%%%%%%%%
16231A8%%%%%%%%%%%%%%%%%%%%%%%%%%%%%%%%%%%%%%%%%%%%%%%%%%%%%%%%%%%%%%%%%%%%%
16215A8%%%%%%%%%%%%%%%%%%%%%%Qq%%%%%%%%%%%%%%%%%%%%%%%%%%%%%%%%%%%%%%%%%%%%%
16199A8%%%%%%%%%%%%%%%%%%%%%%%%%%%%%%%%%%%%%%%%%%%%%%%%%%%%%%%%%%%%%%%%%%%%%
16183A8%%%%%%%%Qq%QqQqQq%%%%%%%%%%%%%%%%%%%%%%%%%%%%%%%%%%%%%%%%%%%%%%%%%%%%
16167A8%%%%%%%%%%%%%%%%%%%%%%%%%%%%%%%%%%%%%%%%%%%%%%%%%%%%%%%%%%%%%%%%%%%%%
16152A8%%%%%%%%%%%%%%%%%%%%%%%%%%%%%%%%%%%%%%%%%%%%%%%%%%%%%%%%%%%%%%%%%%%%%
16136A8%%%%%%%%%%%%%%%%%%%%%%%%%%%%%%%%%%%%%%%%%%%%%%%%%%%%%%%%%%%%%%%%%%%%%
16120A8%%%%%%%%%%%%%%%%%%%%%%%%%%%%%%%%%%%%%%%%%%%%%%%%%%%%%%%%%%%%%%%%%%%%%
16104A8%%%%%%%%%%%%%%%%%%%%%%%%%%%%%%%%%%%%%%Qq%%%q%Q%Qj6qQJ6qQ%%q%%%%%%%%%%
16089A8%%%%%%Qq%%%%Qq%%%%%%%%%%%%%%%%%%%%%%%%%%%%%%%%%%%%%%%%%%%%%%%%%%%%%%%
16073A8%%%%%%%%%%%%%%%%%%%%%%%%%%%%%%%%%%%%%%%%%%%%%%%%%%%%%%%%%%%%%%%%%%%%%
16057A8%%%%%%%%%%%%%%%%%%%%%%%%%%%%%%%%%%%%%%%%%%%%%%%%%%%%%%%%%%%%%%%%%%%%%
16042A8%%%%%%%%%%%%%%%%%%%%%%%%%%%%%%%%%%%%%%Qq%%%%%%%%%%%%%%%%%%%%%%%%%%%%%
16026A8%%%%%%%%%%%%%%%%%%%%%%%%%%%%%%%%%%%%%%%%%%%%%%%%%%%%%%%%%%%%%%%%%%%%%
16010A8%%%%%%%%%%%%%%%%%%%%%%%%Qq%%%%%%%%%%%%%%%%%%%%%%%%%%%%%%%%%%%%%%%%%%%
15994A8%%%%%%%%%%%%%%%%%%%%%%%%%%%%%%%%%%%%%%%%%%%%%%%%%%%%%%%%%%%%%%%%%%%%%
15978A8%%%%%%%Qq%%Q%q%%%%%%%%%%%%%%%%%%%%%%%%%%%%%%%%%%%%%%%%%%%%%%%%%%%%%%%
15963A8%%%%%%%%%%%%%%%%%%%%%%%%%%%%%%%%%%%%%%%%%%%%%%%%%%%%%%%%%%%%%%%%%Qq%%
15947A8%%%%%%%%%%%%%%%%%%%%%%%%%%%%%%%%%%%%%%%%%%%%%%%%%%%%%%%%%%%%%%%%%%%%%
15931A8%%%%%%%%%%%%%%%%%%%%%%%%%%%%%%%%%%%%%%%%%%%%%%%%%%%%%%%%%%%%%%Q%q%%%%
15915A8%%%%%%%%%%%%%%%%%%%%%%%%%%%%%%%%%%%%%%%%%%%%%%%%%%%%%%%%%%%%%%%%%%%%%
15899A8%%%%%%%%%%%%%%%%%%%%%%%%%%%%%%%%%%%%%%%%%%%%%%%%%%%%%%%%%%%%Qq%%%%%%%
15884A8%%%%%%%%%%%%%%%%%%%%%%%%%%%%%%%%%%%%%%%%%%%%%%%%%%%%%%%%%%%%%%%%%%%%%
15868A8%%%%%%%%%%%%%%%%%%%%%%%%%%%%Qq%%%%%%%%%qQqJ6q%%%%%%%%%%%%%%%%%%%%%%%%
15852A8%%%%%%%%%%%%%%%%%%%%%%%%%%%%%%%%%%%%%%%%%%%%%%%%%%%%%%%%%%%%%%%%%%%%%
15836A8%%%%%%%%%%%%%%%%%%%%%%%%%%%%%%%%%%%%%%%%%%%%%%%%%%%%%%%%%%%%%%%%%%%%%
15821A8%%%%%%%%%%%%%%%%%%%%%%%%%%%%%%%%%%%%%%%%%%%%%%%%%%%%%%%%%%%%%%%%%%%%%
15805A8%%%%%%%%%%%%%%%%%%%%%%qQ%%%%%%%%%%%%%%%%%%%%%%%%%%%%%%%%%%%%%%%%%%%%%
15789A8%%%%%%%%%%%%%%%%%%%%%%%%%%%%%%%%%%%%%%%%%%%%%%%%%%%%%%%%%%%%%%%%%%%%%
15773A8%%%%%%%%%%Qq%%%%%%%%%%%%%%%%%%%%%%%%%%%%%%%%%%%%%%%%%%%%%%%%%%%%%%%%%
15758A8%%%%%%%%%%%%%%%%%%%%%%%%%%%%%%%%%%%%%%%%%%%%%%%%%%%%%%%%%%%%%%%%%%%%%
15742A8J6j6%Qq%%%%%%%%%QqQq%%%%%%%%%%%%%%%%%%%%%%%%%%%%%%%%%%%%%%%%%%%%%%%%%
15726A8%%%%%%%%%%%%%%%%%%%%%%%%%%%%%%%%%%%%%%%%%%%%%%%%%%%%%%%%%%%%%%%%%%%Qq
15711A8%%%%%%%%%Qq%%%%%%Qq%%%%%%%%%%%%%%%%%%%%%%%%%%%%%%%%%%%%%%%%%%%%%%%%%%
15695A8%%%%%%%%%%%%%%%%%%%%%%%%%%%%%%%%%%%%%%%%%%%%%%%%%%%%%%%%Qq%%%%%%%%%%%
15679A8%%%%%%%%%%%%%%%%%%%%%%%%%%%%%%%%%%%%%%%%%%%%%%%%%%%%%%%%%%%%%%%%%%%%%
15663A8%%%%%%%%%%%%%%%%%%%%%%%%%%%%%%%%%%%%%%%%%%%Qq%%%Qq%%%%%%%%%%%%%%%%%%%
15647A8%%%%%%%%%%%%%%%%%%%%%%%%%%%%%%%%%%%%%%%%%%%%%%%%%%%%%%%%%%%%%%%%%%%%%
15632A8%%%%%%%%%%%%%%%%%%%%%%%%Qj6Q%Qq%%Q%j6J6j6Q%%%%%%%%%%%%%%%%%Qq%%%%%%%%
15617A8%%%%%%%%%%%%%%%%%%%%%%%%%%%%%Qq%%%%%%%%%%%%%%%%%%%%%%%%%%%%%%%%%%%%%%
15601A8%%%%%%%%%%%%%%%%%%%%%%%%%%%%%%%%%%%%%%%%%%%%%%%%%%%%%%%%%%%%%%%%%%%%%
15585A8%%%%%%%%%%%%%%%%%%%%%%%%%%%%%%%%%%%%%%%%%%%%%%%%%%%%%%%%%%%%%%%%%%%%%
15569A8%%%%%%%%%%%%%%%%%%%%%%%%%%%%%%%%%%%%%%%%%%%%%%%%%%%%%%%%%%%%%%%%%%%%%
15554A8%%%%%%%%%%%%%%%%%%%%%%%%%%%%%%%%%%%%%%%%%%%%%%%%%%%%%%%%%%%%%%%%%%%%%
15538A8%%%%%%%%%%%%%%%%%%%%%%%%%%%%%%%%%%%%%%%%%%%%%%%%%%%%%%%%%%%%%%%%%%%%%
15522A8%%%%%%%%%%%%%%%%%%%%%%%%%%%%%%%%%%%%%%%%%%%%%%%%%%%%%%%%%%%%%Qq%%%%%Q
15506B6q%%%%%%%%%%%%%%%%%%%%%%%%%%%%%%%%%%%%%%%%%%%%%%%%%%%%%%%%%%%%%%%%%%%%
15490A8%%%%%%%%%%%%%%%%%%%%%%%%%%%%%%%%%%%%%%%%%%%%%%%%%%%%%%%%%%%%%%%%%%%%%
15475A8%%%%%%%%%%%%%%%%%%%%%%%%%%%%%%%%%%%%%%%%%%%%%%%%%%%%%%%%%%%%%%%%%%%%%
15459A8%%%%%%%%%%%%%%%%%%%%%%%%%%%%%%%%%%%%%%%%%%%%%%%%%%%%%%%%%%%%%%%%%%%%%
15443A8%%%%%%%%%%%%%%%%%%%%%%%%%%%%%%%%%%%%%%%%%%%%%%%%%%%%%%%%%%%%%%%%%%%%%
15427A8%%%%%%%%%%%%%%%%%%%%%%%%%%%%%%%%%%%%%%%%%%%%%%%%%%%%%%%%%%%%%%%%%%%%%
15411A8%%%%%%%%%%%%%%%%%%%%%%%%%%%%%%%%%%%%%%%%%%%%%%%%%%%%%%%%%%%%%%%%%%%%%
15396A8%%%%%%%%%%%%%%%%%%%%%Qq%Q%%q%%Q%q%%%%%%%%%%Qq%%%%%%%%%%%%%%%%%%%%%%%%
15380A8%%%%%%%%%%%%%%%%%%%%%%%%%%%%%%%%%%%%%%%%%%%%%%%%%%%%%%%%%%%%%%%%%%%%%
15364A8%%%%%%%%%%%%%%%%Qq%Qq%Qq%%%%%%%%%%%%%%%%%%%%%%%%%%%%%%%%%%%%%%%%%%%%%
15348A8%%%%%%Qq%%%%%%%%%%%%%%%%%%%%%%%%%%%%%%%%%%%%%%%%%%%%%%%%%%%%%%%%%%%%%
15332A8%%%%Q%q%%Qq%%%%%%%%%%%%%%%%%%%%%%%%%%%%%%%%%%%%%%%%%%%%%%%%%%%%%%%%%%
15317A8%%%%%%%%%%%%%%%%%%%%%%%%%%%%%%%%%%%%%%%%%%%%%%%%%%%%%%%%%%%%%%%%Qq%%%
15301A8%%%%%%%%%%%%%%%%%%%%%%%%%%%%%%%%%%%%%%%%%%%%%%%%%%%%%%%%%%%%%%%%%%%%%
15285A8%%%%%%%%%%%%%%%%%%%%%%%%%%%%%%%%%%%%%%%%%%%%%%%%%%%%%qJ6%q%Qq%%%%%%%%
15270A8%%%%%%%%%%%%%%%%%%%%%%%%%%%%%%%%%%%%%%Qq%%%%%%%%%%%%%%%%%%%%%%%%%%%%%
15254A8%%%%%%%%%%%%%%%%%%%%%%%%%%%%%%%Qq%%%%%%%%Q%q%Qq%q%J6%j6J6q%%%%%%%%%%%
15239A8%%%%%%%%%%%%%%%%%%%%%%%%%%%%%%%%%%%%%%%%%%%%%%%%%%%%%%%%%%%%%%%%%%%%%
15223A8%%%%%%%%%%%%%%%%%%%%%%%%%%%%%%%%%%%%%%%%%%%%%%%%%%%%%%%%%%%%%%%%%%%%%
15207A8%%%%%%%%%%%%%%%%%%%%%%%%%%%%%%%%%%%Qq%%%%%%%%%%%%%%%%%%%%%%%%%%%%%%%%
15191A8%%%%%%%%%%%%%%%%%%%%%%%%%%%%%%%%%%%%%%%%%%%%%%%%%%%%%%%%%%%%%%%%%%%%%
15175A8%%%%%%%%%%%%%%%%%%%%%%%%%%%%%%%%%%%%%%%%%%%%%%%%%%%%Qq%Qq%%Qq%%Qq%%%%
15160A8%%%%%%%%%%Q%%%qj6QL2%k4%J6qqqJ6qQqQqQqQqQq%%%%%%%Qq%%Qq%%%%%%%%%%%%%%
15145A8%%%%%%%%%%%%%%%%%%Qq%Qq%%%%%%%%%%%%%%%%%%%%%%%%%%%%%%%%%%%%%%%%%%%%%%
15129A8%%%%%%%%%%%%%%%%%%%%%%%%%%%%%%Qq%%%%%%%%%%Qq%%%%%%%%%%%%%%%%%%%%%%%%%
15113A8%%%%%%%%%%%%%%%%%%%%%%%%%%%%%%%%%%%%%%%%%%%%%%%%%%%%%%%%%%%%%%%%%%%%Q
15098B6q%%qJ6q%%%%%%%%%%%%%%%%%%%%%%%%%%%%%%%%%%%%%%%%%%%%%%%%%%%%%%%%%%%%%%
15082A8%%%%%%%%%%%%%%%%%%%%%%%%%%%%%%%%%%%%%%%%%%%%%%%%%%%%%%%%%%%%%%%%%%%%%
15066A8%%%%%%%%%%%%%%%%%%%%%%%%%%%%%%%%%%%%%%%%%%%%%%%%%%%%%%%%%%%%%%%%%%%%%
15051A8%%%%%%%%%%%%%%%%%%%%%%%%%%%%%%%%%%%%%%%%%%%%%%%%%%Qq%%%%%%Qq%%%%%%%%%
15035A8%%%%%%%%%%%%%%%%%%%%%%%%%%%%%%%%%%%%%%%%%%%%%%%%%%%%%%%%%%%%%%%%%%%%%
15019A8%%%%%%%%%%%%%%%%%%%%%%%%%%%%%%%%%%%%%%%%%%%Qq%Qq%%%%%%%%%%%%%%%%%%%%%
15003A8%%%%%%%%%%%%%%%%%%%%%%%%%%%%%%%%%%%%%%%%%%%%%%%%%%%%%%%%%%%%%%%%%%%%%
14987A8%%%%%%%%%%%%%%%%%%%%%%%%%%Qq%%%%%%%%%%%%%%%%%%%%%%%%%%%%%%%%%%%%%%%%%
14972A8%%%%%%%%%%%%%%%%%%%%%%%%%%%%%%%%%%%%%%%%%%%%%%%%%%%%%%%%%%%%%%%%%%%%%
14956A8%%%%%%%%%%%%%%%%%%%%%%%%%%%%%Qq%%%%%%%%%%%%%%%%%%%%%%%%%%%%%%%%%%%%%%
14940A8%%%%%%%%%%%%%%%%%%%%%%%%%%%%%%%%%%%%%%%%%%%%%%%%%%%%%%%%%%%%%%%%%%%%%
14924A8%%%%%QqQ%q%%QqQqQqQqQqQq%%%%%%%%%%%%%%%%%%%%%%%%%%%%%%%%%%%%%%%%%%%%%
14908A8%%%%%%%%%%%%%%%%%%%%%%%%%%%%%%%%%%%%%%%%%%%%%%%%%%%%%%%%%%Qq%Qq%%%%%%
14893A8%%%Qq%%%Qq%%%%%%%%%%%%%%%%%%%%%%%%%%%%%%%%%%%%%%%%%%%%%%%%%%%%%%%%%%%
14877A8%%%%%%%%%%%%%%%%%%%%%%%%%%%%%Qq%%%%%%%%%%%%%%%%%%%%%%%%%%%%%%%%%%%%%%
14861A8%%%%%%%%%%%%%%%%%%%%%%%%%%%%%%%%%%%%%%%%%%%%%%%%%%%%%%%%%%%%%%%%%%%%%
14845A8%%%%%%%%%%%%%%%%%%%%%%%%%%%%%%%%%%%%%%%%%%%%%%%%%%%%%%%%%%%%%%%%%%%%%
14829A8%%%%%%%%%%%%%%%%%%%%%%%%%%%%%%%%%%%%%%%%%%%%%%%%%%%%%%%%%%%%%%%%%%%%%
14814A8%%%%%%%%%%%%%%%%%%%%%%%%%%%%%%%%%%%%%%%%%%%%%Qq%%%%%%%Qq%%%%%%%%%%%%%
14798A8%%%%%%%%%%%%%%%%%%%%%%%%%%%%%%%%%%%%%%%%%%%%%%%%%%%%%%%%%%%%%%%%%%%%%
14782A8%%%%%%%%%%%%%%%%%%%%%%%%%%%%%%Q%q%%%QqQq%%%%%%%%%%%%%%%%%%%%%%%%%%%%%
14766A8%%%%%%%%%%%%%%%%%%%%%%%%%%%%%%%%%%%%%%%%%%%%%%%%%%%%%%%%%%%%%%%%%%%%%
14750A8%%%%%%%%%%%%%%%%%%%Qq%%%%%%%%%%%%%%%%%%%%%%%%%%%%%%%%%%%%%Qq%%%%%%%%%
14735A8%%%%%%%%%%%%%%%%%%%%%%%%%%%%%%%%%%%%%%%%%%%%%%%%%%%%%%%%%%%%%%%%%%%%%
14719A8%%%%%%%%%%%%%%%%%%%%%%%%%%%%%%%%%%%%%%%%%%%%%%%%%%%%%%%%%%%%%%%%%%%%%
14703A8%%%%%%%%%%%%%%%%%%%%%%%%%%%%Qq%%%%%%%%%%%%%%%%%%%%%%%%%%%%%%%%Qq%%%Qj6
14687A0%%Q%%%%%Qq%%%%%%Qq%%%%%%Qq%%%%%%Qq%%%%%%%%%%%%%%%%%%%%%%%%%%%%%%%%%%%
14671A8%%%%%%%%%%%%%%%%%%%%%%%%%%%%%%%%%%%%%%%%%%%%%%%%%%%%%%%%%%%%%%%%Qq%%%
14656A8%%%%%%%%%%%%%%%%%%%%%%%%%%%%%%%%%%%%%%%%%%%%%%%%%%%%%%%%Qq%%%%%%%%%%%
14640A8%%%%%%%%%%%%%%%%%%%%%%%%%%%%%%%%%%%%%%%%%%%%%%%%Qq%QqQq%%%%%%%%%%%%%%
14624A8%%%%%%%%%%Qq%%%%%%%%%%%%%%%%%%%%%%%%%%%%%%%%%%Qq%%%%%%%%%%%%%%%%%%%%%
14608A8%%%%%%%%%%%%%%%%%%%%%%%%%%%%%%%%%%%%%%%%%%%%%%%%%%%%%%%%%%%%%%%%%%%%%
14593A8%%%%%%%%%%%%%%%%%%%%%%%%%%%%%%%%%%%%%%%%%%%%%%%%%%%%%%%%%%%%%%%%%%%%%
14577A8%%%%%%%%%%%%%%%%%%%%%%%%%%%%Qq%%%%Qq%%%%%%%%%%%%%%%%%%%%%%%%%%%%%%%%%
14561A8%%%%%%%%%%%%%%%%%%%%%%%%%%%%%%%%%%%%%%%%%%%%%%%%%%%%%%%%%%%%%%%%%%%%%
14545A8%%%%%%%%%%%%%%%%%%%%%QqQq%%Qq%%%%%%%%%%%%%%%%%%%%%%%%%%%%%%%%%%%%%%%%
14529A8%%%%%%%%%%%%Qq%%%%%%%%%%%%%%%%%%%%%%%%%%%%%%%%%%%%%%%%%%%%%%%%%%%%%%%
14514A8%%%%%%%%%%%Qq%%%%%%%%%%%%%%%%%%%%%%%%%%%%%%%%%%%%%%%%%%%%%%%%%%%%%%%%
14498A8%%%%%%%%%%%%%%%%%%%%%%%%%%%%%%%%%%%%%%%%%%%%%%%%%%%%%%%%%%%%%%%%%%%%%
14482A8%%%Qq%%%%%%%%%%%%%%%%%%%%%%%%%%%%%%%%%%%%%%%%%%%%%%%%%%%%%%%Qq%%%%Qq%
14466A8%%%%%%%%%%%%%%%%%%%%%%%%%%%%%%%%%%QqQq%%%%%%%Qq%%%%%%%%Q%%qQj6J6q%Q%%
14451B6q%%%Qq%%%%%%%%%%Q%q%%%%%%%%%%%%%%Qq%%Qq%%%%%%%%%%%%%%%%%%%%%%%%%%%%%%
14435A8%%%%%%%%%%%%%%%%%%%%%%%%%%%%%%%%%%%%%%%%%%%%%%%%%%%%%Qq%%%%%%%%%%%%%%
14419A8%%%%%%%%%%%%%%%%%%%%%%%%%%%%%%%%%Qq%%%%%%%%%%%%%%%%%%%%%%%%%%%%%%%%%%
14403A8%%%%%%%%%%%%%%%%%%%%%%%%%%%%%%%%%%%%%%%Qq%%Q%q%%%%%%%%%%%%%%%%%%%%%%%
14388A8%%%%%%%%%%%%%%%%%%%%%%%%Qq%%Q%q%Qq%%%%%%%%%%%%%%%%%%%%%%%%%%%%%%%%%%%
14372A8%%%%%%%%%%%%%%%%%%%%%%%%%%%%%%Qq%%QqQq%%%%%%%%%%%%%%%%%%%%%%%%%%%%%%%
14356A8%%%%%%%%%%Qq%%%%%%%%%%%%%%%Qq%%%%%%%%%%%%%%%%%%%%%%%%%%%%%%%%%%%%%%%%
14340A8%%%%%%%%%%%%%%%%%%%%%%%Q%q%%%%%%%%%%%%%%%%%%%%%%%%%%%%%%%%%%%%%%%%%%%
14324A8%%%%%%%%%%%%%%%%%%%%%%%%%%%%%%%%%%%%%%%%%%%%%%%QqQq%%%%%%%%%%%%%%%%%%
14309A8%%%%%QqQ%q%%qQ%%%Qq%%Qq%%%%%%%%%%%%%%%%%%%%%%%%%%%%%%%%%%%%%%%%%%%%%%
14293A8%%%%%%%%%%%%%%%%%%%%%%%%%%%%%%%%%%%%%%%%%%%%%%%%%%%%%%%%%%%%%%%%%%%Q%
14277B6%q%%Q%q%%%%%%%%%%%%%%%%%%%%%%%%%%%%%%%%%%%%%%%%%%%%Qq%%%%%%%%%%%%%%%%
14261A8%%%%%%%%%%%%%%%%%%%%%%%%%%%%%%%%%%%%%%%%%%%%%%%%%%%%%%%%%%%%%%%QqQq%%
14246A8%%%Qq%%%Qq%%%%%%%%%%%%%%%%Qq%%%%%%%%%%%Qq%%%%%%%%%%%%%Qq%%%%%%%%%%%%%
14230A8%%%%%%%%%%%%%%%%%Qq%%%%%%%%%%%%%%%%%%%%%%%%%qQ%QQqqJ6q%j6J6qQq%%%%qQ%
14215A8%%%%%%%%%%%%%%Qq%%%%%%%%%Qq%%%%%%%%%Qq%%%%%%%%%%%%%%%%%%%%%%%%%%%%%%%
14199A8%%%%%%%%%%%%%%%%%%%%%%%%%%%%%%%%%%%%%%%%%%%%%%%%%%Qq%%%%%%%%%%%%%%%%%
14183A8%%%%%%%%%%%%%%%%%%%%%%%%%%%%%%%%%%%%%%%%%%%%%%%%%%%%%%%%%%%%%%%%%%%%%
14167A8%%%%%%%%%%%%%%%%%%%%%%%%%%%%QqQqQq%%%%%%%%%%%%%%%%%Q%q%%%%%%%%%%%%%%%
14151A8%%%%%%%%%%%%%%%%%%%%%%%%%%%%%%%%%%%%%%%%%%%%%%%%%%%%%%%%%%%Qq%%%%%%%%
14136A8Qq%%%%%%%%%%%%%%%%%%%%%%Qq%%%%%%%%%%%%%%%%%%%%%%%Qq%%%%%%Qq%%Qq%Q%q%%
14120A8%Qq%%%%%%%%%%%%%%%%%%%%%%%%%%%%%%%Qq%%%%%%%%%%%%%%%%%%%%%%%%%%%%%%%%%
14104A8%%%%%%%%Q%qQqQq%%%%Qq%%%%%%%%%%%%%%%Qq%%%%%%%%%%%%%%%%%%%%%%%%%%%%%%%
14088A8%%%%%%%%QqQ%%q%%%%%%%%%%%%%%%%%%%%%%%%%%%%%%%%%%%%%%%%%%%%%%%Q%%q%QqQ
14072B6q%%%QqQ%qQ%q%%%%%QqQqQ%%%q%%%%Q%%q%%%Qq%Qq%%%%%%%%%%%%%%%%%%%%%%%%%%%
14057A8%%%%%%%%%%%%%%%%%%%%%%%%%%%%%%%%%%%%%%%%%%%%%%%%%%%%Qq%%%%%%%QqQq%%%%
14041A8%Qq%%%%%%%%Qq%%%%%%%%%%%%%%%%%%%%%%%%%%%%%%%%%%%%%%%%%%%%%%%%%%%%Qq%%
14025A8%%%%%%%Qq%%%%%%%%%%%%%%%%%%%%%%%%%%%%%%%%%%%%%%%Qq%Q%q%%%Qq%%%%%%%%%%
14009A8%%%%%%%%%%%%%Qq%%%%%%%%%%%%%%%%%%%%%Q%%%%q%%%%%Qq%%%%%Qq%%Qq%%%%%%%%%
13994A8%%%%%%%%%%%%%%%%%%%%%%%%%%%%%QqQq%%%%%%%%%%%%%Qq%%%%%%%%Qq%%%%%%%%%%%
13978A8%%Qq%%%%%%%%%%%%%%%%%%%%%%%%%%%%%%%Qq%%%%%%%%%%%%%%%%%%%%%%%%%%%%%%%%
13962A8%%%%%%%%%%%%%%%%%%%%%%%%%%%%%%%%QqQq%%%%%%%%%%%%%%%%%%%%%%%%%%%%Qq%Qq
13946A8%%%%%%%%%%%%%%%%%%%%%%%%%%%Qq%%%%%%%%%%%%%%Qq%%%%%%%%%%%%%%%%%%%%%%%%
13930A8%%%%%%%%%%%%%%%%%%%%%%Qq%%%%%%%Qq%%%%%%%%%%%%%%%Qq%%Qq%%%%Qq%%%QqQ%qQ
13915B6qQq%%%%%%%%%%%%%%%%%%%%%%%%%%%%%%%%%%Qq%Q%%q%QqQ%q%%Qq%%%%%%%%%%%Qq%%
13899A8%%%%%%%%%%%%%%Qq%%%Qq%%Qq%QqQq%%%%%%Qq%Qq%%%Qq%%%%%%%%Q%%q%%Q%qQ%q%%%
13883A8%%%%%%%%%%%%%%%%%%%%%%%%Qq%%Qq%%%%%%%Qq%%%%%%%%%%%%%%%%%%%%%Qq%%%Q%q%
13867A8%%%qQ%%%Q%q%%%%%%%%%%%%%%%%%%%%%%%Qq%%%%%%%%%%%%%%%%%%%%%%%%%%%%%%%%%
13851A8%%%%%%%%%Qq%%%%%%%%%%%%%%%%%%QqQq%%%%%Qq%%%%%%%%%%%%Qq%%%Qq%%%Qq%%%%%
13836A8%Qq%%%%%%%%%%Q%q%%%%%%%%%Qq%%%%%%%%%%%%%%%%%%%%%%%%%%%%Qq%%%%%%%%%%%%
13820A8%%%%%%%%%%%%%%%%%%%Qq%Q%q%QqQqQ%%%%%qQq%%%%%%%%%%%QqQq%%%%%Qq%%%%Qq%%
13804A8%%%%%%%%%%%%%%%%%%%%%%%%%Qq%%%%QqQqQ%%q%%%%Q%qQqQ%%qQqQq%%%%%%%%%%%%%
13788A8%%%%%%%%%%%%%%%%%%%%%%%%%%%%%%%%%%%%%%QqQ%q%%Qq%%%%Qq%%Qq%%%%%%%%%%%%
13772A8%%%%%%Qq%%%%%%%Qq%%%%%%%%%%%%%%%Q%q%%Qq%%%%%%%%%%%%%%%Q%q%QqQq%%%%%%%
13757A8%%%Qq%%%%%%%%%%%%%%%%%%%%%Qq%%%J6j6%Qj6QQqQ%%%q%Qq%QqQ%qQq%Qq%%%%%%%%
13742A8%%%%QqQq%%%%%%%%%%%%%%%%Qq%%%%QqQ%%q%%%%Qq%%%%Qq%%%%%%%%%%%%%Qq%%%%%%
13726A8%%%%%%%%%%%%%%%%%%%%%%%%QqQq%Qq%%%%%%%%%%%Qq%%%%%%%%%%%%%%%%%%%%%%%%%
13710A8%%QqQqQq%%%%%%%%%%%%QqQq%%%%%%%%%Q%q%%%%%%%%%%%%%%%%%Qq%%Q%q%%%%%%Qq%
13694A8%Qq%%%%%QqQq%%%%%%%%Qq%Qq%%%%%Q%%q%%Qq%%%%%%%%%%%%%%%%%%%%%%%%%%%%%%%
13678A8%%%%%%%%%%Qq%%%%%%%%%%%%%%%%%%%%%%%%%%%%%%%%%%%%%%Qq%%%%%%%%%%%%%%%Qq
13663A8%%%%%Qq%%%%%%%%%%%%%%%%%Qq%%%%%%%%%%%%%%%%%%%%%%Q%qQq%%QqQqQ%%qQq%%%%
13647A8%%%%%%%%%%%%%%%%%%%%%%%%%%%%%%%%%%%%%%%%%%%%%%%%%%%%%%%%%%%%%%%Qq%%%%
13631A8%%%%%%%%%%Q%%q%%%%%%%%%%%%%%%%%%%%%%%%%QqQ%%%q%%%%%%Qq%%%Qq%Q%qQ%q%Qq
13615A8%QqQ%%%%qQq%Q%q%%%%%%%%QqQ%q%Qq%%%%%%%%%%%%%%%%Qq%%%%%%%%Q%%q%%Qq%%%%
13599A8%%%%%%%%%%%%%%%%%%Q%q%%%%%%%%%%%%%%%%%%%Q%%q%%%%%%%Qq%%%%%%%%%%%%%%%%
13584A8%%%%%%%%%Qq%%%%%%%%%%%%Q%q%%%Qq%Qq%Q%%%%q%Q%q%%QqQqQq%QqQ%qQq%%%%%%%%
13568A8%%%%Qq%Qq%Qq%%Qq%%%Qq%%QqQ%q%%%Qq%%%%Qq%Qq%Qq%%%%%%%Qq%Qq%%%%%%%%%%%%
13552A8%%%%%%%%%%Qq%Qq%%%Q%%qQ%q%Qq%%QqQ%q%%Qq%%Qq%%%Qq%Qq%%%%%%%%%%%%%%%%Qq
13536A8%%%%%%%%%%%%Qq%Qq%%%%%%%%%Q%qQ%q%%%%%%%%%%%%%%%%%%%QqQq%%%%%%Q%%%%q%%
13520A8%%%Q%q%Q%%%%%%q%%%QqQqQ%qQq%%%%%Q%q%%%%QqQ%%%q%%Qq%%%%%%%Qq%%%%%%%%%%
13505A8QqQqQq%%%%Q%%q%Q%qQqQ%q%%%%%%%%%Q%%%%%%qQ%%qQ%%qQqQ%%q%Qq%Q%q%Q%qQ%q%
13489A8%%%%%%%%%Qq%QqQq%%%%%Qq%Qq%Q%q%Q%q%%%%%%%%%%%Qq%%%%%%%%%%%Q%qQq%QqQq%
13473A8%%%%%%%%%%%%%%%%%%Qq%%Q%q%%%%%%%%%%%%%QqQ%%qQq%%%Qq%Qq%%%%%Qq%Qq%%%%%
13457A8Qq%%Q%%q%%Qq%%QqQqQ%q%Q%%q%%%Qq%Qq%Qq%%%%%%%QqQ%%%q%%%%%%%%%%%%%%Qq%Q
13441B6qQq%%%%%%%%%%%%%%%%%%%%%%Qq%%Qq%%%%%%%%%%%Qq%%%%%%%%%%%%%Qq%%Qq%%Qq%%
13426A8Q%qQq%%%%Qq%%%%%%%%%%%%Qq%%%%%%%%QqQqQqQq%%%%%%%%%%%%%Qq%%Qq%%%%%%%%%
13410A8%%%%Q%%qQq%%%%%%Qq%%Qq%Q%%q%Q%q%Qq%%%%%%%%%%%%Q%q%%Qq%%Q%%qQqQq%%%%Q%
13394B6q%%%%QqQq%%%%QqQqQqQ%%%%%%qQqQq%Q%q%%Qq%%%Qq%Q%q%%Qq%%Qq%Q%qQ%%%%q%%%
13378A8%%Qq%%%%%%Qq%%%%%%%%%%%%Qq%%%%Q%%q%%%%Qq%Qq%%QqQqqJ6%qQqJ6j6%%Q%qQ%%q
13363A8Q%%qQqQq%Qq%%%QqQq%Qq%%%%%Qq%%%%%%%%%Qq%%Qq%%%%%%%%%%%%%%Qq%QqQq%%%%%
13347A8%%%%%%%%%%%%Qq%%%Qq%Q%q%%%Qq%%%%%%%%%%%%%%Qq%Q%qQ%q%%Qq%%%%%Qq%%%%%%%
13332A8%%%%Qq%%QqQq%Qq%Qq%%%%%%%%%Q%%q%%%%Qq%%%%%%%Q%%q%%%%%%%%%%%%%%Qq%%%Qq
13316A8Qq%%%%%%Qq%%%%%%Qq%%%%%Q%%q%%Qq%%%%%QqQq%QqQqQqQ%%%%%%qQqQ%%%%%qQ%%%%
13300B6%qQ%q%%%%%%%Qq%%Qq%%%%%QqQqQqQ%%%%%%q%%Qq%%QqQqQq%%QqQ%%qQq%QqQqQ%q%%
13284A8Q%%%qQ%qQ%qQQ%k4qJ6%j6%L2q%j6J6q%%qQ%%%%Qq%%Qq%Q%qQq%%Q%q%Qq%Q%q%Q%%q
13270A8%Qq%Q%%q%%QqQq%%Q%%%qQ%q%%%%QqQq%Q%%%%qQ%qQ%%%qQq%Qq%QqQqQq%Q%qQq%Qq%
13254A8%%%%%Q%%q%Qq%%Q%%q%%Q%%%qQq%QqQ%%qQ%qQq%%%%%%%%%%%%%Q%%%q%Qq%%%%%%Q%q
13238A8%Qq%Qq%Q%q%Q%%%%qQ%%%q%%QqQ%qQqQ%%%%q%%%%%%%%%Q%q%Qq%Qq%%%Qq%Qq%%%%Q%
13222B6%%%q%%%Q%q%%%%QqQq%Qq%QqQq%Qq%%%%%%Qq%%%%%%%%%%%%QqQ%%%%%%%qQ%%%q%%%%
13207A8QqQ%qQ%%%%%%%%%%qQq%%QqQq%%%QqQ%%%qQqQ%%qQ%%q%Qq%%%%%%%%%%%%%Q%q%Q%q%
13191A8%%%%%%%QqQqQ%qQq%%%%%%Q%%q%%Qq%Qq%QqQq%%%%%%%%%QqQqQqQqQ%%qQq%%%%%%Qq
13175A8%Q%q%Q%q%%%%Q%%qQ%qQ%%%%%%%qQq%%Q%%%qQ%q%%%%%Qq%%Qq%%Qq%Qq%Q%qQqQ%qQq
13159A8Q%%%q%%%%%%%%%Qq%QqQ%%%qQ%%%%qQ%%%qQ%%q%Q%%%qQq%%%Q%%qQ%%qQq%%%%%%QqQ
13143B6qQqQ%qQ%qQ%%%%qQ%%%%%%%qQ%%q%Qq%%%%%%%%%%%%%%%Q%q%Q%q%%Q%qQq%%%Qq%%%%
13128A8%%%%%Q%qQq%%QqQq%%QqQ%%%qQqQq%Q%%%%%%%%%qQ%%%%%%%%%%%%%%%%%%%%%%q%%%Q
13112B6%%qQ%%qQ%q%%%Qq%%%%%%Q%%qQ%q%Qq%%%%%%Q%q%Q%%%%q%%%%%%Qq%%%Q%%%%%qQ%qQ
13096B6qQq%Qq%%Q%%qQ%%%%%%qQqQq%QqQqQq%%%QqQ%%%%%%%%%%%%%%%qQqQqQ%q%Q%qQq%Qq
13080A8QqQq%Qq%Qq%Q%qQ%qQqQq%%%%%%%Q%q%%Q%%q%%%QqQq%%%%%%%%%%%%Qq%Qq%%Q%%%%q
13064A8Q%%%%%%%%%%%%%%qQ%%q%Q%%%%%q%%Qq%Q%%%qQq%%%QqQq%%Qq%Qq%%%Qq%Qq%%Q%q%Q
13049B6qQqQ%%q%Q%qJ6j6%%qQQq%QqQ%%%%%%%%qQ%qQqQqQ%qQ%%%q%Qq%%Q%q%%%%%Qq%%QqQ
13033B6%%%qQ%qQqQ%%%%%%%%%qQ%qQ%%%%%%%%%%%%%%%%%%%qQ%%q%%%%%%%%%Q%q%Q%q%Q%qQ
13018B6%q%QqQq%Qq%Qq%Q%%%%%%%qQ%%%%%%%%%%%%qQq%%%%Q%%qQ%%%%%%%%%%qQqQ%%%%qQq
13002A8Q%%qQ%qQ%%%qQ%%%%qQq%QqQ%%%qQqQqQ%%q%%%%%%QqQqQ%%%%%%q%Q%%%%%%%%%%%qQ
12986B6%%%%qQ%%%%%%q%%%%%Qq%%Q%%%%qQq%Qq%%%QqQq%Qq%Q%q%QqQq%QqQqQq%%%%%Qq%%%
12970A8%%%Q%%%%%%%%%%%q%Qq%%%%Q%%qQ%%q%Qq%%%%%%%QqQ%%qQ%q%%%Q%%qQ%%q%Q%%%%%%
12954B6%%%qQ%%%qQ%%%q%%Q%%qQ%qQ%%%%%%qQqQ%qQ%%%%%%%q%Q%q%Q%%qQ%%%%%qQ%%qQ%%%
12939B6q%Qq%Q%q%%%QqQ%%%%%%%%%qQ%%%%q%%Q%qQqQq%%%QqQ%qQ%%%qQ%%%qQ%qQ%qQqQ%%%
12923B6qQ%%q%Q%q%%Q%%%%%q%QqQqQ%qQqQ%%qQ%q%%%Q%%q%Q%%q%QqQ%%%qQ%%%%%%qQ%qQ%%
12907B6q%QqQ%qQ%qQ%%%%%%%%%%%qQqQqQ%qQ%qQqQq%QqQqQ%%%%%%%%%%%%%%%qQqQ%%%%%%%
12891B6%%%%%%qQ%%%%q%Qq%%%%%Q%%%%%q%Qq%Q%%%%%%%%%%qQ%%%qQ%q%QqQq%%%Qq%%%%%%Q
12875B6%q%%%%%Q%%q%Q%qQqQ%%%%%qQqQ%%%qQ%%%%%%%%%%%%%%%%qQq%%%%Q%%%%q%Q%qQ%%q
12860A8Q%%%%%%%qQ%%%%%%%%%%%%%%%qQ%%%%%%%%%%%q%Q%%%q%Q%qQ%%%%%%%%%%%%q%QqQ%%
12844B6q%%%Qq%%QqQ%%%qQqQqQ%%qQ%%%%qQ%%qQ%%qQ%%%%%qQ%%%%%%%%%qQqQ%%qQ%%%%%%%
12828B6qQ%%%qQ%%%%%%%%%%%%%%%%qQq%%QqQqQ%qQ%qQqQq%Q%%%%%qQqQq%Q%q%%%Q%q%%%%Q
12812B6q%Qq%Q%q%Qq%%Q%%%%qQ%qQq%%Q%qQ%%qQ%%q%%%Q%%%%q%%%Q%qQ%%qQ%%%%%%%%%%%q
12796A8Q%%%%%%%%q%%Q%qQq%%%Qq%%%Q%%%%%%qQ%%%q%%Q%%%%%%%%qQ%%qQ%%%q%Q%qQ%%%%%
12781B6%qQqQ%%%%%%%%%%%%%%%%%%%%%%%%%%%%%%%%%%%%%%%%%%%%%%qQ%%q%Q%%%%%%%%%%%
12765B6%%%%%%%%%%%%%%%%%%%%%%%%%%%%%%%%%%%%%%%%q%%Q%qQ%%%%%%%q%%QqQ%%%%%%%%%
12749B6qQ%qQ%%q%%Q%%%%%qQqQ%%%%%%%%%%%%%%qQ%%%%%%%%qQqQ%%%%%%%%%qQ%%%%%%%%qQ
12733B6%%%%%%%%%%%qQqQ%%%%%%%%qQ%%q%%QqQqQ%%%%qQ%qQ%qQqQ%qQ%%%qQqQ%%%qQ%%%%%
12718B6%%%%%%%%%%%%%%%%%%%%%qQ%q%Q%%%%%%%qQ%qQ%%%%%%%%%%%%%%%%%%%%%%%%%%%%%%
12702B6qQ%%%%%%%%%qQqQ%qQq%%Qq%Qq%%%Qq%%Q%q%Q%%qQ%%%%qQ%%%%%%%qQ%%q%%Q%%%%%%
12686B6%%qQqQ%%%%%%%%%%%qQ%q%%%%Q%%%%qQ%%%%%%%%qQ%%%%qQ%%%%%%%qQq%QqQqQ%%%q%
12670A8Q%qQq%%Qq%Q%qQqQqQq%Q%q%%%Qq%%QqQ%%%%qQ%%%%%%qQ%%%%%%qQ%%%%%%qQ%%%%qQ
12654B6%%%%%q%Q%%%%%%%%%%%%%%%%%%%%%%%%%%%%qQ%%%q%Q%qQqQqQ%%%%%%%%%%%%%%%%qQ
12639B6%qQ%%%%%%%%qQ%%qQqQ%%%%qQ%%%%%%%qQ%%%%%%%%%%%%qQ%%%qQ%%%%%%%%%%%%%%qQ
12623B6%%%%%%%%%%%q%QqQ%%%%%%q%QqQ%qQ%qQ%%%%%%qQ%%%%%%%%%%%%%%%%qQqQ%%%%q%%Q
12607B6q%Q%q%%QqQqQ%%%%%%%%%%%%%%%%%%%%%%%%%%%%%%%%%%%%%%%%%%%%qQ%%%%%%%%%%%
12591B6%%%%%%%%%%%%%%qQ%%qQ%%q%%Qq%%Qq%%%%Q%%%%qQ%%%qQ%%%%%%%%q%Qq%Q%qQ%%qQ%
12575B6%%%%%%%%qQ%%%qQqQ%%qQq%QqQ%%%q%Q%%%%qQqQ%%%%%%%%%%%%%%%%%%%%%%qQ%%%%%
12560B6%qQqQ%%%%%%%%%%%%%%%%%%%%%%%qQ%%%%%%q%Q%qQ%%%%qQ%%%%qQ%%%%%%%%%%%%qQ%
12544B6%%qQ%%q%%Qq%%Q%%%%%%%%%%%%%%%%%%%%%%%%%%%%%%qQq%Q%%%q%%Qq%QqQ%qQ%%%%%
12528B6%%%%%%%%qQ%%qQ%%%%%%%%%%%%%%%q%Q%%q%%%Qq%Q%%qQ%%%%%%%%qQ%%%%%%%%%%%%%
12512B6%%%%%%%%%%%%%%%%%%%%%%%%%%qQ%%%q%Q%%%%%%%%%%%%%qQ%q%%%%Q%%%%%%%%%%%%%
12496B6%qQ%qQ%%%%%%%%%%%%%%%%%%%%%%%qQ%%%%%%qQ%%%%%%%%%%%%%%%%%%%%%%%%%%%%%%
12481B6%%%%%%%%%%qQqQqQqQqQ%q%Q%q%Q%q%Q%%%%%%%%%%qQ%%%%%%%%%%%%%%%%%%%%qQ%%%
12465B6%%qQ%%%%%%%%%q%QqQ%qQqQQqqQ%%qQ%%%%%%%%%%%%%%%%%qQ%qQ%%%%%%%%%%%%%%%%
12449B6%%%%%%%%%%%%%%qQ%%qQ%%%%%%%%%%%%%%%qQ%%%%%%%%%%%%%%%%%%%%%%%%%%%qQqQq
12433A8Q%%%%%%%%%%qQ%%%qQ%%%%%%%%%%%%%qQ%%%%%%%%%%%%%%%%%%%%%%%%%%%%%%%%%%%%
12417B6%qQ%%%%%%%%%%%%%%%%%%%%%%%%%%%%%%%%%%%qQ%%qQ%%q%Q%%qQ%%%%%%%qQ%%%%%q%
12402A8Q%%%%%q%QqQ%qQ%%%%%%%%%%%%%%%%%%%%%%%%%%%%%%%qQ%%%%%%%%%%%%%%%%%%%%%%
12386B6%%%%%%%%%%%%%%%%%%%%%%%%%%%%%%%%%%%%%%%%%%%%%%%%%%%%%%%%%%%%qQ%%%qQ%%
12370B6qQ%%q%Q%qQ%%%%%%%%q%Qq%%%Q%qQ%%%%%%%%%%%%%%%%%%%%%%%%%%%qQ%qQ%%%%%%%%
12354B6%%%%%%%%%%%%%%%%%%%%%%%%%qQ%%%q%Q%%%%%%%%%%qQq%QqQj6K4qj6J6qQq%Qq%Qq%
12339A8%%%QqQ%%%%%%%%%qQqQ%%%%%%%%%%%%%%%%%%%%qQ%%%%%%%%%%%%%%%%%%%%qQ%%%%%%
12324B6%%%%%%%%%qQ%%%%%%%%%%%%%%%qQ%%%%%%%%%%%%%%%qQ%%%%%%%%%%%%%%%%%%%%%%%%
12308B6%%%%%%%%%%%%%%%%%%%%%%%%%%%%%%%%%%%%%%%%%%%%%%%%%%%%%%%%%%%%%%%%%%%%%
12292B6%%%%%%%%%%%%%%%%%%%%%%%%%%%%%%qQqQ%q%Q%%%%%qQ%%%%%%%%%%%%%%%%%%%%%%%%
12276B6%%%%%%%%%%%%%%%%%%%%%%%%%%%%%%%%%%%%%%%%%%%%%%%%%%%%%%%%%%%%%%%%%%%%%
12260B6%%%%%%%%%%%%%%%%%%%%%%%%%%%%%%%%%%%%%%%%%%%%%%%%%%%%%%%%%%%%%%%%%%%%%
12245B6%%%%%%%%%%%%%%%%qQ%qQq%Q%%%%%%%%%%%%%%%%%%%%%%%%%%%%%%%%%%%%%qQ%%%%%%
12229B6%%%%%%%%%%%%%%Qq%%%qQ%%%%%%%%%%%%%%%%%%%%%%%%%%%%%%%%%%%%%%%%%%%%%%%%
12213B6%%%%%%%%qQ%%qQ%%%%%%%%%qQ%%%%%%%%%%%%%%%%%%%%%%%%%%%%%%%%%%%%%%%%%%%%
12197B6%%%%%qQ%%qQ%%%%%%%%%%%%qQ%%%%%%%%%%%%%%%%%%%%%%%%%%%%%%%%%%%%%%%%%%%%
12181B6%%%qQ%%%%%%%%%%%%%%%%%%%%%%%%%%%%%%%%%%%%%%%%%%%%%%%%%%%%%%%%%%%%%%%%
12166B6%%%%%%%%%%%%%%%%%%%%%%%%%%%%%%%%%%%%%%%%%%%%%%%%%%%%%%%%%%%%%%%%%%%%%
12150B6%%%%%%%%%%%%%%%%%%%%%%%%%%%%%%%%%%%%%%%%%%q%Q%qQ%%%%%%%%%%qQ%%%%%%%%%
12134B6%%%%%%%%%%%%%%%%%%%%%%%%%%%%%%%%%%%%%%%%%%%%%%%q%Q%%%%%%%%%%%%%%%%%%%
12118B6%%%%%%%%%%%%%%%%%%%%%%%%%%%%%%%%%%%qQqQqQqQqQq%%%Q%%qQq%%%Q%q%QqQ%%%%
12103B6%%%%%%%%%%%%%%%%%%%%%%%%%%%%%%%%%%%%%%%%%%%%%%%%%%%%%%%%%%%%%%%%%%%%%
12087B6%%%%%%%%%%%%%%%%%%%%%%%%%%%%%%%%%%%qQ%%qQ%%%%%%%%%%%%%%%%%%%%%%%%%%%%
12071B6%%%%%%%%%%%%%%%%%%%%%%%%%%%%%%%%%%%%%%%%%%%%%%%%%%%%%%%%%%%%%%%%%%%%%
12055B6%%%%%%%%%%%%%%%%%%%%qQ%%%q%Q%%%%%%%%%%%%%%%%%%%%%%%%%%%%%%%%%%%%%%%%%
12039B6%%%%%%%%%%%%%%%%%%%%%%%%%%%%%%%%%%%%%%%%%%%%%%%%%%%%%%%%%%%%%%%%%%%%%
12024B6%%%%%%%%%%%%%%%%%%%%%%%%%%%%%%%%%%%%%%%%%%%%%%%%%%%%%%%%%%%%%%%%%%%%%
12008B6%%%%%%%%%%%%%%%%%%%%%%%%%%%%%%%%%%%%%%%%%%%%%%%%%%%%qQ%%%%%%%%%%%%qQ%
11992B6%qQ%qQ%%%%%%%%%%%%%%%%%%%%%%%%%%%%%%%%%%%%%%%%%%%%%%%%%%%%%%%%%%%%qQ%
11976B6%%%%%%%%%%%%%%%%%%%%%%%%%%%%%%%%%%%%%%%%%%%%%%%%%%%%%%%%%%%%%%%%%qQqQ
11960B6%%%%%%%%%%%%%%%%%%%%%%%%%%%%%%%%%%%%%%%%%%%%%%%%%%%%%%%%%%%%%%%%%%%%%
11945B6%%%%%%%%%%%%%%%%%%%%%%%%%%%%%%%%%%%%%%%%%%%%%%%%%%%q%Q%%%%%%%%%%%%%%%
11929B6%%%%%%%%%%%%%%%%%%%%%%%%%%%%%%%%%%%%%%%%%%%%%%%%%%%%%%%%%%%%%%%%%%%%%
11913B6%%%%%%%%%%%%%%%%%%%%%%%%%%%%%%%%%%%%%%%%%%%%%%%%%%%%%%%%%%%%%%%%%%%%%
11897B6%%%%%%%%%%%%%%%%%%%%%%%%%%%%%%%%%%%%%%%%%%%%%%%%%%%%%%%%%%%%%%%%%%%%%
11881B6%%%%%%%%%%%%%%%%%%%%%%%%%%%qJ6j6%Q%%q%Q%%%%%%%%%%%%%%%%%%%%%%%%%%%%%%
11866B6%%%%%%%%%%%%%%%%%%%%%%%%%%%%%%%%%%%%%%%%%%%%%%%%%%%%%%%%%%%%%%%%%%%%%
11850B6%%%%%%%%%%%%%%%%%%%%%%%%%%%%%%%%%%%%%%%%%%%%%%%%%%%%%%%%%%%%%%%%%%%%%
11834B6%%%%%%%%%%%%%%%%%%%%%%%%%%%%%%%%%%%%%%%%%%%%%%%%%%%%%%%%%%%%%%%%%%%%%
11819B6%%%%%%%qQ%%%%%%%%%%%%%%%%%%%%%%%%%%%%%%%%%%%%%%%%%%%%%%%%%%%%%%%%%%%%
11803B6%%%%%%%%%%%%%%%%%%%%%%%%%%%%%%%%%%%%%%%%%%%%%%%%%%%%%%%%%%%%%%%%%%%%%
11787B6%%%%%%%%%%%%%%%%%%%%%%%%%%%%%%%%%%%%%%%%%%%%%%%%%%%%%%%%%%%%%%%%%%%%%
11771B6%%%%%%%%%%%%%%%%%%%%%%%%%%%%%%%%%%%%%%%%%%%%%%%%%%%%%%%%%%%%%%%%Qq%%%
11756B6%%%%%%%%%%%%%%%%%%%%%%%%%%%%%%%%%%%%%%%%%%%%%%%%%%%%%%%%%%%%%%%%%%%%%
11740B6%%%%%%%%%%%%%%%%%%%%%%%%%%%%%%%%%%%%%%%%%%%%%%%%%%%%%%%%%%%%%%%%%%%%%
11724B6%%%%%%%%%%%%%%%%%%%%%%%%%%%%%%%%%%%%%%%%%%%%%%%%%%%%%%%%%%%%%%%%%%%%%
11708B6%%%%%%%%%%%%%%%%%%%%%%%%%%%%%%%%%%%%%%%%%%q%Q%%%%%%%%%%%%%%%%%%%%%%%%
11692B6%%%%%%%%%%%%%%%%%%%%%%%%%%%%%%%%%%%%%%%%%%%%%%%%%%%%%%%%%%%%%%%%%%%%%
11677B6%%%%%%%%%%%%%%%%%%%%%%%%%%%%%%%%%%%%%%%%%%%%%%%%%%%%%%%%%%%%%%%%%%%%%
11661B6%%%%%%%%%%%%%%%%%%%%%%%%%%%%%%%%%%%%%%%%%%%%%%%%%%%%%%%%%%%%%%%%%%%%%
11645B6%%%%%%Qq%%%%%%%%%%%%%Qj6Q%qQ%%%%%%%%%%%%%%%%%%%%%%%%%%%%%%%%%%%%%%%%%
11629B6%%%%%%%%%%%%%%%%%%%%%%%%%%%%%%%%%%%%%%%%%%%%%%%%%%%%%%%%%%%%%%%%%%%%%
11614B6%%%%%%%%%%%%%%%%%%%%%%%%%%%%%%%%%%%%%%%%%%%%%%%%%%%%%%%%%%%%%%%%%%%%%
11598B6%%%%%%%%%%%%%%%%%%%%%%%%%%%%%%%%%%%%%%%%%%%%%%%%%%%%%%%%%%%%%%%%%%%%%
11582B6%Qq%%%%%%%%%%%%%%%%%%%%%%%%%%%%%%%%%%%%%%%%%%%%%%%%%%%%%%%%%%%%%%%%%%
11566B6%%%%%%%%%%%%%%%%%%%%%%%%%%%%%%%%%%%%%%%%%%%%%%%%%%%%%%%%%%%%%%%%%%%%%
11550B6%%%%%%%%%%%%%%%%%%%%%%%%%%%%%%%%%%%%%%%%%%%%%%%%%%%%%%%%%%%%%%%%%%%%%
11535B6%%%%%%%%%%%%%%%%%%%%%%%%%%%%%%%%%%%%%%%%%%%%%%%%%%%%%%%%%%%%%%%%%%%%%
11519B6%%%%%%%%%%%%%%%%%%%%%%%%%%%%%%%%%%%%%%%%%%%%%%%%%%%%%%%%%%%%%%%%%%%%%
11503B6%%%%%%%%%%%%%%%%%%%%%%%%%%%%%%%%%%%%%%%QqQqj6L2q%qQq%%%%%%%%%%%%%%%%%
11488B6%%%%%%%%%%%%%%%%%%%%%%%%%%%%%%%%%%%%%%%%%%%%%%%%%%%%%%%%%%%%%%%%%%%%%
11472B6%%%%%%%%%%%%%%%%%%%%%%%%%%%%%Qq%%%Qq%%%%%%%%%%%%%%%%%%%%%%%%%%%%%%%%%
11456B6%%%%%%%%%%%%%%%%%%%%%%%%%%%%%%%%%%%%%%%%%%%%%%%%%%%%%%%%%%%%%%%%%%%%%
11440B6%%%%%%%%%%%%%%%%%%%%%%%%%%Qq%%Qq%%%%%%%%%%%%%%%%%%%%%%%%%%%%%%%%%%%%%
11425B6%%%%%%%%%%%%%%%%%%%%%%%%%%%%%%%%%%Qq%%%%%%%%%%%%%%%%%%%%%%%%%%%%%%%qQ
11409B6%%%%Qq%%%%J6j6K4l2J6%qqJ6%%qQq%%QqQq%%Q%%q%%Qq%%%Qq%Qq%%%%%%%%%%%%%%%
11394B6%%%%%%%%%%%%%%%%%%%%%%%%%%%%%%%%%%%%%%%%%%%%%%%%%%%%%%%%%%%%%%%%%%%%%
11379B6%%%%%%%%%%%%%qQ%%Qq%%%%%%%%%%%%%%%%%%%%%%%%%%%%%%%%%%%%%%%%%%%%%%%%%%
11363B6%%%%%%%%%%%%%%%%%%%%%%%%%%%%%%%%%%%%%%%%%%%%%%%%%%%%%%%%%%%%%%%%%Qq%%
11347B6%%Qq%%%%%%%%%%%%%%%%%%%%%%%%%%%%%%%%%%%%%%%%%%%%%%%%%%%%%%%%%%%%%%%%%
11331B6%%%%%%%%%%%%%%%%%%%%%%%%%%%%%%%%%%%%%%%%%%%%%%%%%%%%%%%%Qq%%Qq%%%%%%%
11315B6%%%%%%%%%%%%%%%%%%%%%%%%%%%%%%%%%%%%%%%%%%%%%%%%%%%%%%%%%%%%%Q%q%%%%%
11300B6%%%%%%%%%%%%%%%%%%%%%%%%%%%%%%%Qq%%%%%%%%%%%%%%%%%%%%%%Qq%%%%%%%%%%%%
11284B6%%%%%%%%%%%%%%%%%%%%%%%%%%%%%%%%%%%%%%%%%%%%%%%%%%%%%%%%%%%%%%%%%%%%%
11268B6%%%%%%%%%%%%%%%%%%%%%%%%%%%%%%%%%%%%%%%Qq%QqQq%%%%%%%%%%%%%%%%%%%%%%%
11252B6%%%%%%%%%%%%%%%%%%%%%%%%%%%%%%%%%%%%%%%%%%%%%%%%%%%%%%%%%%%%%%%%%%%%%
11236B6%%%%%%%%%%%%%%%%%%%%%%%%%%%%Qq%%%%%%%%%%%%%%%%%%%%%%%%%%%%%%%%%%%%%%%
11221B6%%%%%%%%%%%%%%%%%%%%%%Qq%%%%%%%%%%%%%%%%%%%%%%%%%%%%%%%%%%%%%%%%%%%%%
11205B6%%%%%%%%%%%%%%Qq%%Qq%Q%q%%%%%%%%%%%%%%%%%%%%%%%%%%%%%%%%%%%%%%%%%%%%%
11189B6%%%%%%%%%%%%%%%%%%%%%%%%%%%%%%%%%%%%%%%%%%%%%%%%%%%%%%%%%%%%%%%%%Qq%%
11173B6%%%%%%%%Qj6Q%%%%%%Qq%%%%%%%%%%%%%%%%%%%%%%%%%%%%%%%%%%%%%%%%%%%%%%%%%
11158B6%%%%%%%%%%%%%%%%%%%%%%%%%%%%%%%%%%%%%%%%%%%%%%%%%%%%%%%%%%%%%%%%%%%%%
11142B6Qq%%%%%%Qq%%%%%%%%%%%%%%%%%%%%%%%%Qq%%%%%%%%%%%%%%%%%%%%%%%%%%%%%%%%%
11126B6%%%%%%%%%%%%%%%%%%%%%%%%%%%%%%%%%%%%%%%%%%%%%%%%%%%%%%%%%%%%%Q%q%%%%%
11110B6%%%%%%%%%%%%%%%%%%%%%%%%%%%%%%%%%%%%%%%%%%%%%%%%%%%%%%%%%%%%%%%%%%%%%
11095B6%%%%%%%%%%%%%%%%%%%%%%%%%%%%%%%%%%%%%%%%%%%Qq%%%%%%%%%%%%Qq%%%%%%%%%Q
11079C4q%%%%%%%%%%%%%%Q%q%%%%%%%%%%%%%%%%%%%%%%%%%%%%Qq%%%Qq%%%%%QqQq%Qq%%%%
11063B6%%%%%%%%%%%%%%%%%%%%%%%%%Q%%q%%%Qq%%%%Q%%%qQqQq%Qq%%%%%Qq%%%%%Qq%%%%%
11047B6%%%%%%%%%%%%%%%%%%%%%%%%%%%%%%%Qq%%%%%%%%%%%%%%%%%Q%%qQ%%qQq%%%%%%%%%
11031B6%%%%%%%%%%%%%%%%%%%%%%%%QqQq%Qq%%%%%%%%%%%%%%%%%%%%%Qq%%%%%%%%%%%%%%%
11016B6%%%%%%%%%%%%%%%%%%%%%%%%%%%%%%%%%%%%%%%%%%%%%Qq%%%%%%%%%%%%%%%%%%%%%%
11000B6%%%%%%%%%%%%Q%%q%Q%q%%Qq%%%%QqQq%%%%%%%%%%%%%%%%%%%%%%Q%q%%%%%%%%%%%%
10984B6%%%%%%%%%%%%Qq%%%QqQ%q%%%%%%%%%%%%%%%%%%%%%%%%Qq%%%%%%%%%%%%%%%%%%%%%
10968B6%%%%%QqQq%%%%%Qq%%%%%%%%%%%%%%%%%%%%%%%%%%%%%%%%%%%%%Q%q%%%%%%%%%%%%%
10952B6%%%%%%%%%%Q%q%%%Qq%%%%%%%%%Q%q%Q%q%Qq%%%%%%%QqQq%Q%q%Qq%Qq%QqQqQ%%Qj6
10937B6Qq%Q%qQ%q%%%QqQq%%%%%QqQq%%%%%%%%%%Qq%%%%%%Qq%%%Qq%Qq%%%%Qq%%%%Qq%%%%
10921B6%%%%%%%%%%Q%q%%%%%%%%%%%%%%%%%QqQqQq%%%%%%%%%%%%%%%%%%%%Q%%qQq%%%Qq%Q
10905C4q%%%%%%%%%%%%%%%%%Q%q%%%%%%%%%%%%%%%%%%Qq%%%%%%%%%%%Q%%q%%%%Qq%%%%Qq%
10889B6%%%%%%%%%%%%%%%%%%Qq%%%%%%Qq%%%%%%%%%%%QqQq%%%%%Qq%%%%Qq%%%Qq%%%%%%%%
10874B6%%%%%%%%%%%%%%%%%%%%%%%%Qq%%%%%%%%%%%%%%Qq%%%%%%%%Qq%%%Qq%%Qq%%%%%%%%
10858B6%%%%%%QqQqQ%qQ%%qQq%%%%%%%%%%%%%%%%%Qq%QqQqQq%Qq%%Q%%qQq%%%%%Qq%%%%Qq
10842B6%%Qq%%%%%%%%%%%%%%Q%q%Qq%%%%%%%%Qq%%%%%%%%%%%%%%%%%%%%%%%%%%%%%Qq%%%%
10826B6%Qq%%%%%%%QqQq%%%%%Q%%q%%%Q%%qQq%Q%qQq%%%%%%Q%q%%%Qq%Q%%%q%%%%%%%%%%%
10810B6%%%%%%%%%%%%%Q%%%q%%Qq%Q%q%%%%Q%%qQq%%Q%qQq%%Q%q%Qq%%%%%%%QqQqQ%%qQ%%
10795C4%%%%q%%%%%%%%%%%%%Qq%%%%%%%%Q%q%Qq%%Qq%Qq%%Q%qQq%Q%qQq%QqQq%Q%qQ%%qQ%
10779C4q%%%%%%%%%%%%%%%Q%q%%%%%%%%%%%%%%%%Qq%Q%%q%QqQqQq%%%%%Qq%%%%%%%%%%%%%
10763B6Qq%%%Q%%q%Q%q%Q%%%qQqQ%%%q%QqQqQq%%%%Q%%%%qQq%%%%%%%%%%%%%%%%Qq%Q%q%%
10747B6%Q%qQq%Qq%Qq%%%%%%%%Qq%%%Qq%QqQ%%qQq%%%%%%%%%%%%%Q%%q%Q%%%%%%q%Qq%%%Q
10732C4q%%Q%q%%%Qq%%%Qq%%%%%%%%%%%%%Q%q%%%%Q%q%Qq%%Qq%%%%%%%Q%q%%%Qq%%%Q%%qQ
10716C4q%QqQq%Qq%Q%qQ%%%q%Q%%q%%%%%%%%%Qq%QqQ%%%%q%%Qq%QqQ%%q%%Q%q%%Q%%%%q%%
10700B6%%%QqQq%%%Q%qQ%%%qQq%%Q%%%%%%qQ%%%%q%Q%qQqQ%%%%%q%%%%%%%%Qq%QqQq%%%%%
10684B6%%%%%%%%%%%%%%%%%%%%Qq%%%%%%%%Qq%Qq%%Q%%qQq%Qq%%Q%%q%Qq%Q%%%%qQq%%QqQ
10668C4%%%%%%%%qQ%%%%%q%%%Qq%%%%%%%Qq%Qq%%%Qq%QqQq%%Qq%QqQq%%Q%%%%q%%%QqQq%Q
10653C4%%%%%%qQ%qQq%%%%%QqQ%qQqQq%%%Q%%%%%%%qQ%%q%QqQ%qQqQq%Q%%%%%%%%qQ%%%%%
10637C4q%Qq%%%%%Q%%%%%%%%%%%%%%qQ%%%%%%qQ%qQq%%%Qq%Q%%%%%qQ%%%%%%qQ%%%qQ%qQq
10621B6QqQq%%%%%%%Qq%%%%%%%%Q%%qQ%q%%Qq%Q%%q%Q%%%%%%%%%%%%%%%%%%%%%%%%%q%Q%%
10605C4%qQ%%%%%%%qQqQ%qQ%qQ%%%%q%Qq%Qq%QqQ%%%%%q%%%Q%qQ%%%%%%q%QqQqQ%%%%%%%%
10589C4%%%%%%qQ%q%%%%%%QqQqQ%qQ%%%%%%%%qQ%qQq%%%%%%%%%Qq%%Q%qQq%%Qq%%%Qq%Q%q
10574B6%Qq%%%%%%%%Qq%%%%Q%qQq%Qq%Qq%Q%%q%Q%q%%%%%%%QqQqQq%%%%%Qq%%%%%%Q%q%Qq
10558B6Q%%qQqQ%q%Q%%q%%%%%%Q%qQ%qQq%Q%q%%QqQqQ%qQ%qQ%%%%%%%%%%%qQ%qQ%%%%%%%%
10542C4%%%%qQqQ%%%%%%%%q%Qq%Q%%%%%%%%%%%%%%%%qQ%%%%%%%%%%%%q%QqQ%%%%%%q%Q%q%
10526B6Qq%Q%q%%Q%qQ%%%%%%%%%%%%%%%%%%%%%qQ%%%%q%%%%%%%Q%qQ%%q%%Qq%%Q%%%%%q%Q
10510C4%qQq%%Q%%qQ%%%%%%%%%%%%%%q%QqQ%%%%%%%%%%%%%%%%%%%%%%%%%%%%%%%%%%q%Q%%
10495C4%%%%%%%%qQ%q%Q%%%qQqQq%%Qq%Q%%%%%%%%%%%qQ%q%Qq%%Qq%%Q%%%%%%%%%%%%%%%q
10479B6Q%%%qQ%qQ%%%qQ%qQ%%qQ%%%qQ%qQq%Q%%%qQ%%%%%qQq%%%%qK4q%%qQ%%qQq%Q%%qQq
10463B6%Q%%%%%%qQ%qQ%qQ%%%%%%%qQ%%%%%%%%%%%%qQ%qQqQ%%%%q%Q%%%%%%%%qQqQ%%%%%%
10447C4%%%%%%%%%%%%%%%%%%%%%%%%%%%%%%%%%qQ%%%q%%%Q%%%q%Q%%qQ%%qQqQ%%%%%%%%%%
10432C4%%%%%%%%%%%%%%%%%%%%%%%%%qQ%%%%%%%%%%%%%%%q%%Q%%%%%%%%%%%%%%%%qQ%qQ%q
10416B6Q%qQ%qQqQ%%qQ%%%%%%%%%%%%%%%%%%qQqQ%%%%%%%%%%%%%%%%%%%%%%%%%qQqQqQqQ%
10400C4%%%%%%%%%%%%%%%%%%%%%%%qQ%%%%%%%%%%%%%%%%%%%%%%%%%%%%%qQ%%%%%%%%%%qQ%
10384C4%%%qQqQ%%%%%%%%%%qQ%%%%qQqQq%%%%%Qq%%Qq%Q%qQ%%%%%%%%%%%%%%%%%%%%%qQ%%
10368C4qQq%QqQq%Q%%qQ%%qQ%qQ%qQ%%%%%%%%%%q%%%%%%%Q%qQ%%%%%%%qQ%%qQ%%%%%%%%%%
10353C4%%%%%%qQ%qQ%%%%%%%%%%%%%%%%%%%%%%%qQ%%%%%%qQ%%%%%%%%%%%%%%%%%%%%%%%%%
10337C4%%%%%%%%%%%%%%%%%%%%%%%%%%%%%%%%%qQ%%%%%%%%%%%%%%%%%%%%%%%%%%%%%%%%%%
10321C4%qQqQqQ%q%Q%%%%%%%%%%%%%%%%%%%%%%qQ%%%%%%%%q%Q%%%%%%%%%%%%%%%%%%%%%%%
10305C4%%%%%%%%%%%%%%%%%%%%%%%%%%%%%%%%%%%%%%%%%%%%%%%%%%%%%%%%qQ%%%%%%%%%%%
10290C4%%%%%%%%%%%%%%%%%%%%%%%%%%%%%%%qQ%%%%%%%%%%%%%%%%%%%%qQ%%%%%%%%%%%%%%
10274C4%%%%%%%%%%%%%%%%%%%%%%%%%%%%%%%%%%%%%%%%%%%%%%qQqQ%%qQ%%%%%%%%%%%%%%%
10258C4%%%%qQq%Q%%%%%%%%%%%%%%%%%%%%%%%%qQ%%%%qQ%%%%%%%%%%%%%%%%%%%%%%%%%%%%
10242C4%%%%%%%%%%%%%%%%%%%%%%%%%%%%%%%%%%Q%q%q%Q%%%%%%%%%%%%%%%%%%%%%%%%%%%%
10226C4%%%%%%%%%%%%%%%%%%%%%%%%%%%%%%%%%%%%%%%%%%%%%%%%%%%%%%%%%%%%%%%%%%%%%
10211C4%%%%%%%%%%%%%%%%%%%%%%%%%%%%%%%%%q%Q%%%%%%%%%%%%%%%%%%%%%%%%%%%%%%%%%
10195C4%%%%%%%%%%%%%%%%%%%%%%%%%%%%%%%%%%%%%%%%%%%%%%%%%%%%%%%%%%%%%%%%%%%%%
10179C4%%%%%%%%%%%qQ%%%%q%Q%%%%%%%%%%%%%%%%%%%%%%%%%%%%%%%%%%%%%%%%%%%%%%%%%
10163C4%%%%%%%%%%%%%%%%%%%%%%%%%%%%%%%%%%%%%%%%%%%%%%%%%%%%%%%%%%%%%%%%%%%%%
10147C4%%%%%%%%%%%%%%%%%%%%%%%%%%%%%%%%%%%%%%%%%%%%%%%%%%%%%%%%%%%%%%%%%%%%%
10132C4%%%%%qQ%%%%%%%%%%%%%%%%%%%%%%%%%%%%%%%%%%%%%%%%%%%%%%%%%%%%%%%%%%%%%%
10116C4%%%qQqQ%%%%%%%%%%%%%%%%%%%%%%%%%%%%%%%%%%%%%%%%%%%%%%%%%%%%%%%%%%%%%%
10100C4%%%%%%%%%%%%%%%%%%%%%%%%%%%%%%%%%%%%%%%%%%%%%%%%%%%%qQ%%%%%%%%%%%%%%%
10084C4%%%%%%%%%%%%%%%%%%%%%%%%%%%%%%%%%%%%%%%%%%%%%%%%%%%%%%%%%%%%%%%%%%%%%
10068C4%%%%%%%%%%%%%%%%%%%%%%%%%%%%%%%%%%%%%%%%%%qQ%%qQ%Qq%%%%%%%%%%%%%%%%%%
10053C4%%%%%%%%%%%%%%%%%%%%%%%%%%%%%%%%%%%%%%%%%%%%%%%%%%%%%%%%%%%%%%%%%%%%%
10037C4%%%%%%%%%%%%%%%%%%%%%%%%%%%%%%%%%%%%%%%%%%%%%%%%%%%%%%%%%%%%%%%%%%%%%
10021C4%%%%%%%%%%%%%%%%%%%%%%%%%%%%%%%%%%%%%%%%%%%%%%%%%%%%%%%%%%%%%%%%%%%%%
10005C4%%%%%%%%%%%%%%%Qq%Q%qQqq%Q%%q%QqQqJ6q%%%%%%%%%%%%%%%%%%%%%%%%%%%%%%%%
9990C4%%%%%%%%%%%%%%%%%%%%%%%%%%%%%%%%%%%%%%%%%%%%%%%%%%%%%%%%%%%%%%%%%%%%%%
9974C4%%%%%%%%%%%%%%%%qQ%%%%%%%%%%%%%%%%%%%%%%%%%%%%%%%%%%%%%%%%%%%%%%%%%%%%
9958C4%%%%%%%%%%%%%%%%%%%%%%%%%%%%%%%%%%%%%%%%%%%%%%%%%%%%%%%%%%%%%%%%%%%%%%
9942C4%%%%%%%%%%%%%%%%%%%%%%%%%%%%%%%%%%%%%%%%%%%%%%%%%%%%%%%%%%%%%%%%%%%%%%
9926C4%%%%%%%%%%%%%%%%%%%%%%%%%%%%%%%%%%%%%%%%%%%%%%%%%%%%%%%%%%%%%%%%%%%%%%
9910C4%%%%%%%%%%%%%%%%%%%%%%%%%%%%%%%%%%%%%%%%%%%%%%%%%%%%%%%%%%%%%%%%%%%%%%
9894C4%%%%%%%%%%%%%%%%%%%%%%%%%%%%%%%%%%%%%%%%%%%%%%QqQ%q%%%%%%%%%%%%%%%%%%%
9878C4%%%%%%%%%%%%%%%%%%%%%%%%%%%%%%%%%%%%%%%%%%%%%%%%%%%%%%%%%%%%%%%%%%%%%%
9862C4%%%%%%%%%%%%%%%%%%%%%%%%%%%%%%%%%%%%%Qq%%qQ%%%%%%%%%%%%%%%%%%%%%%%%%%%
9846C4%%%%%%%%%%%%%%%%%%%%%%%%%%%%%%%%%%%%%%%%%%%%%%%%%%%%%%%%%%%%%%Qq%%%%%%
9829C4%%%%%%%%%%%%%%%%%%%%%%%Qq%%%%%%%%%%%%%%%%%%%%%%%%%%%%%%%%%%%%%%%%%%%%%
9813C4%%%%%%%%%%%%%%%%%%%%%%%%%%%%%%%%%%%%%%%%%%%%%%%%%%%%%%%%%%%%%%%%%%%%%%
9797C4%%%%%%%%%%%%%%%%%%%%%%%%%%%%%%%%%%%%%%%%%%%%%%%%%%%%%%%%%%%%%%%%%%%%%%
9781C4%%%%%%%%%%Qq%%%%%%%%%%%%%%%%%%%%%%%%%%%%%%%%%%%%%%%%%%%%%%%%%%%Qq%%%%%
9765C4%%%qQ%%Qq%%%%Qq%%%%%%%%%%%%%%%%%%%%%%%%%%%%%%%%%%%%%%%%%%%%%%%%%%%%%%%
9749C4%%%%%%%%%%%%%%%%%%%%%%%%%%%%%%%%%%%%%%%%%%%%%%%%%%%%%%%%%%%%%%Qq%%%%%%
9733C4%%%%%%%%%%%%%%%%%%%%%%%%%%%%%%%%%%%%%%%%%%%%%%%%%%%%%%%%%%%%%%%%%%%%%%
9717C4%%%%%%%%%%%%%%%%%%%%%%%%%%%%%%%%%%%%%%%%%%%%%%%Qq%Qq%%%%%%%%%%%%%%%%%%
9701C4%%%%%%%%%%%%%%%%%%%%%%%%%%%%%%%%%%%%%%%%%%%%%%%%%%%%%%%%%%%%%%%%%%%%%%
9685C4%%Qq%%%%%Qq%%%%%%%%%%%%%%%%%%%%%%%%%Qq%%%%%%%%%%%%%%%%%%%%%%%%%%%%%%%%
9669C4%%%%%%%%%%%%%%%%%%%%%%%%%%%%%%%%%%%%%%%%%%%%%%%%%%%%%%%%%%%%%%%%%%%%%%
9653C4%%%%%%%%%%%%%%%%%%%Q%%q%%%Qq%Qq%Qq%%%%%%%%%%%%%%%%%%%%%%%%%%%%%%Q%q%%%
9637C4%%Qq%%%%%%%%%%Qq%Qq%%%%%%%%%%%%%%%%%%%%%Q%q%%%%%Qq%%%%%%%%%%%%%%%%%Qq%
9621C4Qq%%QqqQQq%%%J6qQk4%Q%qQQq%%%%%%%Qq%%%%%%%Q%%q%%%%%%%%%%%%%%%%%%%%%%%%
9606C4%%%%%%%%%%%%%%%%%%%%%%%%%%%%%%%%%%%%%%%%%QqQqQq%%%%%%%%%%%%%%%%%%%%%%Q
9590D2q%%%%%%%Qq%%%Qq%Qq%%%%%%%%%%%%%%%Qq%%%%%%%%%%%%%%%%%%%QqQ%%%qQq%%Qq%%Q
9574D2qQq%%%%%Qq%%%%%%%%%%%%%%%%%Qq%%%Qq%%%%%%%%%%%%%%%%%%%%%%%%%Q%qQq%Qq%%%
9558C4%%Qq%%%Qq%%%%%%Qq%QqQqQqQqQq%Q%q%%Qq%%%%%%%%Q%qQq%%%%%Q%q%Qq%Q%q%%%%%%
9542C4%%%Qq%%%Q%%q%%%Qq%%%%%%%%%%QQj6Qj6J6q%QqJ6qq%K4k4j6M8k4k4j6N6L2k4j6qK4
9529F6k4qQQk4QQj6Q%%qQqJ6%q%%%QqQ%qQ%%qQq%QqQq%Qq%%%%%QqQq%%Q%qQq%%Qq%%%%Q%%
9514D2%qQ%%%qQq%Qq%%%Qq%Qq%%%%%QqQq%Qq%%%%%%%Qq%%%%%%%%%%%%Q%qQqQ%qQ%%qQ%%qQ
9498D2qQq%Qq%%%%%%%%%Qq%%%%%%%%QqQ%%%qQ%%%%q%Qq%%%%Qq%%Qq%%QqQq%QqQq%%%%%%%%
9482C4%%%%%%%%%Qq%%%Qq%%QqQq%%Q%q%%%%%Qq%QqQ%q%Qq%%%QqQq%%%Q%q%%%%%%%%%%%%%%
9466C4%Q%q%%%%%%%%%%%%%%Qq%%%%%Q%q%%Q%%%q%Q%%q%Qq%Q%q%Q%q%%Q%q%%%%%%%%%%%%%%
9450C4Qq%%%Q%q%Q%q%Q%q%%%QqQ%qQqQ%q%%%%%Qq%%QqQ%q%%Q%q%%%Q%%%q%%%%%%%Qq%%%%%
9434C4%%%%%%%%%%%%%%%%Qq%%%%%%%%Q%%q%%%Q%%%qQqQqQqQ%q%%%%Qq%Q%qQqQq%QqQq%Qq%
9418C4%Qq%%Qq%%%QqQq%%%%%%%qQ%Qq%Q%%%%%%q%Q%%%qQ%%q%%%%%%%%Q%%qQ%qQ%%%q%%QqQ
9402D2qQqQqQ%q%%%%Qq%%%Q%%q%%%Qq%Q%%%%q%Qq%%QqQ%qQ%%q%%%Q%%q%Qq%Q%qQq%%%%%%%
9386C4Qq%%%%%%%Q%qQ%qQqQ%q%QqQ%qQ%qQ%%%%%%%%%qQ%qQ%%%%%qQ%%%q%QqQqQ%%%%%%%%%
9370D2%%%%q%Q%%%%qQqQq%Q%q%%%%%%%%%Qq%Q%%qQ%%%%%%%%%%%%%%qQ%%%qQ%%%%%qQq%%Qq
9354C4Q%%%%q%%%%%%%%%%%Qq%%%%%%%%Qq%%%%%%%%%Qq%%Q%%%qQq%Q%qQ%q%Q%%qQ%q%Q%%qQ
9338D2%%%%%%%q%Qq%%%%Qq%%Q%q%Qq%%%%%%Q%%%%%%qQ%%%%%%%%%%%%%%qQqQ%%%%%%%%%%%%
9322D2qQ%%%%%%%%%%%%%%%%%%%%qQ%%%%%%%%%%%%q%Q%%qQ%%qQ%%%%%%%%%qQ%%qQ%%%%%%%%
9306D2%%%%%%%%%%%%%%%%%%q%Q%%%%%qQ%%qQ%%%qQ%%%%q%Q%%%%%%%%qQ%%%%%%q%Q%%%qQ%%
9290D2%%%%%%%%%%%%%%%%%%%%%%%%%%%%%%%%%%%%%%qQ%%%qQ%%%%%%%%%%%%%%%%%%qQ%%%qQ
9274D2%%%qQq%Q%%%%%%%%%%%%%%%%%%%%%%%%%q%%Q%%%%%qQ%%qQ%%%qQ%q%Q%%%%%%%%%%%%%
9258D2%%%%%%%%%%%%%%%%%%%%%%%%%%qQ%%%%%qQ%%%%%%%%qQ%%%qQ%%qQ%%%%%%%%%%%%%%%%
9242D2%%qQqQ%%%%%%%%%%%%qQ%q%Q%%%%%%%%%%%%%%%%%%%%%%%q%Q%%%%%qQ%%%%%%%qQ%%%%
9226D2%q%%Q%qQ%%%%qQ%%%%%%%%%%%%%%%%%%%%%%%%%%%%%%%%%%%%%%%%%%%%%%%%%%%qQ%%q
9210C4Q%q%Q%qQq%%Q%%%q%Q%%%%%%%%%%%%%%%%%%%%%%%%%%%%%%%%%%%%%%%%%%%%%%%%%%%%
9194D2%%%%%%%%%%%%%%%%%%%%%%%%%%%%%%%%%%%%%%%%%%%%%%%%%%%%%qQ%%%%%%%qQ%%%%qQ
9178D2%%%%%%%%%%%%%%%%%%%%%%%%%%%%%%%%%%%%%%%%%%%%%%%%%%%%%%%%%%%%%%%%%%%%%%
9162D2%%%%%%%%%%%%%%%%%%%%%%%%%%%%%%%%%%%%%%%%%%%%%%%%%%%%%%%%%%%%%%%%%%%%%%
9146D2%%%%%%%%%%%%%%%%%%%%%%%%%%%%%%%%%%%%%%%%%%%%%%%%%%%%%%%%%%%%%%%%%%%%%%
9130D2%%%%%%%%%%%%%%%%%%%%%%%%%%%%%%%%%%%%%%%%%%q%Q%%%%%%%%%%%%%%%%%%%%%%%%%
9114D2%%%%%%%%%%%%%%%%%%%%%%%%%%%%%%qQ%%%%%%%%%%%%%%%%%%%%%%%%%%%%%%%%%%%%%%
9098D2%%%%%%%%%%%%%%%%%%%%%%%%%%%%%%%%%%%%%%%%%%%%%%%%%%%%%%%%%%%%%%%%%%%%%%
9081D2%%%%%%%%%%%%%%%%%%%%%%%%%%%%%%%%%%%%%%%%%%%%%%%%%%%%%%%%%%%%%%%%%%%%%%
9065D2%%%%%%qQ%%%%%%q%Q%%qJ6q%qQ%%qQ%%%%%%%%%%%%%%%%%%%%%%%%%%%%%%%%%%%%%%%%
9050D2%%%%%%%%%%%%%%%%%%%%%%%%%%%%%%%%%%%%%%%%%%%%%%%%%%%%%%%%%%%%%%%%%%%%%%
9034D2%%%%%%%%%%%%%%%%%%%%%%%%%%%%%%%%%%%%%%%%%%%%%%%%%%%%%%%%%%%%%%%%%%%%%%
9018D2%%%%%%%%%%%%%%%%%%%%%%%%%%%%%%%%%%%%%%%%%%%%%%%%%%%%%%%%%%qQ%%%%%%%%%%
9002D2%%%%%%%%%%%%%%%%%%%%%%%%%%%%%%%%%%%%%%%%%%%%%%%%%%%%%%%%%%%%%%%%%%%%%%
8986D2%%%%%%%%%%%%%%%%%%%%%%%%%%%%%%%%%%%%%%%%%%%%%%%%%%%%%%%%%%%%%%%%%%%%%%
8970D2%%%%%%%%%%%%%%%%%%%%%%%%%%%%%%%%%%%%%%%%%%%%%%%%%%%%%%%%%%%%%%%%%%%%%%
8954D2%%%%%%%%%%%%%%%%%%%%%%%%%%%%%%%%%%%%%%%%Qj6J6j6Q%%%%%%%%%%%%%%%%%%%%%%
8938D2%%%%%%%%%%%%%%%%%%%%%%%%%%%%%%%%%%%%%%%%%%%%%%%%%%%%%%%%%%%%%%%%%%%%%%
8922D2%%%%%%%%%%%%%%%%%%%%%%%%%%%%%%%%%%%%Qq%%%%%%%%%%%%%%%%%%%%%%%%%%%%%%%%
8906D2%%%%%%%%%%%%%%%%%%%%%%%%%%%%%%%%%%%%%%%%%%%%%%%%%%%%%%%%%%%%%%%%%%%%%%
8890D2%%%%%%%%%%%%%%%%%%%%%%%%%%%%%%%%%%%%%%%%%%%%%%%%%%%%%%%%%%%%%%%%%%%%%%
8874D2%%%%%%%%%%%%%%%%%%%%%%%%%%%%%%%%%%%%%%%%%%%%%%%%%%%%%%%%%%%%%%%%%%%%%%
8858D2%%%%%%%%%%%%%%%%%%%%%%%%%%%%%%%%%%%%%%%%%%%%%%%%%%%%%%%%%%%%%%%%%%%%%%
8842D2%%%%%%%%%%%%%%%%%%%%%%%%%%%%%%%%%%%%%%%%%%%%%%%%%%%%%%%%%%%%%%Qq%qJ6q%
8826D2%Qq%%Qq%%%%%%%%%%%%%%%%%%%%%%%%%%%%%%%%%%%%%%%%%%%%%%%%%%%%%QqQq%%%%%%
8810D2%Qq%%%%%%%%%%%%%%%%%%%%%%%%%%%%%%%%%%%%%%%%%%%Q%q%%%%%Qq%Qq%%%%%%%%%%%
8794D2%%%%%%%%%%%%%%%%%%%%%%%%%%%%%%%%%%%%%%%%%%%%%%%%%%%%%%%%%%%%%%%%%%%%%%
8778D2%%%%%%%%%%%%%%%%%%%%%%%%%%%%%%%%%%%%%%%%Q%q%%QqQq%%%%Qq%%%%Qq%%Qq%%%%%
8762D2%%%%%%%%%%%%%%%%%%%%%%%%%%%%%%%%%%%Q%qQ%q%%%Qq%%%%%%%%%%%%%%%%%%%%%%%%
8746D2%%%%%%%Qq%%%%%%%Q%q%%%%%%%%%%%%Qq%%%%Qq%%Qq%%%%%%%%%%%%%%Qq%%%%%%%%%%%
8730D2%%%%%%%%%%%%%%%%%%QqQ%%q%%%Qq%%%%%Qq%%%Qq%%%%%%%%%%%%%%%%%%%%%Qq%%%%%%
8714D2%%%%%%%%%%%%%Qq%%Qq%%%%%%Qq%%%%%%%%Qq%%%%%%%%%%%%%Qq%Q%qQqQq%%%%%%%%%%
8698D2%%%Qq%%%%%%Q%q%%%Qq%Qq%%%%QqQ%%qQq%Qq%%%%%%%%%%%%%%%%%Qq%%%%%%Qq%%%%%%
8682D2%QqQq%%Q%%%q%%%Q%%q%%%%Qq%QqQ%qQq%%%%%%%%%%%%%%%%%%%%%%%%%Q%q%%%QqQqQq
8666D2%%Q%q%%Q%%q%%Q%%q%Qq%%%%%%%Qq%%%%%Qq%%%%%%%%%%Qq%%%%%%%%%%%%%%%%%%Qq%%
8650D2%QqQ%q%Q%q%%%%%%%%%%%%%Q%%q%%%%QqQq%QqQ%%%q%QqQq%Q%q%%%%%%Qq%%%%%Qq%Q%
8634E0qQ%%q%%QqQqQ%q%%%Qq%%Qq%%%%%Qq%Qq%Q%%q%%QqQq%QqQqQqQ%q%Qq%%%%%%%Qq%QqQ
8618E0qQ%qQ%%%%%%qQ%%qQ%%qQ%%%q%%%%%Q%%%q%%Q%q%%%%Q%q%%%Q%%%%q%%Qq%%%%Q%%%q%
8602D2Qq%%QqQ%q%%%%%%%%%%Q%%%%%q%%QqQqqJ6qJ6j6Q%%j6QQj6Q%%Q%qQ%%%%%q%Qq%QqQ%
8587E0q%Qq%QqQqQ%%%q%%QqQqQq%%Q%%%%%q%%%Qq%%%%%Q%qQ%%%%qQq%%%QqQ%qQqQ%%%%%%%
8571E0%%%%qQqQ%%qQ%qQ%%%qQ%%qQ%qQ%q%Q%%qQ%%%qQ%%%%%%%%%qQq%%Q%%%%%%%%qQq%QqQ
8555E0%%%%%%%%%%%%qQqQ%qQ%%q%%%%Qq%%Q%%%%%%qQ%%%%%%%%%%%%%%q%%%Q%q%%Q%qQ%%%%
8539E0%%%%%%%%%%%%%%%%%%qQ%%q%Q%%%%%%%%%%%%%%%%%%%%%%%%%%%%%%%%%%%qQ%%%%%%%%
8523E0qQ%%%%%%%%%%%%%%%%%%%%%%%%%%q%Q%%%%%%%%%%%%%%%%%qQ%q%Qq%%Q%%%%%%%%%%%%
8507E0%%%%%%%qQ%%%%%%%%%%%%%%qQ%q%Q%q%%Qq%QqQ%%%%%%%%%%%%%%%%%%%%%%%%%%%%%%%
8491E0%qQ%%%%%%%%%%qQ%qQ%%%qQ%%%%%%q%Q%qQ%%%%%%%%%%%%%qQ%%%%%%qQ%%%qQ%%qQ%%%
8475E0%%qQ%%%%%%%%%%%%%%%%%%%%%%%%%%%%%%qQ%%%%%%%%%%%%%%%qQ%%qQq%%QqQ%%%%%%%
8459E0%%%%%%%%%%%%%%%%%%%%%%%%%%%%%%%%%%%%%%%%%%%%%%%%%%%%%%%%%%%%%%%%%%%%%%
8443E0%%%%%%%%%%%%%%%%%%%%%%%%%%%%%%%%%%q%Q%%%%%%%%%%%%%%%%%%%%%%%%%%%%%%%%%
8427E0%%%%%%%%%%qQ%%%%%%%%%%%%%%%%%%%%%%qQqQqQ%%%%%%%qQ%%%%%%%%%%%%%%%%%%%%q
8411D2QqQ%%%%%%%%%%%%%%%%%%%%%%%%%%%%%%%%%%%%%%%%%%%%%%%%%%%%%%%%%%%%%%%%%%%
8395E0%%%%%%%%%%%%%%%%%%%%%%%%%%%%%%%%qQ%%%%%%%%%%%%%%%%%%%%%%%%%%%%%%%%%%%%
8379E0%%%%%%%%%%%%%%%%%%%%%%%%%%%%%%%%%%%%%%%%%%%%%%%%%%%%%%%%%%%%%%%%%%%%%%
8363E0%%%%%%%%%%%%%qQ%q%QQj6Q%%%qQ%%q%%Q%%%%%%%%%%%%%%%%%%%%%%%%%%%%%%%%%%%%
8347E0%%%%%%%%%%%%%%%%%%%%%%%%%%%%%%%%%%%%%%%%%%%%%%%%%%%%%%%%%%%%%%%%%%%%%%
8331E0%%%%%%%%%%%%%%%%%%%%%%%%%%%%%%%%%%%%%%%%%%%%%%%%%%%%%%%%%%%%%%%%%%%%%%
8315E0%%%%%%%%%%%%%%%%%%%%%%%%%%%%%%%%%%%%%%%%%%%%%%%%%%%%%%%%%%%%%%%%%qJ6j6
8299D2Q%%%%%%%%%%%%%%%%%%%%%%%%%%%%%%%%%%%%%%%%%%%%%%%%%%%%%%%%%%%%%%%%%%%%%
8283E0%%%%%%%%%%%%%%%%%%%%%%%%%%%%%%%%%%%%%%%%%%%%%%%%%%%%%%%%qQ%%%%%%%%%%%%
8267E0%%%%%%%%%%%%%%%%%%%%%%%%%%%%%%%%%%%%%%%%%%%%%%%%%%%%%%%%%%%%%%%%%%%%%%
8251E0%%%%%%%%%%%%%%%%%%%%%%%%%%%%%%%%%%%%Qq%%%%qQqJ6q%%%%%%%%%%%%%%%%%%%%%%
8236E0%%%%%%%%%%%%%%%%%%%%%%%%%%%%%%%%%%%%%%%%%%%%%%%%%%%%%%%%%%%%%%%%%%%%%%
8220E0%%%%%%%%%%%%%%%%%%%%%%%%%%%%%%%%%Qq%Qq%%%%%%%%%%%%%%%%%%%%%%%%%%%%Qq%%
8204E0%%%%%%%%%%%%%%%%%%Qq%%%%%%%%%%%%%%%%%%%%%%%%%%%%%%%%%%%%%%%%%%%%%%%%%%
8187E0%%%%%%%%%%Qq%%%%%%%QqQqQq%%%%%%%%%%%%%%%%%%%%%%%%%%%%%%%%%%%%%%%%%%%%%
8171E0%%%%%%%%%%%%%%%%%%%%%%%%%%%%%%%%%%%Qq%%%%Qq%%%%%%%%%%%%%%%%%%%%%%%%%%%
8155E0%%%%%%%Qq%%%%%%%%%%%%%%%%%%%%%%%%%%%%%%%%%%%%%%%%%%%%%%%%%%%%%%%%%%%%%
8139E0%%%%%%%%%%%%%%%%%%%Qq%%%%%%%%%%%Qq%%%%%%%%%%Qq%%%%%%%%Qq%%%%Q%q%%qK4q%
8124E8%q%%%QqQq%Qq%%%%%%%%%%%%%%%%%%Qq%%%%%%%%%%%%%%%%%%%%%%%%%%%%%Qq%%%%%%%
8108E0%%%%%%%%%%%%%%%%%%%%%%%%%%%%%%%%%%%%%%Qq%%%%Qq%%%Qq%%Q%q%%%%%Q%%q%%%%%
8092E0%%%%%%%%%%%%%%%%%%%%%%%%%%%%%QqQq%%%%Qq%%%%%QqQq%Qq%Q%%q%%%%%%%%%%%%%%
8076E0%%%%%%%%%%%%%%%%%%%%%%%%%%%%%%%%%%%%%%%%%%%Q%q%%%QqQq%%%%%%%Qq%%%%Qq%%
8060E0%Qq%Qq%%%%%%%%%%%%%%Qq%%%%Qq%%%%%QqQq%%%%%Q%%%%%%qQqQ%qQqQq%%%Q%q%%Q%q
8044E0Q%%%%%%%%qQ%qQqQ%q%QqQqQq%QqQq%%%%%Q%q%%%%Q%q%%QqQqQ%%%%qQ%%q%%Qq%Qq%%
8027E0%Qq%%%%%%%QqQqQ%%%%qQq%%%%%%%%%%%%Qq%%%%%%%%%%%%%%%%%%%%%%Qq%%Q%%%q%%Q
8011E8%%%%%q%Q%%qQ%%%%q%Q%q%Q%%qQ%%%%%q%%%%Q%%qQqQ%%qQ%%qQqQ%%qQ%qQq%Qq%Q%q%
7995E0%%Q%%qQ%%%%%%%qQ%%%%%%%%%%%%%%qQqQ%qQqQ%qQ%qQ%%%%%%%%%%%%%%%%qQ%%%%%%%
7979E8%%%qQ%qQ%q%Q%%%%%qQ%%%%%%%%%%%%%%%%%%%%%%%qQq%Qq%Qq%%%Qq%%%Qq%Q%qQ%%%%
7963E8%%%%%qQ%%%%%%%%%%%%%q%%%Q%%%%%%%%%%%%%%%%%%%%%%%%%%%%%%%%qQ%%qQ%%q%Q%%
7947E8%qQ%%%%q%Q%q%Q%qQ%%%%%%%%%%qQ%%%%%%qQ%%%%%%%%%%%%%%%%%%%%q%Q%%%%%qQ%%%
7931E8%qQqQ%%%qQ%%%q%Q%qQ%%%%%%%%%%%%%%%%%%%%%%%%%%%%%%%%%%%%%%qQ%%%%%%%%%%%
7915E8%%%%%%%%%%%%%%%%%%%%%%%%%%%%%%%%%%qQ%%%%%%%%%qQ%%%%%%%%%%%%%%%%%qQ%%%q
7899E0Q%%%%%%%%%%%%%%%%%%%%%%%%%qQ%%%qQ%%%q%%QqJ6j6Q%%%%%%%%%%%%%%%%%%%%%%%%
7884E8%%%%%%%%%%%%%%%%%%%%%%%%%%%%%%%%%%%%%%%%%%%%%%%%%%%%%%%%%%%%%%%%%%%%%%
7868E8%%%%%%%%%%%%%%%%%%%%%%%%%%%%%%qQ%%%qQ%%%%%%%%%%%%%%%%%%%%%%%%%%%%%%%%%
7852E8%%%%%%%%%%%%%%%%%%%%%%%qQ%%%%%%%%%%%%%%%%%%%%%%%%%%%%%%%%%%%%%%%%%%%%%
7836E8%%%%%%%%%%%%%%%%%%%q%Q%%%%%%%%%%%%%%%%%%%%%%%%%%%%%%%%%%%%%%%%%%%%%%%%
7820E8%%%%%%%%%%%%%%%%%%%%%%%%%%%%%%%%%%%%%%%%%%%%%%%%%%%%%%%%%%%%%%%%%%%%%%
7804E8%%%qQ%%%qQ%qQ%%%%%%%%%%%%%%%%%%%%%%%%%%%%%%%%%%%%%%%%%%%%%%%%%%%%%%%%%
7788E8%%%%%%%%%%%%%%%%%%%%%%%%%%%%%%%%%%%%%%%%%%%%%%%%%%%%%%%%%%%%QqQq%%%%%%
7772E8%%%%%%%%%%%%%%%%%%%%%%%%%%%%%%%%%%%%%%%%%%%%%%%%%%%%%%%%%%%%%%%%%%%%%%
7756E8%%%%%%%%%%%%%%%%%%%%%%%%%%%%%%%%%%%%%%%%%%%%%%%%%%%%%Q%%q%%QqQq%%%%%%%
7740E8%%%%%%%%%%%%%%%%%%%%%%%%%%%%%%%%%%%%%%%%%%%%%%%%%%%%%%%%%%%%%%%%%%%%%%
7724E8%%%%%%%%%%%%%%%%%%%%%%%%%%%%%%%%%%%%%%%%%%%%Qq%%%%%%%%%%%%%%%%%%%%%%%%
7708E8%%%%%%%%%%%%%%%%%%%%%%%%%%%%%%%%%%%%%%%%%%%%%%%%%%%%%%%%%%%%%%%%%%%%%%
7691E8%%%%%%%%%%%%%%%%%%%%%%%%%%%Q%q%%%%%%%%%%%%%%%%%%%%%%%%%%%%%%%%%%%%%%%%
7675E8%%%%%%Qq%Qq%Qq%%%%%%%%%%%Qq%%%Qq%%%%%%%%%%%%%Qq%%%%%%%Qq%%%%%Qq%%Qq%%Q
7659F6q%Qq%%Qq%Qqq%%QQQj6l2QM0%%%%j6Q%qQqQq%Qq%%QqQq%%QqQ%q%%%%%Q%q%%%%%%%%%
7644E8%%%%%%Qq%Qq%%Qq%Qq%%Q%q%%Qq%%%%%%%%%%%%%%%%%%%%%%%%%%%%%%%%%%%%%%%%%%%
7628E8%%%%%%%%%Qq%Qq%%%%%%%%%%Qq%%%%%%%%%%%Q%%%q%%%%%%%%%%%%%%%%%%%%%%%%%%%%
7612E8%%%%%%%%%%%%%%%%%%%%%%%%%%%%%Qq%%%%%Qq%%%%%%%%%%%%%%%%%%%%%%Q%%%qQ%qQ%
7596F6%qQqQq%Qq%%Qq%%%%%%%%%Q%q%%%%Qq%%Q%qQ%%%qQ%qQ%qQ%qQq%%Q%q%%%%%QqQq%Q%q
7580E8%Qq%%%Q%qQq%Q%qQ%q%Q%%%qQ%%%%%%%%%%%%%%%%%%%%%%%%qQqQqQ%%qQ%%q%QqQq%%Q
7564F6%q%%%QqQ%%%%%%%%%%%q%%%QqQqQ%%%%qQ%%qQ%q%QqQ%%%qQ%%%q%%Q%%qQ%%%%%qQ%%%
7548F6%%%%%q%%Q%%q%Q%%%%%%%%%%%%%%%%%%%%%%q%%%Q%%%%qQqQ%q%QqQ%%%%%%%%%%%%%%%
7532F6%%q%Q%%%%%%%%%%%%qQ%%%%%qQqQq%Q%q%Q%qQ%qQ%%%%qQ%%qQ%%%%%%qQ%%%%%%%%%%%
7516F6%%q%Q%%%%%%qQ%%%%%q%Q%qQ%%%%%%%%q%Q%qQ%%qQ%qQ%%qQ%%%qQ%%%%%%%%%%%%%%%%
7500F6%%%%%%%%%%qQ%qQq%%%QqQ%%%%qQqQ%%%%%%%%%%%%%%%%%%%%%%%%%%%%%%%%%%%%%%%%
7484F6%%%%%%%%%%%%%%%qQ%%%%%%qQ%%qQ%qQ%%%%%%%%qQ%%q%Q%%%%%%%%%%%qQ%%%%%%%%%%
7468F6%%%q%Q%%%%%qQ%%%%%%%%%%%%%%%%%%%%%%%%%%%%%%%%%%%%%%%%%%%%%%%%%%%%%%%%%
7452F6%%%%%%%%qQ%%%%%%%%%%%%%%%%%%%%%%%%%%%%%%%%%%%%%%%%%%%%%%%%%%%%%%%%%%%%
7436F6%%%%%%%%%%%%%%%%%%%%%%%%%%%%%%%%%%%%%%%%%%%%%%%%%%%%%%%%%%%%%%%%Qj6J6q
7421F6%%%%%%%%%%%%%%%%%%%%%%%%%%%%%%%%%%%%%%%%%%%%%%%%%%%%%%%%%%%%%%%%%%%%%%
7404F6%%%%%%%%%%%%%%%%%%%%%%%%%%%%%%%%%%%%%%%%%%%%%%%%%%%%%%%%%%%%%%%%%%%%%%
7388F6%%%%%%%%%%%%%%%%%%%%%%%%%%%%%%%%%%%%%%%%%%%%%%%%%%%%%%%%%%%%%%%%%%%%%%
7372F6%%%%%%%%%%%%%%%%%%%%%%%%%%%%%%%%%%%%%%%%%%Qq%%%%%%%%%%%%%%%%%%%%%%%%%%
7356F6%%%%%%%%%%%%%%%%%%%%%%%%%%%%%%%%%%%%%%%%%%%%%%%%%%%%%%%%%%%%%%%%%%%%%%
7340F6%%%%%%%%%%%%%%%%%%%%%%%%%%%%%%%%%%%%%%%%%%%%%%%%%%%%%%%%%%%%%%%%%%%%%%
7324F6%%%%%%%%%%%%%%%%%%%%%%%%%%%%%%%%%%%%%%%%%%%%%%%%%%%%%%%%%%%%%%%%%%%%%%
7308F6%%%%%%%%%%%%%%%%%%%qQqJ6%q%%%%%%%%%%%%%%Qq%%%%%%%%%%%%%%%%%%%%%%%%%%%%
7293F6%%%%%%%%%%%%%%%%%%%%%%%%%%%%%%%%%%%%%%%%%%%%%%%%%%%%%%%%%%%%%%%%%%%%%%
7277F6%%%QqQqQqQqQq%%%%%%%%%%%%%%%%%%%%%%%%%%%%%%%%%%%%%%%%%%%%%%%%%%%%%%%%%
7261F6%%%%%%%%%%%%%%%%%%%%%%%QqQqQq%%%%%%%Qq%%%%QqQqQq%%%%%%%%%%%%%%%Qq%%%Qq
7244F6Qq%Qq%%Qq%%Qq%%%%Q%%q%%%%%%%%%%%%%%%%%%%%%%%%%%%%%%%%%%%%%%%QqQ%%%%q%%
7228F6%%%%%%%%%%%%%%%%%%%%%%%%%%%%%%%%Qq%%%%Q%q%%%%%%%%%%%%Qq%Q%%q%%%%%Qq%%%
7212F6Q%q%Qq%%Q%%qQq%%%%%%%%%%QqQ%%%%%%%q%Q%q%%Q%q%%Q%%qQqQ%%%%%%%%%%%%%%%%%
7196G4%%%%%%%%%%%%%q%%%%QqQ%%q%%Q%%q%%Qq%Q%q%QqQqQ%q%qJ6qQq%Q%q%%Qq%%%%%Qq%Q
7181G4%q%%QqQq%Q%%%%%%%%%%%%%%%%%%%%%%%%%%%%%%%%%%%%%%%%%%q%%QqQ%%%%%%%%%%%%
7165G4%%%%qQ%%%qQ%%%qQ%%%%%%q%QqQ%qQ%%qQ%%%%%%%%%%%%qQ%%%%%%%%qQ%%%%%%%%%%%%
7149G4%%%%%%%%%%%%%%%%%%%%%%%%%%qQ%%%q%%%%Q%%qQ%qQ%%%%%%%%%%%%%%%%%%%%%%%%%%
7133G4%%%%%%%%%qQ%%%%%%%%%%%%%%%%%%%%%%qQ%%%qQ%%%%%%%%%%%%%%%%%%%%%%%%%%%%%%
7117G4%%%%%%%%%%%%%%%%%%%%%%%%%%%%%%%%%%%%%%%%%%%%%%%%%%%%%%%%%%%%%%%%%%%%%%
7101G4%%%%%%%%qQ%%%%%%%%%%%%%%%%%%%%%%%%%%%%%%%%%%%%%%%%%%%%%%%%%%%%%%%%%%%%
7085G4%%%%%%%%%%%%%%%%%%%%%%%%%%%%%%%%%%%%%%%%%%%%%%%%%%%%%%%%%%%%qQ%%%qJ6q%
7069G4%%%%%Qq%%%%%%%%%%%%%%%%%%%%%%%%%%%%%%%%%%%%%%%%%%%%%%%%%%%%%%%%%%%%%%%
7053G4%%%%%%%%%%%%%%%%%%%%%%%%%%%%%%%%%%%%%%%%%%%%%%%%%%%%%%%%%%%%%%%%%%%%%%
7037G4%%%%%%%%%%%%%%%%%%%%%%%%%%%%%%%%%%%%%%%%%%%%%%%%%%%%%%%%%%%%%%%%%%%%%%
7021G4%%%%%%%%%%%%%%%%%%%%%%%%%%%%%%%%%%%%%%%%%%%%%%%%%%%%%%%%%%%%%%%%%%%%%%
7005G4%%%%%%%%%%%%%%%%%%%%%%%%%%%%%%%%%%%%%%%%%%%%%%%%%%%%%%%%%%%%%%%%%%%%%%
6989G4%%%%%%%%%%%%%%%%%%%%%%%%%%%%%%%%%%%%%%%%%%%%%%%%%%%%%%%%%%%%%%%%%%%%%%
6973G4%%%%%%%%%%%%%%%%%%%%%%%%%%%%%%%%%%%%%%%%%%%%%%%Qq%%%%%%%%%%%%%%%%%%%%%
6957G4%Qq%%%%Qq%%%%Qq%%QqQq%qQ%%Q%q%%%%%%%%Qq%%%%%%%%%%%%%%%%%%%%%%%%%%%%%%%
6941G4%Qq%%%%%%%%Qq%%Qq%%%%%Qq%%%%%%%%%%%%%%%%QqQ%qQq%%Qq%Q%%%q%%Q%%qQ%%%qQ%
6925H2q%Q%qQqQq%Q%qQ%q%%%%%%%%%Qq%%%%%%%%%%Qq%%%Qq%QqQq%%%%QqQq%%%%Qq%%%%%Qq
6908G4%%%%%%%%%%%Q%%%qQ%%%%%%%qQq%%Q%q%%%%%%Q%%q%QqQ%%%%%%%qQ%%q%%%Qq%Q%q%%Q
6892H2qQqQq%%%%%%Qq%Q%%q%Q%%%%qQ%qQqQq%%Q%q%Q%%%qQ%%%q%QqQqQqQ%%qQq%Q%%q%Q%%
6876H2%%%%%%qQ%qQ%q%%%%%%%%%%%QqQ%qQ%qQqQ%qQ%%%%%%%%%%qQ%%%%%%q%Q%%%%%%%qQ%q
6860G4Q%%%q%Q%%%%%%qQ%%%%%%q%Q%qQ%%%%%%%%%%%%%%%%%%%%%%%%%%%%%%%%%%%%%%%%%%%
6844H2%%%%%%%%%%%%%%%%%%%%%%%%%%%%%%%%qQ%%%%%%qQ%qQqQ%%qQ%%%%%%%%%%%%%%%%%%%
6828H2%%%%%%%%%%%%%%%%%%%%%%%%%%%%%%%%%%%%%%%%%%%%%%%%%%%%%%%%%%%%%%%%%%%%%%
6812H2%%%%%%%%%%%%%%%%%%%%%%%%%%%Qq%%%qJ6j6J6q%%%%%%%%%%%%%%%%%%%%%%%%%%%%%%
6797H2%%%%%%%%%%%%%%%%%%%%%%%%%%%%%%%%%%%%%%%%%%%%%%%%%%%%%%%%%%%%%%%%%%%%%%
6781H2%%%%%%%%%%%%%%%%%Qq%%%%%%%%%%%%%%%%%%%%%%%%%%%%%%%%%%%%%%%%%%%%%%%%%%%
6765H2%%%%%%%%%%%%%%%%%%%%%%%%%%%%%%%%%%%%%%%%%%%%%%%%%%%%%%%%%%%%%%%%%%%%%%
6749H2%%%%%%%%%%%%%%%%%%%%%%%%%%%%%%%%%%%%%%%%%%%%%%%%%%%%%%%%%%%%%%%%%%%%%%
6733H2%%%%%%%%%%%%%%%%%%%%%%%%%%%%%%%%%%%%%%%%Qq%%%%%%%%QqQ%qQqqQqQ%Qqj6M8l2
6718H2Qj6%J6%q%%%%Q%%%q%%%%%%%%Qq%%%%%%%%%%%%%%%%%%%%%%%%%%%%%%%%%%%%%%%%%%%
6702H2%%%%%%%%%%%%%%%%%%%%Qq%%%%%%%%%%%%%%%%%%%%%%%%%%%Qq%QqQq%%%%%%%Qq%%%%%
6686H2%%%%%%%%%%%%%%%%%Qq%%%%%%%Qq%%%%%Qq%%%%%Qq%Qq%%%%%%Q%qQq%%%%Qq%Qq%%%%%
6670H2%%%QqQq%%%Qq%%%%%%%%%%%Qq%Qq%Qq%%%QqQq%%Qq%Q%q%Q%q%QqQqQq%%%%%%%%%%%%%
6654H2%%%%%%%%%%%Q%q%%%%%%%Qq%%Q%%qQ%qQ%qQqQqQqQqQqQqQ%qQqQq%%%QqQ%%%%%%%%%%
6638I0%%%%%qQ%%%%%%qQ%%q%%Q%%%%%qQ%%qQqQq%%QqQ%%qQ%%%%%%%%%%%%%q%QqQqQq%%%Q%
6622I0%qQqQ%%%%%%%%%%%%%%%%%%%%%%%%%%qQ%%%%%%%%%%%%%%qQ%qQqQ%qQqQ%qQ%%%%%%%%
6606I0%%%%qQ%%%%%%%%%%%%qQ%Qq%%%qQ%%qQ%%%q%Q%%%%%%%%%%%%%%%%%%%%qQ%%%%%%%%qQ
6590I0%%%%%%%%%%%%%%%%%%%%%%%%%%%%%%%%%%%%%%%%%%%%%%%%%%%%%%qQ%%%%%%%%%%%%%%
6574I0%%%%%%%%qQ%%qQ%%%%qQ%%%%%%%%%%%%%%%%%%%%%%%%%%%%%%%%%%%%%%%%%%%%%%%%%%
6558I0%%%%%%%%%%%%%%%%%%%%%%%%%%%%%%%%%%%%%%%%%%%%%%%%%%%%%%%%%%%%%%%%%%%%%%
6542I0%%%%%%%%%%%%%%%%%%%%%%%%%%%%%%%%%%%%%%%%%%%%%%%%%%%%%%%%%%%%%%%%%%%%%%
6526I0%%%%%%%%%%%%%%%%%%%%%%%%%%%%%%%%%%%%%%%%%%%%%%%%%%%%%%%%%%%%%%%%%%%%%%
6510I0%%%%%%%%%%%%%%%%%%%%%%%%%%%%%%%%%%%%%%%%%%%%%%%%%%%%%%%%%%%%%%%%%%%%%%
6494I0%%%%%%Qq%%%%%%%%%%%%%Qq%%%%%%%%%%%%%%%%%%%qQ%Qq%%%%%%%%%%%%%%%%%%%%%%%
6478I0%%%%%%%%%%%%%%%%%%%%%%%%%%%%%%%%%%%%%Qq%%Qq%%%%%%Qq%%%%%Qq%%Qq%%%%%%%%
6462I0%%Qq%%%%%%%%%%%%%%%%%%%%%%%%%QqQq%%%%Qq%%%%%%%QqQq%Q%%qQ%%qQ%%%%qQ%q%%
6446I0%Qq%QqQq%%%%%%%%%Qq%%Q%q%%%%%%Qq%%QqQqQqQ%%%%%%%%%q%Q%%%%qQ%%%%%%qQqQq
6430I0Q%qQ%q%QqQq%Qq%%QqQ%%%%%%qQqQ%%%qQqQqQ%%%%%%%%%%%%qQ%%%%%q%Q%qQ%%%%%%q
6414I0Q%%qQq%Q%qQqQ%%qQ%q%%Q%%%%%%%%%%%%%%%%%%%%%%%%%%%%%%%%%%%%%%%%%%%%%%%%
6398I8%%%%%%%%%%%%%%%%%%%%%%%%%%%%%%%%%%%%%%%%%%%%%%%%%%%%%%%%%%%%%%%%%%%%%%
6382I8%%%%%%%%%%%%%%%%%%%%%%%%%%%%%%%%%%%%%%%%%%%%%%%%%%%%%%%%%%%qQ%%%qQ%%%%
6366I8%%%%%%%%%%%%%%%%%%%%%%%%%%%%%%%%%%%%%%%%%%%%%%%%%%%%%%%%%%%%%%%%%%%%%%
6350I8%%%%%%%%%%%%%%%%%%%%%%%%%%%%%%%%%%%%%%%qQ%%%%%%%%%%%%%%%%%%%%%%%%%%%%%
6334I8%%%%%%%%%%%%%%%%%%%%%%%%%%%%%%%%%%%%%%%%%%%%%%%%%%%%%%%%%%%%%%%%%%%%%%
6318I8%%%%%%%%%%%%%%%%%%%%%%%%%%%%%%%%%%%%%%%%%%%%Qq%%%%%%%%%%%%%%%%%%%%%%%%
6301I8%%%%%%%%%%%%%%%%%%%%%%%%%%%%%%%%%%%%%%%%%%%%%%%%%%%%%%%%%%%%%%%%%%%%%%
6285I8%%%%%%%%%%%%Qq%%%%%%Qq%%%%%%Qq%%%%Qq%%%%%%%%Qq%%%%%%%%%%%%QqQq%Qq%%%%%
6269I8%%%%%%Q%q%%Q%%%q%%%%%%%%%QqQq%Qq%%%%%Qq%%Q%q%%Qq%%%%%%%Qq%%Q%%%q%Q%%%q
6253I8%%Qq%Qq%QqQqQ%%%%qJ6j6J6qq%%Q%%q%Qq%%%Q%qQqQq%QqQ%%%%q%%%%QqQqQ%%%%%%%
6238A06%%q%%Qq%%%%%%Qq%%QqQ%qQq%Q%%%%%%q%%QqQq%%%Q%%q%%%%%Qq%%Q%%%qQ%%%q%Q%q
6222I8Q%%%%%%%%%%%%%%qQ%%%%qQ%%%%%%%%%%%%%%%%%%%%%%%%%%%%%%%qQqQ%%%qQ%%%%%%%
6206A06%%%%%%%%%%%%%%%%%%%%%%%%%%qQ%qQ%%%q%%Q%%%%%%%%%%%%%%%%%%%%%%%%%%%%%%%
6190A06%%%%%%%%%%%%%%%%%%%%%%%%%%%%%%%%%%%%%%%%%%%%%%%%%%%%%%%%%%%%%%%%%%%%%
6175A06%%%%qQ%%%%%%%%%%%%%%%%%%%%%%%%%%%%%%%%%%%%%%%%%%%%%%%%%%%%%%%%%%%%%%%
6159A06%%%%%%%%%%%%%%%%%%%%%%%%%%%%%%%%%%%%%%%%%%%%%%%%%%%%%%%%%%%%%%%%%%%%%
6143A06%%%%%%%%%%%%%%%%%%%%%%%%%%%%Qq%%%%Qq%%%%%%Qq%%Qq%%%Qj6Q%%%%%%%%%%%%%%
6128A06%%%%%%%%%%%%%%%%%%%%%%%%%Qq%Qq%%%%%%%%%%%Qq%%%%Qq%%%%%%%%%%%%%%%%%%%%
6112A06%%%%%%%%%%%%%%%%QqQq%%%%%%%%%%%%%%%%%%%%Qq%%%%%%%%%%%%%%%%%%%%%%%%%Qq
6096A06Qq%%%Qq%%%%%%%%%%%%%%%%%%%%%%Qq%%%%%%Qq%%%%%%%Qq%Qq%QqQq%%%%%%%%%%%%%
6080A06%Q%%q%%Q%%%%%%%q%QqQqQ%qQ%%%%%%qQqQq%Q%%%qQq%QqQ%%%q%Q%%%qQ%%%%%%%%%%
6064A14%%%%qQ%q%Q%%%%qQ%%%%%%%qQqQ%%%%%%%%%%%%%%%%%%%%%%%qQ%%%%%%%%%%%%%%%%%
6049A14%%%%%%%%%%%%qQ%qQ%%%%%%%%%%%%%%%%%%%%%%%%%%%%%%%%%%%%%%%%%%%%%%%%%%%%
6033A14%%%%%%%%%%%%%%%%%%%%%%%%%%%%%%%%%%%%%%%%%%%%%%%%%%%%%%%%%%%%%%%%%%%%%
6017A14%%%%%%qQ%qJ6j6Q%qQqQ%%%%%%%%%%%%%%%%%%%%%%%%%%%%%%%%%%%%%%%%%%%%%%%%%
6002A14%%%%%%%%%%%%%%%%%%%%%%%%%%%%%%%%%%%%%%%%%%%%%%%%%%%%%%%%%%%%%%%%%%%%%
5986A14%%%%%%%%%%%%%%%%%%%%%%%%%%%%%%%%%%%%%%%Qq%%%%%%%%%%%%%%%%%%%%%%%%%%%%
5970A14%%%%%%%%%%%%%%%%%%%%%%%%%%Qq%%%%Q%%%qQqQ%qQq%%Qq%%%%%Q%q%%%%%%%%%%Qq%
5954A14%%%%%%%%%%%%%%%%%%%%%%%%%%Q%qQq%%%%%%%%%%%%%%%%%%%%Qq%Qq%Q%q%%%Qq%Q%q
5938A14%%Q%%qQ%q%Q%%%%%%qQ%%%%%%%%%qQq%Q%%q%Qq%%Qq%Qq%Q%qQq%%Q%q%%%Q%q%Q%qQq
5923A14Qq%%Q%%qQ%qQ%%%%q%%%Q%%%%%qQ%%%%%%q%%%%%%%Q%%%%qQ%%%%%%%%%%%%%%%q%Q%%
5907A22%%%%%%%%qQ%%%%%%%%%%%%%%%%%%%%%%%%%qQqQ%%q%%Q%%%%%%%%%%%%%%%%%%%%%%%%
5891A22%%%%%%%%%%%%%%%%%%%%%%%%%%%%%%%%%%%%%%%%%%%%%%%%%%%%%%%%%%%%%%%%%%%%%
5875A22%%%%%%%%qQ%%%%qQ%%%%%%%%%qQ%%%%%q%Q%%Qq%%%%%%%%%%%%%%%%%%%%%%%%%%%%%%
5860A22%%%%%%%%%%%%%%%%%%%%%%%%%%%%%%%%%%%%%%%%%%%%%%%%%%%%%%%%%%%%%%%%%%%%%
5844A22%%%%%%%%%%%%%%%%%Qq%qQ%%%%%%%%%%%%%%%%%%%%%%%%%Qq%%%%%%%%%%%%%%%%%%%%
5828A22%%%%%%%%%Qq%%%%%%QqQq%%%%%%%%%%%%%Q%q%%%Q%%qQ%%qQqQq%%%%%%%%Qq%%%%%%%
5812A22Q%q%%%Qq%%%%Q%q%%%%%%%%%%%%%%%%%%%Qq%Qq%%%Q%q%Q%%qQ%q%%QqQ%qQ%%q%%%%%
5796A22QqQ%%%%%%%%%%qQ%%qQ%%%%%%%%%%%%q%Q%%qQqQ%%qQq%Q%%%%%q%%J6j6Qj6K4j6qJ6
5782A30q%Q%qJ6k4k4L2%j6M0j6%%%%qQqJ6qq%%Q%%q%%%QqQ%qQ%q%QqQ%%%qQ%%qQ%qQ%%%%q
5768A22Q%%%qQ%%%%%%%%%%%%%%%%%qQ%%%%%%%qQ%%qQ%%%%%%%%%%%%%%%%%%%%%%%%%%%%%%%
5752A30%%%%%%%qQ%%qQ%%%%%%%%%%%%%%%%%%%%%%%%%%%%%%%%%%%%%%%%%%%%%%%%%%%%%%%%
5736A30%%%%%%%%%%%%%%%%%%%%%%%%%%%%%%%%%%%%%%%%%%%%%%%%%%%%%%%%%%%%%%Qq%%%%%
5721A30%%%%%%%%%%%%%%%%%%%%%%%%%%%%%%%%Qq%%%%%%%%%%%%%%%%%%%%%%%%%%%%%%Qq%%%
5705A30%%%%%%%%%%%%%%%%%%%%%%%%%%%%%%%%%%%%%%%%%%%%%%%%%%%%%%Q%q%%%%%%Qq%%%%
5689A30%%%%%%%%%%%%%%%%%%Q%q%%QqQ%%%qQ%q%Q%qQ%%%qQ%qQ%%qQq%%%%Qq%%Qq%%%%QqQq
5673A30Q%%%%%qQ%%q%%%%QqQ%%qQ%qQqQ%qQqQ%%%%%%%q%Q%%%q%%%Q%%%%qQ%%%%%%%q%Q%%%
5657A38%%%%%qQ%%%q%QqQ%%%%%%%%%%%%%%%%%%%%%%%%%%%%%%%%%%%%%%%%%%%%%%%%%%%%%%
5642A38%%%qQ%%%%%%%%%%%%%%%%%%%%%%%%%%%%%%%%%%%%%%%%%%%%%%%%%%%%%%%%%%%%%%%%
5626A38%%%%%%%%%%%%%%%%%%%%%%%%%%%%%%%%%%%%%%%%%%%%%%%%%%%%%%%%%%%%%%%%%%%%%
5610A38%%%%%%%%%%%%%%%%%%%Qq%QqQq%Qq%%%%Qq%%%Qq%%%%%%%%%%%%%%%Qq%%%%%%%%%%%%
5594A38%%%%%%%%%%Qq%%%%%%%%%%%%%%%%%%%%%%%%%%%%%%%%%%%%%%%Qq%%Q%%%q%Qq%%%%Qq
5578A38Qq%Qq%QqQq%Q%qQq%Qq%Q%q%%%%Q%%qQq%%Q%q%Qq%%Qq%%%%%%%Q%q%Q%%%%qQ%qQ%%%
5563A46%%%qQ%qQ%%%q%Qq%%Qq%Qq%%%%%%%Q%qQ%%%%%%%%%%qQ%%%%%%%%%qQ%%qQ%%q%%QqQ%
5547A46qQ%qQqQ%q%Q%qQ%qQ%qQ%%%%%%%%%%%%%%%%%%%%%%%%%%%%%%%%%qQ%%%%%%%%%%%%%%
5531A46%%%%%%%%%%%%%%%%%%%%%%%%%%%%%%%%%%%%%%%%%%%%%%%%%%%%%%%%%%%%%%%%%%Qq%
5515A46%%%%%%%%%%%%%%%%%%%%%%%%%%%%%%%%%%%%%%%%%%%%%%%%%%%%%%%%%%%%%%%%%%%%%
5499A46%%%%%%%%%%%%%%%%%%%%%%%%%%%%%%%%%%%%%%%%%%%%%%%%%%%Qq%%%Qq%%%%%%%%%%%
5484A46%%%%%%%%%%%%%%%%%%%Q%qQqQqQq%%%%%%%%%%%QqQ%%qQ%%q%%%%QqQ%%q%Q%%%%%%%q
5468A46Q%%%%%qQ%qQ%q%Q%%%%%%%%%%%qQ%%%%%%%%%%qQ%%%%%q%Q%qQqQ%%%%%%%%%qQ%qQ%%
5452A54%%%%%%%%%%%%%%%%%%%%%%%%%%%%%%%%%%%%qQ%%%%%%%%%%%%%%%%%%%%%%%%%%%%%%%
5436A54%%%%%%%%%%%%%%%%%%%%%%%%%%%%%%%%qQqQ%%%%%%%%%%%%%%%%%%%%%%%%%%%%%%%%%
5421A54%%%%%%%%%%%%%%%%%%%%%%%%%%%%%%%%%%%%%%%%%%%%%%%%%%%%%%%%%Qq%%%%%%%%%%
5405A54%%%%%%%%%%%%%%%%%%%%%%%%Qq%Qq%%%Qq%%%%%%%%%%%%%%%%%Qq%%%%%%%%%%%%%Qq%
5389A54%%%%%%%%Q%q%%QqQ%q%%%%%%%%%%%%%%%QqQ%%qQqQ%q%%Q%%%%%%%qQ%%%q%%Q%%%qQ%
5373A62%%qQq%%Q%qQq%Q%%%%qQ%%%%%%%%%%%%%%%%%%%%%%%%%%%%%%%%%%%%%%%%%%%%%%%%%
5357A62%%%%%%%%%%%%%%%%%%%%%%%%%%%%%%%%%%%%%%%%%%%%%%%%%%%%%%%%%%%%%%%%%%%%%
5342A62%%%%%%%%%%%%%%%%%%%%%%%%%%%%%%%%%%%%%%%%%%%%%%%%%%%%%%%%%%%%%%%%%%%%%
5326A62%%%%%%%%%%%%%%%%%%%%%%%%%%%%%%%%%%%%%%%%%Qq%%%%%%%%%%%Q%%%%j6Q%%%%%%%
5310A62%Qq%%%%%%%%%%%Qq%%%%%%%%Qq%Q%%%q%Q%qQq%%%%Qq%%%%Q%%%qQ%qQ%%q%%%Q%q%Q%
5294A70%%%%%%%%qQ%%%%%%%%%%%%%q%Q%%%qQq%Q%%%%%%%%%%%%%%%%%qQ%%%%%%%qQ%%qQ%%%
5279A70%%%%%%%%%%%%%%%qQ%%%%%%%%%%%%%%%%%%%%%%%%%%%%%%%%%%%%%%%%%%%%%%%%%%%%
5263A70%%%%%%%%%%%%%%%%%%%%%%%%%%%%%%%%%%%%%%%qQqQ%%%%%%%%%%%%%%%%%%%%%%%%%%
5247A70%%%%%%%%%%%%%%%%%%%%%%%%%%%%%%%%%%%%%%%%%%%%%%%%%%%%%%%%%%%%%%%%%Qq%%
5231A70%Qq%Qq%%%QqQ%q%%Qq%%%%%%%Q%q%%%%%Qq%%%%%%%%%%%%Q%%q%QqQ%%%qQ%%%%%%%%%
5215A78%%%%%qQqQqQqQq%Q%%%%qQ%q%QqQ%qQq%Q%qQ%%%%%%qQ%%%%q%Qq%Q%%%%%%%%%%%%qQ
5200A78%%%%%%%%qQ%%%%%%%%%%%%%%%%qQ%%%%%%%%%%%%%%%%%%%%%%%%%%%%%%%%%%%%%%%%%
5184A78%%%%%%%%%%%%%%%%%%%%%%%%%%%%%%%%%%%%%%%%%%%%%%%%%%%%%%%%%%%%%%%%%%%%%
5168A78%%%%%%%%%%%Q%q%Q%qQq%Qq%%%%%%%%%%%Qq%%%%%%%Qq%%%%Qq%%%%%%%%QqQ%qQ%%q%
5152A78%QqQ%qQqQq%%Qq%%Qq%%%Qq%Qq%%%%%%%%Qq%%%%%%%Q%%qQ%%qQq%Q%qQ%qQ%qQqQ%qQ
5136A86q%QqQ%q%Q%%%%%%%%qQ%%%%%%%%%%%%%%%%%%%%%%%%%%%%%%%%%%%%%%%%%%%%%%%%%%
5121A86%%%%%%%%%%%%%%%%%%%%%%%%%%%%%%%%%%%%%%%%%%%%%%%%%%%%%%%%%%%%%%%%%%%%%
5105A86%%%%%%%%%%%%%%%%%%%%%%%%%%%%%%%%%%%%%Qq%%%%%%%%%%%%%%%%%%%%%%%%%%%%%%
5089A86%%%%%%%%%%%%%%%%%%%%%Qq%%%%%%%%%%%%%%%Qq%%%%Q%%q%Qq%%%%Q%qQq%%%Qq%%Qq
5073A86QqQq%%Q%qQqQqQqQqQ%%%%%%qQ%qQ%qQ%%%%%q%Q%%%qQ%%%%%%%%%%%%%%%%%%%%%%%%
5058A94%%%%%%%%%%%%%%%%%%%%%%%%%%%%%%%%%%%%%%%%%%%%%%%%%%%%%%%%%%%%%%%%%%%%%
5042A94%%%%%%%%%%%%%%%%%%%%%%%%%%%%%%%%%%%%%%%%%%%%%%%%%%%%%%%%%%%%%%%%%%%%%
5026A94%%%%%%%%%%QqQ%%q%%%%%%%%%Qq%%Q%q%QqQqQqQ%q%QqQq%Q%qQq%%%%%%Q%%q%QqQ%%
5010B02qQ%%%qQ%q%%%QqQq%%%%QqQqQq%%Q%%%%%%%%%%%%%%%%%%%%%%%%%%%%%%%%%%%%%%%%
4994B02%%%%%%%%%%%%%%%%%%%%%%%%%%%%%%%%%%%%%%%%%%%%%%%%%%%%%%%%%%%%%%%%%%%%%
4979B02%%%%%%%%%%%%%%%%%%%%%%%%%%%%%%%%%%%%%%%%%%%%%%%%%%%%%%%%%%%%%%%%%%%%%
4963B02%%%%%Q%%q%Q%%qQq%%%Qq%%Qq%%Qq%Q%%%%%%%%%%%%%%qQ%%%qQ%qQqQqQ%%%%%%%%%%
4947B10%%%%%%qQ%%%%%%%%%qQ%%%%%qQ%%qQqQ%%%%%%%%%%%%%%%%%%%%%%%%%%%%%%%%%%%%%
4931B10qQ%QqqQ%%%%%%%%%%%%%%%%%%%%%%%%%%%%%%%%%%%%%%%%%%%%%%%%%%%%%%%%%%%%%%
4915B10%%%%%%%%%%%%%%%%%%%%%%%%%%%%%%%%%%%%%%%%%%%%%%%%%%%%%%%%QqQqQqQq%Qq%Q
4900B18%q%%%%%QqQ%%%%%%%%%%q%%%%Q%%qQ%%qQqQ%%%%%%qQ%%%%%%%%%%%%qQ%%%%%%%%%%%
4884B18%%%%%%%%%%%%%%%%%%%%%%%%%%%%%%%%%%%%%%%%%%%%%%%%%%%%%%%%%%%%%%%%%%%%%
4868B18%%%%%%%%%%%%%%%%%%%%%%%%%%%%%%%%%%%%%%%%%%%%%%%%%%%%%%%%%Qq%%%%%%Qq%%
4852B18%%Qq%%%%Q%q%%Qq%%%Qq%%Q%%qQqQq%Q%Qq%j6Q%%j6J6%QqqQQq%Q%%%%q%Qq%Q%%%q%
4837B18%Q%%q%Q%%%%%qQ%%qQ%%%%%%q%Q%%%qQ%%%%%qQ%%qQ%%%%%%%%%%%%%%%%%%%%%%%%%%
4821B26%%%%%%%%%%%%%%%%%%%%%%%%%%%%%%%%%Qq%%%%%%%%%%%%%%%%%%%%%%%%%%%%%%%%%%
4806B26%%%%%%%%%%%%%%%%%%%%%%%%%%%%%%%Qq%%%%%%%%%%%%%%%QqQ%q%Q%qQ%%q%%%%%%Qq
4790B26Q%%%%%%%%%%%%%%%%qQ%%%%qQ%%%%%%%%%%%%%%%%%%%%%%%%%%%%%%%%%%%%%%%%%%%%
4774B34%%%%%%%%%%%%%%%%%%%%%%%%%%%%%%%%%%%%%%%%%%%%%%%%%%%%%%%%%%%%%%%%%%%%%
4758B34%%%%%%%%%%%%%Qq%%%%%%%%%%%%%Qq%%%%%%%%%%%%%%%Q%q%Qq%Q%qQ%%%q%%Q%q%Q%q
4742B34Q%%%%q%%QqQqQqQ%%%qQqQ%%%%%%%%%%%%%%%%%%%%%%%%%%%%%%%%%%%%%%%%%%%%%%%
4727B42%%%qJ6q%%%%%%%%%%%%%%%%%%%%%%%%%%%%%%%%%%%%%%%%%%%%%%%%%%%%%%%%%%%%%%
4711B42%%%%%%%%%%%%%%%%%%%Qq%%%%%%%%%%%%%%%%%%%%Qq%%%%%%Qq%%%%%%QqQq%%QqQq%%
4695B42%Q%%%%%%%%%%%%%%%%%%%%%%%%%%%%%%%%%%%%%%%%%%%%%%%%%%%%%%%%%%%%%%%%%%%
4679B50%%%%%%%%%%%%%%%%%%%%%%%%%%%%%%%%%%%%%%%%%%%%%%%%%%%%%%%%%%%%%%Q%qQq%%
4664B50%%%%%%%%%%%%%%%Q%%qQ%%%%%%%%%%%qQ%%%%%%qQ%%%q%QqQ%q%%%QqQ%qQq%Q%%%%%%
4648B58%%%%%%%%%%%%%%%%%%%%%%%%%%%%%%%%%%%%%%%%%%%%%%%%%%%%%%%%%%%%%%%%%%%%%
4632B58%%%%%%%%%%%%%%%%%%%%%%%%%%%%%%%%%%%%%%%%%%%%%%%%%%%%%%Q%%%%%q%%Qq%QqQ
4616B66q%Qq%Q%%%%%%qQ%%qQ%%qQ%%%%%%%%%%qJ6qQq%%%%%%%%%%%%qQ%%%%%%%%%%%%%%%%%
4601B66%%%%%%%%%%%%%%%%%%%%%%%%%%%%%%%%%%%%%%%%%%%%%%%%%%%%%%%%%%%%%%%%%%%%%
4585B66%%%%%%%%%%%%%%%%%%%%QqQq%QqQqQ%q%%%%Q%%%%%%%%%%%%q%%Q%%q%%%QqQ%%%%%%%
4569B74%%%%%%%%%%%%%%%%%%%%%%%%%%%%%%%%%%%%%%%%%%%%%%%%%%%%%%%%%%%%%%%%%%%%%
4553B74%%%%%%%%%%%%%%%%%%Qq%%%%%%%%%%%%%Qq%%%%%%%%%%%%%%Q%q%%Q%%q%%%%%%%Q%qQ
4538B82q%Q%%qQqQq%Q%qQq%%%%Q%%%%%%%%%%%%%%%%%%%%%%%%%%%%%%%%%%%%%%%%%%%%%%%%
4522B82%%%%%%%%%%%%%%%%%%%%%%%%%%%%%%%%%%%%%%%%%%%%%%%%%%%%%%Qq%%%%%%%%Qq%%%
4506B82%%%%%QqQ%qQ%%q%%Q%%%%%%%%qQ%%%%%%%%%%%%%%%%%%%%%%%%%%%%qQ%%q%Q%q%%%Q%
4490B90%%%%%%%%%%%%%%%%%%%%%%%%%%%%%%%%%%%%%%%%%%%%%%%%%%%%%%%%%%Qq%%%%%%QqQ
4474B98%q%%Qq%%%%%%%%%%%%%%Q%qQq%%%QqQqQq%Q%qQqQ%%%%qQ%%%%%%%%qQ%%%qQ%qQ%%%%
4459B98%%%%%%%%%%%%%%%%%%%%%%%%%%%%%%%%%%%%%%%%%%%%%%%%%%%%%%%%%%%%%%%%%%%%%
4443B98%%%%%%%Qq%%%%%%%%%%%%%Q%q%Q%%%q%QqQqQ%%%%%qQ%qQ%%%%%%%%%%%%%%%%%%%%%%
4427C06%%%%%%%%%%%%%%%%%%%%%%%%%%%%%%%%%%%%%%%%%%%%%%%%%%%%%%%%%%%%%%%%%%%Qq
4411C06Q%q%QqQ%q%%%%%%%%%%%%%%%QqQ%%%%%%%%%%qQ%%%%%%%%%%%qQ%%%%%%%%%%%%%%%%%
4395C14%%%%%%%%%%%%%%%%%%%%%%%%%%%%%%%%%%%%%%%%%%%%%%%%%%Qq%%%%%%%%%%%%%%%%%
4380C14Qq%%%Qq%%Qq%%Q%%q%%%Q%qqQQ%%%qQ%%%%qQ%%q%Q%%%%%%%%%%%%%%%%%%%%%%%%%%%
4364C22%%%%qQ%%%%%%%%%%%%%%%%%%%%%%%%%%%%%%%%%%%%%%%%%%%%%%%%%%%%%%%%%%%%%%%
4348C22%%%%%%%%%%%%QqQq%%%%%%%Qq%%Q%%q%%%Q%%%%%%%%%%%%%%%%%%%%%%%%%%%%%%%%%%
4332C30%%%%%%%%%%%%%%%%%%%%%%%%%%%%%%%%%%%%%%%%%%%%%%%%%%%%%%%%%%%%%%%%%%Q%q
4316C30%Q%qQ%%%%%%%%%%qQ%%%%%%%%%%%%%%%%%%%%%%%%%%%%%%%%%%%%%%%%%%%%%%%%%%%%
4301C38%%%%%%%%%%%%%%%%%%%%%%%%%%%%%%%%%%%%%%%%%Qq%Q%q%Q%qQ%qQ%%%%%qQ%%%%%%%
4285C46%%%%%%%%%%%%%%%%%%%%%%%%%%%%%%%%%%%%%%%%%%%%%%%%%%%%%%%%%%%%%%%%%%%%%
4269C46%%%%%%%%%%%%%%Qq%%Q%%%%qQqQqQ%%%%q%QqQqQ%%q%Q%%qQqQ%%%%%qQ%%%%%%%%%%%
4253C54%%%%%%%%%%%%%%%%%%%%%%%%%%%%%%%%%%%%%%%%%%%%%%%Q%q%Qq%%%Qq%Qq%%Q%%%%%
4237C62%%%%%%%%%%%%%%%%qQ%%%%%%%%%%%%%%%%%%%%%%%%%%%%%%%%%%%%%%%%%%%%%%%%%%%
4222C62%%%%%%%%%%Qq%%%%%%%Qq%%%%Qq%%Q%%qQ%q%QqQ%%%qQ%%%%%%%%%%%%%%%%%%%%%%%%
4206C70%%%%%%%%%%%%%%%%%%%%%%%%%%%%%%%QqqJ6q%%%%%%%%%%%%%%%%%%%%%%%%%Qq%%Q%%
4190C78%%%%%%%%%%%%%%%%%%%%%%%%%qQ%%%%%%%%%%%%%%%%%%%%%%%%%%%%%%%%%%%%%%%%%%
4174C78%%%%%%%%%%%%%%%%%Q%%qQ%qQq%QqQqQ%%%q%%Q%qQ%%%%%%%%%%%%%%%%%%%%%%%%%%%
4159C86%%%%%%%%%%%%%%%%%%%%%%%%%%%%%%%%%%%%%%%%%Q%%%%q%%%%%%Q%%%qQq%Q%%qQ%%%
4143C94q%Q%%%q%Qq%J6q%%%%%%q%Q%%%%%%%%%%%%%%%%%%%%%%%%%%%%%%%%%%%%%%%%%%%%%Q
4127D02qQq%%%Qq%%Q%%%q%Q%%%qQ%%%%%%%%%%%%%%%%%%%%%%%%%%%%%%%%%%%%%%%%%%%%%%%
4112D02%%%%%%%%%%%%%%%%Qq%%Q%%%%qQqQ%%%%%%qQ%%%%%qQqQqQ%%%%%%%%%%%%%%%%%%%%%
4096D10qQ%%%%%%%%%%%%%%%%%%%%%%%%%%%%%%%%%%%%%%%%%%%%Q%q%%Q%%%qQqQ%%%%%qQqQ%
4080D18%%q%%%Q%%%%%%%%%%%%%%%%%%%%%%%%%%%%%%%%%%%%%%%%%%%%%%%%%%%%%%%%%%Qq%%
4064D18%%%QqQ%%%%%%%qQ%%%%%%%%%%%%%%%%%%%%%%%%%%%%%%%%%%%%%%%%%%%%%%%%%%%%%%
4048D26%%%%%%%%%%%%%%Qq%%Q%qQ%%%%%%%%%%%%%%%%%%%%%%%%%%qQ%%%%%%%%%%%%%%%%%%%
4033D34%%%%%%%%%%%%%%%%%%QqQq%%%%%%%%%%%%%Qq%Q%%%qQqQ%%%%%%%%%%%%%%%%%%%%%%%
4017D42%%%%%%%%%%%%%%%%%%%%%%%%%%%%%%%Qq%%%%%%%Q%q%QqQqQ%%%%qQq%Q%%%%%%%%%%%
4001D50%%%%%%%%%%%%%%%%%%%%%%%%%Q%q%%%%%%J6q%qQq%%%%%%%QqQq%Qq%%Q%%%%%%%%%%%
3985D58%%%%%%%%%%%%%%%%%%%%%%%%%%%%%%Qq%%%%%%%%%Qq%Qq%%%%%%%%QqQ%%%qQqQ%%%%%
3970D66%%%%%%%%%%%%%%%%%%%%%%qQ%Qq%%%%%%%%%%%%%%%%%%%%%QqQ%qQ%%%%%%%%%%%%%%%
3954D74%%%%%%%%%%%%%%%%%%%%%%%%%%%%%%%%%%%%%%%%%%%%%%%%%%%%%Qq%%%Q%%%%q%%%%%
3938D74Q%%%%%%%%%%%%%%%%%%%%%%%%%%%%%%%%%%%%%%%%%%%%%%%%%%%%%%Q%qQqQ%qQ%%%%%
3922D90%%%%%%%%%%%%%%%%%%%%%%%%%%%%%%%%%%%%%%qQ%%%%%%%QqQ%%q%%%Q%qQ%%Qj6Qq%%
3907D90J6j6K4j6%QK4m0qK4%qj6J6Qj6QQqQq%%%%qQ%Qq%%%%%%%Q%q%%%%%%%%%QqQq%Qq%%%
3893D98%QqQ%%%%%%%%%%%%%%%%%%%%%%%%%%%%%%%%%%%%%%%%%%%%%%%%%%Q%q%%QqQ%%%%%%%
3877E14%%%%%%%%%%%%%%%%%%%%%%%%%%%%%%%%%%%%%%%%%%%%%%%%QqQ%%q%QqQ%%%%q%Q%%qQ
3862E22%%%%%%%%%%%%%%%%%%%%%%%%%%%%%%%%%%%%%%%%%%%Qq%%Qq%%QqQ%%%qQ%%%qQ%qQ%%
3846E30%%%%%%%%%%%%%%%%%%%%%%%%%%%Qq%%Qq%QqQqQ%%%%%%%%%%%%%%%%%%%%%%%%%%%%%%
3830E38%%%%%%%%%%%QqQqQ%%%qQqQ%q%%Q%%%%%%%%%%%%%%%%%%%%%%%%%%%%%%%%%%%%%%%%%
3814E46%%%%%QqQq%Qq%Q%%q%Qq%Q%%%%%%%%%%%%%%%%%%%%%%%%%%%%%%%%%%%%%%%%%%%QqQq
3798E54%%%%Q%%%%%%%%%%%%%%%%qQ%%%%%%%%%%%%%%%%%%%%%%QqQ%%%%%%%%qQ%%%%%%%%%%%
3783E70%%%%%%%%%%%%%%%%%%%%%%%%%%%%%%%%%%%%%%Q%qQqQqQ%%%%%%%%%%%%%%%%%%%%%%%
3767E78%%%%%%%%%%%%%%%%%%%Q%%%%%%%qQ%%%%%qQ%%%%%%%%%%%%%%%%%%%%%%%%%Q%%qQ%q%
3751E86Qq%%Q%%qQ%%%%%%%%%%%%%%%%%%%%%%%%%%%%%%%%%%%%%%%%%%%QqQ%qQq%Q%qQ%%%%%
3735F02%%%%%%%%%%%%%%%%%%%%%%%%%%%%%%%%Qq%%Q%%%%%%%%%%%%%%%%%%%%%%%%%%%%%%%%
3719F10%Qq%%QqQqQ%%q%%Q%%qQ%%%%%%%%%%%%%%%%%%%%%%%%%%%%%%%%%Q%%%%qQ%%%%%%%%%
3704F26%%%%%%%%%%%%%%%%%%%%%%%%%Qq%%%%%%%%%%Qq%%%%%Q%qQ%qQ%%%%%%%%%%%%%%%%%%
3688F34%%%%%%%%Qq%%%%%QqQq%Q%%%%%%%%%%%%%%%%%%%%%%%%%%%%%%%%%%%Q%%%q%%Q%%qQ%
3672F50qQ%QqJ6j6Qj6Q%%%%%%%%%%%%%%%%%%%%%%QqQ%%%%%%%%%%%%%%%%%%%%%%%%%%%%%%%
3657F58Qq%%%%%%%%QqQq%Q%%q%QqQ%%%%%%%%%%%%%%%%%%%%%%%%%%%Q%%%qQqQ%%qQ%%%%q%%
3641F66Q%%%%%%%%%%%%%%%%%%%%%%%%%%%%Qq%Q%%%%%%%%%%%%%%%%%%%%Q%q%Q%%q%Qq%QqQ%
3625F90%%%%%%%%%%%%%%%%%%%%%%%%%%%Qq%%%%Q%qQ%%%%%%%%%%%%%%%%%%%%%%%%%%%%%%%%
3610F98%%%%%%%Q%%%%%%%%%%%%%%%%%%%%%%%%%%%%%%%%%%%%%QqQ%%%%%%%%%%%%%%%%%%%%%
3594G14%%%%%%%%%%%%%%%%Q%qQ%%%%%%%%%%%%%%%%%%%%%%%%Q%qQ%q%%Qq%%%Q%%%%%%%%%%%
3578G30%%%%%%%%%%%%%%%%%QqQ%%%%%%%%%%%%%%%%%%%%%%%%%%%%%%%QqQq%%%%Q%%qQ%%%%%
3562G46%%%%%%%%%%%%%%Qq%%%%%%%%Qq%QqQqQ%%%q%Q%%%%%%%%%%%%%%%Q%%%%%%%%%%%%%%%
3546G62%%%%%%%%%%%%%%%%%%%%%%%%Q%%%qQ%qQ%qQ%%%%%%%%%%%%%%%%%%Q%qQ%%%%%%%%%%%
3531G78%%%%%%%%%%%Q%%%%%q%%Q%%qQ%%%%%%%%%%%%%%%%%%%%%%%%%%%QqQq%QqQ%%%%%%%%%
3515G94%%%%%%%%%%%QqQq%%%QqQ%qQ%%%%%%%%%%%%%%%%%%%%%%%Q%qQ%qQ%%%%%%%%%%%%%%%
3499H10%%%%%%Q%%%%%%%%qQ%%qQ%%%%%%%%%%%%%%%%%%%%%%%Q%%%%%%%%%%%%%%%%%%%%%%%%
3483H26%%Q%%qQ%%%qQ%%%%%%%%%%%%%%%%%%%%%Q%%%%%%%%%%%%%%%%%%%%%%%%Qq%Q%%%%%%%
3467H50qQ%%%%%%%%%%%%%%%%%%%QqQ%%%%%%%%%%%%%%%%%%%%%%%%%%%%%%%Q%%%%%%%%%%%%%
3452H66%%%%%%Qq%%QqQ%%%%%%%%%%%%%%%%%%%%%%%%Q%%%%%%%qQ%%%%%%%%%%%%%Qq%%Qj6Q%
3436H82%Q%%%qQ%qQ%%%%%%%Qq%%%%%Q%%qQq%Q%%%%%%%%%%%%%%%%%%%%QqQ%%%%%%%%%%%%%%
3420I06%%%%%%%%%%Q%qQq%Q%%%%%%%%%%%%%%%%%%Qq%%Q%%qQ%%%%%%%%%%%Qq%%%%%Q%%qQ%%
3405I30%%%%%%%%%%%%%%%%%%%QqQ%%%%%%%%%%%%%%%%%%%%%Q%%%%%%%%%%%%%%%%%%%%%%%Qq
3389I46%Q%%%%%%%%%%%%%%%%%%%%Qq%Q%%%%%%%%%%%%%%%%%%Qq%Q%qQqQ%%%%%%%%%%%%%%%%
3373I70%%Q%qQ%%%%%%%%%%%%%%%%%%%QqQ%%%%%%%%%%%Qq%%%%%%%%QqQ%%%%%%%%%%%%%%%%%
3357I94%%%%%QqQ%%%%%%%%%%%%%%%QqQ%%%%%%%%%%%%%%%%%%%%%%%%%%QqQ%%%%%%%%%%%%%%
3341A018%%QqQ%%%%%%%%%%%%%%%%%%%Q%%%qQ%%%%%%%%%%%%%%Q%%%%%%%%%%%%%%%%%%%%%%%
3326A042%Q%%%qQ%%%%%%%%%%%%%%Q%%q%Q%%%%%%%%%%%%%%QqQ%%%%%%%%%%%%%%%%%%Q%%%%%
3310A074%%%%%%%%%%%%%%QqQ%%%%%%%%%%%%%%%%%%%Q%%%%%%%%%%%%%%%%%%Q%%%%%%%%%%%%
3295A098%%%%%Q%%%%%qQ%%%%%%%%%%QqQ%q%QqQqQ%%%%%%%%%%%%%%%Q%%%%%%%%%%%%%%QqQ%
3279A130%%%%%%%%%%%%%%%%Q%%%%%%%%%%%%%%%%%%Q%%%%%%%%%%%%%%%%%%%%Q%%%%%%%%%%%
3264A154%%Qq%Q%%qQ%%%%%%%%%%%%Q%%%%%%%%%%%%%%%QqQq%QqQ%%%%%%%%%%%QqQ%%%%%%%%
3248A186%%%%%%Q%%%%%%%%%%%%%%%%Q%%%%%%%%%%%%Qq%Q%%qQ%%%%%%%%%%%%%%Qq%Q%%%%%%
3232A218%%%%%%%%%%Q%%%%%%%%%%%%%Q%%%%%%%%%%%%%%%Qq%%Q%%%%%%%%%%%%%%Q%%%%%%%%
3217A250%%%Q%q%Q%%%%%%%%%%%%%%%Q%qQ%%%%%%%%%%%%%Q%%%%%%%%%%%QqQ%%%%%%%%QqJ6j6
3202A282%%%%%%Q%%%%Qq%Q%q%%Q%%%%%%%%QqQ%qQ%%%%%%%%%%%%%%Q%%%%%%%%%%%%%%%%Q%%
3186A322%%%%%%%%%%Q%%%%%%%%%%%%%%%Q%%%%%%%%%%%%%%Q%%%%%%%%%%%%%Q%%q%Q%%%%%%%
3170A354%%Q%%%%%%%%%%%%%Q%%%%%%%%%%%%Q%qQ%%%%%%%%%%%Q%%%%%%%%%%%Q%%%%%%%%%%%
3155A394%%%Q%%%%%%%%%Qq%Q%%%%%%%%%%%%%%%%Q%%%%%%%%QqQqQ%%%%%%%%%%Qq%%Q%%%%%%
3139A434%QqQ%%%%%%%%%%Qq%Q%%%%%%%%%%Q%%%%%%%%%%%%%%Q%qQ%%%%%%Q%qQ%%%%%%%%%%Q
3124A482%%%%%%%%%%Q%%%%%%%%%%%%QqQ%%%%%%%%QqQ%%%%%%%%%%%Qq%%Q%%%%%%%%%%Q%%%%
3108A522%%%%%%Q%%%%%%%%Q%%%%%%%%%%%%%Q%%%%%%%%%%QqQqQ%%%%%%%%Q%%%%%%%QqQ%%%%
3093A570%%%%%Qq%Q%%%%%%%QqQ%%%%%%qJ6q%%QqQ%%%%Qq%%%QqQ%%%%%%%Q%%%%%%%%%%QqQ%
3077A618%%%%%%%QqQ%%%%%%%%%Q%%%%%%%%%%%Q%%%%%%%Q%%%%%%%%%QqQ%%%%%%%%%%Q%%%%%
3062A666%%%%%%Q%%%%%%%%Q%qQ%%%%%QqQqQqQqQ%%%Q%%%%%%%%%%%Q%%%%%%%Q%%%%%%%%Q%%
3046A722%%%%%%%Q%%%%%%%%%%%Q%%%%%%%%Q%%%%%%%%Q%%%%%%%%%Q%%%%%%%%%Q%%%%%%%%%Q
3031A778%%%%%%%Q%%%%%%%%%Q%%%%%%%%%%%%Q%%%%%%QqQ%%%%%%%Q%%%%%%%Q%%%%%%%QqQ%%
3015A834%%%%%Q%%%%%%%%%%Q%%%%%%%Q%%%%%%%%%Q%%%%%%%Q%%%%%%%QqQ%%%%%%%Q%%%%%%%
2999A890%Q%%%%%%%QqQ%%%%%Qq%Q%%%%%%Q%%%%%%%Q%%%%%%QqQ%%%%%%Q%%%%%%%%Q%%%%%%%
2984A954QqQ%%%%%QqQ%%%%%%Q%%%%%Q%%%%%%%Q%%%%%%%%QqQ%%%%%Q%%%%%%Q%qQ%%%QqJ6l2
2969B002L2qq%QQqQQqqJ6j6QQ%%%%%Q%qQ%%%%Q%q%Q%%%%%%Q%%%%QqQ%%%%Q%%%%%%%Q%qQ%%
2954B090%%%%%Q%%%Q%%%%%%Q%%%%%%%%Q%%%%%%%QqQ%%%%Q%%%%%%Q%%%%QqQ%%%%QqQ%%%%Qq
2938B162Q%%%%%%QqQ%%%%Q%%%%%%Q%%%%%%Q%%%%%%%Q%%%%%Q%%%%%%Q%%%%%%Q%%%%%%Q%%%%
2923B242%Q%%%%%%%Q%%%%%%Q%%%%Q%%%%%%%Q%%%%%%Q%%%%%Q%%%%%%%Q%%QqQ%%%%%%%Q%%%%
2907B322Q%%%%Q%%%%%Q%%%%%%Q%%%%%%Q%%%%%Q%%%%%Q%%%%%Q%%%%%Q%%%%Q%%%%%%Q%%%%%Q
2892B418%%%%Q%%%%%%Q%%%%%Q%%%%Q%%%%%%Q%%%%%Q%%%%%Q%%%Q%qQ%%%%Q%%%%Q%%%%%Q%%%
2876B506QqQ%%%%Q%%%%Q%%%%%%Q%%%%%Q%%Q%%%%%%Q%%%%%Q%%%%Q%%%%Q%%%%Q%%%%Q%%%%%%
2860B602Q%%%%Q%%%%%Q%%%%Q%%%%Q%%%%%Q%%%%Q%%QqQ%%QqQ%%%%%%Q%%Q%%%%Q%%%%%Q%%%Q
2845B714%%%%Q%%%Q%%%%%Q%%%%%Q%%%%Q%%%Q%%%%%Q%%%Q%%%%Q%%%%%Q%%%%Q%%%%Q%%%Q%%%
2829B818Q%%%%Q%%%Q%%%%Q%%%%Q%%%%Q%%%%Q%%%Q%%%Q%%%%%%Q%%Q%%%Q%%%Q%%%%Q%%%%Q%%
2814B938%%Q%%%Q%%%Q%%%Q%%%%Q%%%Q%%%%Q%%%Q%%%%Q%%%Q%%%Q%%%%Q%%%Q%%%Q%%%%%Q%%%
2798C058Q%%%Q%%%Q%%%Q%%Q%%%Q%%Q%qQ%%Q%%%%Q%%%Q%%Q%%%Q%%%Q%%%Q%%%Q%%Q%%%Q%%%%
2783C194Q%%Q%%%%Q%%%Q%%%Q%%Q%%%Q%%%Q%%Q%%%%Q%%%Q%%Q%%%%Q%%%Q%%Q%%Q%%%Q%%%Q%%
2767C338%Q%%Q%%%Q%%Q%%%Q%QqQ%%Q%%%Q%%%Q%%Q%%%Q%%Q%%%Q%%%Q%%Q%%Q%%%Q%%%Q%%%Q%
2752C490%Q%%%Q%%%Q%%Q%%Q%%Q%%Q%%Q%%%Q%%Q%%%Q%%Q%%Q%%%Q%%%Q%Q%%Q%%%Q%%Q%Q%%%Q
2736C658%%%QQqQ%%%QQqQ%Q%%%Q%%Q%%Q%%%Q%Q%%%Q%%Q%%Q%%Q%%Q%%Q%%Q%%Q%%Q%%Q%%Q%%
2720C826Q%%Q%Q%%Q%%Q%%%Q%%Q%%Q%Q%%%Q%Q%%Q%%Q%%Q%%Q%%Q%%Q%%Q%%Q%%Q%%Q%%Q%Q%%Q
2705D018%Q%%Q%%Q%%Q%%Q%Q%%%Q%Q%%Q%%Q%Q%%Q%Q%%Q%%Q%%Q%%Q%Q%%Q%Q%%Q%%Q%Q%%%QQ%
2689D218%Q%Q%%Q%%Q%%Q%Q%%Q%Q%%Q%%Q%Q%Q%Q%%Q%Q%%Q%Q%%Q%%Q%Q%Q%%Q%Q%%Q%Q%%Q%Q%
2674D434Q%%Q%Q%%Q%Q%%QQ%%Q%%Q%Q%Q%%Q%Q%Q%%Q%Q%Q%%Q%Q%Q%%Q%Q%Q%Q%Q%Q%%Q%Q%Q%%
2658D666Q%Q%Q%Q%%Q%Q%Q%Q%Q%Q%%Q%Q%Q%%Q%QQ%%Q%Q%Q%%QQ%Q%Q%Q%Q%%Q%Q%Q%Q%Q%Q%Q%
2643D922Q%Q%Q%Q%%QQ%%Q%Q%Q%QQ%Q%Q%Q%%QQ%%Q%Q%Q%QQ%Q%Q%Q%Q%Q%Q%%QQ%Q%Q%QQ%%QQ
2627E202%Q%Q%Q%Q%Q%Q%QQ%Q%Q%Q%Q%Q%QQ%Q%Q%Q%QQ%%QQ%Q%Q%J6%Q%%Q%QQ%Q%Q%Q%QQ%Q%
2612E490Q%QQ%Q%Q%QQ%Q%QQ%Q%QQ%QQ%%QQ%QQ%Q%QQ%Q%Q%QQQ%Q%Q%QQ%QQ%Q%QQ%Q%QQ%Q%Q
2596E818Q%QQ%Q%QQ%QQ%Q%QQ%QQ%QQ%Q%QQ%QQ%QQ%QQ%Q%QQQ%QQ%QQ%QQ%QQQ%QQ%Q%QQQ%QQ
2581F178%QQ%QQQ%QQ%QQ%QQ%QQQ%QQ%QQ%QQQ%QQ%QQQ%QQ%QQQ%QQQ%QQ%QQQ%QQQ%QQ%QQQ%Q
2565F562QQQQ%QQ%QQ%QQQQ%QQQ%QQQQ%QQQ%QQQQQ%QQ%J6Q%QQ%QQQQ%QQQQ%QQQQQ%QQQ%QQQ
2550F986QQQ%QQQQ%QQQQQQ%QQQQQ%QQQQQQ%QQQQQQ%QQQQQQQQQQ%QQQQQ%QQQQQQQ%QQQQQQQ
2534G458QQ%QQQQQQQQQQQQQQQ%QQQQQQQQQQQQQQQQQQ%QQQQQQQQQQQQQQQQQQQQQQQQQQQQQQ
2519G978QQQQQQQQQQQQQQQQJ6%QJ6%QJ6QQQQQQQQQQQQJ6QQQQQQQQQQQQJ6QQQQQQQQQQJ6%J6
2504H506QQQQQQQJ6QQQQQQQJ6QJ6%QK4%QJ6qK4%QJ6QQQQQQJ6QQQQJ6QQQQJ6QQQQJ6QQQJ6Q
2492I026QQJ6QQQJ6QQQQJ6QQQJ6QQQJ6QQQJ6QQQJ6QQQJ6QQJ6QQQJ6QQJ6QQJ6QQQJ6QQJ6QQ
2479I570J6QQJ6QQJ6QJ6QQQJ6QJ6QQJ6QQJ6QJ6QQJ6QQJ6QJ6QQJ6QJ6QQJ6QJ6QJ6QJ6QQJ6Q
2468A0114J6QJ6QJ6QJ6QJ6QQJ6QJ6QJ6QJ6QJ6QJ6QJ6QJ6QJ6QJ6QJ6QJ6J6QJ6QJ6QJ6QJ6QJ6
2458A0658QJ6QJ6J6QJ6J6QJ6QJ6J6QJ6J6QJ6QJ6J6QJ6J6QJ6QJ6J6QJ6J6QJ6J6QJ6QJ6J6J6
2448A1194QJ6J6QJ6J6QJ6J6J6QJ6J6QJ6J6J6QJ6J6QJ6J6J6J6QJ6J6J6QJ6J6J6J6QK4QJ6J6
2439A1738J6QJ6J6J6J6QJ6J6J6J6J6J6QJ6J6J6J6J6J6QJ6J6J6J6J6J6J6J6QJ6J6J6J6J6J6
2431A2274J6J6J6J6J6J6J6J6J6J6J6J6J6J6J6J6J6J6J6J6J6J6J6J6J6J6J6J6J6J6J6J6J6J6
2423A2818J6J6J6K4J6J6J6J6J6J6J6J6K4J6J6J6J6J6J6K4J6J6J6J6J6K4J6J6J6J6K4J6J6J6
2416A3402J6K4J6J6J6J6K4J6J6J6K4J6K4J6J6J6K4J6J6J6K4K4J6J6J6J6K4J6K4J6J6K4J6J6
2408A4026K4J6J6K4J6K4J6K4J6J6K4J6K4J6J6K4J6K4J6K4J6K4J6K4K4J6J6K4K4J6K4J6J6K4
2400A4698K4J6K4J6K4J6K4K4J6K4K4J6K4J6K4K4J6K4K4J6K4J6K4K4K4J6K4K4K4J6K4K4J6K4
2392A5418K4K4J6K4K4K4J6K4K4K4K4J6K4K4K4K4K4K4K4J6K4K4K4K4K4K4K4J6K4K4K4K4K4K4
2384A6194K4K4K4K4K4K4K4K4J6L2K4K4L2K4K4J6K4L2J6L2K4K4K4K4K4K4K4L2K4K4K4K4L2K4
2377A7034K4K4K4L2K4K4K4L2K4K4L2K4K4K4L2K4K4L2K4K4L2K4K4L2K4K4L2K4L2K4K4L2K4L2
2369A7938K4L2K4L2K4L2K4L2K4L2K4L2L2K4L2K4L2L2K4L2L2K4L2L2K4L2L2K4L2L2K4L2L2K4
2361A8914L2L2L2K4L2L2L2L2L2K4L2L2L2L2L2L2L2L2L2L2L2K4L2L2L2L2L2L2M0K4L2M0K4M0
2353A9986L2L2L2L2L2M0L2L2L2L2L2L2M0L2L2M0L2L2L2M0L2L2L2M0L2M0L2L2M0L2L2M0M0L2
2346B1146L2M0L2M0L2M0M0L2M0L2M0L2M0M0L2M0L2M0M0L2M0M0M0L2M0M0M0L2M0M0M0M0L2M0
2338B2410M8L2M0M0M0M0M0M0M0M0M0M0M0M0M0M0M0M8L2M8M0M0M0M0M8M0M0M0M8M0M8M0M0M8
2330B3810M0M0M8M0M0M8M0M8M0M8M0M0M8M8M0M8M8M0M8M8M0M8M8M0M8M8M8M0M8M0N6M8M0M8
2322B5330M8M8M8M8M8M8M8M8M8M8M8M8M8M8N6M8M8M8M8N6M8M8M8N6M8N6M8M8N6M8N6M8M8N6
2314B7018N6M8N6M8N6M8N6N6N6M8N6N6M8N6N6N6N6N6M8N6N6N6N6N6N6N6N6N6N6N6N6O4N6N6
2307B8882N6O4N6N6O4N6N6O4N6N6O4O4N6O4N6O4N6O4O4N6O4O4O4N6O4O4O4N6O4O4O4O4O4O4
2299C0954P2N6P2O4O4O4O4P2O4O4P2O4O4P2O4O4P2P2O4O4P2P2P2O4P2P2P2O4P2P2P2P2P2P2
2291C3274P2P2P2P2P2P2Q0P2P2P2P2Q0Q0P2P2Q0Q0P2Q0P2Q0Q0P2Q0Q0Q0Q0P2Q0Q0Q0Q0Q8Q0
2283C5874Q0Q0Q0Q0Q8Q0Q0Q8Q0Q8Q0Q8Q0Q8Q8Q0Q8Q8Q8Q8Q0R6Q0Q8Q8R6Q8Q8Q8Q8R6Q8Q8R6
2275C8802Q8R6Q8R6R6Q8R6R6R6R6Q8J04Q8R6J04R6R6R6J04R6R6J04R6J04R6J04R6J04J04J04
2269D1714J04R6J12J04J04J04J04J04J04J04J12J12J04J04J12J04J20R6J12J12J12J12J20
2263D4186J12J12J12J12J20J12J12J20J12J20J20J12J20J20J20J20J20J20J20J20J28J20J28
2258D6898J20J20J28J28J28J20J28J28J28J28J28J36J28J28J36J28J28J36J36J36J36J28J44
2253D9882J36J36J36J36J44J36J44J36J44J44J44J36J44J44J52J44J44J52J44J52J44J52J52
2248E3178J52J52J52J52J52J52J60J52J60J60J52J60J60J60J68J60J60J68J60J68J68J60J68
2242E6834J68J68J68J76J68J76J68J76J76J76J76J76J76J84J76J84J76J84J84J84J84J84J92
2237F0914J84J92J92J84K00J92J92J92K00J92K00K00J92K08K00K00K00K08K08K08K08K08K08
2232F5482K08K16K08K16K16K16K16K24K16K24K24K24K24K24K24K32K32K32K32K32K32K40K32
2226G0626K40K40K40K40K48K40K48K48K48K56K48K56K48K64K56K56K64K56K64K64K72K64K72
2221G6458K72K72K72K80K80K72K80K88K80K88K88K88K88K96K88K96K96L04K96L04L04L12L04
2216H3106L12L12L12L20L20L20L20L20L28L28L28L36L36L36L36L36L44L44L52L44L52L60L52
2211I0754L60L60L60L68L68L68L68L76L76L84L84L84L84L92L92M00M00M00M00M00M16M16M08
2205I9618M16M24M16M32M24M32M40M40M32M48M48M48M56M56M56M64M72M64M80M72M80M88M88
2200A09994M88M96M96N04N04N12N12N20N20N20N28N36N36N44N44N52N52N60N60N68N68N76
2195A21690N76N84N92N92O00O00O08O16O16O24O32O32O40O40O48O56O56O72O64O80O80O88
2190A35586O96O96P04P12P20P20P36P28P44P52P52P68P68P76P84P84Q00Q08Q08Q16Q32Q32
2185A52322Q40Q48Q56Q64Q72Q88Q88Q96R04R20R20R36R36R52R60R68R76R92R92J008J016J032
2180A72786J032J056J056J064J080J096J096J120J128J136J144J160J176J184J200J208J224
2176A91946J232J248J264J280J288J312J312J336J352J360J376J400J408J424J448J456J480
2172B14922J488J512J528J544J568J576J608J616J640J656J680J704J720J744J760J792J808
2168B42866J832J848J880J904J920J952J976K000K032K048K088K104K136K168K192K224K256
2164B77426K288K320K344K384K416K448K488K512K560K592K632K664K704K752K784K832K872
2161C21018K912K960L008L048L096L144L192L248L296L344L400L456L520L568L624L688L752
2157C77274L808L880L936M008M080M144M224M288M368M448M520M608M688M776M864M952N040
2153D51906N144N232N336N432N544N648N760N872N984O104O232O360O480O624O752O904P040
2149E54354P184P352P512P664P832Q008Q184Q368Q560Q752Q952R160R384R592R832J0056J0304
2145G01050J0552J0816J1088J1360J1648J1944J2256J2576J2904J3240J3600J3968J4344J4744
2142H76090J5152J5576J6016J6480J6952J7448J7968J8504J9056J9640K0248K0880K1536K2216
2139A133762K2936K3688K4464K5280K6128K7032K7960K8936K9960L1032L2160L3336L4584
2136A501258L5880L7256L8704M0216M1816M3496M5280M7152M9136N1240N3448N5808N8288
2133B098978O0936O3736O6712O9888P3264P6848Q0696Q4784Q9176R3856R8880J04272J10064
2130C172090J16288J23000J30240J38048J46512J55672J65624J76432J88200K01048K15088
2127D928242K30480K47360K65936K86416L09064L34144L62032L93088M27808M66719N10488
2125H761777N59905O15880O79544P52272Q35703R31896J043338J173191J325368J504865J718007
2122A9901746J973001K280543K654720L114310L684793M401073N311888O486253Q023869J0071497
2120F7903693J2849276J6694352K2131795K9988511M1560167N8782446Q4069965J18393544
2118D52373749J53425435J54798385P0822169p0820522j54796632j53423788j18391870q4068292
2116B49918634n8780745m1558493k9986812k2130121j6692672j2847589j0069790q022188
2114D9830224o484550n310195m399382l683097l112614k652999k278841j971295j716289j503143
2112A6717819j323657j171464j041616r30161q33976p50527o77809o14128n58152n08735m64960
2110G842634m26041l91320l60247l32368l07280k84624k64136k45560k28664k13272j99224
2107D589898j86376j74592j63768j53824j44656j36184j28360j21120j14400j08168j02360
2104C056090r6968r1928q7232q2848p8736p4896p1288o7904o4720o1736n8920n6264n3768
2102B108882n1400m9176m7064m5072m3184m1392l9696l8080l6552l5096l3712l2392l1136
2099A584930k9944k8800k7712k6672k5688k4728k3824k2952k2128k1320k0560j9824j9128
2096A271650j8448j7792j7176j6568j5992j5440j4904j4384j3888j3408j2944j2504j2064
2093A076138j1648j1240j0856j0472j0104r760r408r072q752q440q136p840p544p272p000
2089I38594o728o480o216n976n736n504n280n056m832m624m416m216m016l816l624l440l256
2085H55378l072k896k720k552k384k216k048j888j736j568j416j272j112r68q08o72n28l84
2081H25138k32r6M0J92L20M64N92P44Q64J016J136J280J416J552J680J824J952K088K224K360
2077H46554K496K640K768K912L040L192L328L464L616L752L904M040M192M344M488M648M792
2073I08170M952N104N272N424N592N752N920O096O264O432O624O792O984P168P352P552P752
2069A015202P944Q152Q352Q568Q784R008R232R456R688R928J0176J0424J0672J0944J1200
2065A157730J1472J1752J2048J2328J2632J2936J3248J3576J3896J4248J4584J4952J5304
2062A330706J5688J6072J6472J6872J7296J7720J8168J8624J9096J9576K0072K0584K1112
2059A568058K1656K2216K2792K3392K4008K4640K5296K5976K6672K7400K8144K8920K9720
2056A898890L0544L1400L2288L3216L4160L5144L6176L7232L8336L9480M0664M1904M3192
2053B372626M4512M5912M7352M8848N0424N2048N3744N5528N7376N9304O1320O3424O5632
2050C078050O7936P0352P2872P5512P8288Q1200Q4248Q7448R0816R4360R8080J02000J06128
2048D187290J10480J15072J19920J25032J30456J36176J42248J48672J55496J62728J70432
2045E704002J78608J87320J96608K06512K17088K28408K40504K53488K67408K82351K98449
2042H260746L15768L34463L54649L76487M00153M25840M53752M84167N17345N53616N93351
2040A3070337O36969O84936P37864P96328Q61136R33144J013392J103049J203583J316648
2038B2357386J444281J588887J753344J941199K156735K405210K693103L028553L421677L885346
2035D6675721M435942N094687N889167O855741Q043039R516752J1367169J3720081J6753799
2033A28352098K0726023K6015663L3191602M3124707N7171429P7467944J07361378J51852181
2031F45263025K17178298L05847443L96346675L99893256J82954950j82955588l99894000
2030A564634059l96347206l05848187k17178935j51852819j07362015p7468581n7172067m3125385
2028B08278864l3192279k6016274k0726674j6754476j3720720j1367839r517423q043677o856411
2026F2083091n889824n095345m436616l886000l422338l029224k693783k405865k157416j941877
2024B7124803j754017j589552j444959j317329j204271j103737j014064r33832q61840p97016
2021A5104186p38543o85642o37664n94056n54319n18048m84880m54472m26553m00863l77208
2019I231938l55368l35185l16503k99176k83096k68136k54232k41248k29152k17848k07272
2016F224722j97368j88080j79376j71192j63512j56272j49456j43032j36976j31248j25840
2014D482370j20728j15880j11296j06944j02832r8912r5192r1656q8304q5096q2056p9152
2011C304322p6384p3752p1224o8824o6528o4328o2232o0216n8288n6456n4688n2984n1368
2008B487050m9816m8312m6872m5496m4176m2896m1664m0496l9352l8264l7208l6192l5216
2005A941090l4272l3368l2480l1640l0816l0032k9264k8528k7816k7128k6464k5808k5192
2002A558282k4592k4000k3440k2888k2360k1840k1344k0856k0392j9928j9496j9056j8648
1999A279442j8248j7848j7464j7096j6736j6384j6048j5712j5392j5080j4776j4480j4192
1996A069986j3904j3632j3368j3112j2856j2616j2368j2136j1904j1688j1472j1256j1048
1993I08626j0856j0648j0464j0280j0088r920r736r576r400r240r088q928q776q632q480q344
1990G56170q208q072p936p808p688p552p440p320p200p088o984o864o760o664o560o448o360
1986F33218o264o168o072n992n896n808n728n640n560n472n400n328n248n176n096n032m952
1982E38386m896m816m760m688m624m568m496m448m384m320m264m216m152m096m048l992l944
1978D63674l896l840l792l752l696l648l608l560l520l472l432l384l352l304l264l232l192
1974D03730l144l120l072l040l000k976k936k896k864k832k808k768k736k712k664k648k616
1970C54898k592k560k520k504k472k448k424k392k368k344k320k288k272k240k224k192k176
1966C14562k152k128k112k080k064k040k024k000j976j960j944j920j896j880j864j848j824
1962B80850j808j792j776j752j744j720j704j688j672j656j640j624j616j592j576j568j552
1958B52370j536j520j504j496j480j464j456j432j432j408j400j392j376j360j352j336j328
1955B28098j320j296j296j280j272j256j248j240j224j216j208j192j184j176j160j160j144
1951B07226j136j128j112j112j096j088j080j072j064j048j048j040j024j016j016j000j000
1947A89146r84r84r68r68r52r52r44r28r28r20r12r04q96q96q80q80q72q64q64q40q48q40
1942A69122q32q24q16q16q08q00q00p84p84p84p68p68p60p52p52p44p44p28p28p28p20p12
1937A52170p04p04o96o96o88o80o72o80o64o64o64o56o48o48o40o40o32o24o24o24o16o08
1932A37698o08o08o00n92n92n84n84n84n68n76n68n68n60n52n52n52n44n44n36n36n36n28
1927A25226n28n20n20n12n12n12n04n04m96m96m96m88m88m80m80m80m72m72m72m64m64m64
1922A14402m56m56m48m48m48m48m32m40m40m32m32m24m32m16m24m16m16m16m08m08m00m08
1917A04954m00m00l92m00l84l92l92l84l84l76l76l76l84l68l60l84l52l68l60l60l60l52
1912I6650l60l44l52l52l44l44l44l36l36l36l36l28l36l28l28l20l28l20l20l20l20l12l12
1906H8994l12l12l04l12l04k96l04l04k96k96k96k96k96k88k88k88k88k80k88k80k80k80k80
1901H2226k72k72k80k72k72k64k72k64k64k64k56k72k56k56k56k56k56k56k48k56k48k48k48
1896G6218k40k48k40k48k40k40k40k40k32k32k40k32k32k32k24k32k24k24k32k24k24k24k16
1890G0858k16k24k16k16k16k16k16k08k16k08k16k08k08k08k08k00k08k00k00k00k00k00k00
1885F6050k00j92k00j92j92k00j92j84j92j92j92j84j92j84j84j84j84j84j84j76j84j76j84
1880F1722j76j76j76j76j76j76j76j68j76j68j76j68j68j68j68j68j68j60j68j60j68j60j60
1875E7818j68j60j60j52j68j52j60j60j52j52j60j52j52j52j52j52j52j52j44j52j44j52j44
1869E4274j52j44j44j44j44j44j44j44j44j36j44j36j44j36j44j28j44j36j36j36j28j36j36
1864E1050j36j28j36j36j28j28j36j28j28j28j28j28j28j28j28j20j28j28j20j20j28j20j28
1859D8106j20j20j20j20j20j20j20j20j20j12j20j12j20j20j12j20j12j12j20j12j04j20j12
1854D5418j12j12j04j12j12j12j12j04j12j04j12j04j04j12j04j04j04j04j04j04j04j04j04
1848D2954j04j04r6j04j04r6j04j04r6r6j04r6r6j04r6r6r6r6r6r6r6r6r6r6q8r6r6q8r6q8
1842D0034r6q8r6q8r6q8q8r6q8q8q8q8q8q8q8q8q8q8q8q0q8q8q8q0q8q8q0q0q8q0q8q0q0q8
1834C7066q0q0q0q8q0q0q0q0q0q0p2q0q0q0q0p2q0q0p2q0q0p2q0p2q0p2q0p2p2q0p2p2p2q0
1826C4426p2p2p2p2p2p2q0o4p2p2p2p2p2o4p2p2p2o4p2o4p2p2o4p2o4p2o4o4p2o4p2o4o4o4
1818C2066p2o4o4o4o4o4o4p2o4o4n6o4o4o4o4o4o4o4n6o4o4n6o4o4n6o4o4n6o4n6o4n6o4n6
1810B9938n6o4n6o4n6o4m8o4n6n6n6n6o4n6n6n6n6n6n6n6n6n6n6n6n6n6n6n6m8n6n6n6m8n6
1803B8018n6n6m8n6m8n6n6m8n6m8n6m8n6m8m8n6n6m8m8m8n6m8m8m8n6m8m8n6m0n6m0o4m8m8
1795B6274m0n6m8m0n6m8m8m8m8m8m0m8m8m8m8m8m0m8m8m8m8m8m0m8m8m0m8m0m8m8m0m8m0m8
1787B4698m8m0m8m0m0m8m0m8m0m8m0m0m0m8m0m8m0m0m8m0m0m0m8m0m0m0m0m8l2m8m0m0m0m0
1779B3258m0m0m0m0m0m0m0m0m0m0m0m0m0m0l2m0m0m0m0m0l2m0m0m0m0l2m0m0l2m0m0l2m0m0
1771B1938l2m0l2m0m0l2m0l2m0l2m0l2m0l2m0l2m0l2l2m0l2m0l2m0l2l2m0l2l2m0l2l2l2m0
1764B0730l2l2l2l2m0l2l2l2l2m0l2l2l2l2l2l2l2l2l2l2m0l2l2l2l2k4m0k4l2m0k4l2l2l2
1756A9626l2l2l2l2l2k4l2l2l2l2l2k4l2l2l2l2k4l2l2l2k4l2k4l2l2l2k4l2l2k4l2l2k4l2
1748A8602k4l2k4l2l2k4l2k4l2k4l2l2k4l2k4k4l2k4l2k4l2k4k4l2k4l2k4k4l2k4l2k4l2j6
1740A7666l2k4k4l2k4l2k4k4k4k4l2l2j6l2k4k4k4l2k4k4k4k4k4l2k4k4k4k4k4k4k4k4l2k4
1733A6786k4k4k4k4k4k4k4k4k4k4k4k4k4k4k4k4k4k4k4k4k4k4k4k4k4k4k4k4j6k4k4k4k4k4
1725A5978k4k4k4k4j6k4k4k4k4j6k4k4k4k4j6k4k4k4j6k4k4k4j6k4j6k4k4k4j6k4k4k4j6k4
1717A5226k4j6k4k4j6k4k4j6k4k4j6k4j6k4j6k4j6k4j6k4k4j6k4j6k4j6k4k4j6j6k4j6k4j6
1709A4530k4j6j6k4k4j6j6k4j6k4k4j6j6j6k4j6k4j6k4j6j6k4j6k4j6j6k4j6j6k4j6j6k4j6
1701A3874j6k4j6j6j6k4j6j6j6k4j6j6k4j6j6j6j6k4j6j6j6k4j6j6j6j6k4j6j6j6j6k4j6j6
1694A3266j6j6j6k4j6j6j6j6j6j6j6k4j6j6j6j6j6j6j6j6j6k4qj6k4j6j6j6j6j6j6j6j6j6
1686A2698j6j6j6j6j6j6j6j6j6j6j6j6j6j6j6j6j6j6j6j6qj6j6k4qk4qj6j6j6j6j6qj6k4q
1678A2138j6j6j6j6j6j6j6qj6j6j6j6j6qj6j6j6j6j6qj6j6j6j6qk4qj6j6j6qj6j6j6qj6j6
1669A1594j6j6qj6j6j6qj6j6j6qj6j6qj6j6j6qj6j6qj6qj6j6j6qj6j6qj6j6j6qj6qj6j6qj6
1660A1050j6qj6j6qj6qj6j6qj6qj6j6qj6qj6j6qj6qj6j6qj6qj6qj6qj6qj6j6qj6qj6qj6qj6
1650A0506j6qqj6qj6qj6j6qqj6qj6j6qqj6qj6qj6qj6qj6qqj6qj6qj6qj6qj6qqj6qj6qj6qq
1640I970j6qqj6qqj6qj6qj6qqj6qj6qqqj6qqj6qqj6qqj6qj6qqj6qqqj6qqj6qqj6qqj6qqj6
1628I426qqqj6qqqj6qqj6qqqqj6qqj6qqqj6qqqj6qqj6qqqqj6qqqj6%j6qqqqj6qqj6qqqqqj6
1616H882qqqqj6qqqqqj6qqqqqqqj6qqqqqqqj6qqqqqqqqj6qqqqqqj6qqqqqqqqqj6qqqqqqqq
1602H338qqqqj6qqqqqqqqqqqqqqqqqqqqqqqqqqqqj6qqqqqqqqqqqq%qqqqj6qq%j6%qj6qqqq
1587G818%qqqqqqqqqqqqqqqqqqqqqq%qqqqqqqqqq%j6%j6%j6%qqqqqqq%qqqqqqqqq%qqqqqq
1572G338qqq%qqqqqq%qqqqqqq%j6%qqqqq%qqqq%j6q%qq%qj6%qq%j6j6J6j6j6Qj6%qqq%qqq
1559F938qqq%qqq%qqqq%qqqq%qqq%qqqq%qqq%j6%qq%qqqq%qq%j6%qq%qqq%qqq%qqq%qqq%q
1544F530qqq%qq%q%qqqq%qq%qqqq%qqq%qq%qqq%q%qqq%qqq%qq%qq%q%qqqq%q%qqq%qq%qqq
1528F138%q%qqq%q%qq%qq%qqq%q%qq%qq%q%qq%qq%qqq%qq%q%q%qq%qq%qq%q%qq%q%qqq%q%
1513E794q%qq%qq%qq%q%q%qq%qq%q%q%qq%qq%q%qq%qq%q%q%q%qq%q%q%qq%qq%q%q%q%q%qq
1497E466%q%qq%q%q%q%qq%q%q%q%qq%q%%qq%q%qq%q%%qqq%%qq%q%q%q%q%q%qq%q%q%q%q%q
1481E170%q%q%qq%%q%q%q%qq%q%q%q%q%q%q%q%%qqq%%q%%qq%q%q%q%%qq%%q%q%q%q%q%q%q
1466D898%q%%qq%q%q%%q%q%q%q%q%q%q%q%%q%q%q%q%q%q%q%%q%q%q%q%%qq%%q%q%q%q%%q%
1450D650q%%qq%%q%q%q%%q%q%q%q%%q%q%%qq%%q%%q%q%q%%qq%%%q%q%q%%q%q%%q%q%%q%q%
1435D418q%%q%q%q%q%%q%%q%q%%q%%q%q%q%%q%q%%q%q%q%%%q%%q%q%q%%q%q%%q%q%%q%%q%
1419D202%q%q%q%%%qq%%%q%q%%q%q%%q%%q%%q%q%%q%q%%%q%q%%q%q%%%q%q%%%q%q%q%%q%%
1404D002q%%q%%q%%q%%q%q%%q%%q%%q%%q%%q%%q%q%%q%%%q%q%%q%%%q%q%%q%%%q%%q%%q%%
1388C818q%%q%q%%%qq%%%q%%%q%%q%%q%%q%%%q%q%%q%%q%%%q%%q%%q%%q%%%q%q%%%q%%q%%
1373C642q%%%q%%q%%q%%%q%%q%%q%%q%%%q%%q%%%q%%%q%q%%%%q%%q%%q%%q%%q%%%q%q%%%%
1357C482%qq%%%%q%%q%%%q%%%q%%%q%q%%%q%%%q%%q%%q%%%%q%q%%%%q%%q%%%q%%%q%%%q%%
1341C330q%%q%%%%q%%%%q%%q%%q%%%q%%%q%%%q%%q%%q%%%%q%%q%%%%q%%%q%qQ%qqJ6qqqQq
1326C186%%qQq%%q%%%%q%q%%%%q%%q%%%%%q%%q%%%q%%%q%%%q%%%%q%%%q%%%q%%q%%%%q%%%
1311C058%q%%q%%%q%%%%q%%%%q%%%q%%%%q%%%q%%%%q%%%%q%%q%%%%q%%%q%%%%q%%%%q%%q%
1295B930%%q%%%q%%%%q%%%%%q%%%%q%%q%%%q%%%%q%%%%%q%%%q%%%q%%%%q%%%%q%%%%q%%%q
1279B810%%%%%q%%%%q%%%q%%%%q%%%%q%%%q%%%%q%%%%%q%%q%Q%qq%%%%%%q%%%%q%%%%q%%%
1264B706q%%%%q%%%%%q%%%%q%%%%q%%%%%q%%%%q%%%%q%%%%q%%%%%q%%%%q%%%%q%%%%%q%%%
1248B602%%q%%%%q%%%%q%%%%q%%%%q%%%%%q%%%%q%%%%%q%%%%%q%%%%%q%%%%%q%%%%q%%%%%
1233B506%q%%%q%%%%q%%%%%%q%%%%%%q%%%q%%%%%q%%%%%q%%%%%q%%%%%%q%%%%q%%%%%%q%%
1217B410%q%%%%%%%q%%%%%q%%%qQq%%%%%%q%%%q%%%Qq%q%%%%%%q%%%%qQq%%%%%q%%%%%%q%
1202B322%%%q%%%%%%q%%%%%q%%%%%%q%%%%%q%%%%%q%%%%%%%q%%%%%q%%%%%q%%%%qQq%%%%%
1186B242qQq%%%%qQq%%%%q%Qq%%q%%QqQqq%%%%%%q%%%%%%q%%%%%qQq%%%%%q%%%%%%%q%%%%
1170B162%%qQq%%%%%q%%%%%q%%%%%%%q%%%%%q%%%%%%%q%%%%%%%q%%%%%qQq%%%%%q%%%%%%q
1155B082Qq%%%%%q%%%%%%%q%%%%%%q%%%%%%%q%%%%%%%q%%%%%%%q%%%%%%q%%%%%%%%q%%%%%
1139B018q%%%%%%%%%q%%%%%%q%%%%%%%q%%%%%%%q%%%%%%%%%q%%%%%%q%%%%%%%q%%%%%%%q%
1124A946%%%%%qQq%%%%%%%%%%q%%%%%%q%%%%%%qQq%%%%%%%%%%q%%%%%%q%%%%%q%%%%%%%%%
1108A890q%%%%%%q%%%%%%%%%%%q%%%%%%q%%%%%%q%%Qq%%%%q%%%%%%%%%%%q%%QqqQQj6Qq%Q
1093A834l2L2%%j6Qq%%%%%%q%%%%%%%qQq%%%%%%%%q%%%%%%%%%%q%%%%%%qQq%%%%%%qQ%q%%
1078A770%%%%%q%%%%%%%%qQq%%%%%%qQq%%%%%%%%q%%%%%%%%%q%%%%%%%q%%%%%%%%%%%%q%%
1062A714%%%%%%%q%%%%%%%%%%q%%%%%%%%qQq%%%%%%%q%%%%%%%%%q%Qq%%%%%%%%q%%%%%%%%
1047A666qQq%%%%%%%%qQq%%%%%%%%%q%%%%%%%%q%%%%%%%%%%%q%%%%%%%%%q%Qq%%%%%%%%%q
1031A610%%%%%%%%q%%%%%%%%%%qQq%%%%%%%%%qQq%%%%%%%qQq%%%%%%%qQ%%%q%%%%%%%%%%q
1016A562Qq%%%%%%%%q%%%%%%%qQ%q%%%%%%%%%%q%%%%%%%%%%%qQqQ%q%%%%%%%%q%%%%%%%%%
1000A522%q%%%%%%%%qQ%qQq%%%%%%%%%%q%%%%%%%%%%%q%%%%%%%%%%q%Qq%%%%%%%%%%q%%%%
985A474%%%%%%qQq%%%%%%%%%%%q%%%%%%%%%%%qQqQq%Qq%%%qQ%q%%%%%%%%%%%qQ%q%%%%%%%
969A434%%%%%qQq%%%%%%%%qQ%q%%%%%%%%%%qQq%%%%%%%%%%q%%%%%%%%%%%%qQq%%%%%%%%%%
953A394%%%q%%%%%%%%%%%%q%%%%%%%%%%%q%Qq%%%%qQ%%%%%%q%%%%%%%%%%%%%%%q%%%%%%%%
937A354%%%%%%q%%%%%%%%%%%%q%Qq%%%%%%%%%%%q%%%%%%%%%%%%%%%%q%%%%%%%%%%%q%%%%%
921A314%%%%%%%%%qQq%%%%%%%%%%%qQq%%%%%%%%%%%%%qQq%Qq%%%%%%%%qQ%%q%%%%%%%%%%%
906A282%%q%%%%%%%%%%%qQ%q%%%%%%%%%%%%%qQ%qQq%%%%%%%%%%%q%%%%%%%%%%%qQ%%%%%q%
890A242%%%%%%%%%%%%%qQq%%%%%%%%%%%%%%%q%%%%%%%%%%%%%%q%%%%%%%%%%%%%%%%q%%%%%
874A210%%%%%%%%%%%%%%%%q%%%%%%%%%%%qQ%q%%%%%%%%%%%%%%%%qQ%%q%%%%%%%qQ%%%%%q%
858A178%Q%q%%%%%%qQ%q%%%%%%%%%%%%%%qQqQq%%%%%%%%%%%%%%%%%%%q%%%%%%%%%%%%%%%q
842A146Q%%q%%%%%%%%%qQq%%%%%%%%%%%%%%%%%%%qQqQq%%%%%%%%%%%%%%%qQq%%Qq%%%%%%%
827A122%%%%qQqQq%%%%%%%%%%%%%%%qQq%%%%%%%%%%%%%%%%%%%q%%%%%%%%%%%%%%%%q%%%%%
811A090%%%%%%%%%%%%%%qQq%Qq%%%%%%%%%%%%%%qQq%%%%%%Qq%%%%%%%%%%%q%%%%%%%%%%%%
795A066%%%%%%%q%Qq%%%%%%%%%%%%%%%%%qQqQ%q%%%%%%%%%%%%q%Qq%%%%%%%%%%%%%%%%qQ%
779A042qQq%%%%%%%%%%%%%%%%%%%%q%%%%%%%%%%%%%%%%%%%%q%%%%%%%%%%%%%%%%%%%%%q%%
763A010%%%%%%%%%%%%%%%%%%%%%%qQq%%%%%%%%%%%%%%%qQ%q%%%%%%%%%%%%%%%%%%%%%qQq%
748I86%%%%%%%%%%%%%%%%%%qQq%%Qq%%Qq%Qq%%qQ%%%qQ%%%q%Q%q%%%%%%%%%%%%%%%qQ%%%%
732I70%q%%%%%%%%%%%%%%%%%%%%%%%%q%%%%%%%%%%%%%%%%%%%%%qQq%%%%%%%%%%%%%%%%%%%
716I46%qQ%qQ%q%%%%%%%%Qq%%%qQ%%%%%q%%%%%%%%%%%%%%%%%%%%%%%%%q%%%%%%%%%%%%%%%
700I22%%%%%qQ%q%%%%%%%%%%%%%%%%%%%%%%%qQ%%q%%%%%%%%%%%%%%%%%%%%%%%%%%%q%%%%%
684H98%%%Qq%%%%%%%%%%%%%%q%%%%%%%%%%%%%%%%%qQ%qQ%qQ%%qQq%%%%%%%%%%%%%%%%%%%%
668H82qQ%q%%%%%%%%%%%%%%%%%%%%%%%%%%%%%qQq%Qq%%%%%%%%%%%%%%%%%%q%Q%%%q%%%%%%
652H58%%%%%%%%%%%%%%%qQq%Qq%Qq%%%%%%%%%%%%%%%%%%%%%%%qQ%q%%Qq%%%%%%%%%%%%%%%
636H42%%%%%%%%%%q%QqQq%%%%%%%%%%%%%%%%q%QqQ%qQq%%%%%QqQqqQq%Q%qQqQ%q%QqQqQ%q
620H18%%%%%%%%%%%%%%%%%%%%%%%%%%%q%%%%%%%%%%%%%%%%%%%%%%qQ%%%%%%q%Q%q%%%%%%%
603H02%%%%%%%%%%%%%%%%%%%%%q%%%%%%%%%%%%%%%%%%%%%%%%%%%%%%%%%q%%%%%%%%%%%%%%
587G86%%%%%%%%%%%%%%%%%%%%%q%%%%%Qq%%%%%%%%%%%%%%%%%%%%%%%qQ%q%%%%%%%%%%%%%%
571G70%%%%%%%%%qQ%qQ%q%%%%%%%%%%%%%%%%%%%%%%%%%%%%%%%%%qQq%%%%%%%%%%%%%%%%%%
555G54%%%%%%%%%%%%%%qQ%q%%%%%%%%%%%%%%%%%%%%%%%%%%%%%%%%%%%%q%%%%%%%%%%%%%%%
539G38%%%%%%%%%%%%%%%%%qQ%q%%%%%%%%%%%%%%%%%%%%%%%%%%%%%%qQqQq%%%%%%%%%%%%%%
523G22%%%%%%%%%%%%%%%%%%%q%%%%%%%%%%%%%%%%%%%%%%%%%%%%%%%%%%%%%%%q%QqQq%%%Qq
507G06q%Q%qQ%%%%%%%%%%%%%%%%%%%q%QqQq%%%%%%%%%%%%%%%%%%%%%%%%%%%%%%%qQ%qQq%%
491F90%%%%%%%%%%%%%%%%%%%%%%%%%%%%%%%qQ%%q%%%%%%%%%%%%%%%%%%%%%%%%%%%%%%%qQ%
475F82%%%%%qQqQq%%%%%%%%%%%%%%%%%%%%%%%%%%%%%%%%%%%%%qQ%q%%%Qq%%%%%%%%%%%%%%
459F66%%%%%%%%%%%q%Q%%%%qQ%qQq%%%%%%%%%%%%%%%%%%%%%%%%%%qQ%%%%%%%%%%%%qQ%q%%
443F50%%%%%Qq%%%%%%%%%%%%%%%%%%%%%%%%%%%%%%%%%qQq%Qq%Qq%%%%%%%%%%%%%%%%%%%%%
427F42%%%%%%q%%Qq%%%%%%%%%%%%%%%%%%%%%%%%qQ%%%%%%%%%%%%%%%%%%%%%%%q%%%%%%%%%
411F26%%%%%%%%%%%%%%%%%%%%%%%%%%%%%%q%%Q%q%%%%%%%%%%%%%%%%%%%%%%%%%%%%%%%%%%
395F18%%%qQq%Q%%%qQq%%Qq%%%%Qq%Qq%%%%%%%%%%qQ%%%%%%%%%qQq%%%%%%%%Q%%%q%%%%%%
379F02%%%%%%%%%%%%%%%%%%%%%%%%%%%%%%%%%q%%%%%%%%%%%%%%%%%%%%%%%%%%%%%%%%%%%%
363E94%%%%%qQ%%%%%%qQq%Q%q%%Qq%Qq%%%%%%%%%%%%%%%%%%%%%%%%%%%%%%%%%%%%%%%%%qQ
347E86q%%%%%%%%%%Qq%%%%%%%%%%%%%%%%%%%%%%%%%qQ%%%%qQqQq%%%%%%%%%%%%%%%%Qq%Qq
331E70%%%%%%%%%%%%%%%%%%%%%%%%%%%%%%qQq%%Q%q%Qq%%%%%%%%%%%%%%%%%%%%%%%%%%%%%
315E62%%%%%%%%%%%%%%%%%%%%q%Qq%%%Qq%Q%q%%%%%%%%%%%%%%%%%%%%%%%%qQ%%%%%%%%%qQ
299E54q%Qq%%%%%%%%%Qq%%%%%%%%%%%%%%%%%%%%%%%%%%%%%%%%%%%%%%%%qQq%Qq%%%Q%q%%%
283E38%%%%%%%%%%%%%%%%%%%%%%%%%%%%%%%%%%%%qQq%QqQ%q%%%%%Qq%%%%Qq%%%%%%%%%%%%
267E30%%%%%%%%%%%%%%%%%%%%%%%%%%%%%%%%%%q%%%Q%q%%%Q%qQ%q%%%Qq%%%%%%%%%%%%%%%
251E22%%%%%%%%%%%%%%%%%%%%%%qQ%q%Q%%q%Qq%%%qJ6qQ%qQq%%%%%%Qq%%Qq%%%%%%%%%%%%
235E14%%%%%%%%%%%qQ%%%qQq%Q%qQq%Q%qQq%%Qq%%Qq%%%%Qq%%%%%%%%%%%%%%%%%%%%%%%%%
219E06%%%%%%%%%%%%%%%%q%Qq%Q%%qQ%%%%%q%%%%%%%%%%%%%%%%%%%%%%%%%%%%%%%%%%%%%%
203D98%%%%qQ%%%%%%qQ%qQ%qQq%%%%%%%%%%%%%%%%%%%%%%%%%%%%%%%%%%%%%%%%%%%%qQ%%%
187D90%%%%%%%%qQqQq%Qq%%%Qq%%%%%%%%%%%%%%%%%%%%%%%%%%%%%%%%%%%%%%%%%%qQ%%%q%
171D74%Q%q%Qq%%%Q%%%qQ%q%%%%%%Q%qQq%%%%%%%%%%%%%%%%%%%%qQ%%%%%qQ%%%q%QQ%%%qJ6
155D90j6qQ%%%q%Qq%%%Q%qQqQqQq%%%%%%%%%%%%%%%%%%%%%%%%%%%%%%%%%%%%%%%%%%%%%%%
139D66%%%%%%q%Q%q%QqQ%%qQq%%%%Qq%%%%%Qq%%Qq%%%%%%%%%%%%%%%%%qQ%%%%%%%%%%%%%%
123D58%%%%%%qQ%%%%%%%%qQ%%qQq%QqQq%Qq%%%%%%%%%%%%%%%%%%%%%%%%%%%%%%%%%%%%%%%
107D50%%%%%%%%%%%%%%%%%%%qQ%%q%%%%%%QqQ%q%%Qq%%%%%%%%%Qq%%%%%%%%%%%%%%%%%%%%
91D42%%%%%%%%%%%%%%%%%%qQ%%%%%%%%%%%%%%%%%%%%qQ%q%%%%%%%%%%%%%%%%%%%%%%%%%%%
75D34%%%%%%%%%%%%%%%%%%%%%%%%%%%%%%%qQ%%%%%%q%Q%%%%%qQ%q%%%%%%%%%%%Qq%%%%%%%
59D26%%%%%%%%%%%%%%%%%%%%%%%%%%%%%%%%%%%%%%%%%%%%%%%%%%%%%%%%qQqQ%q%%%%%%%Q%
42D26q%%QqQ%q%%%%%%%%Qq%%%%%%%%%%%%%%%%%%%%%%%%%%%%%%%%%qQ%%qQ%%%%%qQq%Q%%%q
26D10%QqQqQ%q%%%%%%%Qq%%%%%%%%%%%%%%%%%%%%%%%%%%%%%%%%%%%%%%%%%%%%%%%%%%%%%%
10D10q%QqQqQ%q%%%Qq%%%%%%%%Qq%Qq%Qq%%%%%%%%Qq%%%%%%%%%%%%%%%%%%%%%%%%%%%%%%%
-6D02%%%%%%%%%%%%%%%%%%%qQ%%%%%%%%%%qQ%%%%%%%qQqQ%q%%%%%%%%%Qq%Qq%QqQq%%%%%%
-23C94%%%%%%%%%%%%%%%%%%%%%%%%%%%%%%%%%%%%%%%%%%%%%%%%q%Qq%Q%q%%Q%q%%%%%%%%%
-39C86%%%%Qq%%%%%%Qq%%Qq%Qq%%%%%%%%%%%%%%%%%%%%%%%%%%%%%%%%%%%%%%%%%%%%%%%%%
-55C86%%%%%%%%%%%%%%%%%%q%%Q%%qQq%Q%q%%%%%%%%%%%%%%%%%%%%%%%%%%%%%%%%%%%%%%%
-71C78%%%%%%%%%%%%%%%%%%%%%qQ%%%%qQ%%qQqQQq%q%%Q%%q%Q%%%%%%q%%Q%q%Qq%Q%q%%%%
-87C70Q%q%%%Qq%%%%%%%%%%%%%%%%%%%%%%%%%%%%%%%%%%%%%%%%%%%%%%%%%%%%%%%%%%%qQ%
-103C70%%%%%q%%%%%Qq%Qq%QqQ%%q%Qq%Q%q%%%%%%%%%%%%%%%%%%%%%%%%%%%%%%%%%%%%%%%
-118C62%%%%%%%%%%%%%%%%%%%%%%%%%%%%%%%%%%%%%%%%%%qQ%q%%%%%Qq%%%%%%%Qq%%%%%%%
-134C54%%%%%%%%%%%%%Qq%%Q%q%%%%%%%%%%%%%%%%%%%%%%%%%%%%%%%%%%%%qQ%%%%%%%%%%%
-150C54%%%%%%%%%%%%qQ%%%qQ%%qQ%q%Q%%q%%%%%%%%%%%%%%%%%%%%%%%%%%%%%%%%%%%%%%%
-166C46%%%%%%%%%%%%%%%%%%%%%%%%%%%%%%%%%%%%%%%%%%%%%%%%%%qQ%%%q%%Qq%QqQ%%%qQ
-182C46q%%%Q%q%QqQq%QqQ%q%%%%%%%%%%%%%%%%%%%%%%%%%%%%%%%%%%%%%%%%qQ%%%%%Qj6Q
-197C38%qQ%%%%%%%%%%%%%%%%%%%%%%%%%%%%%%%q%%Qq%%%QqQqQq%Q%q%Q%%q%Q%q%%Qq%%%%
-213C30%%%%%%%%%%%%%%%%%%%%%%%%%%%%%%%%%%%%%%%%%%%%%%%%%%%%%%%%%%q%Q%%%%%%%%
-229C30%%%%%%%%%%%%%%%%%%%q%Q%qQqQq%%Qq%%%%%%%%%%%%%%%Qq%%%%%%%%%%%%%%%%%%%%
-245C22%%%%%%%%%%%%%%%%%%%%%%%%%%%%%%%%%%%%%%%%qQ%%%%%%%%%%%%%qQ%%%%%%%%%%%%
-260C22%%%q%Qq%%%Q%%%%qQ%q%Qq%Q%%q%%%%Qq%%%%%%%%%%%%%%%%%%%%%%%%%%%%%%%%%%%%
-276C14%%%%%%%%%%%%%%%%%%%%%%%%%%%%%%%%%%%%qQ%%qQ%%qQ%%%%%%%%%%%%%%%%%q%QqQq
-292C06%%Qq%Qq%Qq%QqQ%q%Q%q%%%Q%q%%Qq%%%%%%%%%%%%%%%%%%%%%%%%%%%%%%%%%%%%%%%
-308C06%%%%%%%%%%%%%%%%%%%%%%%Qj6QqQ%%%%%%%%%%%qQ%%%%%%%%%%%%%%%%%%%%%%%%%%%
-323C06%%qQ%%%%qQqQ%%q%%%%%Qq%%%Qq%Q%%qQq%%%%%%%%%Qq%%%%%%%%%%%%%%%%%%%%%%%%
-339B98%%%%%%%%%%%%%%%Qq%%%%%%%%%%%%%%%%%%%%%%%%%%%%%%%%%%%%%%%%%%%%%%%%%%%q
-355B90QqQ%%%%%qQ%%qQqQqQqQ%qQ%qQq%%%%%QqQq%Qq%%%%%%%%%%%%%%%%%%%%%%%%%%%%%%
-371B90%%%QqQq%%%%%%%%%%%%%%%%%%%%%%%%%%%%%%%%%%%%%%%%%%%%%%%%%%%%%%%%%%%%%q
-386B82Q%%%%%%qQ%%%%%%qQ%%%%q%%Qq%Qq%%%%QqQq%%%Q%%%%%%qQ%qQq%%%%%%Qq%%%Q%qQq
-402B82%%%%%%%%%%%%%%%%%%%%%%%%%%%%%%%%%%%%%%%%%%%%%%%%%%%%%%%%%%%%%%%%%%%%%
-418B82%%%%%%%%%%%%%%%%%qQ%%q%%%%Qq%QqQqQqQq%%%%Qq%%%%%%%Qq%%%%%%Qq%%%%%%%%Q
-434B82q%%%%%%%%%%%%%%%%%%%%%%%%%%%%%%%%%%%%%%%%%%%%%%%%%%%%%%%%%%%%%%%%%%%%
-450B74%%%%%%%%%%%%%%%%%%%%%%%%%%%%%%%%%%%%%%%%%%%q%Q%qQ%%%%%%%%%%%%%%%qQqQq
-465B66%%%Q%qQq%%%%%%%%%Q%%qQ%%q%QqQ%q%%%Qq%%%%%%%%%Qq%%%%%%%%%%%%%%%%%%%%%%
-481B66%%%%%%%%%%%%%%%%%%%%%%%%%%%%%%%%%%%%%%%qQ%%%%%%%%%%%%%%%%%%%%%%%%%%%%
-497B66%%%%%%%%%%%%qQqQ%q%Q%%qQ%q%QqQ%%qQq%%Qq%Q%qQ%%%qQ%%%%%%%q%%%%%%%%%%%%
-513B58%%%%%%%%%%%%%%%%%%%%%%%%%%%%%%%%%%%%%%%%%%%%%%%%%%%%%%%%%%%%%%%%%%%%%
-529B58%%%%%%%%%%%%%%%%%%%%%%%%%%%%%%%%%%%%qQ%%%%%%%%%%qQqQq%Q%qQ%%%qQq%Qq%Q
-544B58%%q%Q%%qQ%%qQ%Qq%qQq%Q%%%%q%%%Qq%%%%%%%%%%%%%%%%%%%%%%%%%%%%%%%%%%%%%
-560B50%%%%%%%%%%%%%%%%%%%%%%%%%%%%%%%%%%%%%%%%%%%%%%%%%%%%%%%%%%%%%%%%%%%%%
-576B50%%%%%%%%%%%%%%%%%%%%%%%%%%%%%%%%%%%%%%%%%%%%%%%%q%%%%%%%%%Q%qQq%%%%%%
-592B42%%%%%QqQq%Q%qQqQ%%qQ%%q%Qq%%%%%%%%%%%%%%%%%%%%%%%Qq%%%%%%%%%%%%%%%%%%
-608B42%%%%%%%%%%%%%%%%%%%%%%%%%%%%%%%%%%%%%%%%%%%%%%%%%%%%%%%%%%%%%%%%%%%%%
-623B42%%%%%%%%%%%%%%%%qQ%%%%qQ%%%%%%%%%%qQ%%%%%%%%%%%%%q%%%QqQq%%%QqQ%qQqQ%
-639B42%qQqQq%%%%%%%%%%Qq%%%%%%Qq%%%%%%%%%%%%%%%%%%%%%%%%%%%%%%%%%%%%%%%%%%%
-655B34%%%%%%%%%%%%%%%%%%%%%%%%%%%%%%%%%%%%%%%%%q%%J6j6Q%%%qQ%%%%%%%%%%qQ%%%
-670B34%%%%%%%%qQ%%%%%%%%qQ%%qQ%%%%%%%%%%qQqQq%%%Q%%%qQqQqQq%%%Q%%qQ%%%%%qQq
-686B26%Qq%%%%%%%%%%%%%%%%%Qq%%%%QqQq%%Q%qQ%%%%qQ%%q%%%Qq%%Qq%%%%%%%%Q%q%%%%
-702B26%%%%%%%%%%%%%%%%%%%%%%%%%%%%%%%%%%%%%%%%%%%%%%%%%%%%%%%%%%%%%%%%%%%%%
-718B26%%%%%%%%%%%%%%%%%%%%%%%%%qQ%%%%%%%%%%%%%%%%%%%%%%%%%%q%%Qq%QqQ%q%Qq%%
-733B18%%%%%%%%%%%%Q%qQq%%%Q%q%%%Qq%Q%q%%%%%%%%%%%%%%%%%%%%%%%%%%%%%%%%%%%%%
-749B18%%%%%%%%%%%%%%%QqQ%q%%%%%%%%%%%%%%%%%%%%%%%%%%%%%%%%%%%%%%%%%%%%%%%%%
-765B18%%%%%%%%%%%%%%%%%%qQ%%%%%%%%%%%%%%%%%%%%%%%%%%%%%%%%%%%%%%qQqQ%%q%%%Q
-781B18qQ%Qj6%Q%%%Qq%%%%q%QqQ%%%%%qQqQ%%qQq%%QqQ%%q%%%Qq%%%%%QqQ%%%q%%Qq%%Qq
-796B10%%QqQ%%%%%%q%%Qq%%%%%%%%%%%%%%%%%%%%%%%%%%%%%%%%%%%%%%%%%%%%%%%%%Qq%Q
-812B18q%%%%%%%%%%%%%%%%%%%%%%%%%%%%%%%%%%%%%%%%%%%%%%%%%%%%%%%%%%%%%%%%%%%%
-828B10%%%%%%%%%%%%%%%%%%%qQ%%%%%%%%%%%%%%%%qQ%%%%%%%%%%%%%qQqJ6qq%%%Q%%qQ%q
-844B02%%%%%%%%%%%%%%%%%%%%%%%%%%%%%%%%%%%%%Qq%%%%%%%%%%%%%%Q%qQq%%%%%%%%%%%
-859B02%%%%%%%%%%%%%%%%%%%%%%%%%%%%%%%%%%%%%%%%%%%%%%%%%%%%%%%%%%%%%%%%%%%%%
-875B02%%%%%%%%%%%%%%%%%%%%%%%%%%%%%%%%%%%%%%%%%%%%%%%%%%%%%%%qQ%q%Q%%%%%%%%
-891B02%%%%%%%%%%%qQqQ%%%%%%%%%%%%%%%%qQ%q%%Q%%%%qQ%%q%%Qq%%%%%%Qq%Qq%%%%%%%
-907A94QqQ%%q%%%%%%%%%%%Q%qQq%%%%%%%%%%%%%%%%%%%%%%%%%%%%%%%%Qq%Qq%%Qq%%%%%%
-922A94%%%%%%%%%%%%%%%%%%%%%%%%%%%%%%%%%%%%%%%%%%%%%%%%%%%%%%%%%%%%%%%%%%%%%
-938A94%%%%%%%%%%%%%%%%%%%%%%%%%%%%%%%%%%%%%%%%%%%%%%%%%%%%%%%%%%%%%%%%%qQ%%
-954A94qQ%%%%%%qQ%%qQ%%%qQ%%%%%%%%%%%%%%%%%%%%%q%%Qq%%Qq%%%%%Q%qQ%%%qQq%QqQq
-970A86%%Qq%%%%%%QqQq%%%Q%%%%q%QqQ%q%%%%%%%%Qq%%%%%%%%%%%%%%%%%%%%%%%%%%%%%%
-986A86%%%%%%%%%%%%%%%%%%%%%%%%%%%%%%%%%%%%%%%%%%%%%%%%%%%%%%%%%%%%%%%%%%%%%
-1001A86%%%%%%%%%%%%%%%%%%%%%%%%%%%%%%%%%%%%%%%%%%%%%%%%%%%%%%%qQ%%%qQ%%q%%%
-1017A78Q%%%%%%%%%%%%%%%%%%%%%%%%%%%%%%%%q%Q%%%%%qQ%q%Qq%%QqQ%q%Qq%%QqQ%%q%%
-1033A78Q%qQ%q%%Q%%%%%%%q%%%%%%%%Q%q%%%%%%Qq%%Qq%%Q%q%Qq%%%%%%%%Qq%%%%%%%%%%
-1048A78%%%%%%%%%%%%%%%%%%%%%%%%%%%%%%%%%%%%%%%%%%%%%%%%%%%%%%%%%%%%%%%%%%%%
-1064A78%%%%%%%%%%%%%%%%%%%%%%%%%%%%%%%%%%%%%%%%%%%%%%%%%Qq%%%%%%%%%%%%%%%%%
-1079A78%%%%%%%%%%%%%%%%%%%%%%%%%%%%%%%%%%%%%%%%%%%%qQ%%%%%%%%%%%%%%%qQ%%%%%
-1095A78q%%Q%%%%%qQ%%%%%q%QqQ%q%Q%%%%%%%%%%%qQ%q%Q%q%%Q%q%%%%%%%%%%%%%%%%%Q%
-1110A78qQqQ%%%%%%%qQqQq%Q%%qQ%q%%Qq%%%%%Qq%%%%%%%%%%%%%%%%%%%%%%%%%%%%%%%%%
-1126A70%%%%%%%%%%Qq%%Qq%%%%%%%%Qq%%%Qq%%Qj6Q%Qq%%%%%%%%%%%%%%%%%%%%%%%%%%%%
-1141A70%%%%%%%%%%%%%%%%%%%%%%%%%%%%%%%%%%%%%%%%%%%%%%%%%%%%%%%%%%%%%%%%%%%%
-1157A70%%%%%%%%%%%%%%%%%%%%%%%%%%%%%%qQ%%%%%%%%%%%%%%%%%%%%%%%%%%%%%%%%%%%%
-1172A70%%%%%%%%%%%%%%%%%%%%%qQ%%qQ%%%%%%%%qQ%%%%%%%%%%qQ%%%%%%%%qQ%qQ%q%QqQ
-1188A70qQq%%%%Qq%QqQ%q%%%Qq%%%%%%%%%%%%%%%%%%%%%%%%%%%%%%%%%%%%%%%%%%%%%%%%
-1204A62%%%%%%%%%%%%%%%%%%%%%%%%%%%%%%%%%%%%%%%%%%%%%%%%%%%%%%%%%%%%%%%%%%%%
-1219A62%%%%%%%%%%%%%%%%%%%%%%%%%%%%%%%%%%%%%%%%%%%%%%%%%%%%%%%%%%%%%%%%%%%%
-1235A62%%%%%%%%%%%%%%%%%%%%%%%%%%%%%%%%%%%%%%%%%%%%%%%%%%%%%%qQ%%%%%%%%%q
-1250A54
##$OBSERVED MULTIPLETS=	(I, X, Y, Hs, Vs, An, H, C, N, (J))
$$ I: Multiplet Index
$$ X: Strt Coordinate
$$ Y: End Coordinate
$$ Hs: Horizontal Chemical Shift
$$ An: Normalised Integral Area
$$ H: Hydrogens
$$ C: Category
$$ N: Name
$$ (J): Coupling Constants
(1, 16.879730887707253828, 17.000949112092726523, 16.940339999899990175, 0.83741255393746028002, 1, s, 2)
(2, 16.18386407116776482, 16.305061273120106335, 16.244462672143935578, 2.162587446062539609, 2, s, 1&comma;3)
##$OBSERVED MULTIPLETS AREAS=	
(1, 1.2122817353633870141)
(2, 3.1306734651407697179)
##$OBSERVED MULTIPLETS PEAKS=	(I, X, Y)
$$ I: Multiplet Peak Index
$$ X: Peak x Position
$$ Y: Peak Intensity
(1, 16.940339999899990175, 0.11659095436334609985)
(2, 16.244462672143935578, 0.30114412307739257813)
##$PREDICTED PEAKS=	(X Y T A)
(16.242628822914653597,  , 3, <1>)
(16.938538661823244524,  , 5.8700000000000001066, <2>)
(16.242628822914653597,  , 3, <3>)
##$PREDICTEDCOUPLINGCONSTANTS=	J(A,B)	$$ (Hz)
123.76(1, 1)
2.94(1, 2)
2.94(2, 1)
121.72(2, 2)
2.94(2, 3)
2.94(3, 2)
123.76(3, 3)
##END=		$$ NMR SPECTRUM
##TITLE=	Predicted 13C NMR Spectrum
##JCAMP-DX=	6.0	$$ MestReNova 17.0.0-41178
##DATA TYPE=	NMR PEAK TABLE
##DATA CLASS=	PEAK TABLE
##BLOCK_ID=	4
##ORIGIN=	Mestrelab Research S.L.
##OWNER=	ctheodore
##CROSS REFERENCE=	NMR SPECTRUM: BLOCK_ID=3                                     
##.OBSERVE FREQUENCY=	125
##.OBSERVE NUCLEUS=	^13C
##NPOINTS=	2
##FIRSTX=	16.244462672143935578
##LASTX=	16.940339999899990175
##XFACTOR=	1
##YFACTOR=	1
##FIRSTY=	0.30114412307739257813
##XUNITS=	PPM
##YUNITS=	ARBITRARY UNITS
##PEAK TABLE=	(XYW..XYW)
16.244462672143935578,0.30114412307739257813,0.012119720195233798371
16.940339999899990175,0.11659095436334609985,0.012121822438547005113
##$MNOVA/PEAK_DATA_TABLE=	(T,F,A,ST,SP,APT,APC)
$$ Complementary to PEAK TABLE
$$ T: Type
$$ F: Flags
$$ A: Annotation
$$ ST: Shape Type
$$ SP: Shape Parameter
$$ APT: Attached Peaks Type
$$ APC: Attached Peaks Count
Compound,None,,0,0,0,0
Compound,None,,0,0,0,0
##END=		$$ NMR PEAK TABLE
##END=		$$ LINK
