##TITLE=	methyl isoprpyl 13c
##JCAMP-DX=	6.0	$$ MestReNova 17.0.0-41178
##DATA TYPE=	LINK
##BLOCKS=	4    
##ORIGIN=	Mestrelab Research S.L.
##OWNER=	ctheodore
##$MNOVA/METADATA=	(DOCUMENT,BASE64)
eyJuYW1lIjoiL1VzZXJzL2N0aGVvZG9yZS9Eb2N1bWVudHMvY2xhc3Nlcy9OTVIgZXhwZXJpbWVudC9
naXRodWIgZmlsZXMvbWV0aHlsIGlzb3Byb3B5bCBldGhlci9tZXRoeWwgaXNvcHJweWwgMTNjLm1ub3
ZhIiwicGFnZXMiOlt7Iml0ZW1zIjpbIjEiLCAgICAgICAgICAgICAgICAgICAgICAgICAgICAgICAgI
CAgICAiMyIgICAgICAgICAgICAgICAgICAgICAgICAgICAgICAgICAgICAgXX1dfQ==
##TITLE=	
##JCAMP-CS=	3.7	$$ MestReNova 17.0.0-41178
##BLOCK_ID=	1
##ORIGIN=	Mestrelab Research S.L.
##OWNER=	ctheodore
##$MNOVA/METADATA=	(ITEM,BASE64)
eyJhbmdsZSI6MC4wLCJwb2ludHMiOlt7IngiOjUzMjEuMCwieSI6NTgzNS4wfSx7IngiOjU2ODguMTg
3ODcxMDE2NDA3LCJ5Ijo1ODM1LjB9LHsieCI6NTY4OC4xODc4NzEwMTY0MDcsInkiOjYwOTguNDM1Mz
M0NzIwNjA0fSx7IngiOjUzMjEuMCwieSI6NjA5OC40MzUzMzQ3MjA2MDR9LHsieCI6NTMyMS4wLCJ5I
jo1ODM1LjB9XSwieiI6MS4wfQ==
##NAMES=	
##ATOMLIST=	
$$ AN	AS	NH
	1	C	3
	2	O	 
	3	C	1
	4	C	3
	5	C	3
##BONDLIST=	
$$ AN1	AN2	BT
	1	2	S
	2	3	S
	3	4	S
	3	5	S
##MAXRASTER=	32768
##XY_RASTER=	
$$ AN	X	Y	Z
	1	-32768	6307	0
	2	-10921	18920	0
	3	10921	6304	0
	4	32768	18917	0
	5	10921	-18920	0
##END=		$$ JCAMP-CS
##TITLE=	Predicted 13C NMR Spectrum
##JCAMP-DX=	6.0	$$ MestReNova 17.0.0-41178
##DATA TYPE=	NMR PEAK ASSIGNMENTS
##DATA CLASS=	ASSIGNMENTS
##BLOCK_ID=	2
##ORIGIN=	Mestrelab Research S.L.
##OWNER=	ctheodore
##CROSS REFERENCE=	STRUCTURE: BLOCK_ID=1                                     
NMR SPECTRUM: BLOCK_ID=3                                     
##.OBSERVE FREQUENCY=	125
##.OBSERVE NUCLEUS=	^13C
##NPOINTS=	4
##XUNITS=	PPM
##YUNITS=	ARBITRARY UNITS
##PEAKASSIGNMENTS=	(XYWA)
(55.920457890993020555, 0.15056774020195007324, 0.0060596763464566549828, <1>)
(73.095809093687819313, 0.082569420337677001953, 0.0060596776529493467933, <3>)
(22.787540809176519474, 0.30113545060157775879, 0.0060596757102313603127, <4>)
(22.787540809176519474, 0.30113545060157775879, 0.0060596757102313603127, <5>)
##END=		$$ NMR PEAK ASSIGNMENTS
##TITLE=	Predicted 13C NMR Spectrum
##JCAMP-DX=	6.0	$$ MestReNova 17.0.0-41178
##DATA TYPE=	NMR SPECTRUM
##DATA CLASS=	XYDATA
##BLOCK_ID=	3
##ORIGIN=	Mestrelab Predictor
##OWNER=	ctheodore
##NUMDIM=	1
##$MNOVA/METADATA=	(ITEM,BASE64)
eyJhbmdsZSI6MC4wLCJheGVzIjp7IngiOnsibWF4IjoyMzAuMDI1MzAyNzgzMzA2MTYsIm1pbiI6LTk
uOTk5MjY4ODY0ODg3NjM4fSwieSI6eyJtYXgiOjAuMzMxMjQ4OTk2Nzc5MzIyNiwibWluIjotMC4wMz
AxMTM1NDcyMTk3Mzg1OH19LCJwb2ludHMiOlt7IngiOjUzMjEuMCwieSI6NTgzNS4wfSx7IngiOjg3M
jIuMCwieSI6NTgzNS4wfSx7IngiOjg3MjIuMCwieSI6ODIwOC4wfSx7IngiOjUzMjEuMCwieSI6ODIw
OC4wfSx7IngiOjUzMjEuMCwieSI6NTgzNS4wfV0sInoiOjAuMH0=
##.OBSERVE FREQUENCY=	125
##.OBSERVE NUCLEUS=	^13C
##.SOLVENT NAME=	DMSO-d6
##.PULSE SEQUENCE=	
##.ACQUISITIONMODE=	SIMULTANEOUS (DQD)
##$ORIGINAL FORMAT=	Predictor
##$MNOVA/SCALES_VERSION=	9
##$PARAMETER FILE=	(parameters, ASCII, , 0)
$$ <?xml version="1.0" encoding="utf-8"?>
$$ <PredictorParameters>
$$     <Title>Predicted 13C NMR Spectrum</Title>
$$     <Origin>Mnova: NMR Prediction</Origin>
$$     <Name>Mestrelab Predictor</Name>
$$     <Version>1.7</Version>
$$     <Nucleus>13C</Nucleus>
$$     <Solvent>DMSO-d6</Solvent>
$$     <From>-10</From>
$$     <To>230</To>
$$     <Frequency>125</Frequency>
$$     <LineWidth>1.5</LineWidth>
$$     <Size>131072</Size>
$$     <DEPT>0</DEPT>
$$     <ProtonatedCarbons>0</ProtonatedCarbons>
$$     <ExcludeLabile>false</ExcludeLabile>
$$     <FastPrediction>0</FastPrediction>
$$     <ProtonDecoupled>1</ProtonDecoupled>
$$     <Reference/>
$$     <Options>
$$         <Settings>
$$             <Predictor Name="Mestrelab Predictor">
$$                 <Settings>
$$                     <Model>/Applications/MestReNova.app/Contents/Resources/data/13C.mbst</Model>
$$                 </Settings>
$$             </Predictor>
$$         </Settings>
$$     </Options>
$$     <MoleculeID>{2e398d60-60d3-45a8-a30e-5aff41479ae1}</MoleculeID>
$$ </PredictorParameters>
$$ 
##XUNITS=	HZ
##YUNITS=	ARBITRARY UNITS
##FIRSTX=	28750
##LASTX=	-1249.7711181640625
##DELTAX=	-0.2288818359375
##XFACTOR=	1
##YFACTOR=	1.4022712164642515895E-10
##FIRSTY=	1.3541626486812674557E-08
##MINY=	-1.0419937135353052327E-09
##MAXY=	0.30113545060157775879
##NPOINTS=	131072
##XYDATA=	(X++(Y..Y))
28750I7q%%QqQ%q%Q%q%QqQqQ%%q%%%%Q%qQqQ%q%%%%%%%%%%%Qq%%%%%Qq%%%%%%%%%%%%%%%%
28734H9Q%%q%%%Q%q%Qq%%%%%%QqQ%%%qQ%q%Qq%%%%%%%%%%%%%%Qq%%%%%%%%%Qq%%%%%%%%%%
28718H9Q%q%Q%q%%%%%%%%%%%%%Qq%%%%%%%%%%%%%%%Qq%%%%%%%%%%%%%%%%%%%%%%%%%%%%%%
28703H9%%%%%QqQq%%%%%%Q%qQq%%%%%%%%%%%%%%Qq%%%%%%%%%%%%%%%%%%%%%%%%Qq%Q%q%%%
28687H9%%%%%%%%%%%%%%%%%%%%%%%%%%%%%%%%%%%%%%%%%%%%%%%%%%%%%%%%%Qq%%%%%%%%%%
28671H9%%%%%%%%%%%%%%%%%%%%%%%%%%%%%%%%%%%%%%%%%%%%%%%%%%%%%%%%%%%%%%%%%%%%%
28655H9%%%%%%%%%%%%%%%%%%%%%%%%%%%%%%%%Qq%%%%%%%%%%%%%%%%%%%%%%%%%%%%%%%%%%%
28639H9%%%%%%%%%%%%%%%%%%%%%%%%%%%%%%%%%%%%%QqqJ6qQ%%q%qJ6q%%%%qQ%%%%%%%%%%%
28624H9%%%%%%%%%%%%%%%%%%%%%%%%%%%%%%%%%%%%%%%%%%%%%%%%%%%%%%%%%%%%%%%%%%%%%
28608H9%%%%%%%%%%%%%%%%%%%%%%%%%%%%%%%%%%%%%%%%%%%%%%%%%%%%%%%%%%%qQqQ%%%%%%
28593H9%%%%%%%%%%%%%%%%%%%%%%%%%%%%%%%%%%%%%%%%%%%%%qQqQ%%%%qQ%%%%%%%%%%%%%%
28577H9%%%%%%%%%%%%%%%%%%%%%%%%%%%%%%%%%%%%%%%%%%%%%%%%qQ%%%%%%%%%%%%%%%%%%q
28561H1Q%%%%%%%qQ%%%%%%%%%%qQ%qQ%qQqQ%%qQqQ%q%%J6j6QqQ%q%QqQ%%%%%%%%q%Q%%%%%
28546H9%%%qQ%%%%%%%%%%q%%QqQ%qQ%qQ%%%%%q%Q%%%%qQ%%%q%Q%q%%%%%%%%Qq%%%Q%%%qQq
28530H1Q%%qQq%%QqQqQq%Qq%%Qq%Qq%%%Qq%%Qq%%%Qq%%QqQ%%%q%%%Q%q%%QqQq%%Qq%Q%%q%
28514H1Q%q%%qQ%Qq%%Qq%Qq%%%Qq%%%%%%%%Qq%%%%%%%Q%%%%%%%%qQqQqQ%%%%q%%QqQq%%Qq
28498H1%Q%%q%%%%%Qq%%%%%%%%%Qq%%%%%%%%Q%%qQ%%%%%qQ%%%%%qQq%%%%Qq%%%%%%%%%%%%
28482H1%%%%%%Qq%%%%%Q%q%%%%%%%%%%%%%%%%%%%%%%%%%%%%%%%%%%Q%qQq%%%%QqQq%%%%%%
28467H1%%%%%%%%%Qq%%%%Qq%%%%%%%%%%%%%%%%%%%%%%%%%%%%%%%%%%%%Qq%Q%q%%Qq%%%%%%
28451H1%%%%%%%%%%%%%%%%%%%%%%%%Qq%%%%%%%%%%%%%%%%%%%%%%%%%%%%%%%%%%%%%%%%%%%
28435H1%%%%%%%%%%%%%%%%%%%%%%%%%%%%%%Qq%%%%%%%%%%%Qq%%%%%%%%%%%%%%%%%%%%%%%%
28419H1%%%%%%%%Qq%%%%%%%%%%%%%%%%%%%%%%%%%%%%%%%%%%%%%%%%%%%%%%%%%%%%%%%%%%%
28403H1%%%%%%%%%%%%%%%%%%%%%qQ%%%%%%%%%%Qq%%Q%q%Qq%%%%%%%%%%%%%%%%%%%%%%%%%%
28388H1%%%%%%%%%%%%%%%%%%%%%%%%%%%%%%%%%%%%%%%%%%%%%%%%%%%%%%%%%%%%%%%%%%%%%
28372H1%%%%%%%%%%%%%%%%%%%%%%%%%%%%%%%%%%%%%%%%%%%%%%%%%%%%%%%%%%%%%%%%%%%%%
28356H1%%%%%qQ%%%%%%%%%%%%%%%%%%%%%%%%%%%%%%%%%%%%%%%%%%%%%%%%%%%%%%%%%%%%%%
28340H1%%%%%%%%%%%%qQ%%%qQ%%%%%%%%%%%%%%%%%%%%%%%qQ%%%%%%%%%%%%%%%%%%%%%%%%%
28325H1%%%%%%%%%qQ%%%%%%qQ%%%%%%%%%%q%Q%%%qQ%%%%%%%%%%%%%%%%%%%qQ%%%qQ%%qQ%%
28309H1%%%%%%%%%%%%%%%%%%%%%%%%%%%%%%%%%%%%%%%%%%%%%%%%%%%%%qQ%qQ%%%%%%%%%%q
28293G3Q%%%%%%%qQ%%%%%q%Q%qQ%%%%%%%%%%%%qQ%%%%%qQqQ%%qQ%%%qQqQ%%%%%%q%%QqQ%%
28277H1%qQ%%qQqQ%qQq%%%%%Q%%%%%%%%%%%%%%%%%%%%%%%%%%%%%%%%%%%%%%%%%%%%%%%%%%
28261H1%%%%%%%qQ%%%%%%%%qQqQ%%qQ%%%qQq%%%Q%%%qQqQ%%q%Q%%%%%%qQ%%%%%%%q%Q%qQ%
28246H1%%qQqQ%q%Q%%%q%%%%%%%Qq%%%%%%%Q%q%%%%Qq%%QqQ%%%qQ%%q%%Qq%%QqQq%%%%Q%%
28230H1%%q%Q%%%%q%Q%qQ%q%%%%%%QqQ%q%%%Qq%%%%%%%%%%%QqQ%%q%%%%%%Qq%%%%%%%%%%%
28214G3%%%%%%%%%Qq%%%%%%Qq%%%%%Qq%%%%%%%%%%%%%%%%%%%%%%%%QqQ%%qQq%%%%%%%%%%%
28198G3%%%QqQq%Q%q%%%%%%Qq%%%%%%%%Qq%%Q%%q%Q%qQqQqQq%%%%%%%%%%Qq%%%%%%%%%%%%
28182G3%%%%%%%Qq%%%%%%%Qq%%%%%%%%%%%%Qq%%%%%%%%Qq%%%%%%%%%%%%%%%%%%Qq%%Qq%Qq
28167G3%%%%%%Qq%%%%Qq%%%QqQ%q%J6qJ6j6q%%%%%QqQ%%q%QqQq%%%%Qq%%%%%%%%%%%%%%%%
28151G3Qq%%%%%%%%%%%%%%%%%%%%Qq%Qq%%%%%%%%%%%%%%%%%%%%%%%%%%%%%%Qq%%%%%%%%%%
28136G3%%%%%%%%%%%%%%%%%%%%%%%%%%%%%%%%%%%%%%%%%%%%%%%%%%%%%%%%%%%%%%%%%%%%%
28120G3%%%%%%%%%%%%%%%%%%%%%%%%%%%%%%%%%%%%%%%%%%%%%%%%%%%%%%%%%%%%%%%%%%%%%
28104G3%%%%%%%%%%%%%%%%%%%%%%%%%%%%%%%%%%%%%%%%%%%%%%%%%%%%%%%%%%%%%%%%%%%%%
28088G3%%%%%%%%%%%%%%%%%%%%%Qj6J6q%%%qQ%%%%%%%%%%%%%%%%%%%%%%%%%%%%%%%%%%%%%
28073G3%%%%%%%%%%%%%%%%%%%%%%%%%%%%%%%%%%%%%%%%%%%%%%%%%%%%%%%%%%%%%%%%%%%%%
28057G3%%%%%%%%%%%%%%%%%%%%%%%%%%%%%%%%%%%%%%%%%%%%%%%%%%%%%%%%%%%%%Qq%%%%%%
28041G3%%%%%%%%%%%%%%%%%%%%%%%%%%%%%%%%%%%%%%%%%%%%%%%%%%%%%q%Q%%%%%%%%%%%%%
28026G3%qQ%%qQ%%%%%%%%%%%%%%%%%%%%%%%%%%%%%qQ%%%%%%%%%%%%%q%Q%%%%%%%%%%%%%%%
28010G3%%%%%%%%%%%%%%%%%%%%%%%%%%%%%%%%%%%%%%%qQqQ%%%%%%%%%%%%%%%%%%%%%%%%%%
27994G3%%%qQ%%%%%%%%%%%qQ%%%%%%qQ%%%%%%%%%%%qQ%%qQqQ%%%q%QqQ%%%%%%qQqQ%%%%%q
27978F5Q%%%%%%%%%%%%%%%%%qQqQqQ%qQqQqQ%%%%%%%%%%qQ%%%%%q%Q%%qQqQ%%%%%%qQ%qQq
27962F5Q%%%%%qQ%q%Q%qQqQ%%q%Qq%%Q%%qQ%%%%%%%%%%%%%%%%%%%%%%%%qQ%qQ%qQ%%%q%Q%
27947G3q%Q%qQ%qQq%Qq%Qq%%%Q%%%%qQq%Q%%%qQ%%qQ%%%%qQ%qQ%%%%qQqQ%%q%Q%%qQ%q%%Q
27931G3%%%%qQq%%Q%%%%%q%QqQ%q%%%%Q%%%%%%%%%%%q%%Qq%%QqQqQ%%q%%%%Qq%QqQq%Qq%Q
27915G3q%Qq%%%%Q%%%%%%q%Q%q%%%%%%%QqQ%%qQq%QqQ%q%QqQqQ%%%%%%%%qQqQqQq%%%%Qq%
27899F5%%Qq%Q%qQqQq%%%%%%%Qq%%%%%%Q%%qQqQ%%%%q%Q%qQq%QqQqQ%%%q%QqQ%%qQ%%%qQq
27883F5%QqQ%%qQ%q%Qq%Q%q%%%%%Qq%QqQ%q%%%%%Qq%%%%%%QqQq%Qq%Q%%q%%Qq%Qq%Qq%Q%%
27868G3%q%%%%%%%%%%%%%%%%%%%%%Q%q%%%Qq%Q%q%%%%%%%%%%%%%%%%%%%%%%%%%%%%%%%%%%
27852F5%%%%%%%QqQ%qQq%%%%%%Qq%%%%%%%%%%%%%%%%Qq%%%%%%%%%%%%%%%%Qq%%%%%%Qq%%%
27836F5%%%%%%%%%%%%%%%%%%%%Qq%%%Q%%%q%%%QqQq%%%%%Qq%%%%Qq%%%%%%%%%%%%%%%%%%%
27820F5%%Qq%%%%%%%%%Qq%%%%%%%%%%%%%%%%Qq%%Qq%%%%%%%%Q%q%%%%QqQq%%%%%%%%%%%%%
27804F5%%%%%%%%%%%%%%%%%%%%%%%%%%%%%%%%%%%%%%%%%%%%%%%%%%%%%%%%%%%%%%%%%%%%%
27789F5%%%%%%%%%%%%%%%%%%%%%%%%%%%%%%%%%%%%%%%%%%%%%%%%%%%%%%%%%%%%%%%%%%%%%
27773F5%%%%%%%%%%%%%%%%%%%%%%%%%%%%%%%%%%%%%%%%%%%%%%%%%%%%%%%%%%%%%%%%%%%%%
27757F5%%%%%%%%%%%%%%%%%%%%%%%%%%%%%%%%%%%%%%%%%%%%%%%%%%%%%%%%%%%%%%%%%%%%%
27741F5%%%%%%%%%%%%%%%%%%%%%%%%%%%%%%%%%%%%%%%%%%%%%%%%%%%%%%%%%%%%%%%%%%%%%
27726F5%%%%%%%%%%%%%%%%%%%%%%%%%%%%%%%%%%%%%%%%%%%%%%%%%%%%%%%%%%%%%%%%%%%%%
27710F5%%%%%%%%%%%%%%%%%%%%%%%%%%%%%%%%%%%%%%%%%%%%%%%%%%%%%%%%%%%%%%%%%qQ%%
27694F5%%%%%qQ%Qj6%Q%%qQ%%%%%%qQ%%%qQ%%%%%%%%%%%%%%%%%%%%%%%%%%%%%%%%%%%%%%%
27678F5%%%%%%%%%%%%%%%%%%%%%%%%%%%%%%%%%%%%%%%%%%%%%%%%%%%%%%%%%%%%%%%%%qQ%%
27663F5%%%%%%%%%%%%%%%%%%%%%%%%%%%%%%%%%%%%q%Q%%%%%qQ%%%%%%%%%%%%%%%%qQ%%%%%
27647F5%%%%%%%%%%%%%%%%%%%%%%%%%%%%%%%%%%%%%qQ%%%%%%%%%%%%%%%%%%%qQ%%%%%%%%%
27631F5%%%%%%%%%%%%%%%%%%%%qQqQ%%%%%%%%%qQ%%%%%%%%%%%%%qQ%%%%%%%%%%qQqQ%%%qQ
27615F5qQ%Q%q%%qJ6j6%%Q%%%%%%%%%qQ%%%%%%%%%%%%%%qQ%%%%%%%%%%%%%%%%%%%%qQq%Q%
27600F5%q%Qq%Q%qQ%%%%%%%%%%%%%%%%%%%%%%%%%%%%%qQ%%%%%%%%qQ%%qQ%q%%%%%%%Q%q%%
27584E7Q%%%%qQ%%%%%%q%Q%%%%qQ%%%%%%%%qQ%%%%qQqJ6q%qQ%%%%%%%%%%%%%%%%%q%Q%%%q
27569E7Q%q%Q%qQ%q%Q%%qQ%%%%%%%%%%qQ%%qQq%Q%%%qQ%%%%qQqQ%%%%qQ%%%%%%%%%%%%qQ%
27553F5%%%%%%%%%%%%%%qQ%%%%%%%%%%%%%%%%%%%%%%%%%%qQ%q%%%%Q%qQ%%%%%%%%%%qQ%%%
27537F5%%qQ%%%qQ%qQ%%q%Qq%%%Q%qQ%q%%Q%q%%%Qq%%%%Qq%Qq%%Q%%%%%qQ%%%%q%%%Q%q%Q
27521F5q%%Q%qQ%%%qQqQq%Q%q%Q%%%%%q%QqQqQ%qQ%qQqQ%qQq%%%%Qq%%%%%QqQ%%q%QqQ%%q
27505E7%Q%%q%%Qq%%%Qq%%%%%%%%%Qq%%%%Q%%q%%%%%%Qq%Q%%%%%%qQ%%%q%%%%%%%%%%%Qq%
27490E7%%%QqQq%%%%QqQq%%%%%%QqQ%%%qQq%%Qq%%%%%Qq%%%%%%Q%%q%%%%%%%%%Qq%Q%qQq%
27474E7%%%%%QqQ%%q%%%Q%qQqQq%%Qq%%%%%%%%Qq%%%%Q%q%QqQq%%QqQqQqQq%%%%%%Q%q%%%
27458E7%qJ6q%Q%qQ%qQ%q%%%%%%%%%%%%%%%%%QqQq%%%%QqQqQq%%Q%%%%%%%%q%%%Qq%%%%%%
27442E7%%%%%%%%%%Qq%%%%%Qq%%%%%Qq%%%%%%%%QqQqQqQq%QqQq%%%%%%%%%%%%%%%%%Qq%%%
27427E7%%%%%%%%%%%%%%%%%%%%%%%%%%%%Qq%%%%%%Q%q%QqQq%%%Qq%%%%%%%%%%%%%%%%%%%%
27411E7Qq%%%%%%%%%%%%%%%%%%%%%%%%%%%%%%%%%%%%%%%%%%%%%%%%%%%%%%%%%%%%%%%%%%%
27395E7%%%%%%%%%%%%%%%%%%%%%%%%%%%%%%%%%%%%%%%%%%%%%%%%%%%%Qq%%Qq%%%%%%%%Qq%
27379E7%%%%%%%%%%%%%%%%%%%%%%%%%%%%%%%%%%%%%%%%%%%%%%%%%%%%%%%%%%%%%%%%%%%%%
27363E7%%%%%%%%%%%%%%%%%%%%%%%%%%Qq%%%%%%%%%%%%%%%%%%%%%%%%%%%%%%%%%%%%%%%%%
27348E7%%%%%%%%%%%%%%%%%%%%%%%%Qq%QqQq%%%%Q%q%%%%%%%%%%%%%%%%%%%%%%%%%%%%%%%
27332E7%%%%%%%%%%%%%%%%%%%%%%%%%%%%%%%%%%%%%%%%%%%%%%%%%%%%%%%%%%%%%%%%%%%%%
27316E7%%%%%%%%%%%%%%%%%%%%%%%%%%%%%%%%%%%%%%%%%%%%%%%%%%%%%%%%%%%%%%%%%%%%%
27300E7%%%%%%%%%%%%%%%%%%%%%%%%%%%%%%%%%%%%%%%%%%%%%%%%%%%%%%%%%%%%%%%%%%%%%
27284E7%%%%%%%%%%%%%%%%%%%%%%%%%%%%%%%%%%%%%%%%%%%%%%%%%%%%%%%%%%%%%%%%%%%%%
27269E7%%%%%%%%%%%%%%%%%%%%%%%%%%%%%%%%%%%%%%%%%%%%%%%%%%%%%%%%%%%%%%%%%%%%%
27253E7%%%%%%%%%%%%%%%%%%%%%%%%%%%%%%%%%%%%%%%%%%%%%%%%%%%%%%%%%%%%%%%%%%%%%
27237E7%%%%%%%%%%%%%%%%%%%%%%%%%%%%%%%%%%%%%%%%%%%%qQ%%qQ%%%%Q%qQ%j6L2l2Q%%%
27222E7q%Q%%qQ%qQ%%%QqqQ%%%%%%%%%%%%%%%%%%%%%%%%%%%%%%%%%%%%%%%%%%%%%%%%%%%%
27206E7%%%%%%%%%%qQ%%%%%%%%%%%%%%%%%%%%%%%%%%%%%%%%%%%%%%%%%%%%%%%%%%%%%%%%%
27190E7%%%%%%%%%%%%%%%%%%%%%%%%%%%%%%%%%%%%%%%%%%%%%%%%%qQ%%%%%%%%%%%%%%%%%%
27175E7%%%%%%%%%%%%%%%%%%%%%%%%%%%%%%%%qQ%%%%%%%%%%%%%%%%%%%%%%%%%%%%%%%%%%%
27159E7%%%%%%%q%Q%qQ%%%%%%%%%%%%%%%%%%%%%%%%%%%%%%%%%%%%%%%%%%q%%Q%%%%%%%%%%
27143E7%%%%%%%%%%%%%%%%%%%%%%%%%%%%%%qQ%%%%%%%%%%%%%%%%%%%%%%%%%%%%%%%%%%%%%
27127E7%%%%%q%Q%%%%%%%%%%%%%%%%%%%%%%%%%%%%%%%%%%%%%%%%%%%%%%%%%%%%%%qQ%%%qQ
27111E7%%qQ%%%%%%%%%%%%%%%%%%qQ%q%%%Q%%%%%%%%%%%%%%%%%%%%%%%%%%%%%%qQ%%%%%%%
27096E7%%%%%q%Q%q%Q%%qQ%%%qQ%%%%%%%%%%%%%%%%%%%%%%%%%%%%%%%%%%%%%%%%%%%%%%%%
27080E7%%%%%%%%%%%%%%%%%q%Q%%qQ%%q%Qq%%Q%%%%%%%%%%%%%%%%%%%%%%%%%%%%%%%%%%qQ
27064E7%%%%%%%%%%%%%%%%%%%%q%%%Qq%%%%Q%%qQq%Q%%%%%%%%%%%%%qQ%%%%%%%%%%%%qQqQ
27048E7%%%%%qQ%%q%%QqQqQ%%%qQ%%%%%%qQq%Q%%%%%%%%%%%%%%%%%%%%%%%%%%%%%%%q%Q%q
27032D9%Qq%Q%%%%%qQ%%%%%qQ%%%%%%%q%Q%q%Q%qQ%%qQ%%qQ%%qQ%%qQ%%%%%%qQqQq%Q%%q%
27017D9Qq%%QqQqQqQ%%%%%qQqQ%%%%q%%%%%%%QqQq%QqQ%%%q%%Q%%%qQ%qQ%%%%%%qQ%q%QqQ
27001E7%%%%%%%%%%q%%Q%%%%%%%%%%q%Q%q%Qq%%%%%%%Q%%q%QqQq%Qq%Qq%%Q%%%%q%%%%Qq%
26985D9%%%%%Q%qQqQqQq%%%Q%%%q%%QqQqQ%q%Q%%qQ%qQq%%%%Q%q%Qq%%%%%%%%%%%%%%%Qq%
26969D9%%%%%%%%Q%%%qQ%%%%%%%q%%%QqQ%q%%%Qq%%%%%Qq%%Q%q%QqQq%Q%qQ%%q%%%%%%%%%
26954D9%%%Q%%%%%%%q%Q%%%qQqQ%%%q%Q%%q%%Q%%qQ%q%%%%%%Q%%q%%%Q%%qQq%%%%Qq%%QqQ
26938E7q%%%Q%qQqQq%%Qq%Q%%%%%%qQqQq%%qJ6qQq%Q%%%q%%%%%%%%%%%%%%%%%%%%%%%%%%%
26922D9%%%%%Qq%Qq%%%Q%%q%%%%%%%%Qq%QqQq%QqQ%%%q%%%%Q%q%Qq%%%%%%%%%%Q%q%%%%%%
26906D9%%%%%%%Qq%%%%Q%q%%%%%%%%Q%qQqQq%%%%%%%%%%%%%%%%%Qq%%%%%%%%%%%%QqQ%qQq
26891D9%%%%%%%%%%%%%%Q%%%qQ%q%%%%%%%%%QqQq%%%QqQq%%%%%Qq%%%%%%%%%%%%%%QqQqQq
26875D9Qq%%%%%Q%%q%QqJ6j6Qq%Qq%Qq%%%%%Q%q%%%%%%%%%%%%%%%%%%%%%%%%%%%%%%%%%%%
26859D9%%%%%%%%%%%%%%%%%%%%%%%%Qq%%%%QqQqQq%%%%%%%%%Qq%%%%%%%%%%%%%%%%%%%%%%
26844D9%%%%%Qq%%%%%%%%%%%%%%%%%%%%%%%Qq%Qq%%%%%%Qq%%%%%%%Qq%%%%%Q%q%%%%%%%%%
26828D9%%%%%%%%%%%%%%%%%%%%%%%%%%%%%%%%%Qq%%%%%%%%%%%%%%%%%%%%%%%%%%%%Qq%%%%
26812D9%%%%%%%%%%%%%%%%%%%%%%%%%%%%%%%Qq%%%%%%%%%%%%%%%%%%%%%%%%%%%%%%%%%%%%
26796D9%%%%%%%%%%%%%%%%%%%%%%%%%%%%%%%%%%%%%%%%%%%%%%%%%%%%%%%%%%%%%%%%%%%%%
26780D9%%%%%%%%%%%%%%%%%%%%%%%%%%%%%%%%%%%%%%%%%%%%%%%%Q%q%%%Qq%%%%%%%%%%%%%
26765D9%%%%%%%%%%%%%%%%%%%%%%%%%%%%%%%%%%%%%%%Q%%%j6QJ6j6Qq%Qq%QqQ%q%%%%%%%%
26750D9%QqQq%%%%%%Qq%%%%%%%%%%%%%%%%%%%%%%%%%%%%%%%%%%%%%%%%%%%%%%%%%%%%%%%%
26734D9%%%%%%%%%%%%%%%%%%%%%%%%%%%%%%%%%%%%%%%%%%%%%%%%%%%%%%%%%%%%%%%%%%%%%
26718D9%%%%%%%%%%%%%%%%%%%%%%%%%%%%%%%%%%%%%%%%%%%%%%%%%%%%%%%%%%%%%%%%%%%%%
26702D9%%%%%%%%%%%%%%%%%%%%%%%%%%%%qQ%%%%%%%%%%%%%%%%%%%%%%%%%%%%%%%%%%%%%%%
26686D9%%%%%%%%%%%%%%%%%%%%%%%%%%%%%%%%%%%%%%%qJ6j6J6q%Qq%Qq%%%%%%%%%%%%%%%%
26671D9%%%%%%%%%%%%%%%%%%%%%%%%%%%%%%%%%%%%%%%%%%%%%%%%%%%%%%%%%%%%%%%%%%%%%
26656D9%%%%%%%%%%%%%%%%%%%%%%%%%%%%%%%%%%%%%%%%%%%%%%%%%%%%%%%%%%%%%%%%%%%%%
26640D9%%%%%%%Qq%%%%%%%%%%%%%%%%%%%%%%%%%%%%%%%%%%%%%%%%%%%%%%%%%%%%%%%%%%%%
26624D9%%%%%%%%%%%%%%%%%%%%%%%%%%%%%%%%%%%%%%%%%%%%%%%%%%%%%%%%%%%%%%%%%%%%%
26608D9%%%%%%%%%%%%%%%%%%%%%%%%%%%%%%%%%%%%%%%%%%%%%%%%%%%%%%%%%%%%%%%%%%%%%
26592D9%%%%%%%%%%%%%%%%%%%%%%%%%%%%%%%%%%%%%%%%%%%%%%%%%%%%%%%%%Qq%%%%%%%%%%
26577D9%%%%%%%%%%%%%%%%%%%%%%%%%%%%%%%%%%%%%%%%%%%%%%%%%%%%%%%%%%%%%%%%%%%%%
26561D9%%%%%%%%%%%qQ%%%%%%%%%%%%%%%%%%%%%%%%%%%%%%%%%%%%%%%%%%%%%%%%%%%%%%%%
26545D9%%%%%%%%%%%%%%%%%%%%%%%%%%%%%%%%%%%%%%%%%%%%%%%%%%%%%%%%%%%%%%%%%%%%%
26529D9%%%%%%%%%%%%%%%%%%%%%%%%%%%%%%%%%%%%%q%Q%%%%%qQ%%%%%%%%%%qQ%%%%%%%%%%
26513D9%%%%%%%%%%%%%%%%%%%%%%%%%%%%%%%%%%%%%%%%%%%%%%%%%%%%%%%%%%%%%%%%%%%%%
26498D9%%%%%qQ%%%%%%%%%%%%%%%%%%%%%%%%%%%%%%%%%%%%%%%qQ%qQqQ%qQq%QqQ%%%qQ%%%
26482D9qQ%qQ%%qQ%%%%%qQ%%%q%Q%%%%%%%%%%%%%%%%%%%%%%%%%%%%%%%%%%%%qQ%%%%%%%q%
26466D1%%Q%%%%%%%%%%%%%%%%%%%%%%%q%Q%%%%%%%%%%%%%%%%%%%%%%%%%%%%%%%%%%%%%qQ%
26450D9%%%%%%%%%%%%%%%%%%%qQ%%%%%%%%%%%qQ%%%%%%%%%%%%%%%%%%%%%%%%%%%%qQ%%%%%
26434D9%%%%%qQqQ%%%%%%%%%%%%%%%%%%%%%%%%%%%%%%%%%%%%%q%Q%%%%%%%%%%%%%%%%%%%%
26419D9%qQ%%%%%%qQ%%%%%%%%qQ%%%%%%%%%%%%%%qQ%%%%%%%%%%%qQ%%%%%%%qQ%%%qQ%%%Qj6
26403D1%%%Q%%%%%qQ%%qQ%%%%%%%%%%%%%%%%%%%%%%%%%%%%%%%%%%%%%%%%%%%%%%%qQ%%%%%
26387D9%%%%qQ%%%%%%%%%%%%%%%%%%%%%%%%q%%Q%%q%Q%q%Q%%%%%%%qQ%%%qQ%qQ%%qQ%%%%%
26371D9%%%%%%%%%%%%%%%%%%%%%%%%%%%%%%%%%%q%%Q%%%%%%%%%%q%Q%qQqQ%%%%%%%%%%%%%
26355D9%%%qQ%%qQ%%%%%%%%%%%%%%%%%%%%%%%%%%%%%%%%%%%qQ%%%%%q%Q%qQ%%%%%q%Q%%%%
26340D9%%qQ%q%%Q%q%%QqQqQ%%%q%Q%qQq%%Q%qQ%%%%%%qQqQ%%%%qQ%%%%%%%%%qQ%%qQq%Qq
26324D1%%Q%%%%q%Q%%qQ%q%Q%qQqQ%%q%%%QqQ%%qQqQ%%%qQ%%%%%%%%%q%%Q%%%%%%%%%%%%%
26308D9%%%qQqQ%qQ%%%%%%%%%%%%%q%Q%qQ%qQ%q%Q%qQ%q%Qq%%Q%%q%Q%%%%%%%%%%%%qQ%%%
26292D9qQ%%%qQqQ%%%q%Qq%%%%%%qQqQ%%j6K4%q%QqQqQ%qQ%q%%%%%%%%Q%%%%%qQ%%%q%Q%%
26277D9%qQq%%Qq%%QqQ%%%%q%%Qq%QqQqQqQqQ%q%Qq%QqQq%Qq%Q%q%QqQqQq%Qq%Qq%Q%%q%Q
26261D9%%%%%q%%%Q%%q%%%%%Q%%q%Qq%QqQ%qQ%%%%q%%Q%qQqQqQ%qQq%%Q%qQ%%%qQq%Q%q%Q
26245D9qQqQqQqQq%%Q%q%%Qq%%%%%%%QqQ%%%%%%%%%%%%%%%%%%%%%%%q%Q%%%%%%%qQ%%%%%%
26230D9%%qQ%q%%QqQ%q%Q%qQq%%Q%q%QqQ%q%Q%%q%Qq%%Qq%%Qq%%%%%%%QqQq%%%Q%qQq%%%Q
26214D9q%Q%%q%Qq%Qq%%%%%%%Q%qQqQq%QqQq%Qq%Q%%%qQq%%%Q%%qQq%%%%%%%%Qq%%%%Q%%%
26198D9%qQqQq%%Qq%%%%%Q%%%%%%%qQ%q%%Qq%Qq%%%Qq%%Q%%%%%%%%%%%%%qQ%%qQ%qQ%%q%%
26182D1Q%q%Qq%%%%%Qq%%%%Q%q%Qq%%%%Qq%Q%qQq%%QqQqQqQ%%%%%%%%%%%q%Qq%Q%q%%%%%%
26166D1%%Q%%%q%%Q%q%QqQq%%%%QqQ%%%%qQ%%%q%%Q%qQqQq%Q%%%%%%%qQ%q%%QqQq%Qq%Q%q
26151D1QqQ%q%%Q%%q%%Qq%%%%%%%Qq%%%%%%%Qq%%%%%%%%%%%%%%%%%%%%Qq%%Qq%%%Qq%%%%%
26135D1%%%Qq%Q%%%%qQ%qQ%%qQ%%q%%%Q%%q%%%Qq%%%%%%Qq%Q%q%Qq%Qq%%%%%%%%%%%%%%%%
26119D1%%Q%qQqQ%q%%%Qq%%%%%%%%%%Qq%%Q%q%QqQqQqQ%qQqQ%%q%Qq%%%%%%%%%%%%%%%%%%
26103D1%%%%%%%%Qq%%%%%Qq%%%%%%%%%Qq%%%%%%%%%Qq%%Qq%%Qq%%%Qq%%%%%%%%%%%%%%%%%
26087D1%%%%%%%%%%%%%%%%%%%%Qq%%%%%%%%%%%%%%%%%%%%%Q%q%%%%%%%%Qq%%%%%%%%%%%%%
26072D1%%%%%%%%%%%%%%%%%%%Qq%%%%Qq%Qq%%%%%%%%%%%%%%%%%%%%%%%%%%%QqQq%%%Qq%%%
26056D1Qq%Qq%%%%QqQ%q%qQ%Q%j6Q%Q%q%Q%qQ%q%%%%%%%%%%%%%%%%%%%%%%%%%%%%%%%%%%%
26040D1%%%%%%%%%%%%%%%%%%%%%%%%Qq%%%%%QqQq%%%%%%%%%%%%%%%%%%%%%%%%%%%%%%%%%%
26024D1%%%%%%%%%Qq%%Qq%Qq%%%%%%Qq%%%%%%Q%q%Qq%%%%%%%%%%%%%%%%%Qj6QQq%Q%q%%%%
26009D1QqQq%Qq%%%Qq%%%%%%%%%%%%%%%%%%%%%%%%%%%%%%%%%%%%%%%%%%%%%%%%%%%%%%QqQ
25993D9qQq%%%Qq%%%%%%%%%%%%%%%%%%%%%%%%%%%%%%%%%%%%%%%%%%%%%%%%%%%%%%%%%%%%%
25977D1%%%%%%%%%%%%%Qq%Q%q%%%%%%%%%%%%%%%%%%%%%%%%Qq%%Qq%%%%%%%Qq%%%%%%%%%%%
25962D1%%%%%%%%%%%%%%%%%%%%%%%%%%%%%%%%%%%%%%%%%%%%%%%%%%%%%%%%%%%%%%%%%%%%%
25946D1%%%%%%%%%%%%%Qq%%%%%%%%%%%%%%%%%%%%%%%%%%%%%%%%%%QqQq%qQ%%%%%%%%%%%%%
25930D1%%%%%%%%%%%%%%%%%%%%%%%%%%%%%%%%%%%%%%%%%%Qq%%Qq%%%%%%%%%%%%%%%%%%%%%
25914D1Qq%%%%%%%%%%%%%%%%%%%%%%%%%%%%%%%%%%%%%%%%%%%%%%%%%%%%%%%%%%%Qq%%%%%%
25898D1%%Qq%%%%%%%%%%%%%%%%%%%%%%%%%%%%%%%%%%%%%%%%%%%%%%%%%%%%%%%%%%%%%%%%%
25883D1%%%%%%%%%%%%%%%%%%%%%%%%%%%%%%%%%%%Qq%%%%%%%%%%%%%%%%%%%%%%%%%%%%%%%%
25867D1%%%%%%%%%%%%%%%%%%%%%%%%%%%%%%%%%%%%%%%%%%%%%%%%%%%%%%%%%%%%%%%%%%%%%
25851D1%%%%%%%%%%%%%%%%%%%%%%%%%%%%%%%%%%%%%%%%%%%%%%%%%%%%%%%%%%%%%%%%%%%%%
25835D1%%%%%%%%%%%%%%%%%%%%%%%%%%%%%%%%%Qq%%%%%%%%%%%%%%%%%%%%%%%%%%%%%%%%%%
25819D1%%%qQQqQj6J6qQqQq%%%%%%%%%%%%%%%%%%%%%%%%%%%%%%%%%%%%%%%%%%%%%%%%%%%%
25804D1%%%%%Qq%%%%%%%%%%%%%%%%%%%%%%%%%%%%%%%%%%%%%%%%%%%%%%%%%%%%%%%%%%%%%%
25788D1%%%%%%%%%%%%%%%%%%%%%%%%%%%%%%%%%%%%%%%%%%%%%%%%%%%%%%%%%%%%%%%%%%%%%
25772D1%%%%%%%%%%%%%%%%%%%%%%%%%%%%%%Qq%%%%%%%%%%%%%%%%%%%%%%%%%%qQ%%%%%%%%%
25757D1%%%%%%%%%%%%%%%%%%%%%%%%%%%%%%%%%%%%%%%%%%%%%%%qQ%%%%%%%%%%%%%%qQ%%qQ
25741D1%%%%%%j6Q%Qq%%%Q%%%%%%%%%%%%%%%%%%%%%%%%%%%%%%%%%%%%QqqQ%%%%%%%%%%%%%
25725D1%%%%%%%%%%%%%%%%%%%%%%%%%%%%%%%qQ%%%%%%%%%%%%%%%%%%%%%%%%%%%%%%%%%%%%
25710D1%%%%%%%%%%%%%%%%%%%%%%%%%%%%%%%%%%%%%%qQq%Q%%%%%%%%%%%%%%%%%%%%%%%%%%
25694D1%%%%%%%%%%%%%%%%%%%%%%%%%%%%%%%%%%%%%%%%%%%%%%%%%%%%%%%%%%%%%%%%%%%%%
25678D1%%%%%%%%%%%%%%%%%%%%%%%%%%%%%%%%%%%%%%%%%%%%%%%%%%%%%%%%%%%%%%%%%%%%%
25662D1%%%%%%%%%%%%%%%%%%%%%%%%%%%%%%%%%%%%%%%%%%%%%%%%%%%%%%%%%%%%%%%%%%%%%
25646D1%%%%%%%%%%%%%%%%%%%%%%%%%%%%%%%%%%%%%%%%%%%%%%%%%%%%%%%%%%%%%%%%%%%%%
25631D1%%%%%%%%%%%%%%%%%%%%%%%%%%%%%%%%%%%%%%%%%%%%%%%%%%qQ%%%%%%%%%%%qQ%%%%
25615D1%%%%%%%%%qQ%%%%%%%%%%%%%%%%%%%%%%%%%%%%%%%%%%%%%%%%%%%%%%%%%%%%%%%%%%
25599D1%%%%%%%%%%%%%%%%%%%%%%%%%%%%%%%%%%%%%%%%%%%%%%%%%%%%%%%%%%%qQ%%%%%%%Q
25583D9%q%%%%qQ%%%%%%%%%%%%%%%%%%%%%%%%%%%%%%%%%%%%%%%%%%%%%%%%%%%%%%%%%%%%%
25567D1%%%%%%%%%%%%%%%%%%%%%%%%%%%%%%%%%%%%%%%%%%%%%%%%%%%%%%%%%%%%%%%%%qQ%%
25552D1%%%%%%%%%%%%%%%%%%%%%%%%%%%%%%%%%%%%%%%%%%%%%%%%%qQ%%%%%%%%%%%%%%%%q%
25536C3Q%%%%%%%%%%%%%%%%%%%%%%%%%%%%%%%%%%%%%%%qQ%%%%%%%qQq%Q%qQqQqQq%%%%Q%%
25520D1%%%%%%%%qQ%%%%%%qQq%Q%%%%%%qQ%%%%%%%%%%%%%%%%%%%%%%%%%%%%%%%%%%%%%%%%
25504D1%%%%qQ%%%%%%%%%qQ%%qQ%%%%%%%%%%%%qQ%%%%qQ%%%qQ%%%%%%%%%%%%%%%%qQ%%%%%
25488D1%%%%%%%%%%%%%%%%%%%%%%%%%%%%%qQqQ%%qQqQ%%%%%%%%%%%%%%%%%%%%%%%%%qQ%%q
25473C3%Q%%%%%%%%%%%%%%%%%%%%%%%%%%%%%%%qQqQ%%%%%%%%qQ%%qQ%%%%%%%%%%%%%%%%%%
25457D1%%%%%%%%%%qQ%%%%%%%%%%%%%%%%%%%%%%%%%%%%%%%%%%%%%%%%%%%%%q%QqQ%%%%%%%
25441D1%%%%%%%%%%%q%Q%%%qQqQ%qQ%%%%%%%%%%%%%%%%%%%qQ%%%%%%%%%%%%%%%%%%%%%%%%
25425D1%%%%%%%%%%%%qQqQ%%%%%%%%%%%%%%%%%%%%%%%%%%%qQ%qQ%%%%%%%%%%%%%%%%%%%%%
25409D1%q%Q%%qQ%q%%Q%%qQq%Qq%%Q%%%%%%%%%%%%%%%%%%%%%%q%%%QqQ%%%%%%%%%%%%%%%%
25394D1%%%%%%%%%%%%%%%%%%%%%%%qQ%qQ%q%%Q%%%%%%%%%%%%%%%%%%%%%%%%%qQ%%%%%%%qQ
25378D1qQ%%%%%%%%%%%%%%%%q%Q%%%%%qQ%%qQ%qQ%%%%%%%%%%%%%%qQ%%%%%%%%%%%%%%%%%%
25362D1%q%%Q%%%%%%%qQ%q%%Q%q%%%Qq%Q%q%Q%%qqJ6q%%%%%Q%%%qQq%QqJ6Q%J6m8K4M0qk4
25348E7j6%qL2l2%QqJ6j6%K4k4%%Q%%qQ%QqqQ%%%%qQ%%%%q%Q%%%%%qQ%%%%%%%%%%qQ%%%qQ
25334D1qQ%%%qQ%%%%%%%%%%qQ%%%%%%%%%%%%q%Q%%%%%%%%%%%%%%qQqQ%%%%q%Q%%%qQ%%%%q
25318C3Q%%%%%%%%%%%qQ%qQ%q%%QqQq%Q%qQ%%%%%%%%%%q%QqQ%%%%%%%qQ%%%%%%%%qQ%%%%q
25302C3Q%%%%%qQ%%%%%%q%%%Q%%q%Q%%%%%%%%%q%Q%%%%%%%%%qQ%%%q%QqQqQ%qQ%qQqQ%%%%
25286D1%%%%%%%%%%%%%%q%Q%%q%%%Q%%qQ%%q%Q%%qQ%%%%qQ%%%%%%q%Q%%%%%%%qQ%%qQ%%%q
25271C3Q%%%%qQqQq%%Qq%Q%%%%%%%%%qQqQ%%%q%QqQ%%%%%%%%qQ%%%%%%%%%%%%%qQqQqQ%%q
25255C3Q%%%%qQ%%%%%%%%qQ%%%%%%q%%%%Q%q%Q%%%%qQqQqQqQ%q%Q%%%qQ%%%%%%%%%%qQ%%%
25239D1%%q%%Qq%%%%%%%%%Q%%%q%QqQ%%qQq%Qq%Q%qQqQqQ%q%Q%qQq%%Qq%%%%%%Q%q%%Qq%Q
25223D1qQqQ%%%%%%%%%%%%%%%%%qQ%%q%Q%%%%q%Qq%%Qq%%%Qq%%Q%qQ%%%qQ%%%%%q%Q%q%%%
25207C3%%%%%QqQqQq%Q%%%q%%%%%Qq%%%%Q%%%qQ%qQ%%%qQ%%%%%%%%%qQ%qQ%%%%qQ%q%Q%%%
25192D1%qQ%%%%%%%%%%%%%%%qQ%%%%%%%%%%%qQ%q%Q%%%%%%%%%%%%qQqQqQq%%%%Q%%%qQq%%
25176C3Q%q%Qq%%%%%%QqQq%%%%%%%Q%%%q%Qq%%%%QqQqQ%%%%q%%%%QqQq%%%%QqQqQqQ%q%%%
25160C3%%%%%%Q%q%%%%%Q%%q%Qq%%%%Qq%%%%%Q%q%%%%Q%%%q%%%%%%%%%%%Qq%%%%%%%%%%%%
25144C3%%%%%%%%%%%%%%Qq%%%%%Qq%%%%%%%%QqQq%%%Qq%%QqQqQq%%%%%%Qq%%%%%%%%%%%%%
25128C3%%%%%%%Qq%Q%q%%%%Q%q%Qq%%%%%%%%%%%%Qq%Q%%%qQ%%%q%%Qq%%%Qq%QqQqQ%%qQ%q
25113C3Qq%%QqQ%qQq%%%%%%%Q%q%%%%%%%%%%%Qq%%%%%QqQ%%%%q%Q%q%Q%q%%Q%q%%%%%%%%%
25097C3%%%%%QqQq%%%%%Qq%Q%%qQ%%%%%%%qQqQq%Q%q%Q%q%QqQ%%%q%Q%q%%QqQ%qQq%%Qq%%
25081C3QqQqQqQq%%QqQ%q%%%%Q%q%%%%%%%%%Q%%%q%%%%%%%%%%%Q%q%Q%%%%q%Q%q%%%Q%q%%
25065C3Qq%Q%qQ%q%%Qq%%%%%%%%Qq%%%%%%%Qq%%%%%%%%%%Q%%q%%QqQ%qQ%%qQ%qQ%%%%%%%%
25049D1%%q%Q%q%%Qq%%%%%Qq%%%Qq%%Qq%%%%%%%%%%%%%%%%%%Qq%%%%%%%QqQqQq%%%%%%%%%
25034C3%%%%%%%%Qq%%Qq%Q%q%%%%%%%%Qq%Q%q%Q%%q%%Q%%q%%Qq%%%%%%Qq%%%%%Qq%%%Qq%%
25018C3Q%q%Q%%q%Q%%q%Qq%%%%%%%Qq%Q%%q%%%%%%%%%Qq%Q%%q%QqQ%%q%%Q%qQqQ%q%Qq%%%
25002C3%%%%%%%%%%%%%%%%%Qq%Q%q%Q%qQ%qQqQ%%qQq%%%%%%%%%%%%Qq%%%%%%%%%%%%%%%%%
24986C3%%%QqQq%%%%%%%Qq%Q%%q%%Qq%Qq%%%Qq%%%QqQq%%%%%%%%%%%%%%%%%Qq%%%%%%%%%%
24970C3Qq%%QqQqQ%%%q%QqQ%%%qQq%QqQ%q%%%%%%QqQ%%%q%%%%Qq%%%%%%%%%%QqQqQq%%%%%
24955C3%%%%%%Q%%q%Q%%qQ%q%Qq%%%Qq%%%%Qq%Qq%%%%%%%%%Qq%%%%%%Qq%%QqQ%qQ%%q%%Qq
24939C3Qq%%Qq%%%%%%%Qq%%Qq%%%%%%%%Qq%Qq%%Q%%%%qQ%%qQqQq%%%%%%%%%%%%%%%Q%q%%%
24923C3%%Q%q%Qq%%Q%q%%%%Qq%%%%%Qq%%Q%qQ%q%%%%%%%%%%%%%%%%%%%%%%%%%%%%%%%%%%%
24907C3%%%%%%%%%%%%%Qq%%%%%%%%%%%%%Q%%%%q%%%QqQqQq%%%%%%%%%%%%%%%%%Qq%Qq%Qq%
24892C3%Qq%%%Qq%%Qq%%%%%Qq%Q%q%%%%%%%Qq%%%QqQ%q%%%%Qq%QqQqj6J6%Qq%qJ6q%Qq%%Q
24876D1%qQ%qQ%%%%qQq%%%Qq%Qq%%%%Q%qQ%q%%%Qq%%%%%%%%%%%%%%%%%%%%%%%%%%%%%%%%%
24861C3%%%%Qq%%%%%%%%%%%Qq%%%%%%%%%Qq%%%%%%%%%Qq%%%%%%%%Qq%%%%%%%%%%%%%%%%%%
24845C3%%%%%%%%%%%%%%%%%%%%%%%%%%%%%%%%%%%%%%%%%%Q%%%qQq%%%%%%%%%%%%%%%%%%%%
24829C3%Qq%Q%q%%Qq%%%%%%%%Qq%Qq%Qq%%%Q%q%%%%Qq%%%%Qq%%%%%%%%%%%%%%%%%%%%%%%%
24813C3%%%%%%%%%%%%%%%%%%%%%%%%%%%%%%%%%%%%%Q%q%%%%QqQq%qJ6q%%%%%%%%%%%%%%%%
24798C3%%%%%%%%%%%%%%%%%%%%%%%%%%%%%%%%%%%%%%%%%%%%%%%%%%%Qq%%%%%%%%%%%%%%Qq
24782C3%Qq%Qq%%%%%%%%%%%%%%%Qq%Qq%%%%%%%%%%%%%%%%%Qq%%%%%%%%Qq%%%%%%Qq%%%%%%
24766C3%%%%%%%%%%%%Qq%Qq%%Qq%%Qq%%%%%%%%%%%%%%%%%%%%%%%%%%%%%%%%%%%%%%%%%%%%
24750C3%%%%%%%%%Qq%%%%%%%%%%%%%%%%%%%%%%%%%%%%%%%%%%%%%%%%%%%%%%%%%%Qq%%%%%%
24734C3%%%%%%%%%%%%%%%%%%Qq%%%%%%%%%%%%%%%%%%%%%%%%%%%%%%%%%%%%%%%%%%%%%%%%%
24719C3%%%%%%%%%%%%%%%%%%%%Qq%Qq%%%%%%%%%%%%%%%%%%%%%%%%%%%%%%%%%%%%%%%%%%%%
24703C3%%%%%%%%%%%%%%%%%%%%%%%%%%%%%%%%%%%%%%%%%%%%QqQ%q%%%%%%%Qq%Qq%%%%%QqQ
24687D1%q%%%%%%%%%%%%Q%%q%%%%%%%%%%%%%%%%%%%%%%%%%%Qq%%%%%%%%Qq%%%%%%%%%%%%%
24671C3%%%%Qq%%%%%%%%%%%%%%%%%%%%%%%%%%%%Qq%%%%%%%%%%%%%%%%%%%%%%%%%%%%%%%%%
24656C3%%%%%%%%%%%%%%%%%%%%%%%%%%%%Qq%%%%%%%Qq%%QqQqQqQ%qqQ%%%%%%%%%%%%Qq%%%
24640C3%%%%%%%%%%%%%%%%%%%%%%%%%%%%%%%%%%%%%%%%%%%%%%%%%%%%%%%%%%%%%%%%%%%%%
24624C3%%%%%%%%%%%%%%%%%%%%%%%%%%%%%%%%%Q%q%%%%%%%%%%%%%%%%%%%%%%%%%%%%%%%%%
24608C3%%%%%%%%%%%Q%q%%%%%%%%%%%%%%%%%%%%%%%%%%%%%%%%%%%%%%%%%%%%%%%%%%%%%%%
24592C3%%%%%%%%%%%%%%%%%%%%%%%%%%%QqQq%%%%%%%%%%%%%%%%%%%%%%%%%%%%%%%%%%%%%%
24577C3%%%%%%%%%%%%%%%%%%%%%%%%%%%%%%%%%%%%%%%%%%%%%%%%%%%%%%%%%%%%%%%%%%%%%
24561C3%%%%%%%%%%%%%%Qq%%%%Qq%%%%%%%%%%%%%%%%%%%%%%%%%%%%%%%%%%%%%%%%%%%%%%%
24545C3%%%%%%%%%%%%%%%%%%%%%%%%%%%%%%%%%%%%%%%%%%%%%%%%%%%%%%%%%%%%%%qQ%%%%%
24529C3%%%%%Qq%%%%%%%%%%%%%%%%%%%%%%%%%%%%%%%%%%%%%%%%%%%%%%%%%%%%%%%%%%%%%%
24513C3%%%%%%%%%%%%%%%%%%%%%%%%%%%%%%%%%%%%%%%%%%%%%%%%%%%%%%%%%%%%%%%%%%%%%
24498C3%%%%%%%%%%%%%%%%%%%%%%%%%%%%%%%%%%%%%%%%%%%%%%%%%%%%%%%%%%%%%%%%%%%%%
24482C3%%%%%%%%%%%%%%%%%%%%%%%%%%%%%%%%%%%%%%%%%%%%%%%%%%%%%Qq%%%%%%%%%%%%%%
24466C3%%%%%%%%%%%%%%%%%%%%%%%%%%%%%%%%%%%%%%%%%%%%%%%%%%%%%%%%%%%%%%%%%%%%%
24450C3%%%%%%%%%%%%%%%%%%%%%%%%%%%%%%%%%%%%%%%%%%%%%%%%%%%%%%%%%%%%%%%%%%%%%
24434C3%%%%%%%%%%%%%%%%%%%%%%%%%%%%%%%%%%%%%%%%%%%%%%%%%%%%%%%%%%%%%%%%%%%%%
24419C3%%%%%%%%%%%%%%%%%%%%%%%%qQQq%%Qq%Q%%j6J6j6qK4q%qJ6q%%Qq%%%%%%%%%%%%%%
24404C3%%%%%%%%%%%%%%%%%%%%%%%%%%%%%%%%%%%%%%%%%%%%%%%%%%%%%%%%%%%%%%%%%%%%%
24388C3%%%%%%%%%%%%%%%%%%%%%%%%%%%%%%%%%%%%%%%%%%%%%%%%%%%%%%%%%%%%%%%%%%%%%
24372C3%%%%%%%%%%%%%%%%%%%%%%%%%%%%%%%%%%%%%%%%%%%%%%%%%%%%%%%%%%%%%%%%%%%%%
24357C3%%%%%%%%%%%%%%%%%%%%%%%%%%%%%%%%%%%%%%%%%%%%%%%%%%%%%%%%%%%%%%%%%%%%%
24341C3%%%%%%%%%%%%%%%%%%%%%%%%%%%%%%%%%%%%%%Qq%%%%%%%%%%%%%%%%%%%%%%%%%%%%%
24325C3%%%%%%%%%%%%%%%%%%%%%%%%%%%%%%%%%%%%%%%%%%%%%%%%%%%%%%%%%%%%%%%%%%%%%
24309C3%%%%%%%%%%%%%%%%%%%%%%%%%%%%%%%%%%%%%%%%%%%%%%%%%%%%%%%%%%%%%%%%%%%%%
24293C3%%%Qq%%%%%%%%%%%%%%%%%%%%%%%%%%%%%%%%%%%%%%%%%%%%%%%%%%%%%%%%%%%%%%%%
24278C3%%%%%%%%%%%%%%%%%%%%%%%%%%%%%%%%%%%%%%%%%%%%%%%%%%%%%%%%%%%%%%%%%%%%%
24262C3%%%%%%%%%%%%%%%%%%%%%%%%%%%%%%%%%%%%%%%%%%%%%%%%%%%qQ%%%%%%%%%%%%%%%%
24246C3%%%%%%%%%%%%%%%%%%%%%%%%%%%%%%%%%%%%%%%%%%%%%%%%%%%%%%%%%%%%%%%%%%%%%
24230C3%%%%%%%%%%%%%%%%%%%%%%%%%%%%%%%%%%%%%%%%%%%%%%%%%%%%%%%%%%%%%%%%%%%%%
24214C3%%%%%%%%%%%%%%%%%%%%%%%%%%%%%%%%%%%%%%%%%%%%%%%%%%%%%%%%%%%%%%%%%%%%%
24199C3%%%%%%%%%%%%%%%%%%%%%%%%%%%%%%%%%%%%%%%%%%%%%%%%%%%%%%%%%%%%%%%%%%%%%
24183C3%%%%%%%%%%%%%%%%%%%%%%%qQ%%q%Q%qQ%%%%%%%%%%%%%%%%%%%%%%%%%%%%%%%%%%%%
24167C3%%%%%%%%%%%%%%%%%%%%%%%%%%%%%%%%qQ%%%%%%%%%%%%%%%%%%%%%%%%%%%%%%%%%%%
24151C3%%%%%%%%%%%%%%%%%%%%%%%%%%%%%%%%%%%%%%%%%qQ%%%%%%%%Qq%%%%%qQ%qQQj6%QK4
24136E7k4qQQq%%%%%%%%%%%%%qQ%%%%%%%%%%%%%%%%%%%%%%%%%%%%%%%%%%%%%%%%%%%%%%%%
24120C3%%%%%%%%%qQ%%%%%%%%%%%%%%%%%%%%%%%%%%%%%%%%%%%%%%%%%%%%%%%%%%%%%%%%%%
24104C3%%%%%%%%%%%%%%%%%%%%%%%%%%%%%%%%%%%%%%%%%%%%%%%%%%%%%%%%%%%%%%%%%%%%%
24089C3%%Qq%%%%%%%%%%%%%%%%%%%%%%%%%%%%%%%%%%%%%%%%%%%%qQ%%%%%%%%%%%%%%%%%%%
24073C3%%%%%%%%%%%%%%%%%%%%%%%%%%%%%%%%%%%%%%%%%%%%%%%%%%%%%%%%%%%%%qQ%%%%%%
24057C3qQ%%%%%%%%%%%%%%%%%%%%%%%%%%%%%%%%%%%%%%%%%%%%%%%%%%%%%%%%%%%%%%%%%%%
24041C3%%%%%%%%%%%%%%%%%%%%%%%%%%%%%%%%%%%%%%%%%%%%%%%%%%qQ%%%%%%%%%%%%%%%%%
24025C3%%%%%%%%%%%%%%%%%%%%%%%%%%%%%%%%%%%%%%%%%%%%%%%%%%%%%%%%%%%%%%%%%%%%%
24010C3%%%%%%%%%%%%%%%%%%%%%%%%%%%%%%%%%%%%qQ%%%%%%%%%%%%%%%%%%%%qQqQ%qQ%%%%
23994C3%%%%%%%%%%%%%%%%%%%%%%%%%%%%%%%%%%%%%%%%%%%%%%%%%%%%%%%%%%%%%%%%%%%%%
23978C3%%%%%%%%%%%%%%%%%%%%%%%%%%%%%%%%%%%%%%%%%%%%%%%%%%%%%%%%%%%%%%%%%%%%%
23962C3%%%%%%%%%%%%%%%%%%%%%%%%%%%%%%%%%%%%%%%%%%%%%%%%%%%%%%%%%%%%%%%%%%%%%
23946C3%%%%%%%%%%%%%%%%%%J6k4%%%QqQ%%%%%%%%%%%%%%%%%%%%%%%%%%%%%%%%%qQ%%%%%%
23931C3%%%%%%%%%%%%%%%qQ%qQ%%%%%%%%%%%%%%%%%%%%%%%%%%%%%%%%%%%%%%%%%%%%%%%%%
23915C3%%%%%%%%%%%%%%%%%%%%%%%%%%%%%%%%%%%%%%%%%%%%%%%%%%%%%%%%%%%%%%%%%%%%%
23900C3%%%%%%%%%%%%%%%%%%%%%%%%qQ%%%%%%%%%%%%%%%%%%%%qQ%%%%%%%%qQ%%%%%%%%%%%
23884C3%%%%%%%%%%%%%%%%%%%%%%%%%%%%%%%%%%%%%%%%%%%%%%%%%%%q%Q%%%%%%%%%%%%%%%
23868C3%%qQ%qQ%%q%%J6j6J6qqQQq%%%%%%%%%%%%%%%%%%%%%%%%%%%%%%%%%%%%%%%%%%%%qQ
23853C3%%%%qQ%%%%%%%%%%%%%%%%%%%%%%qQ%%%%%%%%qQ%%%%qQ%%%%%%%%%%%%%%%%%%%%%%%
23837C3%%%%%%%%%%%%%%%%%%%%%%%%%%%%%%%%%qQ%%%%%%%%%%%%%%%%%%qQq%%Q%qQ%%%%%%%
23821C3%%%%%%qQ%%%%%%%%%%qQ%%%qQ%%%%%%q%%QqQ%%%%%%%%%%%qQ%%%%%%%%%%qQ%%%%qQ%
23805C3%%%%%%%%%%%%%%%%%%%%%%%%%%%%%%%%%%%%%%%%%%%qQ%%%%%%%%%%%%%%%%%%%%%%%%
23790C3%%%%%%%%%%%%%%%%%%%%%%%%%%%%%%%%%%%%%%%%%qQ%%%%%%qQ%%%q%Q%%%%%%%%%%%%
23774C3%%%qQ%%%%%%qQ%%%%%%%%%%%%%%%%%%qQq%%%Q%qQ%%%%%%%%%%%%%%%%%%%%%%%%%%%%
23758C3%%%%%%%%%%%%%%%%%%%%%%%%%%%%%%%%%%%%%%%%%%%%%%%%%%%%%%%%%%%%%%%%%%%qQ
23742C3%%%%%%%%%%%%%%%%%%%%%%%%%%%%%%%%%%%%%%%%%%%%%%%%%%%%%%%%%%%%%%%%%%%%%
23727C3%%%%%%%%qQ%%%%%%%%%%%%%%%%%%%%%%%%%%qQ%q%Q%%qQ%%%%%%%%%%%qQ%%%%%qQ%%q
23711B5Q%%qQ%%%%q%J6q%qQ%q%Q%%%%qQ%%%%%%%%%%%%%%%qQ%%%%%%%%%%%%%%%%%%%%%%%%%
23695C3%%%%%%%%%%%%%%%%%%%%%%%%%%%%%%qQ%%%%%%qQ%qQqQ%qQ%%%%%%%%%%%%%%%%%%%%%
23679C3%%%%%%%%%%%%%%%%%%%%%%%qQ%%%%%qQ%%%%%%%%%%%%%%%%%%%%q%%Q%%%%%%%%%%%qQ
23664C3%%%%%%%%%%%%%%%%%%%%%%%%%%%%qQ%%%%%%%%%%%%%%%%%%%%%%%%%%%%%%qQ%qQqQ%%
23648C3qQ%%%qQqQ%%%%%%%%%%%%%%%%%%%%%%%%%%%%%%%%%%%%%%%%%%%%%qQ%%%%%%%%%%%%%
23632C3%%%%%%%%%%%%%%%%%%%%qQ%%qQ%%%%%%%%%%%%%%%%%%%%%%%%%%%%qQ%%%%%%%%%%%%%
23616C3%%%%%%%%qQ%%%%%%%%%qQ%%%qQ%%%%q%Q%%%%%%qQ%%%%%%%%%%%%%%%%%%%%qQq%Q%%%
23600C3%%%%%qQ%%%%%qQ%%%%%%%%%%%%qQ%%%%%%qQ%qQ%%j6J6%q%Q%%%%%%%qQqQqQ%q%Q%q%
23585B5Q%%%%%%%%%%%%%%%%%%%%%%%%%%%%%%%%%%%%%%%%%%%%%%%%%%%%%%%%%%%%%%%%%%%%
23569C3%%%%%%%%%%%%%%%%%%%%%%%%%%%%%%%qQ%%%%%%%%%%%qQ%%%%qQqQ%%%%%%%%%%%%%%%
23553C3%%%%%%%%%%%%%%%%%%%qQqQ%qQq%Qq%Q%qQ%%qQ%q%Q%%q%Qq%%%Q%%%%%%%%%%%%%%%%
23538C3%%%%%%%%%%qQqQ%%%%qQ%qQ%%%%%qQqQ%%%%%%qQq%Q%%%%%%%%%%%%%qQ%%%%%%%%q%%
23522B5Qq%Q%q%%QqQqQ%qQ%%%%%%%%%qQ%%%%qQq%Q%%%qQ%%%%%%qQ%%%q%Q%%%qQ%q%%Q%qQ%
23506C3%%qQq%%Qq%Q%%%%%%%%%%qQ%%%%%qQ%%%qQq%%%Qq%%Q%%%%%%%%%%%%%%qQ%%qQ%%%qQ
23490C3qQ%%%%qQ%%%%%%%%%%%%%%%%%%%%%%%%%%%%%%qQq%%Q%%%%%%%q%%QqQq%QQj6Q%j6J6
23475C3%q%Qk4L2k4%K4qk4L2j6J6qq%%%QqQ%Qq%%%%qQqQqQ%%%%%%%%%%%%%%%%%%%qQ%%%%%
23461C3%%%%%%%%%qQ%%%%qQ%%qQqQ%%%%%%%%%%%qQ%%%%%%qQqQ%%q%Q%%%qQqQ%qQ%%%%%%q%
23445B5Q%%%q%Q%%qQ%%%%%%%%%%%%qQ%qQqQ%%%%%%%%%%%%%%%%%qQqQ%%qQ%%%%%%%%%%%%%%
23430C3%%%%qQq%Q%%%qQ%%%%qQ%%qQ%%qQ%%%%%%%%%%%%%%%%%%%%qQ%%%%%%qQ%%%%%%%q%Q%
23414C3%%%%%%%%%%q%Qq%Q%%%%%%qQ%%%%qQ%%%%%%%%%%%%%%%%qQqQ%%%%%qQ%%%q%Q%%%%%%
23398C3%q%%Qq%Q%q%%Q%%%%%%%%%%%%%%%q%QqQqQ%%qQqQqQ%%%%%q%Qq%%%Q%%%%qQqQ%q%%%
23382B5Qq%%%%%Q%%%%q%Q%%%%%qQqQ%%%%%%qQ%%%%qQ%%q%%Q%%%qQ%qQq%Q%%%q%Q%%%%%%q%
23366B5Q%%%%%%%%%%%%%%qQ%%%%%qQ%%%q%QqQqQ%%%qQ%qQq%Q%%%q%%Q%%%%%%%%%%%%%%%%%
23351C3%qQqQ%%qQ%%%%%%%%q%QqQqQ%%%%%%%%%%%%%%%%%%%%%%%%%qQ%%%%%%%qQ%%q%Qq%%Q
23335C3%qQ%qQq%%Q%q%QqQ%%%%%%qQqQ%%%%%%q%Q%%%%%qQ%%qQ%%%q%Q%%%%q%Q%%%qQ%%qQq
23319B5%Q%q%%%Q%%%q%Q%qQq%%%%%%%%%%%%%%%Qq%Qq%%Q%q%%%QqQq%%QqQ%%%%qQq%%%Q%qQ
23303C3q%%%Q%q%%Qq%%%QqQqQ%%%%%qQ%qQ%%q%%Q%%%q%Q%q%Q%q%%Qq%Q%q%%Q%%qQq%Qq%Qq
23288B5%%Q%%%%%q%%%%%%%QqQ%%q%Q%%qQ%%qQ%q%QqQq%%Q%%%%%qQ%q%Q%%%%qQ%%%%%%qQ%%
23272C3%%q%QqQ%%%%%%%%%%%%%%qQ%q%%Qq%Qq%%%Qq%%%Q%%%qQ%qQqQ%%%%%%qQ%%%%qQ%%%%
23256C3%qQ%%qQ%%%q%Q%%%%%%qQ%%%%qQ%%%%%%%%%%%%%%q%%Q%%%%q%%Qq%%%QqQ%qQq%%%Qq
23240B5Q%q%Qq%J6j6%%%Q%%%%%%qQq%Q%q%QqQq%%Q%%q%%Qq%%Qq%%%Qq%%Qq%Qq%%%QqQ%%%%
23225C3%q%Q%%%%%%%%%%%%%%%%qQ%q%Q%%%q%Q%q%Q%q%%%%%%%%%%%%%QqQ%%%qQq%Qq%%Q%%%
23209C3%%qQ%%%%%%%qQ%%qQ%%%%%%%%%%%qQ%%%%%%q%%QqQq%Q%%q%%%%Qq%%%%%%%Q%qQqQ%%
23193C3%%q%%%%QqQq%%Qq%%%%QqQqQq%Q%%%%%%%%%qQ%%q%Q%%%%%qQqQqQ%qQ%qQqQ%q%Qq%%
23177B5Q%%q%%QqQqQ%qQ%%%%%%%%%qQq%%%%Qq%Q%%qQq%%%%%%Q%qQ%%%%%%qQq%%%%%QqQq%Q
23162C3%%q%Qq%Q%%%%%%%%%%%%%%%%%%%qQ%%%%qQ%%%%qQqQ%%%%%q%%%Q%%%%qQq%Q%%%q%Q%
23146C3%%%%qQ%%%qQ%qQ%q%%Q%%%%%%%%%%qQq%QqQq%Qq%%%QqQqQ%qQ%%%%%%%%%%%%%%%%%q
23130B5Q%%%%%q%Q%%%%%%qQ%%q%%Q%q%%%%%%Q%%q%%Qq%%Q%q%QqQ%q%%%QqQq%Q%%qQ%q%%Qq
23114B5%QqQqQ%%%qQqQ%%%%%qQ%%%%%%qQ%q%Qq%%%%Qq%%%%QqQqQq%Q%qQ%%qQ%%%%%q%Q%qQ
23098C3qQqQ%%%q%%%%Q%q%QqQ%%%qQq%%%Q%%%qQqQqQ%%q%%%Q%q%%%%Q%%%%%q%%%Q%qQ%q%Q
23083C3qQ%%%q%Qq%Q%%%%qQ%%%%qQ%%%%%%%%%%%%%%%%%%%qQ%%%%%%%q%Qq%QqQ%%%%%%%%%q
23067B5%%%%%%%%Qq%QqQqQ%%q%Qq%Qq%%%Q%qQq%QqQq%%%Q%qQqQ%%q%%QqQq%%Q%qQ%%q%Qq%
23051B5%QqQ%qQ%%%qQqQ%%%%qQqQ%%q%Qq%Q%%%q%Q%q%%Qq%%%%Q%qQ%qQ%%%q%%%%%%%Qq%%%
23035B5Qq%Q%%%qQ%%qQq%%%Q%qQq%%%Qq%%%%%%Qq%%Qq%%%%%Q%q%Q%q%Qq%%%QqQ%%%%%q%%Q
23019C3q%%%Qq%Qq%Q%%qQqQqQ%qQq%Q%%%%%q%%QqQ%%%%%%q%Q%qQqQ%qQ%%%%%%%q%Q%%qQq%
23004B5%%QqQq%%%%%%Q%q%%%%%%%%Q%%%q%Qq%Q%%q%%QqQq%Q%qQ%%q%%%%Q%%%qQ%%qQqQ%%%
22988C3%%qQq%Qq%Q%%qQ%qQ%%%q%Qq%Q%q%%%%%Qq%QqQq%%Qq%%Qq%%Qq%%%%QqQqQq%%QqQq%
22972B5Q%qQqQq%QqQ%q%Q%%q%%%%%%%%%%%%%%%%%%%%%Qq%%Qq%%%%%%%%Qq%Qq%%%%%%%%Qq%
22956B5Qq%%Qq%Qq%%%Qq%%%%%%%%%%%%%%%%Q%qQqQ%qQqQ%qQqQqQq%Qq%%%%%%Qq%%%Q%q%Q%
22941C3%%%%%%%%%%q%%Q%%%%qQ%%%qQ%%%q%%QqQqQ%q%%%QqQq%Q%q%%%Qq%%Q%qqQQqQqqQ%%
22925B5Q%qQ%q%%Qq%Q%qQ%%%%%%%%qQ%%%%qQq%QqQ%q%%%%Qq%%%%%%%%%%QqQ%%q%%%%%%%Qq
22909B5%%%%%%Qq%%%%%Q%qQ%q%%%Qq%Qq%Qq%Qq%%%%%Q%q%%%%%%%%Q%qQ%%q%%Q%%q%QqQ%qQ
22893C3%qQ%%%qQ%%q%%Q%qQ%%%q%%%Q%qQ%q%Q%%q%Qq%%QqQ%qQ%%%%%qQq%%%%QqQ%q%Q%%qQ
22877C3q%Qq%Q%%qQ%%qQ%q%%Qq%%%Qq%Qq%%%Qq%Qq%%%%%Q%%qQq%%%%Qq%%Q%qQqQqQqQ%%q%
22862B5%%Q%%q%Q%%%%%q%%QqQ%%q%%Qq%%%%%%%%%%%%%%%%%%%Qq%%%%%%%%%%%%%%Qq%%Qq%Q
22846C3%%q%%Qq%Q%%%qQqQq%%%Qq%%%QqQq%%Q%q%Q%q%Q%%qQq%%%%%%%Qq%%%Qq%%%%%%%Q%%
22830C3q%%Qq%Q%%%qQ%q%QqQqQ%q%%Qq%%%%%%%%%%%%%%%%%%%%%%%%%%%%%%%%%%%%%%%%%Qq
22814B5%Qq%%%%%%%Qq%%%%%%%%%Qq%QqQqQ%%qQq%%Qq%Q%%qQ%q%QqQq%%%Q%%%%qQ%%%%%q%%
22798B5Q%qQ%%qQ%%qQqQ%%qQq%%%Q%q%Qq%%QqQ%q%%%%%%%QqQ%%%%q%%Q%q%%%Qq%%Qq%%%Qq
22783B5%%%%%Qq%%%%%%%%%%%%%%%%%%%%Q%q%Q%qQ%%q%%Qq%QqQqQ%qQqqJ6q%Q%%qQq%%Qq%%
22767B5%%%%%%%%%Q%qQ%q%QqQq%%%%%%%Q%%q%Q%q%QqQ%q%%%%QqQqQ%q%Qq%%%%%%%%%%%%%%
22751B5%QqQq%%%%%%%Qq%%QqQq%%%%Q%qQ%%q%%%%%%%%%%%%Q%%q%%%%%%%Qq%QqQq%%%%%%%%
22735B5%%%%Q%%%%q%%%Qq%%Q%q%%Qq%Q%%%qQq%Q%%%qQqQq%%Q%%%%%%%qQ%%q%%%Qq%%Qq%%Q
22720C3%q%%%%%%%Qq%%%%%Q%q%%%%%%%%QqQq%%QqQ%%%%%qQ%%q%%%%QqQqQqQq%Q%%q%%%Q%q
22704B5%%%%%%%%%%%Q%qQq%%%%%%%%%QqQ%%q%Qq%%%%%%%%Qq%Qq%%%%%%%%%%%%%QqQq%%Qq%
22688B5%%%%%%%%%Qq%%%%%%%%Qq%%Qq%Qq%Q%%q%%%%%%%Qq%%%Qq%Qq%%%QqQq%Qq%Q%%%%q%%
22672B5%%%QqQqQ%%%%%%qQq%%%%%%%%%%%%%%%%Q%q%%%%%%%%%%%%%%%%%%Qq%%%%%%%%%%%%%
22656B5%%%%%%%%%QqQqQ%%q%QqQq%Q%%q%%%%%%Qq%%%%%Qq%%%%%%%%%Q%qQ%q%%%%%%%%%%%%
22641B5%%%%%%%%%%%%%%%%Qq%%%%%%%%%%%QqQ%%%%qQq%%%Q%%%q%%%QqQq%%%Q%%%q%%%%Qq%
22625B5%%%%%QqQq%%%%Q%%%%q%%%QqQq%%%%%Qq%%%%%Qq%%%%%%%%%%%%Qq%Q%q%%Q%%%%q%%Q
22609C3q%Q%q%Q%qQ%%%%%%q%%Q%qQ%%%qQ%q%Qq%%%%%%%%%%%%%%%%%%Qq%Qq%%Q%q%%%%Q%%q
22593B5%Qq%%%%%%%%%QqQq%%%%%%%Q%%%%%%q%QqQ%%%%qQq%%%%Qq%%%%%%%%%%%%%%Qq%%%%%
22578B5Q%q%%Q%%%qQqQ%qQqQ%q%%%%%%%QqQqQq%%%%%%%%Qq%%%QqQq%%%%%Qq%%Qq%%%%%Qq%
22562B5%%%%%%%Qq%%Q%q%%%Q%qQ%qQq%%%Qq%%%%Qq%%%%%%%QqQ%q%%%%%%%%%%%%%Qq%%%%Qq
22546B5%%%%%%Qq%%%%%%%Qq%Q%qQqQqQq%%%QqQ%qQ%qQQq%q%Q%q%%qQQ%q%%%%Qq%%%%%%%%%
22530B5%%%%Qq%%%%%%%Qq%%%%%%%%%%%%%%%%%%%%Q%q%QqQq%Qq%%%%%Qq%%%%%%%%%%%Q%qQq
22514B5%%%%%%%%%%%Q%%qQq%%%%%%%%%%%Qq%Q%qQ%%q%%Qq%%Qq%%%%%%%%Qq%%%%%%Qq%%%%%
22499B5%%%%%%%%%%%%%%%%%%%%%%%%%%%%%%%%%%%%%%QqQq%QqQq%Qq%Qq%%%%%%%%%%%%QqQq
22483B5%%%%%Qq%%%%%%%%%%%%%%%%%%%%%%Qq%Q%%qQq%Qq%%%%%%%%%%%%%%Qq%%%%%%%%Qq%%
22467B5%%%%%%%%%%%%%%%%%%%Qq%%%%%%%%%%%%Q%qQq%Qq%%Q%%%qQ%q%Q%q%%%%%%%%%%%%%%
22451B5%%%%Qq%%Qq%%%%%QqQq%Q%%q%%%%%%QqQq%%%Qq%%%%%%%%%%%QqQq%%%%%%%%%%%%%%%
22435B5%%%QqQq%%%Qq%Qq%%%%%%%%%%%%QqQq%%%%%%%%%%%%%%%%%%%%%%%%%%%%%Qq%%%%%%%
22420B5%%%QqQqQq%%%%%%%%%%%%Qq%%%%%%%%%%%%%Qq%%%%%%%%%%%%%%%%%%%%%%%%%%Q%q%%
22404B5%%%%%%%%%%%%%%%%%%%%%%%%%%%%%%%%%%%%%%%%%Qq%%Qq%%Qq%%%%%Qq%%Q%qQqQq%%
22388B5%%%%%%%%%%%%%%%%%%%%%%%%%%%%%%%%%%%%%%%%%%Qq%%%Qq%%%%%Qq%Qq%Q%q%%%%%%
22372B5%%%Q%%%%%q%%%%%%%%%%%%%%%Qq%Qq%%%%%%%%%%%%%QqQq%%Qq%%%%%%%Q%q%%%Q%%qQ
22356C3%q%%%%%%%%%%%%%%%%%%QqQ%%%qQq%%%%%%%Qq%%%%%%%%%%%%%%%%%%%%%%%Q%qQ%%q%
22341B5%Qq%Q%%q%Q%q%%Qq%%%%%%%%%%Qq%%%%%%%%%%%%%%%Qq%%%%%%%%%%%%%%%%%%%%%%%%
22325B5%%%%%Qq%%%%%%%%%%%%%QqQq%Qq%%%%%Q%%qQqQ%q%%%%%%%QqQqQq%%Qq%%%%%%%%%%%
22309B5%%%%%%%%%%%%%%%%%%%%%%Q%q%%%%%%%%qQQq%%%%Qq%QqQq%%%%%%%%Qq%%%%%%%%%%%
22293B5%%%%%%%%%%%%%%%%%%%%%%Qq%%%Qq%Qq%%%%%Qq%%%QqQq%%%%%%%%%%%%%%%%%%%%%%%
22277B5%%%%%%%%%Qq%%%%%%%%%%Qq%%%Qq%%%%%%Q%qQq%Q%%%%%%q%Qq%%%%%%%Qq%%%%Q%q%Q
22262C3qQ%%q%%%%%%%Qq%%%%%%%%%%%%%%%%%%%%%Qq%%%%%%%%%%%Q%q%%%%%%%%%%%%%%%%%%
22246B5%%%%%%%%%%%Q%q%%%%%%%%Qq%%%%%%%%%%%%%%%%%%%%%%%%%%%%%%%%%%%%%%%%%%%%%
22230B5%%%%%%%%%%%%%%%%%%%%%%%%%Qq%%Q%q%%%%%%%%%%Q%q%%%%%%Qq%%%%Q%q%%%%QqQq%
22214B5%Qq%%%%%%%%%%%%%%%%%%%%%%%%%%%%%%%%Qq%%%%%%%%%%%%%%%%%Qq%%%%%%%%%%%%%
22198B5%%%%%%%%%%%%%%%%Qq%%%%%%%%%%%%%%%%%%%%%%%%%%%Qq%%%%%%%%%%%%Q%q%QqQq%%
22183B5%%%%%%%%%%%%Qq%%%%%%Qq%%%%%%%%%%%%%Qq%%Q%%q%%%%%%%%%%%%%QqQq%%%%%%%%Q
22167C3q%%%%QqQqQq%%%%%%%%%%%%%%%%%%%%%%%%%%%%%%%%%%%%%%%%%%%Qq%%%%%%%%%%%Q%
22151C3qQqQ%%qQq%%%%%%%%%%%%%%%%%%%%%%%%%%%%%%%%%%%%%%%%%%Qq%%%%%%%%%%%%%%%%
22135B5%%Qq%%%%%%%Qq%%%%%%%%%%%Q%%q%%%%%%%Qq%%%%%%Q%%q%%%%%%%%%%%%%%%%%%%%%%
22120B5%%%Qq%Qq%%%%%%%%Q%%%q%%%%%%%%%%%%%%%%%%%%%%%%%%%%%%%%%%Q%q%%%%%%%Qq%%
22104B5%%%%%%%%%%%%%%%%%%%%%%%%%%%%Qq%%%%%%%%%%%%%%%%%%%%%%%%%%%%%%%%%%%%%%%
22088B5%%%%%%%%%%%%%%Qq%%%%%%%%%%%%%%%%%%%%%%%%%%%%%%%%%%%%%%%%%%%%%%%Qq%%%%
22072B5%%%Qq%Qq%%Q%%q%Qq%%%QQj6%%%%%%Qq%%%%%%%%%%%Qq%%%%%%%%Q%q%%%%%%%%%%%%%
22057B5%%Qq%%Qq%%Qq%%%%%%%%%Q%qQq%Qq%Qq%%%%%%%%%%%%%%%%Qq%%%%%%%%%%%%%%%%%%%
22041B5%%%%%%%%%%%%%Qq%%%%%%%%%%%%%%Qq%%%%%%%Qq%%%%%%%%%%%%%%%%%%%%%QqQq%%%%
22025B5%%%%%%%%%%%%%%%%%%%%%Qq%%%%%%%%%%%%%%%%%%%%%%%%%%%%%%%%%%%%%%%%%%%%%%
22009B5%%%%%%%%%%%%%%%%%%%%%%%%%%%%%%%%%%%%%%%%%%%%%%%%%%%%%%%%%%%%%%%%%Q%q%
21993B5%%%%%Qq%qJ6j6J6%Qj6Q%m0N6k4J6k4Q%QqqQ%%%Qq%%%%%%%%%%%%%%%%%%%%%%%%%%%
21980B5%%%%%%%%%%%%%%%%%%%%%%%%%%%%%%%%Qq%%%%%%%%%%%%%%Qq%%%%%%%%%%%%%%%%%%%
21964B5%%%%%%%%%%%%%%%%%%%%%%%%%%%%%%%%%%%%%%%%%%%%%%%%%%%%Qq%%%%%%%Qq%%%%%%
21948B5%%%%%%%%%%%%%Qq%%%%%%%%%%%%%%%%%%%%%%%%%%%%%%%%%%%%%%%%%%%%%%%%%%%%%%
21932B5%Qq%%%%%%QqQq%%%%%%%%%Q%q%%%%%%%%%%%%%%%%%%%%%%%%%%%Q%q%%%%%%%Qq%%%%%
21917B5%%%%%%%%%%%%%%%%%%%%%%%%%%%%%%%%%%%%%%%%%%%%%%%%%%%%%%%%%%%%%%%%%%%%%
21901B5%%%%%%%%%%%%Qq%%%%%%%%%%%%%%%%%%%%%%%%%%%%%%%%%%%%%%%%%%%%%%%%%%%%%%%
21885B5%%%%%%%%%%%%%%%%%%%%%%%%%%%%%%%%%%%%%%%%%%%%%%%%%%%%%%Q%qQqQq%%%%%%%%
21869B5%%%%%%%%%%%%%%Qq%%%%%%%%%%%%%%%%%%%%%%%%%%%%%%%%%%%%%%%%%%%%%%%%%%%%%
21853B5%%%%%%%%%%%%%%%%%%%%%%%%%%%%%%%%%%%%%%%%%%%%%%%%%%%%%%%Q%%q%%%%%%%%%%
21838B5%%%%%Qq%%%%Qq%%%%Qq%%%%qQ%%%Qq%%%%%%%%Qq%%%%%%%%%%%%%%%%%%%%%%%%%%%%%
21822B5%%%%%%%%%%%%%%%%%%%%%%%%%%%%%%%%%%%Qq%%%%%%%%%%%%%%%%%%%%%%QqQq%%%%%%
21806B5%%%%%%%%%%%%%Qq%%Qq%%%%%%%%%%%%%%%%%%%%%%%%%%%%%%%%%%%%%%%%%%%%%%%%%%
21790B5%%%%%Qq%%%%%%%%%%%%%%%%%%%Qq%%%%%%%%%%%%%%%%%%%%%%%%%%%%%%%%%%%%%%%%%
21774B5%Qq%%%%%%%%%%%%%%%%%%%%%%%%%%%%%%%%%%%%%%%%%%%%%%%%%%%%%%%%%%%%%%%%%%
21759B5%%%%%%%%%%%%%Qq%Qq%Qq%%%%%%%%%%%Qq%%%%%Qq%%%%%%%%%%%%%%%%Qq%%%%%%%%%%
21743B5%%%%%%%%%%%%%%%%%%%%%%%%%%%%%%%%%%%%%%%%%%%%%%%QqQ%qQqQq%%%%%%%%%%%%%
21727B5%QqQq%%%%%%%%%%%%%%%%%%%%%%%%%%%%%%%%%%%%%%%%%%%Qq%%%%Qq%Qq%%%%%%%%%Q
21711C3q%%%%%%%%%%%%%%%%%%%%%%%%%%%%%%%%%%%%%%%%%%%%%Qq%%%%%%%%%%%%%%%%%%%%%
21695B5%%%%%%%%%%%%%%%%%%%%%%%%%%%%%%%%%%%%%%%%%%%%%%%%%%%%%%%%%%%%%%%%%%%%%
21680B5%%%%%%%%%%%%%%%%%%%%%%%%%%%%%%%%%%%Qq%%%%%%%%%%%%%%%%%%%%%%%%%%%%%%%%
21664B5%%%%%%%%%%%%%%%%%%%%%%%%%%%%%%%%%%Qq%%%%%%%%%%%%%%%%%%%%%%%%%%%%%%%%%
21648B5%%%%%%%%%%%%%%%%%%%%%%%%%%%%%%%%%%%%%%%%%%%%%Q%q%%%%%%%%%%%%%%%%%%%%%
21632B5%%%%%%%%%%%%%%%%%%%QqQq%%%%%%%%%%%%%%%%%%%%%Qq%Qq%%%%%%%%%%%%%%%%%%%%
21616B5%%%%%%%%%%%%%%%%%%%%%%%%%%%%%%%%%%%%%Qq%%%%%%%%%%%%%%Q%q%%Q%%q%%%%Q%Q
21601D1j6QqJ6l2QQJ6k4qL2K4n6L2l2L2q%qQ%qQqQq%%Q%%%qQq%%%%%%%%%%%%%%%%%%%%%Qq
21587B5%%%%%%%%%%QqQq%QqQ%q%%%%%%%%%%%%%%%%%%%%%%%%%%%%%%%%%%%%%%%%%%%%%%%%%
21572B5%%%%%%%%%%%%%%%%%%%%%%%%%%%%%%%%%%%%%%%%%%%%%%%%%%%%%%%%%%Qq%%%%%%%%%
21556B5%%%%%%%%%%%%%%%%%%%%%%%%%%%%%%%%%%%%%%%%%%%%%%%%%%%%%%%%%%%%%%%%%%%%%
21540B5%%%%%Qq%%%%%%%%%%%%%%%%%%%%%%%%QqQq%%%%%%%%%%%%%%%%%%%%%%%%%%%%%%%%%%
21524B5%%%%%%%%Q%q%%%%Qq%%%%%%%%%%%%%%%%%%%%%%%%%%%%%Qq%%%%%%%%%%%%%%%%%%%%%
21508B5%%%%%%%%%%%%%%%%%%%%%%%%%%%%%%%%%%%%%%%%%%%%%%%%Q%q%%%%QqQq%%%%%Qq%%%
21493B5%%%%%%%%%%%%%%%%%%%%Qq%%%%%%%%%%%%%%Qq%%%%%%Q%q%QqQqqQ%%%%%%%%%%%Qq%%
21477B5%%%%%%%%%%%%%%%%%%%%%%%%%%%%%%%%%%%%%%%%%%%%%%%%%%%%%%%%%%%%%%%%%%%%%
21461B5%%%%%%%%%%%%%%%%%%%%%%%%%%%%%%%%%%%%%%%%%%%%%%%%%%%%%%%%%%%%%%%%%%%%%
21445B5%%%%%%%%%%%%%%%%%%%%%%%%%%%%%%%%%%%%%%%%%%%%%%%%%%%%%%%%%%%%%%%%%%%%%
21429B5%%%%%%%%%%%%%%%%%%%%%%%%%%%Q%qQq%%Qq%%%%%%%%%%%%%%%%%%%Qq%%%%%%%Qq%%%
21414B5%%%%%%%%%%%%%%%%%%%%%%%%%%%%%%%%%%%%%%%%%%%%%%Qq%%%%%%%%%%%%%%%%%%%%%
21398B5%%%%%%%%%%%%%%%%%%%%%%%%%%%%%%%%%%%%%%%%%%%%%%%%%%%%%%%%%%%%%%%%%%%%%
21382B5%%%%%%%%%%%%%%%%%%%%%%%%%%%%%%%%%%%%%%%%%%%%%%%%%%%%%%%%%%%%%%%%%%%%%
21366B5%%%%qJ6%%q%%QqQ%q%%%Qq%%%%%%%%%%%%%%%%%%%%%%%%%%%%%%%%%%%%%%%%%%%%%%%
21351B5%%%%%%%%%%%%%%%%%%%%%%%%%%%%%%%%%%%%%%%%%%%%%%%%%%%%%%%%%%%%%%%%%%%%%
21335B5%%%%%%%%%%%%%%%%%%%%%%%%%%%%%%%%%%%%%%%%%%%%%%%%QqQq%%%%%%%%%%%%%%%%%
21319B5%%%%%%%%%%%%%%%%%%%%%%%%%%%%%%%%%%%%%%%%%%%%%%%%%%%%%QqQq%Qq%%%%%%%%%
21303B5%%%%%%%%%%%%%%%%%%%%%%%%%%%%%%%%%%%%%%%%%%%%%%%%%%%%%%%%%%%%%%%%%%%%%
21288B5%%%%%%%%%%%%%%%%%%%%%%Qq%%%%%%%%%%%%%%%%%Qq%%%%%%%%Qq%%%%%%%%%%%%%%%%
21272B5%%%%%%%%%%%%%%%%%%%%%%%%%%%%%%%%%%%%%%%%%%%%%%%%%%%%%%%%%%%%%%%%%%%%%
21256B5%%%%%%%%%%%%%%%%%%%%%%%%%%%%%%%%%%%%%%%%%%%Qq%%%%%%%%%%%%%%%%%%%%%%%%
21240B5%%%%%%%%%%%%%%%%%%%%%%%%%%%%%%%%%%%%%%%%%%%%%%%%%%%%%%%%%%%%%%%%%%%%%
21224B5%%%%%%%%%%%%%%%%%%%%%%%%%%%%%%%%%%%%%%%%%%%%%%%%%%%%%%%%%%%%Qq%%%%%%%
21209B5%%%%%%%%%%%%%%%%%%%%%%%%%%%Qq%%%%%%%%%%%%%%Qq%%%%%%%%%%%%%%%%%%%%%%%%
21193B5%%%%%%%%%%%%%%%%Qq%Qq%%%%%%%%%%%%%%%%%%%%%%%%%%%%%%%%%%%%%%%Qq%%%%%%%
21177B5%%%%%%%%%%%%%%%%%%%%%Qq%%%%Qq%%%Qq%%%%%%%%%%%%%%%%%%%%%%%%%%%%%%%%%%%
21161B5%%%%Qq%%%%%%%%%%%%%%%%%%%%%%%%%%%%%%%%%%%%%%%%%%%%%%%%%%%%%%%%%%%%%%%
21145B5%%%%%%%%%%%%%%%%%%%%%%%%%%%%%%%%%%%%%%%%%%%%%%%%Qq%%%%%Q%q%%%Q%q%QqQ%
21130C3q%%%%Q%%qQq%%%%%%%%%%%%%%%%%%Qq%%%Qq%%%%%%%%%%%%%%%%%%%%%%%%%%%%%%%%%
21114B5%%%%%%%%%%%%%%%%%%%%%%%%%%%Qq%%%%%%%%%%%%%%%%%%%%%%%%%%%%%%%Qq%%%%%%%
21098B5%%%%%%%%%%%%%%%%%%%%%%%%%%%%%%%%%%%%%%%%%%%%%%%%%%%%%%%%%%%%%%%%%%%%%
21082B5%%%%%%%%%%%%%%%%%%%%%%%%%%%%%%%%%%%%%%%%%%%%%%%%%QqQq%%%%%%%%%%%%%%%%
21066B5%%%%%%%%%%%%%%%%%%%%%%%%%%%%%%%%%%%%%%%%%%%%%%QqQq%%%%%%%QqQq%QqqQ%%%
21051B5%%%%%%%%%%%%%%%%%%%%%%%%%%%%%%%%%%%%%%%%%%%%%%%%%%%%%%%%%%%%%%%%%%%%%
21035B5%%%%%%%%%%%%%%%%%%%%%%%%%%%%%%%%%%%%%%%%%%%%%%%%%%%%%%%%%%%%%%%%%%%%%
21019B5%%%%%%%%%%%%%%%%%%%%%%Qq%%%%%%Qq%%%%%%Qq%%%%%%%%%%%%%%%%%%%%%%%%%%%%%
21003B5%%%%%%%%%%%%%%%%%%%%%%%%%%%%%%%%%%%%%%%%%%%%%%%%%%%%%%%%%%%%%%%%%%%%%
20987B5%%%%%%%%%%%%%%%%%%%%Qq%Qq%%%%%%%%%%%%%Qq%%%%%%%%%%%%%%%%%%%%%%%%%%%%%
20972B5%%%%%%%%%%%%%%%%%%%%%%%%%%%%%%%%%%%%%%%%%%%%%%%%%%%%%%%%%%%%%%%%%%%%%
20956B5%%%%%%%%%%%%%%%%%%%%%%%%%%%%%%%%%%%%%%%%%%%%%%%%%%%%%%%%%%%%%%%%%%%%%
20940B5%%%%%%%%%%%%%%%%%%%%%%%%%%%%%%%%%%%%Qq%%%%%%%%%%%%%%%%%%%%%%%%%%%%%%%
20924B5%%%%%%%%%%%%%%%%%%%%%%%%%%%%%%%%%Qq%%%%%%%%%%%%%%%%%%%%%%%%%%%%%%%%%%
20909B5%%%%%%%%%%%%%%%%%%%%%%%%%%%%%%%%%%%%%%%%%%%%%%%%%%%%%Qq%Qq%Qq%%%%%%%%
20893B5%%%%%%%%%%%%%%%%%%%%%%%%%%%%%%%%%%%%%%%%%%%%%%%%%%%%%%%%%%%%%%%%%%%%%
20877B5%%%%%%%%%%%%%%%%%%%%%%%%%%%%%%%%%%%%%%%%%%%%%%%%%%%%%%%%%%%%%%%%%%%%%
20861B5%%%%%%%%%%%%%%%%%%%%%%%%%%%%%%%%%%%%%%%%%%%%%%%%%%%%%%%%%%%%%%%%%%%%%
20845B5%%%%%%%%%%%%%%%%%%%%%%%%%%%%%%%%%%%%%%%%Q%q%%%%%%Qq%%%%%%%%%%%%%%%%%%
20830B5%%%%%%%%%%%%%%%%%%%%%%%%%%%%%%%%%%%%%%%%%%%%%%%%%%%%%%%%%%%%%%%%%%%%%
20814B5%%%%%%%%%%%%%%%%%%%%%%%%%%%%%%%%%%%%%%%%%%%%%%%%%%%%%%%%%%%%%%%%%%%%%
20798B5%%%%%%%%%%%%%%%%%%%%%%%%%%%%%%%%%%%%%%%%%%%%%%%%%%%%%%%%%%%%%%%%%%%%%
20782B5%%%%%%%%%%%%%%%%%%qQQ%qQq%%%Qq%%%%%%%%%%%%%%%%%%%%%%%%%%%%%%%%%%%%%%%
20766B5%%%%%%%%%%%%%%%%%%%%%%%%%%%%%%%%%%%%%%%%%%%%%%%%%%%%%%%%%%%%%%%%%%%%%
20751B5%%%%%%Qq%%%%%%%%%%%%%%%%%%%%%%%%%%%%%%%%%%%%%%%%%%%%%%%%%%%%%%%%%%%%%
20735B5%%%%%%%%%%%%%%%%%%%%%%%%%%%%%%%%%%%%%%%%%%%%%%%%%%%%%%%%%%%%%%%%%%Qq%
20719B5%%%%%%%%%%%%%%%%%%%%%%%%%%%%%%%%%%%%%%%%%%%%%%%%%%%%%%%%%%%%%%%%%%%%%
20703B5%%%%%%%%%%%%%%%%%%%%%%%%%%%%%%%%%%%%%%%%%%%%%%%%%%%%%%%%%%%%%%%%%%%%%
20687B5%%%%%%%%%%%%%%%%%%%%%%%%%%%%%%%%%%%%%%%%%%%%%%%%%%%%%%%%%%%%%%%%%%%%%
20672B5%%%%%%%%%%%%%%%%%%%%%%%%%%%Qq%%%%%Qq%%Qq%qQ%%%%qQ%%J6k4J6Qq%qQqQq%%%%
20657B5%%%%%%%%%Qq%%%%%%%%%%%%%%%%%%%%%%%%%%%%%%%%%%%%%%%%%%%%%%%%%%%%%%%%%%
20641B5%%%%%%%%%%%%%%%%%%%%%%%%%%%%%%%%%%%%%%%%%%%%%%%%%%%%%%%%%%%%%%%%%%%%%
20625B5%%%%%%%%%%%%%%%%%%%%%%%%%%%%%%%%%%%%%%%%%%%%%%%%%%%%%%%%%%%%%%%%%%%%%
20609B5%%%%%%%%%%%%%%%%%%%%%%%%%%%%%%%%qQ%%%%%%%%%%%%%%%%%%%%%%%%%%%%%%%%%%%
20593B5%%%%%%%%%%%%%%%%%%%%%%%%%%%%%%%%%%%%%%%%%%%qQ%Q%q%%%%%%%%%%%%%%%%%%%%
20578B5%%%%%%%%%%%%%%%%%%%%%%%%%%%%%%%%%%%%%%%%%%%%%%%%%%%%%%%%%%%%%%%%%%%%%
20562B5%%%%%%%%%%%%%%%%%%%%%%%%%%%%%%%%%%%%%%%%%%%%%%%%%%%%%%%%%%%%%%%%%%%%%
20546B5%%%Qq%%%%Qq%%%%%%%%%%%%%%%%%%%%%%%%%%%%%%%%%%%%%%%%%%%%%%%%%%%%%%%%%%
20530B5%%%%%%%%%%%%%%%%%%%%%%%%%%%%%%%%%%%%%%%%%%%%%%%%%%%%%%%%%%%%%%%%%%%%%
20514B5%%%%%%%%%%%%%%%%%%%%%%%%%%%%%%%%%%%%%%%%%%%%%%%%%%%%%%%%%%%%%%%%%Qq%%
20499B5%%%%%%%%%%%%%%%%%%%%%%%%%%%%%%%%%%%%%%%%%%%%%%%%%%%%%%Qq%%%%%%%%%%%%%
20483B5%%%%%%%%%%%%%%%%%%%%%%%%%%%%%%%%%%%%%%%%%%%%%%%%%Qq%%%%%%%%%%%%%%%%%%
20467B5%%%%%Qq%%%%%%%%%%%%%%%%%%%Qq%%%%%%%%%%%%%%%%%%%%%%%%%%%%%%%%%%%%%%%%%
20451B5%%%%%%%%%%%%%%%%%%%%%%%%%%%%%%%%%%%%%%%%%%%%%%%%%%%%%%%%%%%%%%%%%%%%%
20435B5%%%%%%%%%%%%%%%%%%%%%%%%%%%%%%%%%qQ%%%%%%qQ%%Qq%%%%%%%%%%%%%%%%%%%%%%
20420B5%%%%%%%%%%%%%%%%%%%%%%%%%%%%%%%%%%%%%%%%%%%%%%%%%%%%%%%%%%%%%%%%%%%%%
20404B5%%%%%%%%%%%%%%%%%%%%%%%%%%%%%%%%%%%%%%%%%%%%%%%%%%%%%%%%%%%%%%%%%%%%%
20388B5%%Qq%%q%Q%%%qQqQ%%%%%%%%%%%%%%%%%%%%%%%%%Qq%%%%%%%%%%%%%%Qq%%%%%%%%%%
20372B5%%%%%%%%%%%%%%%%%Q%qQq%%%%%%%%%%%%%%%%%%%%%%%%%%%%%%%%%%%%%%%%%%%%%%%
20356B5%%%%%%%%%%%%%%%%%%%%%%%%%%%%%%%QqQq%%%%%%%%%%%%%%%%%%%%%%%%%%%%%%%%%%
20341B5%%%%%%%%%%%%%%%%%%%%%%%%%%%%%%%%%%%%%%%%%%%%%%%%%%%%%%%%%%%%%%%%%%%%%
20325B5%%%%%%%%%%%%%%%%%%%%%%%%%%%%%%%%%%%%%%%%%%%%%%%%%%%%%%%%%%%%%%%%%QqqQ
20309B5%%%%%%%%%%%%%%%%%%%%%%%%%%%%%%%%%%%%%%%%%%%%%%%%%%%%%%%%%%%%%%%%%%%%%
20293B5%%%%%%%%%%%%%%%%%%%%%%Qq%%%%%%%%%%%%%%%%%%%%%%%%%%%%%%%%%%%%%%%%%%%%%
20277B5%%%%%%%%%%%%%%%%%%%%%%%%%%%%%%%%%%%%%%%%%%%%%%%%%%%%%%%%%%%%%%%%%%%%%
20262B5%%%%%%%%%%%%%%%%%%%%%%%%%%%%%%%%%%%%%%%%%%%%%%%%%%%%%%%%%%%%%%%%%%%%%
20246B5%%%%%%%%%%%%%%%%%%%%%%%%%%%%%%%%%%%%%%%%%%%%%%%%%%%%%%%%%%%%%%%Qq%%%%
20230B5%%%%%%%%%%%%%%%%%%%%%%%%%%%%%%%%%%%%%%%%%%%%%%%%%%%%%%%%%%%%%%%%%%%%%
20214B5%%%%%%%%%%%%%%%%%%%%%%%%%%%%%%%%%%%%%%%%%%%%%%%%%%%%%%%%%%%%%%%%%%%%%
20199B5%%%%%%%%%%%%%%%%%%%%%%%%%q%Q%%%%%%%%%%%%%%Qq%%%%%%%%%%%%%%%%%%%%%%%%%
20183B5%%%%%%%%%%%%%%%%%%%%%%%%%%%%%%%%%%%%%%%%%%%%%%%%%%%%%%%%%%%%%%%%%%%%%
20167B5%%%%%%%%%%%%%%%%%%%%%%%%%%%%%%%%%%%%%%%%%%%%%%%%%%%%%%%%%%%%%%%%%%Qq%
20151B5%%%%%%%%%%%%%%%%%%%%%%%%%%%%%%%%%%%%%%%%%%%%%%%%%%%%%%%%%%%%%%%%%%%%%
20135B5%Qq%%%Qq%%%%%%%%%%%%%%%%%%%%%%%%%%%%%%%%%%%%%%%%%%%%%%%%%%%%%%%%%%%%%
20120B5%%%%%%%%%%%%%%%QqQq%%qJ6q%%%%%%%Qq%%%%Qq%%Qq%%%%%%%%%%%%%%%%%%%%%%%%%
20104B5Qq%%%%%%%%%%%%%%%%%%%%%%%%%%%%%%%%%%%%%%%%%%%%%%%%%%%%%%%%%%%%%%%%%%%
20088B5%%%%%%%%%%%%%%%%%%%%%%%%%%%%%%%%%%%%%%%%%%%%%%%%%%%%%%%QqQj6Q%%%%%%%%
20073B5%%%%%%%%%%%%%%%%%%%%%%%%%%%%%%%%%%%%%%%%%%%%%%%%%%%%%%%%%%%%%%%%%%%%%
20057B5%%%%%%%%%%%%%%%%%%%%%%%%%%%%%%%%%%%%%%%%%%%%%%%%%%%%%%%%%%%%%%%%%%Qq%
20041B5%%%%%%%%%%%%%%%%%%%%%%%%%%%%%%%%%%%%%%%%%%%%%%%%%%%%%%%%%%%%%%%%%%%%%
20025B5%%%%%%%%%%%%%%%%%%%%%%%%%%%%%%%%%%%%%%%%%%%%%%%%%%%%%%%%%%%%%%%%%%%%%
20009B5%%%%%%%%%%%%%%%%%%%%%%%%%%%%%%%%%%%%%%%%%%%%%%%%%%%%%%%%%%%%%%%%%%%%%
19994B5%%%%%%%%%%%%%%%%%%%%%%%%%%%%%%%%%%%%%%%%%%%%%%%%%%%%%%%%%%%%%%%%%%%%%
19978B5%%%%%%%%%%%%%%%%%%%%%%%Qq%%%%%%%%%%%%%%%%%%%%%%%%%%%%%%%%%%%%%%%%%%%%
19962B5%%%%%%%%%%%%%%%QqqQqJ6j6J6qqQ%%%%%%%%%%%%%%%%%%%%%%%%%%%%%%%%%%%%%%%%
19947B5%%%%%%%%%%%%%%%%%%%%%%%%%%%%%%%%%%%%%%%%%%%%%%%%%%%%%%%%%%%%%%%%%%%%%
19931B5%%%%%%%%%%%%%%%%%%%%%%%%%%%%%%%%%%%%%%%%%%%%%%%%%%%%%%%%%%Qq%%%%%%%%%
19915B5%%%%%Qq%%%%%%%%%%%%%%%%%%%%%%%%%%%%%%%%%%%%%%%%%%%%%%%%%%%%%%%%%%%%%%
19900B5%%%%%%%%%%%%%%%%%%%%%%%%%%%%%%%%%%%%%%%%%%%%%%%%%%%%%%%%%%%%%%%%%%%%%
19884B5%%%%%%%%%%%%%%%%%Qq%%%%%%%%%%%%%%%%%%%%%%%%%%%%%%%%%%%%%%%%QqqQ%%%%%%
19868B5%%%%%%%%%%%%%%%%%%%%%%%%%%Qq%%%%%%%%%%%%%%%%%%%%%%%%%%%%%%%%%%%%%%%%%
19852B5%%%%%%%%%%%%%%%%%%%%%%%%%%%%%%%%%%%%Qq%%%%%%%%%%Qq%%%%%%Qq%%%Qq%%%%%%
19836B5%%%%%%%%%%%%%%%%%%%%%%%%%%%%%%%%%%%%%%%%%%%%%%%%%%%%%%%%%%%%%%%%%%%%%
19821B5%%%%%%%%%%%%%%%%%%%%%%%%%%%%%%%%%%%%%%%%%%%%%%%%%%%%%%%%%%%%%%%%%%%%%
19805B5%%%%%%%%%%%%%%%%%%%%%%%%%%%%%%%%%%%%%%%%%%%%%%%%%%%%%%%%%%%%%%%%%%%%%
19789B5%%%%%%%%%%%%%%%%%%%%%%%%%%%%%%%%%Qq%%%%%%%%%%%%%%%%%%%%%%%%%%%%%%%%%%
19773B5%%%%%%%%%%%%%%%%%%%%%%%%%%%%%%%Qq%%%%%%%%%%%%%%%%%%%%%%%%%%%%%%%%%%%%
19757B5%%%%%%%%%%%%%%%%%%%%%%%%%%%%%%%%%%%%%%%%%%%%%%%%%%%%%%%%%%%%%%%%%%%%%
19742B5%%%%%%%%%%%%%%%%%%%%%%%%%%%%%%%%%%%%%%%%%%%%%%%%%%%%%%%%%%%%%%%%qQ%%Q
19726C3q%qJ6qQQk4Qq%J6QqqK4j6qqJ6qQj6%Q%%%%%%Qq%%%%%%%%%%%%%%%%%%%%%%%%%%%%%
19712B5%%%%%%%%%%%%%%%%%%%%%%%%%%%%%%%%%Qq%%%%%%%%%%%%%%%%%%%%%%%%%%%%%%%%%%
19696B5%%%%%%%%%%Qq%%%%%%%%%%%%%%%%%%%%%%%%%%%%%%%%%%%%%%%%%%%%%%%%%%%%%%%%%
19680B5%%%%%%%%%%%%%%%%%%%%%%%%%%%%%%%%%%%%%%%%%%%%%%%%%%%%%%%%%%%%%%%%%%%%%
19664B5%%%%%%%%%%%%%%%%%%%%%%%%%%%%%%%%%%%%%%%%%%%%%%%%%%%%%%%%%%%%%%%%%%%%%
19649B5%%%%%%%%%qQ%%Q%q%%%%%%%%%%%%%%%%%%%%%%%%%%%%%%%%%%%%%%%%%%%%%%%%%%%%%
19633B5%%%%%%%%%%%%%%%%%%%%%%%%%%%%%%%%%%%%%%%%%%%%%%%%%%%%%%%%%%%%%%%%%%%%%
19617B5%%%%%%%%%%%%%%%%%%%%%%%%%%%%%%%%%%%%%%%%%%%%%%%%%%%%%%%%%%%%%%%%%%%%%
19601B5%%%%%%%%%%%%%%%%%%%%%%%%%%%%%%%%%%%%%%%%%%%%%%%%%%%%%%%%%%%%%%%%%%%%%
19585B5%%%%%%%%%%%%%%%%%%%%%%%%%%%%%%%%%%%%%%%%%%%%%%%%%%%%%%%%%%%%%%%%%%%%%
19570B5%%%%%%%%%%%%%%%%%%%%%%%%%%%%%%Q%q%%%%%%%%%%%%%%%%%%%%%%%%%%%%%%%%%%%%
19554B5%%%%%%%%%%%%%%%%%%%%%%%%%%%%%qQ%%%%%%%%%%%%%%%%%%%%%%%%%%%%%%%%%%%%%%
19538B5%%%%%%%%%%%%%%%%%%%%%%%%%%%%%%%%%%%%%%%%%%%%%%%%%%%%%%%%%%%%%%%%%%%%%
19522B5%%%%%%%%%%%%%%%%%%%%%%%%%%%%%%%%%%%%%%%%%%%%%%%%%%%%%%%%%%%%%%%%%%%%%
19506B5%%%%%%%%%%%%%%%%%%%%%%%%%%%%%%%%%%%%%%%%%%%%%%%%%%%%%%%%%%%%%%%%%%%%%
19491B5%%%%qQQj6J6q%%Qq%%%%%%%%Qq%%%%%%%%%%%%%%%%%%%%%%%%%%%%%%%%%%%%%%%%%%%
19475B5%%%%%%%%%%%%%%%%%%%%%%%%%%%%%%%%%%%%%%%%%%%%%%%%%%%%%%%%%%%%%%Qq%%QqQ
19459C3q%%%%%%%%%%%%%%%%%%%%%%%%%%%%%%%%%%%%%%%%%%Qq%%%%%%%Qq%%%%%%%%%%%%%%%
19444B5%%%%%%%%%%%%%%%%%%%%%%%%%%%%%%%%%%%%%%%%%%%%%%%%%%%%%%%%%%%%%%%%%%%%%
19428B5%%%%%%%%%%%%%%%%%%%%%%%%%%%%%%%%%%%%%%%%%%%%%%%%%%%%%%%%%%%%%%%%%%%%%
19412B5qQ%%%%%%%%%%%%%%%%%%%%%%%%%%%%%%%%%%%%%%%%%%%%%%%%%%%%%%%%%%%%%%%%%%%
19396B5%%%%%%%%%%%%%%%%%%%%%%%%%%%%%%%%%%%%%%%%%%%%%%%%%%%%%%%%%%%Qq%%%%%%%%
19380B5%%%%%%%%%%%%%%%%%%%%%%%%%%%%%%%%Qq%%%%QqQq%%%%%%%%%%%%%%%%%%%%%%%%%%%
19365B5%%%%%%%%%%%%%%%%%%%%%%%%%%%%%%%%%%%%%%%%%%%%%%%%%%%%%%%%%%%%%%%%%%%%%
19349B5%%%%%%%%%%%%%%%%%%%%%%%%%%%%%%%%%%%%%%%%%%%%%%%%%%%%%%%%%%%%%%%%%%%%%
19333B5%%%%%%%%%%%%%%%%%%%%%%%%%%%%%%%%%%%%%%%%%%%%%%%%%%%%%%%%%%%%%%%%%%%%%
19317B5%%%%%%%%%%%%%%%%%%%%%%%%%%%%%%%%%%%%%%%%%%%%%%%%%%%%%%%%%%%%%%%%%%%%%
19302B5%%%%%%%%%%%%%%%%%%%%%%%%%%%%%%Qq%%%%%%%%%%%%%%%%%%%%%%%%%%%%%%%%%%%%%
19286B5%%%%%%%%%%%%%%%%%%%%%%%%%%%%%%%%%%%%%%%%%%%%%%%%%%%%%%%%%%%%%%%%%%%%%
19270B5%%%%%%%%%%%%%%%%%%%%%%%%%%%%%%%%%%%%%%%%%%%%%%%%%%%%%%%%%%%%%qQQq%J6q
19254C3K4k4q%%Qq%%Qq%%%%%%%%%%Qq%%%%%%%%%%%%%%%%%%%%%%%%%%%%%%%%%%%%%%%%%%%%
19239B5%%%%%%%%%%%%%%%%%%%%%%%%%%%%%%%%%%%%%%%%%%%%%%%%%%%%%%%%%%%%%%Qq%%%%%
19223B5%%%%%%%%%%%%%%%%%%%%%%%%%%%%%%%%%%%%%%%Qq%%%%%%%%%%%%%%%%%%%%%%%%%%%%
19207B5%%%%%%%%%%%%%%%%%%%%%%%%%%%%%%%%%%%%%%%%%%%%%%%%%%%Qq%qQ%%%%%%%%%%%%%
19192B5%%%%%%%%%%%%%%%%%%%%%%%%%%%%%%%%%%%%%%%%%%%%%%%%%%%%%%%%%%%%%%%q%K4j6
19176B5%%Qq%%%%%%%%%%%%%%%%%%%%%%%%%%%%%%%%%%%%%%%%%%%%%%%%%%%%%%%%%%%%%%%%%
19161B5%%%%%%%%%%%%%%%%%%%%%%%%%%%%%%%%%%%%%%%%%%%%%%%%%%%%%%%%%%%%%%%%%%%%%
19145B5%%%%%Qq%%%%%%%%%%%%%%%%%%%%%%%%%QqQqQq%%%%%%%%%%%%%%%%%%%%%%%%%%%%%%%
19129B5%%%%Qq%%%%%%%%%%%%%%%%%%%%%%%%%%%%%%%%%%%%%%%%%%%%%%%%%%%%%%%%%%%%%%%
19113B5%%%%%%%%%%%%%%%%%%%%%%%%%%%%%%%%%%%%%%%%%%%%%%%%%%%%%%%%%%%%%%%%%%%%%
19097B5%%qQ%%%%%%%%%%%%%%%%%%%%%%%%%%%%%%%Qq%%%%%%%%%%%%%%%%%%%%%%%%%%%%%%%%
19082B5%%%%%%%%%%%Q%q%%%%%%%%%%%%%%%%%%%%%%%%%%%%%%%%%%%%%%%%%%%%%%%%%%%%%%%
19066B5%%%%%%%%%%%%%%%%%%%%%%%%%%%%%%%%%%%%%%%%%%%%%%%%%%%%%%%%%%%%%%%%%%%%%
19050B5%%%%%%%%%%%%%%%%%%%%%%%%Qq%%%%%%%%%%%%%%%%%%%%%%%%%%%%%%%%%%%%%%%%%%%
19034B5%%%%%%%%%%%%%%%%%%%%%%%%%%%%%%%%%%%%%%%%%%%%%%%%%%%%Qq%%Qq%%%q%Q%%qJ6
19019C3%q%%%%%%Qq%%%%%%%%%%%%%%%%%%%%%%%%%%%%%%%%%%%%%%%%%%%%%%%%%%%%%%%%%%%
19003B5%%%%%%%%%%%%%%%%%%%%%%%%%%%%%%%%%%%%%%%%%%%%%%%%%%%%%%%%%%%%%%%%%%%%%
18987B5%%%%%%%%%%%%%%%%%%%%%%%%%%%Q%q%%Qq%%%Qq%%%%%%%%%%%%%%%%%%%%%%%%%%%%%%
18971B5%%%%%%%%%%%%%%%%%%%%%%%%%%%%%%%%%%%%%%%%%Qq%%Qq%%%%%%%%%%%%%%%%%%%%%%
18955B5%%%%%%%%%%%%%%%%%%%%%%%%%%%%%%%%%%%%%%%%%%%%%%%%%%%%%%%QqQq%%%%%%%%%%
18940B5%%%%%%%%%%%%%%%%%%%%%%%%%%%%%%Q%q%%%%%%%%%%%%%%%%%%%%%%%%%%%%%%%%%%%%
18924B5%%%%%%%%%%%%%%%%%%%%%%%%%%%%%%%%%%%%%%%%%%%%%%%Qq%%%%%%%%QqQq%%%%%%%%
18908B5%%%%%%%%%%%%%%%%%%%%%%Q%%q%%%%%%%%%%%%%%%%%%%%%%%%%%%%%%%%%%%%%%%%%%%
18892B5%%%%%%%%%%%%%%%%%%%%%%%%%%%%%%%%%%%%%%%%%%%%%%%%%%%%%%%%%%%%%%%%%%%%%
18876B5%%%%%%%%%%%%%%%%%%%%%%%%%%%%%%%%%%%%%%%%%%%%%%%%%%%%%%%%%%%%%%%%%%%%%
18861B5%%%%%%%%%%%%%%%%%%%%%%%%%%%%%%%%%%%%%%%%%%%%%%%%%%%%%%%%%%%%%%%%%%%%%
18845B5%%Qq%%%%%%%%%%%%%%%%%%%%%%%%%%%%%%%%%%%%%%%%%%%%%%%%%%%%%%%%%%%%%%%%%
18829B5%%%%%%%%%%%%%%%%%%%%%%%%%%%%%%%%%%%%%Qq%%%%%%%%%%%%%%%%%Qq%%%%%%%%%%%
18813B5%%%%%%%%%%%%%%%%%%%%%%%%%%%%%%%%%%%%%%%%%%%%%%%%%%%%%%Qq%%Qq%%%%%%%%%
18798B5%%%%%%%%%%%%%%%%%%%%%%%%%%Qq%%%%%%%%%%Qq%%%%%%qJ6%%%q%Q%q%%Qq%%%%%%%%
18782B5%%%%%%%Q%q%%%%%%%%%%%%%%%%%%%%%%%%%%%%%%%%%%%%%%%%%%%%%%%%%%%%%%%Qq%Q
18766C3q%%%%%%%%%%%%%%%%%%%%%%%%%%%%%%%%%%%%%%%%%%%%%%%%%%%%%%%%%%%%%%%%%%%%
18750B5%%%%%%%%%%%%%%%%%%%%%%%%%%%%%%%%%%%%%%%%%%%%%%%%%%%%%%%%%%%%%%%%%%%%%
18735B5%Q%q%%%%%%%%%%%%%%%%%%%%Qq%%%%%%%Qq%%%%%%%%%%%%%%%%%%%%%%%%%%%%%%%%%%
18719B5%%%%%%%%%%%%%%%%%%%%%%%%%%%%%%%QqQq%%Qq%%%%%%%%%%%%%%%%%%%%%%%%%%%%%%
18703B5%%%%%%%%%%%%%%%%%%%%%%%%%%%%%%%%%%%%%%%%%%%%%%%%%%%%%%%%%%%%%%%%%%%%%
18687B5%%%%%%%%%%%%%%%%%%%%%%%%%%%%%%%%%%%%%%%%%%%%%%%%%%%%%%%%%%%%%%%%%%%%%
18671B5%%%%Qq%%%%%QqQq%%%Qq%%%%%%%%%%%%%%%Qq%%%%%%%%%%%%%%%%%%%%%%%%%%%%%%%%
18656B5%%%%%%%%%%%%%%%%%%%%%%%%%%%%%%%%%%%%%%%%%%%%%%%%%%%%%%%%%%%%%%%%%%%%%
18640B5%%%%%%%%%%%%%%%%%%%%%%%%%%%%%%%%%%%%%%%%%%%%%%%%%%%%%%%%%%%%%%%%%%%%%
18624B5%%%%%%%%%%%%%%%%%%%%%%%%%%%%%%%%%%%%%%%%%%%%%%%%%%%%%%%%%%%%%%%%%%%%%
18608B5%%%Qq%%%Qq%%%%%%%%%%%%%%%%%%%%%%%%%%%%%%%%%%%%%%%%%%%%%%%%%%%%%%%%%%%
18592B5%%%%%%%%%%%%%%%%%%%%%%%%%%%%%%%%%%%%%%%%%%%%%%%%%%%%%%%%%%%%%%%%%%%%%
18577B5%%%%%%%%%%%%%%%%%%%%%%%%%%%%%%%%%%%%%%%%%%%%%%%Qq%%%%%%%%%%%%%%%%%%%%
18561B5%%%%%%%%%Qq%%%%%%%%%%%%%%%%%%%%%%%qJ6qQq%QQk4Q%%%%%%%%%%%%%%%%%Qq%%Qq
18546B5%%%%%%%%%%%%%%%%%%%%%%%%%%%%%%%%%%%%%%%%%%%%%%%%%%%%%%%%%%%%%%%%%%%%%
18530B5Q%qQq%%%%%%%%%%%%%%%%%%%%%%%%%Qq%%%%%Qq%%%%Qq%%%%%%%%%%%%%%%%%%%%%%%%
18514B5%%%%%%%%%%%%Qq%%%Qq%%%%%%%%%%%%%%%%%%%%%%Qq%%%%%%%%%%%%%%%%%%%%%%%%%%
18498B5%%%%%%%%%%%%%%%%%%%%%%Qq%%Qq%%%%%%%%%%%%%%%%%%%%%%%%%%%%%%%%%%%%%%%%%
18482B5%%%%%%%%%%%%%%%%%%%%%%%%%%%%%%%%%%%%%%Qq%%%%%%%%%%%%%%%%%%%%%%%%%%%%%
18467B5%%%%%%%%%%%QqQq%%%%%%%%%%%%%%%%%%%%%%%%%%%%%%%%%%%%%%%%%%%%%%%QqQq%%%
18451B5%%%Qq%%Qq%%%%%%%%Qq%%%%%%%%%%%%%%%%%%%%%%%%%%%%%%%%%%%%%%%%%%%%%%%%%%
18435B5%%%%%%%%%%%%%%%%%%%%%%%%%%%%%%%%%%%%%%%%%%%%%%%%%%%%%%%%%%%%Qq%%%%%%Q
18419C3q%%%%%%%%%%%%%%%%%%%%%Q%q%%%%%%%%%%%%%%%%%%%%%%%%%%%%%%%Qq%Qq%%%%%Qq%
18403B5%%%%%%%%%%%%%%%%%%%%%%%%%%%%%%%%%%%%%%%%%%%%%%%%%%%%%%Qq%%%%%%%%%%Qq%
18388B5%%%%%%%%%%%%%%%%%%%%%%%%%%%%%%%%%%%%%%%%%%%%%%%%%%%Qq%Qq%%%%%%%%%%%%%
18372B5%%%%%%%%%%%%%%%%%%%%%%%%%%%%%Qq%%%%%%%%%%%%%%%%%%%%%%%%%%%%%%%%%%%%%%
18356B5%%%%%%%%%%%%%%%%%%%%%%%%%%%%%%%%%%%%%%%%%%%%%%%%%%%%%%%%%%%%%%%%%%%%%
18340B5%%%%%%%%%%%%%%%%%%%%%%%%%%%%%%%%%%%%%%%%%%%%%%%%%%%%%%%%%%%%%%%%%%%%%
18324B5%%%%%%%%%%%%%%%%%%%%%%%Qq%%qJ6q%Qj6%Q%%%%%QqQqQqQq%Qq%Qq%%%%%%%%%%%%%
18309B5%%%%%%%%%%%%%%%%%%%%%%%%%%%%%%%%%%%%%%%%%%%%%%%%%%%%%%%%%%%%%%%%%%%%%
18293B5%%%%%%%Qq%%%%%%%%%Qq%%%%%%%%%%%%%%%%%%%%%%%%%%%%%%%%%Qq%%%%%Qq%%%%%%%
18278B5%%%%%%%%%%%%%%%%%%%%%%%%%%%%%%%%%%%%%%%%%%%%%%%%%%%%%%%%%%%%%%%%%%%%%
18262B5%%%%%%%%%%%%%%%%%%%%%%%%%%%%%%%%%%%%%%%%%%Qq%%%%%%%%%%%%%%Qq%%%%%%%%%
18246B5%%%Qq%%%%%%%%%%%%%%%%Qj6Q%%Qk4QQqQ%Q%%q%%%Qq%%%Qq%%%%%%%%%%%%%%%%%%%%
18231B5Qq%%%%%%Qq%%%%%Qq%%%%%%%%%%%%%%%%%Qq%%%%%%%%%%%%%%%%%%%%%%Qq%Q%q%%%%%
18215B5%Qq%%%%%%%%%%%%%%%%%%%%%%%%%%%%%%%%%%%%%%%%%%%%%%%%%%%%%%%%%%%%qQ%%%Q
18199C3q%Qq%%%%%%%%%%%%%%%%%%%%%%%%%%%%%%%%%%%%%%%%%%%%%%%%%%%%%%%%%%%%%Qq%%
18183B5%%%%%%%%%%%%%%%%%%%%%%%%%%%%%%%%%%%%%%%%%%%%%%%%%%%%%%%%%%%%%%%%%%%%%
18167B5%%%%%%%%%%%%%%%%%%Qq%%%%%%%%%%%%%%%%%%%Qq%%%%%%%%%%%%%%%%%%%%%%%Q%q%%
18152B5%%%%Qq%%%%%%%%%%%%%%%%%%%%%%%%%%%%%Qq%%%%%%Qq%Q%q%Q%%%%%%q%%%%%%%%%%%
18136B5%%%%%%%%%%%%%%%%%%%%%%%%%%%%%%%%%%%%%%%%%%%%%%%%%%%%%Qq%Qq%%%%Qq%%Qq%
18120B5%%%%%%%%%%Q%q%%Qq%%%%%%%%%%%%%%%%%%Qq%%%%%%%%%%%%%%QqQq%%%%%%%%%%%%%%
18104B5%%%%%%%%%%%%%%%%%%QqQ%qQqQq%%%%%%Qq%%%%%%%%%Q%%q%%Qq%%%%%%%%%%%%%%%%%
18088B5%%%%%%%%%%%%%%%Q%q%%%%%%%J6j6%%%%QqQ%q%Qq%%%%%Qq%%%%%%%%%%%%%%%%%%%%%
18073B5%%%Q%qQqQq%%%%Qq%%%%%%%%%%%%%%Qq%%%%%%Qq%Qq%%%%%%%%%%%%%%%%%%%%%%%%%%
18057B5%%%%%%%%%%%%Qq%%%%%%%%%%%%%%Qq%%%%%%%%%%Qq%%%%%%%%%%%%%%%%%%%%QqQqQqQ
18042C3q%Qq%%%%%%%%%%%%%%%%%%%%%%%%%%%%%%%%%%%%%%%%%%%%%%%%%Qq%%%%%%%%%%%%%%
18026B5%%Qq%QqQ%qQ%%qQq%%%%%%%%%%%%%%%%Q%q%%%%%%%%%%%%%%%%%%%%%%%%%%%%%%%%%%
18010B5%%%Qq%Qq%%%%%%%%Qq%Qq%%QqQq%%%%%%%%%%%%%%%%%%%%%%%%%%%%%%%%%%%%%%%Qq%
17994B5%%%%%%%%Qq%%%%%%%%%%%%%%%%%QqQq%%%%%%Qq%%%%%%%%%%%%%%%%%%%%%%%%Qq%Q%q
17978B5%%%QqQ%q%%%%Q%q%Qq%%Qq%%Qq%%%%%%%%%Qq%%%%%%QqQq%%%%%%%QqQqQqQq%Qq%%%Q
17963C3q%%%%%%%%%%%%%%%%%%%%%%%%Qq%%%%%%%%%%%%%%%%%Qq%%%Qq%Qq%Qq%%%%%%%%%%%%
17947B5%%%%%%%%%%%%%%%%%%%%%%%%%%%%%%%%%%%%%%%%%%Qq%%%Qq%%%%%%%%%%%%%%%%%%%%
17931B5%%%%%%%%%%%%Qq%%%QqQqQq%%Qq%%%%Qq%Qq%%%%%%%QqQq%%Q%qQq%%%%%%%%%%%%%%%
17915B5%%%%%%%%%%%%%%%%%%%%%%%%%%%%%%%%%%%%%%%%%%%%%%Qq%%%%%Qq%Qq%%%%%%%%%%%
17899B5%%%%%%%%Qq%Qq%Qq%%%%%%%%%%%%%%%%%%%%%%%%%%%%%%%%%%%%%%%%%%%%%%%%%%%%%
17884B5%%%%%%%%%%%Qq%%%%%%%%%%%%%%%%%Qq%%Qq%%%%%%%%%%%%%%%%%%%Qq%%QqQq%%%%%%
17868B5%%%Qq%%%%%%%%%%%%%%%%%QqQq%%%%%%Qq%%%Qq%%%%Qq%%%%%%%%Qq%%%%Q%qQq%%qQQ
17852C3%%%Q%j6Qj6Q%%K4l2j6K4QK4o4J6M0j6j6%QqJ6%qQ%qQ%j6J6q%Qq%%QqQ%q%%%%%%Q%
17840C3%q%Qq%Qq%%%Q%%q%%%%%%%Qq%%%%%%%%%%%%%%%%%%%%%%%%%%%%%%%%%%%%%%%%%%%%%
17824B5%Qq%%%%%%%%Qq%%Q%%qQ%qQq%Qq%%%%%%%%%%%%%%%%%%%%%%%%%%%%%%%%%%Qq%%%%%%
17808B5%%%%%%Qq%%%%%%Qq%%%%%%%%%%%Qq%Q%%q%Q%qQq%%Qq%%%%%%%%%%%%%%%%%%Qq%%QqQ
17792C3q%Qq%%Qq%%%%%%%%%QqQ%qQ%qQq%%%%%%%Qq%%%%%%Qq%%%%%%Qq%%%Q%q%%Qq%QqQqQq
17776B5Q%qQq%Qq%%Q%%q%Qq%%Qq%Qq%%qQQ%q%%%%%Q%q%%%%%%%%%%%Q%q%%%%%%%%%%%%Qq%%
17761B5%%%%%%%%%%%%%%%%%%%%%%%%%%%%Qq%%Qq%%%%%%%%%%%Qq%%%%%%%%%%QqQqQq%%%Qq%
17745B5%%%%%%%%%%%%%%%%%%%%%%%%%%%%%%%%%%%%%%%%%%%%%%Qq%%%%%Qq%%%%Q%qQq%Q%q%
17729B5Qq%%%%Qq%%%%%%%%%%%%%%%%Qq%%%%%%%%%%%%Qq%%Qq%Qq%%%%%%%%%%%%%%%%QqQq%Q
17713C3q%%%Qq%Q%q%%%%%%%%%%%%%%Qq%%%Qq%%%%%%QqQq%%%%%%%%Q%%q%%QqQq%%%%Q%q%%Q
17698C3%%q%%%%%QqQq%Q%q%%%%%%%%%%%%%Qq%%%%%%%%Q%%q%Qq%%Q%%q%Qq%%%%Qq%%%%%Qq%
17682B5%%%%%%%%%%%%%%%%%%%Q%q%QqQq%Qq%%%Qq%%%%%Q%qQq%%%%%%Qq%%Qq%%Q%%%q%%%%%
17666B5Qq%%%%%%%%%%%%%%%%%%%%%%%%%%%%%%%%%%%%Qq%%%Q%qQq%Q%q%%%%%Q%qQq%%%%%%%
17650B5%%%%%%%QqQ%qQq%%%Qq%%%Qq%%Qq%%%%%QqQ%qQq%Q%q%%Q%q%%QqQ%%q%%%%Q%qQq%%%
17634B5%%%%%%%%%%%%%%Qq%%%%%%%%%%%%%%%%%%%%%Q%q%%%%%%Q%qQ%%q%%%%%%%%%%%%%%%Q
17619C3q%%%%%%%%Qq%Qq%%%QqQ%%qQqQ%%qQqQ%%q%Qq%%%%%%%%%%%%%%Qq%%%%%%%%%%%%%%%
17603B5%%%%%%%%%%%%%%%%%%%QqQq%%%Qq%%%QqQq%%%Q%%%q%Q%qQqQq%%QqQq%%%Qq%%%%%%Q
17587C3%%%%%%%%q%Q%q%Q%%q%%%%%%%%%Q%qQ%q%Qq%%Qq%%%%%%%%%%%%%%Qq%%%Qq%%%%%%%%
17571B5%%%%%%%%Qq%%%%%%%QqQ%q%Q%qQq%%%Qq%%%Qq%%%%%%%%%%%%%%%%%%%%Qq%Q%qQqQqQ
17555C3q%%%%%%%Q%%%qQqQ%q%Qq%%%%%%%%%%%%%%%%%%%%%%%%%Q%qQqQ%q%QqQqQq%%%%%%%%
17540B5Qq%%%Q%q%%%%%%%Q%qQq%Qq%%%%%%%%%%%%%%Q%qQ%qQq%%%%Qq%%%Qq%Qq%Qq%%Q%q%%
17524B5%%%%%%%%Qq%%%%%%%%%%%%%%%%%%%%Q%q%Qq%%%Qq%Q%qQqQ%qQqQq%Q%qQq%%QqQ%q%%
17508B5Q%%q%%%%%%Q%%q%Qq%%%%%%%%%%%%%%%%%%%%%%%%%%%QqQqQqQq%Qq%%%%%%%%%%%%%%
17492B5%%%%%Qq%Q%qQ%%%q%%%%%%%%%%%Qq%%%%%%%%%%Q%%qQ%%q%Q%%qQ%%%%%qQq%%%%%%%%
17476B5%%%%%%%%%%Q%qQ%%q%%Qq%%%%%%%%%%%Q%%q%%Qq%Qq%%Q%q%%%%%%%%%%%%%%%%%%%Qq
17461B5Qq%%Qq%%%%%Qq%%%%Q%q%Qq%Q%q%%Q%%%qQqQq%%%%Qq%%QqQqQ%%q%%%%Q%q%Q%qQ%%%
17445C3qQ%qQqQq%%%%%%%%%%%%%%%%%%%QqQ%%q%%QqQq%%%%%%%%%%%%Q%%%%qQ%qQ%%%q%%%%
17429B5%%%%%%Q%q%%Qq%%%%%%%%%%Qq%Qq%%%%%%%%%%Qq%%%%%%%Qq%%%Q%%%qQ%%q%%%%%Qq%
17413B5%%%Qq%%Qq%%Qq%%QqQ%qQq%Q%q%%%Q%%q%Q%qQ%%%%%qQq%Qq%%%%%%%QqQ%qQqQ%qQq%
17397B5%%Qq%Q%%%%q%%%%%%%%%%Q%qQq%QqQ%qQ%%%%%%%%%q%Q%%%q%%%%%%Qq%%%Q%%qQq%Qq
17382B5%Q%qQ%q%Qj6%K4qqQ%%%%q%%%%%%%Qq%%%QqQq%Qq%Qq%Qq%%%%%Q%%qQqQqQq%%%Qq%%
17366B5QqQq%Q%qQ%%%qQ%%q%QqQqQq%Qq%%%%%%%%%%%%%%%%%%%%%%%%%%%%%%%%%%%%%%%%%%
17351B5%%%%QqQq%Qq%Q%q%%%%Q%%qQ%q%%%%Qq%QqQ%qQqQq%%Qq%%Qq%%%%%%Qq%Qq%%%%%%Qq
17335B5%QqQq%Qq%%%%QqQq%QqQ%%%%%qQ%q%%%Q%q%%QqQq%%%%%QqQ%q%%%%%Q%qQq%%Qq%%%Q
17319C3q%%QqQ%%%q%Qq%%Qq%Qq%%%%QqQqQq%%%%%%%%Qq%%%%%%%%%%%QqQ%qQ%%q%%Q%qQ%qQ
17303C3q%%%QqJ6qq%Qq%QqQq%%Q%qQq%Qq%Q%%%q%%Q%qQ%q%Q%%%%%%%%%%%%qQ%%%qQ%qQ%%q
17288B5Q%qQqQq%QqQ%%%qQ%%%%%%%%qQ%qQ%%%%%q%%%%%%QqQ%q%Q%q%%%QqQ%%%%%%%%%%%%q
17272B5%Qq%%Qq%%QqQq%%%%%%QqQq%%%%Q%%%q%%%%Q%%%%%q%%%%Qq%%%%%%%%%%%Qq%%%%%%%
17256B5%%%%%%%%%%%%%%%%%%%%%%%%%%Qq%Q%%%q%Q%q%Qq%%%%%Q%q%%QqQ%%%%%%%q%Qq%%Qq
17240B5%Q%%qQq%Q%qQqQq%%%Qq%Q%%qQ%%%%%%qQ%%%%%%%qQ%%%%qQ%%%%q%QqQ%%qQ%%%%%%%
17224C3%%%%%%q%%%%%Q%%%%q%%Q%%q%Qq%%%%Q%%q%Q%%q%%Qq%%%Q%%%%q%Q%%%q%%%%%Q%%%%
17209C3%q%%%QqQ%%q%%%%%QqQ%q%%%%%%Q%q%%%Q%qQ%q%Q%qQ%%%%%%%%%%%%%%%%%%qQ%%%%q
17193B5Qq%%Qq%%%%%%%%%%%%%%%%%%%%QqQ%%qQqQ%%%qQ%%qQq%%%Q%q%Q%%%q%%%%%Qq%%Q%q
17177B5%Q%%q%Q%%%%q%Qq%QqQq%%%%%Qq%%%QqQqQq%%%%QqQ%%q%%Qq%%%QqQ%%%q%%%Q%%q%Q
17161C3%q%%%%QqQq%Qq%%Q%%qQ%qQ%%qQ%%q%%Q%q%Q%qQ%%qQqQ%q%%%%Qq%Qq%QqQ%qQqQ%q%
17145B5QQj6Qq%%Qq%%Q%q%Qq%%Qq%Q%q%QqQ%qQqQq%%%%%%%%%%%%Qq%Q%%%qQq%Q%%%%%qQ%%
17130C3%qQ%%%q%%%%%%%QqQ%q%%%%Qq%%%%%%%%Q%%q%%%%Qq%%%%%%Qq%%Q%q%Q%q%Qq%Q%%%%
17114C3%%%%q%Q%qQ%%%%%%%%%%%qQ%qQqQq%Q%%q%QqQ%q%%%%Q%%q%Q%%%qQq%Qq%Q%qQ%%%qQ
17098C3q%Qq%%Q%q%Q%%q%QqQqQq%%%%Q%%%%%%%%qQq%%%%%%%%%%%QqQ%%%%%%%qQq%Q%%%qQ%
17083C3%%%%q%%%Q%qQqQ%%q%Q%%%%%%%q%Q%%qQq%%%Q%qQ%qQq%%%Q%%q%Q%q%Q%qQ%%%qQ%%q
17067B5Q%%%%%%%%q%QqQ%qQ%%%%%%qQ%%%qQ%%%qQ%%%%%%%%q%Q%qQ%%%%%%%%%%%%%qQ%%%qQ
17051C3%q%Q%%%%%%%%%%%%%%%%%%qQ%%%q%Q%%qQ%q%%%%%%QqQ%%%q%Q%%%%%%%%%%%%%%%%%%
17035C3%%%%%%%%%%%%%qQ%%%%%qQqQqQ%q%Q%%%qQ%%q%Q%qQ%%%%%qQ%%%%%%%%%%%%%%%%%%%
17019C3%%%%%%%%%%%qQ%%%qQ%qQ%q%QqQ%%%q%Q%%%%%%%qQq%Q%q%Q%q%Q%q%%Qq%%Q%%%%%%%
17004C3%%%%%%%%%%%%%qQ%qQ%%%%%%%%%%qQ%%%%qQ%%%%%q%QqQqQ%%%%qQ%%%%%q%%Q%%%%%%
16988C3%qQ%q%QqQq%%%%Qq%Q%q%QqQ%%%%%%q%Q%%%%%%%qQqQq%Q%%%%%%%qQ%qQ%%qQ%qQqQq
16972B5%Q%%%%q%QqQqQ%q%Qq%%%Qq%Q%q%Q%%%%%%%%%%%%%%%%%%%%%%%%%%%%%qQ%%%%%%qQ%
16956C3%%qQ%%qQqQq%%%%%%%%%%%Qq%%Qq%%QqQqQ%%qQqQ%%qQqQq%Q%%%%q%Qq%%Qq%%%%%%Q
16940C3%%q%%%%%%Q%%%qQqQq%%%%QqQ%%%%q%Q%%%%%qQ%qQ%%q%%%Qq%QqQq%%%%Q%%q%%Qq%%
16925B5Q%qQ%%%%%%%%%qQ%qQ%%%qQ%%%%%qQ%qQq%%%Q%%qQ%q%%QqQqQ%q%%%%%J6j6qQQj6Q%
16909B5QqQqQ%%%%%%%%%%qQ%q%Qq%QqQqQ%q%Q%%qQ%%%%%%%%qQ%%%%%qQqQ%%%%%%q%Q%q%Q%
16894C3%%%%%%%qQqQ%%%qQqQ%%%%%qQ%%qQ%q%%%%%QqQ%%%%%%qQ%%q%QqQ%%%%qQ%%%%%qQ%%
16878C3qQq%%%QqQ%%q%%%%%%%QqQ%qQ%qQ%qQq%QqQ%%%%%%%%%%%qQqQ%%%%%%%qQqQqQ%%%%%
16862C3%qQ%%%%%qQ%%%%%%%%%%%%qQ%%%%%%%qQqQq%%Qq%%%%%Q%qQqQqQ%%%qQ%qQ%%q%%%Qq
16846B5Q%qQqQ%%%q%Qq%%%%%%%%%%%%%%%Qq%%%QqQ%%q%Q%q%QqQ%%%%%%qQq%Qq%%QqQ%%%%%
16831C3%%%q%Q%%%%%%%%%qQ%q%Qq%QqQqQ%%%%q%%QqQ%%%%%%%%qQ%%%%%%%%%%%%%%qQ%qQq%
16815B5Q%%%%%%%%%%%q%Q%%%%%%%%%%%%qQ%%%%%%%%%%%%qQ%q%%%Q%%%qQ%%%%qQ%q%%QqQ%q
16799B5%Q%%%%qQ%%%%%%qQ%%%qQq%%Q%%qQq%Q%%%qQ%%qQ%%%qQ%%%%%%%%%%%%%%%%%%%%%q%
16783B5%QqQ%%%%%%%qQ%%%%qQ%%%%%%%%qQq%Q%qQ%%%%%%%%%qQ%%%%%qQqQ%qQqQq%Q%%%%%%
16767C3%%%%%%%%%%%%%%%%%%%%%%%%%%%%%%%%%%%%%%%%%%%%%%%q%Q%%%%%%%%%%qQqQqQ%%%
16752C3%%q%Q%q%%%%Q%%%%qQ%%%%%%q%%Q%%%%%%qQqQ%%qQ%%%%%%qQ%%%%%%%%%%%%%%%%%%%
16736C3%%%q%Q%%%%%%%%%%%%%%%%%%%%%%%%%%%qQqQ%%%%%%%%%%%%%%%%%%%%%%%%%%%%%%%%
16720C3%%%%qQ%%%%%%%qQ%%q%Q%%qQ%%%qQ%%%%%%%%%%%%%%qQ%%%%%%%%%%%%%%%%%qQ%%%%%
16704C3%%%%%%%%%%%%%%%%%%%%%%%%%%%%%%%%%%%%%%%%%%%%%%%%qQ%%%%%%%%%%%qQqQ%%%%
16688C3%%%%%%%%%%%%%%%%%%%%%%%%%%%%%%%%%%%%qQ%%%%%%%qQqQ%q%q%QQqQq%Q%%%%%qQ%
16673C3%%%%%%%qQ%%q%Q%%qQ%%%%%%%%%%%%%%%qQ%%qQ%q%Qq%Q%%%%%%qQqQ%%%%%%%qQ%%%q
16657B5Q%%%%%%qQ%%%%%%%%%%%%%%%%%%%qQ%%%%%%qQqQq%QqQ%%q%%QqQ%q%%%%Q%%%%%%q%%
16641B5%%%%Qq%%Q%%qQq%QqqQ%%%Qq%Q%qQ%%%%%%%%%qQq%Q%qQ%%%%q%Q%%%%%qQ%%%%%qQ%%
16625C3%%%%%%%%%%%%%%%%%%%%%%%%%%%%%%%%%%%qQqQ%%%%%%%%q%Q%%%%qQ%qQqQ%q%Q%%%%
16609C3%%%%%%%%%%%%%%%%%%%qQ%%%qQq%Q%qQ%%%%%%%%%%%%%q%QqQqQ%%%%%%%%%%%%%%%%%
16594C3%%%%%%%qQqQ%%%%%%%%%%%%qQ%%%%%%%%%%%%%%%%%%%%%%%%%qQ%%qQqQ%%%%%%%qQ%%
16578C3q%Q%qQ%%%%%%%%%%%%%qQ%q%%Q%%%%%%%%%%%qQ%%%%%%%%%q%Q%%%%%%%%%%%%%%%%%q
16562B5Q%%%%%%%qQqQ%qQ%%%%%%%%%%%%%%%%%%%%%%%%%%%%%%%%%qQ%%%%%%%%%%%%%%%%%%%
16546C3%%%%%qQ%%%%%%%%%%%%%%%q%QqQ%%%%%%%q%Q%qQ%qQ%qQq%%Q%%%%qQ%%qQ%q%Q%%%%%
16530C3%q%%Qq%%%Q%%%%%%%%%%%%%%%%%%%%%%%%%%%%%%%%%%%%%%%%%%qQ%%qQ%%%%%%%%%%%
16515C3%%%%%%%%%%%%%%%%%%%%%%%%%%%%%%%%%%%%%%%%%%%%%qQ%%%%%%%%%q%Q%qQ%%%%%%%
16499C3qQ%%%%%%%%qQ%%%%%%%%%%%%%%%qQ%%%%%%%%%%%%%%%%%%%%%%%%%%%%qQ%%%%%%%%%%
16483C3%%%%%%%%%qQ%%%%%%%%%%%%%%%%%%%%%%%%%%%%%%%%%%%%%%%%%%%%%%%%%%%%%%%%%%
16467C3%%%%%%%%%%%%%%%%%%%%%%%%%%%%%%%%%%%%%%%%%%%%%%%Qq%%%%%%%%%%%%%%q%Q%%%
16451C3%qQ%%%qQqQ%%%%%%%%%%%%%%%%%%%%%%%%qQ%%%%QqQj6J6q%%qQ%%%%qQ%qQ%%%%%qQ%
16436C3%%%%%%%%%%%%%%%%%%%%%%%%%%%%%%%%%%%%%%%%%%%%%%%%%%%%%%%%%%%%%%%%%%%%%
16420C3%%%qQ%%%%%%%%%%%%%%%%%%%%%qQ%%%%%%%%%%%%%%%%%%%%%%%%%%%%%%%%%%%%qQ%%%
16405C3%qQ%%%%%%%%%%%%%%%%%qQ%%%%%%%qQ%%%%%%%%%%%%%qQ%%%qQqQ%%%%%%%%qQ%%%%%%
16389C3%%%%%%%%%%%%%%%%%%qQ%qQ%%%%%%%%%%%%%%%%%%%%%%%%%%%%%%%%%%%%%%%%%%%%%%
16373C3%%q%Q%%%%qQqQ%%%%%qQ%%%%%%qQ%qQqJ6q%Qq%Qj6QqQqQ%%qQ%qQ%%%qQ%%%%%%qQ%%
16358C3%%%%%%%%%%%%%%%%%%%%%%%%%%%%%%%%%%%%%%%%%%%%%%%%qQ%%%%%%%%%%%%%%qQ%%%
16342C3qQ%%%%%%%%%%%%%%%%%%%%%%%%%%%%%%%%%%%%%%%%%%%%%%%%%%%%%%%%%%%%%%%%%%%
16326C3%%%%%Qq%%%%%%%%%%%%%%%%%%%%%%%%%%%%%%%%%%%%%%%%%%%%%%%%%%%%%%%%%%%%%%
16310C3%%%%%%qQ%%%%%%%%%%%%%%%%%%%%%%%%%%%%%%%%%%%%%%%%%%%%%%%%%%%%%%%%%%%%%
16294C3%%%%%%%%qQ%qQq%%%QqQ%%%%%%%%%%%%%%%%%%%%%%%%%%%%%%%%%%%%%%%%%%%%%%%%%
16279C3%%%%%%%%qQ%%%%%%%%%%%%%%%%%%%%%%%%%%%%%%%%%%%%%%%%%%%%%%%%%%%%%%%%%%%
16263C3%%%%%%%%%%%%%%%%%%%%%%%%%%%%%%%%%%%%%%%%%%%qQ%%%%%%%%%%%%%%%%%%%%%%%q
16247B5Q%%%%%%%%%%%%%%%%%%%%%%%%%%%%%%%%%%%%%%%qQ%%%%%%%%%%%%%%%%%%%%%%%%%%%
16231C3%%%%%%%%%%%%%%%%%%%%%%%%%%%%%%%%%%%%%%%qQ%%%%%%%%%%%%%%%%%%%%%%%%%%%%
16216C3%%%%%%%%%%%%%%%%%%%%%%%%%%%%%%Qq%Qj6Q%%%qQ%%%qQqQqQ%%qQ%%%%%%%%%%%%%%
16200C3%%%%%%%%%%%%%%%%%%%%%%%%%%%%%%%%%%%%%%%%%%%%%%%%%%%%%%%%%%%%%%%%%%%%%
16184C3%%%%%%%%%%%%%%%%%%%%%%%%%%%%%%%%%%%%%%%%%%%%%%%%%%%%%%%%%%%%%%%%%%%%%
16168C3%%%%%qQ%%%%%%%%%%%%%%%%%%%%%%%%%%%%%%%%%%%%%%%%%%%%%%%%%%%%%%%%%%%%%%
16153C3%%%%%%%%%%%%%%%%%%%%%%%%%%%%%%%%%%%%%%%%%%%%%%%%%%%%%%%%%%%%%%%%%%%%%
16137C3%%%%%%%%%%%%%%%%%%%%%%%%%%%%%%%%%%%%%%%%%%%%%%%%%%%%%%%%%%%%%%%%%%%%%
16121C3%%%%qQ%%%%%%%%%%%%%%%%%%%%%%%%%%%%%%%%%%%%%%%%%%%%%%%%%%%%%%%%%%%%%%%
16105C3%%%%%%%%%%%%%%%%%%%%%%%%%%%%%%%%%%%%%%%%%%%%%%%%%%%%%%%%%%qQ%%%qQ%qQ%
16089C3%%%%%%%%%%%%%%%%%%%%%%%%%%%%%%%%%%%%%%%%%%%%%%%%%%%%%%%%%%%%%%%%%%%%%
16074C3%%%%%%%%%%%%%%%%%%%%%%%%%%%%%%%%%%%%%%%%%%%%%%%%%%%%%%qQqQ%%%%%%%%%%%
16058C3%%%%%%%%%%%%%%%%%%%%%%%%%%%%%%%%%%%%%%%%%%%%%%%%%%%%%%%%%%%%%%%%%%%%%
16042C3%%%%%%%%%%%%%%%%%%%%%%%%%%%%%%%%%%%%%%%%%%%Qq%qQ%%%%%%%%%%%%%%%%%%%%%
16026C3%%%%%%%%%%%%%%%%%%%%%%%%qQ%%%%%%%%%%%%%%%%%%%%%%%%%%%%%%%%%%%%%%%%%%%
16010C3%%%%%%%%%%%%%%%%%%%%%%%%%%%%%%%%%%%%%%%%%%%%%%%%%%%%%%%%%%%%%%qQ%%%%%
15995C3%%%%%%%%%%%%%%%%%%%%%%%%%%%%%%%%%%%%%%%%%%%%%%%%%%%%%%%%%%%%%%%%%%%Qq
15979C3%%%%%%%%%%q%Q%qQQj6%%QqJ6j6%J6%Qqj6Q%%Q%q%%%%%%%%%%%Qq%%%%%%%%%%%%%%%
15964C3%%%%%%%%%%%%%%%%%%%%%%%%%%%%%%%%%%%%%%%%%%%%%%%%%%%%%%%%%%%%%%%%%%%%%
15948C3%%%%%%%%%%%%%%%%%%%%%%%%%%%%%%%%%%%%%%%%%%%%%%%%%%%%%%%%%%%%%%%%%%%%%
15933C3Qq%%%%%%%%%%%%%%%%%%%%%%%%%%%%%%%%%%%%%%%%%%%%%%%%%%%%%%%%%%%%%%%%%%%
15917C3%%%%%%%%%QqQq%%%%%%%%%%%%%%%%%%%%%%%%%%%%%%%%%%%%%%%%%%%%%%%%%%%%%%%%
15901C3%%%%%%%%%%%%%%%%%%%%%%%Q%q%%%Qq%%%%%%%%%%%%%%%%%%%%%%%%%%%%%%%%%%%%%%
15885C3%%%%%%%%%%%%%%%%%%%%%%%%%%%%%%%%%%%%%%%%%%%%%%%%%%%%%%%%%%%%%%%%%%%%%
15869C3%%%%%%%%%%%%%%%%%%%%%%%%%%%%%%%%%%%%%%%%%%%%%%%%%%%%%%%%%%%%%%%%%%%%%
15854C3%%%%%%%%%%%%%%%%%%%%%%%%%%%%%%%%%%%%%%%%%%%%%%%%%%%%%%%%%%%%%%%%%%%%%
15838C3%%%%%%%%%%%%%%%%%%%%%%%%%%%%%%%%%%%%%%%%%%%%%%%%qQ%%%%%%%%%%%%%%%%%%%
15822C3%%%%%%%%%%%%%%%%%%%%%%%%%%%%%%%%%%%%%%%%%%%%%%%%%%%%%%%%%%%%%%%%%%%%%
15806C3%%%%%%%%%%%%%%%%%%%%%%%%%%%%%%%%%%%%%%%%%Qq%%%%%%%%%%%%%%%%%%%%%%%%%%
15790C3%%%%%%%%%%%%%%%%%%%%%%%%%%%%%%%%%%%%%%%%%%%%%%%%%%%%%%%%%%%%%%%%%%%%%
15775C3%%%%%%%%%%%%%%%%%%%%%%%%%%%%%%%%%%%%%%%%%%%%%%%%%%%%%%%%%%%%%%%%%%%%%
15759C3%%%%%%%%%%%%%%%%%%%%%%%%%%%%%%%%%%%%%%%%%Qq%%%%%%%%%%%%%%%%%%%%%%%%%%
15743C3%%%%%%%%%%%%%%QqqQ%%J6j6%Qq%Qq%%%%%%%%%%%%%%%%%%%%%%%%%%%%%%%%%%%%%%%
15728C3%%%%%%%%%%%%%%%%%%%%%%%%%%%%%%%%%%%%%%%%%%%%%%%%%%%%%%%%%%%%%%%%%%%%%
15712C3%%%%%%%%%%%%%%%%%%%%%%%%%%%%%%%%%%%%%%%%%%%%%%%%%%%%%%%%%%%%%%%%Qq%%%
15696C3%%%%%%%%%%%%%%%%%%%%%%%%%%%%%%%%%%%%%%%%%%%%%%%%%%%%%%%%%%%%%%%%%%%%%
15680C3%%%%%%%%%%%%%%%%%%%%%%%%%%%%%%%%%%%%%%%%%%%%%%%%%%%%%%%%%%%%%%%%%%%%%
15665C3%%%%%%%%%%%%%%%%Qq%Qq%%%%%%%%%%%%%%%%%%%%%%%%%%%%%%%%%%%%%%%%%%%%%%%%
15649C3%%%%%%%%%%%%%%%%%%%%%%%%%%%%%%%%%%%%%%%%%%%%%%%%%%%%%%%%%%%%%%%%%%%%%
15633C3%%%%%%%%%%%%%%%%%%%%%%%%%%%%%%%%%%%%%%%%%%%%%%Qq%%%%%%%Qq%%%%%%%%%%%%
15617C3%%%%%%%%%%%%%%%%%%%%%%%%%%%%%%%%%%%%%%%%%%%%%%%%%%%%%%%Qq%%%%%%%%%%Qq
15601C3Qq%%Q%q%%%%%%%%%%%%%%%%%%%%%%%%%%%%%%%%%%%%%%%%%%%%%%%%%%%%%%%%%%%%%%
15586C3%%%%%%%%%%%%%%%%%%%%%%%%%%%%%%%%%%%%%%%%%%%%%%%%%%%%%%%%%%%%%%%%%%%%%
15570C3%%%%%%%%%%%%%%%%%%%%%%%%%%%%%%%%%%%%%%%%%%%%%%%%%%%%%%%%%%%%%%%%%%%%%
15554C3%%%%%%%%%%%%%%%%%%%%%%%%%%%%%%%%%%%%%%%%%%%%%%%Qq%%%%%%Qq%%%%%%%%%%%%
15538C3%%%%%%%%%%Q%q%%%%%Q%q%%%QqQq%%%Qq%%Q%q%%%%%%%%%%%%%%%%%%%%%%%%%%%%%%%
15522C3%%%%%%%%%%%%%%%%%%%%%%%%%%%%%%%%%%Qq%Qq%%%%%%%%Q%q%%%%%%%%%Qq%%%Qq%%Q
15507D1qQ%q%%qQQ%%%j6QqQ%%%%%%%%%%%%%%%%%%%%%%%%%%%%%%%Qq%%%%%%%%%%%%%%Qq%%%
15491C3%%%%Qq%%%%Qq%%%%%%%%%%%%%%%%%%%%%%%%%%%%%%%Qq%%%%%%%%%%%%%%%%%%%%%%%Q
15475D1q%%%Qq%%%%%%%%%%Qq%Q%q%%%%Qq%%%%%%Qq%Qq%%Q%q%%%Qq%%%%%Q%q%%%%%%%%%%%%
15460C3%%%%%%%%%%%%%%%%%%Qq%%%%%%%%%%%%%Qq%%%%%%%%%%%%%%%%%%%%%%%%%%%%%%%Qq%
15444C3%%%%%%%Qq%%%%%%%%%%%%%%%%%%%%%%%%%%%%%%%%%%%%%%%%%%%%%%%%%%%QqQq%%%%%
15428C3%%%%%Qq%%%qQ%Q%qQq%%%Qq%Qq%%%Q%qQqQ%%%%%q%%Q%q%%Qq%Q%%q%%%%Qq%%Q%%%%%
15412D1q%%%%%Qq%%%%%Qq%%%%%%%Q%q%%Qq%%Qq%%%%%%%%%%%%%%%%%%Q%q%%%%%%%Qq%%%%%%
15396C3%%%%%%%%%%%%%%%%%%%%%%%%Qq%%Q%q%%Qq%Q%q%Q%qQ%%%q%Q%%%qQq%%%%%Qq%%%%%%
15381C3%%%%%%%%%%%%%%%%%QqQq%%%%%Q%%qQq%Qq%%Q%q%%%%%%%%%%%%%%Qq%%Qq%%%%%%%%%
15365C3%%%%%%%%%%%%%%%%%%%%%%%%%%%Q%q%%%%%%%%%%%%%%%%%%%%%%%%%%%Q%qQq%%%%%%%
15349C3Qq%%%%%%%%%%%%%%%%%Qq%Q%q%%%Qq%Qq%%%%%%%%%%%%%%%%%%%%%Qq%%%%%%Qq%%%%%
15333C3%%%Qq%Qq%Q%%%qQ%qQq%Q%%%q%%%%%%%%%%%%Qq%%%%%%%%Qq%Qq%%Qq%%%%QqQq%%%Qq
15317C3%%%%%%Qq%%Q%q%Q%q%%%%%%%%%%%%%%%%%%%%%Qq%%%%%%%%%%%%%%%%%%Qq%%%%%%%%%
15302C3%%%%%%%%Q%%%q%QqQ%qQqQq%%%%%%%%%%%%%%Qq%%%QqQq%Qq%%QqQq%%%%%%%%%%%Qq%
15286C3%%%%%%%%%%%%%%%Qq%%%%QqQ%q%%Q%%q%Qq%Qq%%%%%%%Qq%%Qq%Qq%%%Qq%%%%%Q%j6Q
15270C3%%%Qq%%%%%Q%q%%Qq%Qq%%%Qq%%Q%%q%%Q%q%%%%%%%%%%%%%%%%%%QqQq%%%%%Qq%%Qq
15254C3%%%%%%%Qq%%Qq%QqQ%%%%q%Q%%%%%%%%%%%%%%%qQ%%%%%q%Q%qQ%%qQ%qQ%q%%%%%%%%
15239C3%%%%%%Qq%%%%%%%%%%%%%%%Q%qQq%%%%%Q%q%%%Qq%Q%%qQq%Q%qQq%%Q%%%%%q%Q%%qQ
15223D1%%%q%%QqQq%%%%%QqQ%%q%Qq%Q%q%%Q%%%%%q%Q%%%q%QqQqQqQq%Q%qQ%%%q%QqQq%%%
15207C3%%%%%%%%%%%%%Qq%%%%%%Qq%%QqQqQ%qQ%%%qQ%q%%%%%Qq%%%%%%%%Qq%%Qq%QqQ%%%q
15191C3QqQq%%%%%%Qq%Qq%%%%Q%qQqQqQ%%q%%%%%Q%%%%qQ%%q%%Q%%%qQ%%%%q%%%%%%%%%Q%
15175D1q%%%%%Qq%%%%%%%%%%%%%%%QqQq%Q%%qQq%QqQqQq%%Qq%%%%%%Q%q%%Qq%%Q%q%Q%%qQ
15160D1q%%%%Q%q%%Q%qQq%%Qq%%Qq%%%%%%Qq%Q%q%Qq%QqQ%%%%qQqQq%%Qq%%%%%Q%q%Q%%%%
15144D1%qQqQqQ%q%Q%%%%qQqQ%%%q%Qq%Q%%%qQ%%%qQq%%Qq%Q%%%%%%qQ%%%qQ%%q%Qq%Q%%%
15128D1%%%%qQ%%%%%%%%%%%%qQqQqQ%q%%%Q%%q%%%%%Qq%QqQqQ%%%%%%qQ%%qQ%%%%%%%%%qQ
15112D1%%%%%%%qQqQq%QqQq%%%QqQq%%%%Qq%Qq%%%Q%qQ%%%%%%%%%%%%%%%%%%qQ%%qQ%%%q%
15097C3%Q%qQqQ%qQq%%%Qq%%Q%%q%QqQq%%Qq%%%QqQqQ%%qQ%%q%QqQq%%%%%%Q%%%qQq%Q%%%
15081D1q%%%%%Qq%Q%%%%%%%qQ%qQ%q%%%Q%%q%Qq%%%%%%%%%%%%%Qq%Qq%%%%%%Q%%%%%%%%%q
15065C3Qq%Q%qQqQqQq%QqQ%q%%%%Q%%q%%QqQqQqQqQq%%Q%qQ%%%q%%%%%Qq%%%Q%%q%QqQqQ%
15049D1%%%%%%%qQ%%%qQ%qQ%%%%%qQ%%%%%%%%%%%%%q%Q%q%Q%qQ%qQq%QqJ6k4J6%Qq%Qj6%q
15034B5J6%%q%QqQ%%%%%%%qQ%%%%qQ%%%q%QqQ%%%%%%%%q%Q%%qQqQ%qQ%%%qQ%%q%%%%Q%%q%
15019C3%QqQ%%q%Q%q%%%Q%%%qQ%qQ%q%%QqQ%%q%Q%qQ%%%qQqQ%qQq%Q%%qQ%%qQ%%%%%%%%%%
15003D1%%%%%%%%%%%%%%%%%%%%%%%%qQqQ%%%%%%qQ%%%%qQ%%%%%q%Q%qQq%%%Q%%%%%%q%Q%%
14987D1%qQqQ%%qQ%%%qQq%%%%%Qq%Q%q%%%%%Qq%%%Qq%Q%qJ6q%%%%%%%%%%%%%%%%%%%%%qQq
14972C3Q%%qQ%qQ%qQqQ%%%qQ%%%%q%Q%%%%%q%QqQ%q%%Q%%%q%Q%qQ%%%%%%%qQ%q%%Q%%%%%%
14956D1%%%%%%%%%%%%%%%%%%%%qQ%%qQ%%%%%qQ%q%Q%q%Q%%%%%%%%%%%%%%%%%%%%%%%%%%%%
14940D1%%%%%%%%%%%%qQqQ%%%%%%%%%%%%%qQ%%%%%%%%%%%%%%%%%%%%%%%%%%%%%qQ%%%%%%%
14924D1%%%%q%%QqQ%%%qQ%%%%q%%J6j6Q%%qQ%qQ%%%%%%%%%qQ%%%%%%%%%%qQ%%q%%Q%%%%%%
14909D1%%%%%%%%%%%%%%%%%%%%%%qQ%%%%%%%%%%%%%%%%%%%%%%%%%%%%%%%%%%%%%%%%qQ%%%
14893D1%%%qQ%%%%%%%%%%qQqQ%%%%%%%%%%%%%%%%%%%%%%%%%%%%%%%%%%%%%%%%%%%%%%%%%%
14877D1%%%%%%%qQ%%%%%%%%%%%%%%%%%%%%%%%%%%%%%%%%%%%%%%%%%%%%%%%%%%%%%%%%%%%%
14861D1%%%%qQqQ%%%%%%%%%%%%%%%%%%%%%%%%%%%%%%%%%%%%%%%%qQ%%%%%%%%%%%qQ%qQ%%q
14846C3Q%%qQ%%%%%%%%%%%%%%%%%%qQ%%%qQ%%%%%%%%%%%%%%%%%%%%%%%%%%%%%%%%%%%%%%%
14830D1%%%%%%%%%%%%%%%%%%%%%%%%%%%%%%%%%%%%%%%%%%%%%%%%%%%qQ%%%%qQ%%%%%%%%%%
14814D1%%%%%%%%%%%%%%%%%q%Q%qQ%q%Q%%%%%%%%qQ%%%%%%%%%%%%qQ%%QqQq%%qQ%%%%%%qQ
14798D1%%%%%%%%%%%%%%%%%%qQ%%%%%%%%%%%%%%%%%%%%%%%%%%%%%%%%%%%%%%%%%%%%%%%%%
14782D1%%%%%%%%%%%%%%%%%%%%%%%%%%%%%%%%%%qQ%%%%%%%q%Q%qQ%%qQ%%%%%%%%%%%%%%%%
14767D1%%%%%%%%%%%%%%%%%%%%%%qQqQqQq%Q%%%%%%%%%qQ%%%%%%%%%%%%%%%%%%%%%%%%%%q
14751C3%Q%%%%%%%%%%%%%%%%%%%%%%%%%%%%%%%%%%%%%%%%%%%%%%%%%qQ%%%%%%%%%%%%%%%%
14735D1%%%%%%%%%%%%%%%%%%%%%%%%%%%%%%%%%%%%qQ%%%%%%%%%%%q%Q%%%%%%%%%%%%%%%%%
14719D1%%%%%%%%%%%%%%%%%%%%%%%%%%%%%%%%%%%%%%%%%%%%%%%%%%%%%%%%%%%%%%%%%%%%%
14704D1%%%%%%%%%%%%%%%%%%%%%%%%%%%%%%%%%%%%%%%%%%%%%%%%%%%%%%%%%%%%%%%%%%%%%
14688D1%%%%%%%%%%%%%%%%%%%%%%%%%qQ%%%%%%%%%qQ%%%%%%%%%%%%%%%%%%%%%%%%%%%%%%%
14672D1%%%%%%%%%%%%%%%%%%%%%%%%%%%%%%%%%%%%%%%%%%%%%%%%%%%%%%%%%%%%%%%qQ%%%%
14656D1%%%%%%%%%%%%%%%%%%%%%%%%%%%%%%%%%%%%%%%%%%%%%%%%%%%%%%%%%%%%%%%%%%%%%
14640D1%%%%%%%%%%%%%%%%%%%%%%%%%%%%%%%%%%%%%%%%%%%%%%%%%%%%%%%%%%%%%%%%%%%%%
14625D1%%%%%%%%%%%%%%%%%%%%%%%%%%%%%%%%%%%%%%%%%%%%%%%%%%%%%%%%%%%%%%%%%%%%%
14609D1%%%%%%%%%%%%%%%%%%%%%%%%%%%%%%%%%%%%%%%%%%%%%%%%%%%%%%%%%%%%%%%%%%%%%
14593D1%%%%%%%%%%%%%%%%%%%%%%%%%%%%%%%%%%%%%%%%%%%%%%%%%%%%%%%%%%%%%%%%%%%%%
14577D1%%%%%%%%%%%%%%%%%%%%%%%%%%%%%%%%%Qq%%%%Qj6%J6j6%K4k4QQqQq%qQ%%%%%%%%%
14563D1%%%%%%%%%%%%%%%%%%%%%%%%%%%%%%%%%%%%%%%%%%%%%%%%%%%%%%%%%%%%%%%%%%%%%
14547D1%%%%%%%%%%%%%%%%%%%%%%%%%%%%%%%%%%%%%%%%%%%%%%%%%%%%%%%%%%%%%%%%%%%%%
14531D1%%%%%%%%%%%%%%%%%%%%%%%%%%%%%%%%%%%%%%%%%%%%%%%%%%%%%%%%%%%%%%%%%%%%%
14515D1%%%%%%%%%%%%%%%%%%%%%%%%%%%%%%%%%%%%%%%%%%%%%%%%%%%%%%%%%%%%%%%%%%%%%
14499D1%%%%%%%%%%%%%%qQqQ%%%%%%%%%%%%%%%qQ%%QqqJ6k4L2%j6qJ6j6qJ6Qq%%Q%qqQ%%%
14485D1%%%%%%%%Qq%%%Qq%%%%%%%%%%%%%%%%%%%%%%%%%%%%%%%%%%Qq%%%%%%%%%%%%%%%%%%
14469D1%%%%%%%%%%%%%%%%%%%%%%%%%%%%%%%%%%%%%%%%%%%%%%%%%%%%%%Qq%Qq%%%%%%%%%%
14454D1%%%%%%%%%%%%%%%%%%%%%%%%%%%%%%%%%%%%%%%%%%%%%%%%%%%%%%%%%%%%%%%%%%%%%
14438D1%%%%%%%%%%%%%%%%%%%%%%%%%%%%%%%%%%%%%%%%%%Qq%%%%%%%%%%%%%%%%Qq%%%%%%%
14422D1%%%%QqQ%%q%%%%%%%%%%%%%%%%%%%%%%%%%%%%%%%%%%%%%%%%%%%%%%%%%%%%%%%%%%%
14406D1%%%%%%%%%%%%%%%Qq%%%%%%%%%%%%%%%%Qq%%%%%%%%%%%%Qq%%%%%%%%%%%%Qq%%%%%%
14390D1%%%Qq%Qq%%%QqQq%%%%%%%%%%%%%%Qq%%%%%%%%%%%Qq%%%%%%%%%%%%%%%%%%%%%%%%%
14375D1%%%%%%%%%%%%%%%%%%%%Q%q%%%%%%%%%%%%%%%%%%%%%%%%%%%%%Q%q%%%%%%%%%%%%%%
14359D1%%%%%%%%%%%%%%%%%%%%%%%%%%%%%%%%%%%%%%%%%%%%%%%%%%%%%%%%%%%%%%%%%%Qq%
14343D1%%%%%%%%%%%%%%%%%%%%%%%%%%%%%%%%%%%%%%%Qq%%%%Q%q%%%%%%%%%%%%%%%%Qq%%%
14327D1%%%%%%%Qq%%%%%%%%%%%%%%%%%%%%%%%%%%%%%%Qq%%%%%%%%%%%%%%%%%%%%%%%%%%%%
14311D1%%%Qq%Qq%Qq%%%Qq%%%%%%%%%%%%%%%%%%%%%%%%%%%%%%%%%%%%%%%%%%%%%%%%%%%%%
14296D1%%%%%%%%%%%%%%%Qq%%%%%%%Qq%%%QqQq%%%%%%%%%%%%%%%%%%%%%%%%%%%%%%%Qq%Qq
14280D1%%%%%%%%%%%Qq%%%%%QqQq%%%%%Qq%%%Qq%%%%%%%%%%%%%%%%%%%%%%%%%%%%%%%%%%%
14264D1%%%%%%%%%%%%%%%%%%%%%%%%%%%%%%%Qq%%%%Qq%%%%Qq%%QqQ%%qQ%%%q%Qq%%QqQqQ%
14248D9q%%%%%%%%%%%%%%Qq%%%%%%%%%%%%%%%%%%%%%%%%%%%%%%%Qq%%%%%%%%%Qq%%Q%q%%%
14232D1%%%%%%%%%%Qq%Q%q%%%%%%QqQq%%%%%%Qq%%%%%%Qq%%%Qq%%Qq%Q%q%%Qq%%%%%Qq%Qq
14217D1QqQ%qQq%%Qq%%%%%%%%%%%%%%%%%%%%%%%%%%%Q%q%%%%%%%%%%%%QqQ%qQq%%%%%%%%%
14201D1Qq%QqQq%%%%%Q%%qQ%q%%QqQq%%%%Q%%q%Q%qQ%%q%%%%%%%%%%%%%%%%%%%%%%%%%%%%
14185D1%Q%q%%%%Q%qQqQq%Q%qQ%q%Q%qQ%%%qQ%%q%QqQqQqQqQq%%%%%%%%%%%%%%%%%%%Qq%Q
14169D9q%Qq%%%Q%qQ%q%%%%%%Qq%%Q%qQqQ%qQq%%%%%QqQ%%%%%q%%Qq%%%%%%Qq%%%%%%%%%%
14154D1%%%%%%%%Qq%Qq%%%%Q%q%Q%%%%%%q%%%%Q%%%%q%%%%%%%%%%%%%%%%%%%%%%%%%%%Qq%
14138D1Q%%%%%%%%%%qQq%%%%%%%%%%%%%QqQq%Q%q%%%%%%%Q%q%Q%%qQ%%%%%%qQq%Q%%%%qQ%
14122D9qQqQq%%%QqQq%%%%%%%%%Qq%Q%%qQ%q%%QqQ%%q%%Qq%%%Q%%%%%%%qQqQ%q%%%%%%%Qq
14106D1Qq%%%Q%q%%Qq%Qq%%Qq%Qj6Q%Qj6%%K4J6j6qqK4%%j6%j6QqQQQq%j6Q%Q%q%%%Q%qQq
14092D1%Q%%q%%Q%q%QqQ%qQ%%q%Q%qQ%%q%%Q%q%%Qq%Q%qQqQ%q%Q%qQ%%%%qQ%%%%%%%%%%qQ
14077D9%%%qQ%%%%%%%%%%%%%%%qQ%qQ%%qQ%%qQqQ%q%%Qq%%%%%%Qq%QqQ%%%%%%%%%%%%%%%%
14061D9%%%%%q%Q%%%q%QqQ%%%%%%%%%%%qQ%qQ%%%q%%%%QqQqQ%qQqQ%%%qQ%q%Qq%%%%%Qq%%
14045D1%%Qq%QqQqQ%qQ%%%%%%qQ%qQqQq%QqQq%%%%%%%Q%%%%%%%%%%%%%%%%%%%%qQ%%qQq%%
14029D1Q%qQ%qQqQqQ%%%%%%%%%%%%%%%%qQ%%%%%%%%%%%%%%qQ%qQ%qQ%%%%%%%%qQ%%%%%%%%
14013D9qQ%%qQ%qQ%%%%q%Q%%%%%%%%%%%qQ%%%%%%qQ%%%qQ%%%%%%%qQ%%%%%%%%%%%%%%qQ%%
13998D9qQqQ%%%%%%%%%%%%%%%%%%%%%%%%%%%%%%%%%%%%%%%%%%%%%%%%%%%%%%%%%%%%%%%%%
13982D9%%q%Q%%%qQ%%%%%%%%qQ%%%qQ%%%%%%%qQqQqQ%%qQ%qQ%%%%%%q%%Q%%%%%%%%%%%%%%
13966D9%%%%%%%%%%%%%%%%%qQ%qQ%q%Q%qQ%%%%%%%%%%%%%%%%%%%%%%%%%%%%%qQq%%Q%%%%%
13950D9%%%%%%%%%%%%%%%%%%%%%%%%%%%%%%%%%%%%%%qQq%Q%%qQ%%%%%%%%%%%%%%%%%%%%%%
13934D9%%%%%%%%%%%%%%%%%%%%%%%%%%%%%%%%%%%%%%%%%%%%%%%%%%%qQ%%qQ%%%%%%%%%%%%
13919D9%%%%%%%%%%%%%%%%%%%%%%%%%%%%%%%%%%%%%%%%%qQ%%%qQ%%%%%%%%%%%%%%%%qQ%%q
13903D1%Q%%%%%%%%%%%%%%%%%%%%%%%%%%%%%%%%%%%%%%%%%%%%%%%%%%%%%%%%%%%%%%%%%%%
13887D9%%%%%%%%%%%%%%%%%%%%%%%%%%%%%%%%%%%%%qQqQ%%%%%%%%%%%%%%%%%%%%%%%%%%%%
13871D9%%%%%%%%%%%%%%%%%%%%%%%%%%%%%%%%%qQQq%qQ%%%%%%%%%%%%%%%%%%%%%%%%%%%%%
13856D9%%%%%%%%%%%%%%%%%%%%%%%%%%%qQ%%%%%%%%%%%%%%%%%%%%%%%%%%%%%%%%%%%%%%%%
13840D9%%%%%%%%%%%%%%%%%%%%%%%%%%%%%%%%%%%%%%%%%%%%%%%%%%%%%%%%%%%%%%%%%%%%q
13824D1QQq%%%%%%%%%%%%%%%%%%%%%%%%%%%%%%%%%%%%%%%%%%%%%%%%%%%%%%%%%%%%%%%%%%
13808D9%%%%%%qQ%%%%qQqQ%%%qQ%%%%%%%%%%%%%%%%%%%%%%%%%%%%%%%%%%%%%%%%%%%%%%%%
13792D9%%%%%%%%%%%%%%%%%%%%%%%%%%%%%%%%%%%%%%%%%%%%%%%%%%%%%%%%%%%%%%%%%%%%%
13777D9qQ%%%%%%%%%%%%%%%%%%%%%%%%%%%%%%%%%%%%%%%%%%%%%%%%%%%%%%%%%%%%%%%qQ%%
13761D9%%%%%%%%%%%%%%%%%%%%%%%%%%%%%%%%%%%%%%%%%%%%%%%%%%%%%%%%%%%%%Qq%%%%%%
13745D9%%%%%%%%%%%%%%%%%%%%%%%%%%%%%%%%%%%%%%%%%%%%%%%%%%%%%%%%%%%%%%%%%%%%%
13729D9%%%%%%%%%%%%%%%%%%%%%%%%%%%%%%%%%%%%%%%%%%%%%%%%%%%%Qq%%%%%%%%%%%%%%%
13713D9%%%%%%%%%%%%%%%%%%%%%%%%%%%%%%%%%%%%%%%%%%%%%%%%%%%%%%%%%%%%%%%%%%%%%
13698D9%%%%%%%%%%%%%%%%%%%%%%%%%%%%%%%%%%%%%%%%%%%%%%%%%%%%%%%%%%%%%%%%%%%%%
13682D9%%%%%%%%%%%%%%%%%%%%%%%%%%%%%%%%%%%%%%%%%%%%%%%%%%%%%%%%%%%%%%%%%%%%%
13666D9%%%%%%%%%%%%%%%%%%%%%%%%%%%Qq%%%%%%%%%%%%%%%%%%%%%%%%%%%%%%%%%%%%%%%%
13650D9%%%%%%%%%%%%%%%%%%%%%%%%%%%%%%%%%%%%%%%%%%%%%%%%%%%%%%%%%%%%%%%%%%%%%
13634D9%%%%%%%%%%%%%%%%%%QqQq%Q%%q%%%%%%%%%%%%%%%%%Qq%%%%%%%%%%%%%%%%%%%%%%%
13619D9%%%%%%%%%%%%%%%%%%%%%%%%%%%%%%%%%%%%%%%%%%%%%%%%Qq%%%%%%%%%%%%%%%%%%%
13603D9%%%%%%QqQ%q%%%%%%%%%%%%%%%%%%%%%%%%%%%%%%%Qq%Qq%Qq%%%%Q%q%%%%%%%%%%%%
13587D9%%%%%%%%%Qq%%%%%%%%%%%%%%%%%%%%%%%%%%%Qq%QqQq%%%%%%%%%%%%%%%%%%%%%%%%
13571D9%%Q%q%%%%%%%%%%%%%%%%%%%%%%%%%%%%%%%%%%%%%%%%Qq%%%%%%%%%%%Qq%%%%%%Qq%
13555D9%Qq%%%%%%Qq%%%Qj6Q%%%%%%%%Q%qQq%%%%QqQq%Q%q%Q%%q%QqQ%%q%%%%%%%Qq%%Qq%
13540D9%%%%%%%%%%%%%%%%%%%Q%q%%%%%%%%%%%%%%%%%%%Qq%%%%%%%%%%%%%%Qq%QqQq%Q%qQ
13524E7%qQqQq%%Q%%q%%%%%%Qq%%Qq%%%Qq%%%%%%%%%%Qq%%Qq%%Q%%%qQq%%QqQqQqQ%q%%%Q
13508E7q%%%%%%%%%QqQq%%%%%%%Q%q%%%Qq%QqQ%q%Qq%QqQ%%%q%%%%%%%%%%%%%Qq%%%QqQq%
13493D9%%Qq%%%%%%Qq%Qq%%Qq%%%%%%%Qq%%%Qq%%%%%%Q%qQ%qQ%%q%%%%%%%%%%%%%Qq%%%%%
13477D9%%%%%%%%%%%%%%%%%%%%%%Qq%%Qq%%QqQ%%qQ%q%%%Qq%%%%%Qq%Q%%qQqQq%Qq%%%%%%
13461D9%%%Qq%%%%QqQq%%Qq%QqQ%q%Q%%qQ%q%QqQ%%q%Q%q%Q%%%%%q%%%QqQ%qQqQ%qQq%%%%
13445D9%%%%%%%%Qq%Qq%%QqQq%%%%%%%%Qq%%%QqQ%%%%%%qQ%%qQ%qQq%Q%qQq%%%Q%q%%Qq%Q
13429E7%qQ%qQqQ%%qQq%QqQ%qQq%Q%%%q%%%%QqQq%%%%%%%Qq%%%%Q%%%%qQqQ%%qQ%%%%%%%q
13414D9QqQ%%%%qQ%qQq%%QqQqQ%%%%%%%%%qQqQ%%%%%%qQqQ%%q%%%Q%%%%%%q%%Q%%qQ%%%qQ
13398E7q%%%%QqQqQQj6Q%%q%%%%%Q%%qQq%%Q%%qQq%%%Q%%%q%Q%%%qQq%Q%%%%qQ%%%%%%%%%
13382E7%%%%%%qQ%%%%q%Q%%%qQqQ%%%%qQ%qQ%q%Q%%%%%%qQ%%%%%%%%%%%%%%%qQ%%%%%%%%q
13366D9%Q%q%Q%%%%%%%%%%%%%%%%%%%%%%%%q%Q%%%qQ%%%%%%%%%%%qQ%%q%Q%%%%%%%%%qQqQ
13351E7%%%%qQ%%%%%%%%qQ%%%%%%%%%%%%%%q%%%Q%q%Q%%%%%%%%%%%%%%%%%%qQ%%%qQ%qQ%%
13335E7%%%qQ%qQ%%%%%%%%%%qQ%%qQ%qQ%%%qQ%qQ%%%%%%%%%%%%%%%%%%%%%%%%%%%%%%%%%%
13319E7%%%%qQ%%%%%%%%%%%%%%%%%%%%%%%%%%%%%%%%%%qQ%qQ%%%%%%%qQq%%Qq%Q%qQ%%%%%
13303E7%%%%%%%%%%%%%%%%qQ%%%%%%%%%%%%%%%q%Q%%%%%%%%%%%%%%%%%%%%%%%%%%%%%%%%%
13287E7%%%%%%%%%%%%%%%%%%%%%%%%%%%%%qQ%%%%%%%%%%%Qj6Q%%%%%%%%%%%%%%%%%%%%%%%
13272E7%%%%%%%%%%%%%%%%%%%%%%%%%%%%%%%%%%%%%%%%%%%%%%%%%%%%%%%%%%%%%%%%%%%%%
13256E7%%%%%%%%%%%%%%%%%%%%%%%%%%%%%%%%qQ%%%%%%%%%%%%%%%%%%%%%%%%%%%%%%%%%%%
13240E7%%%%%%%%%%%%%%%%%%%%%%%%%%%%%%%%%%%%%%%%%%%%%%%%%%%%%%%%%%%%%%%%%%%%%
13224E7%%%%%%%%%%%%%%%%%%%%%%%%%%%%%%%%%%%%%%%%%%%%%%%%%%%%%%%%%%%%%%%%%%%%%
13209E7%%%%%%%%%%%%%%%%%%%%%%%%%%%%%%%%%%%%%%%%%%%%%%%%%%%%%%%%%%%%%%%%%%%%%
13193E7%%%%%%%%%%%%%Qq%%%%%%%%%%%%%%%%%%%%%%%%%%%%%%%%%%%%%%%%%%%%%%%%%%%%%%
13177E7%%%%%%%Qq%%%%%%%%%%%%%%%%%%%%%%%%%%%%%%%%%%%%%%%%%%QqQq%%%Qq%Qj6Q%%qQ
13162E7J6k4qK4j6QQqQq%qJ6q%%%%%%%%%%%%%%%%%%%%%%%%%%%%%%%%%%%%%%%%%%%%%%%%%%
13147E7%%%%%%%%%%%%%%%%%%%%%%%%%%%%%%%%Qq%%%%%%%%%%%%%%%%%%%%%%%%%%%%%%%%QqQ
13131F5q%%%%%%%%%%%%%%%%%%%%%%%%%%%%%%%%%%%%%%%%%%%%Qq%%%%%%%%%%%%%%%%%%%%%%
13115E7%%%%%%%%%%%%%%%%%%%%%%%%%%Qq%%%%%%%%%%%%%%%%%%%%%%%Qq%%%%%Q%q%%%%%%%%
13100E7%%%%%%%%%%%%%%%%%%%%%%%%%%%%%%%%%%%%%%%%%%%%%Qq%%%%%%Qq%%%%%%%%%%%%%%
13084E7%%qQ%%%%%%%%%%%%%%%%%%%%%Qq%%%%%%%%%%%%%%%Qq%%%%%%%%%%%%%%%%%%%%%%%%%
13068E7%%%%%%%%%%Qq%Qq%%%%%%%%%%%%%%%%%%%%%%%%%%%%%%%%%%%%%%%%%%%%%%%%%Qq%%%
13052E7%%%%%%%%%%%%%%%%%%%%%%%%%%%%%%%%%%Q%%%q%%%%Qq%%%%%%%%%%%%%Qq%%%%%%%%%
13036E7%%%%%%%%%%%%%%%%%Qq%%%%%%%%%%%%%%%%%%%%%%%%%Qq%%%%%%%%%%%%%Qq%%%%%%%%
13021E7Qq%%%%%%Qq%%%%%%%%%%%%%%%Q%q%%%%%%%%%%%%%%%%%%%%%%%%%%%%%%%Qq%%%%%%%%
13005E7%%%%%%%%%Q%q%Qq%%%Q%%%%%%%%%%%%q%Q%%%%%%qQq%%%%QqQq%%%%Qq%%%%%%%%%%Q%
12989F5%%%%%qQqQ%%q%%Qq%Qq%%QqQq%%%%%%Qq%%%%Q%%q%QqQ%%qQ%%q%Q%%qQ%q%Q%%%%%%%
12973F5%%%%%qQ%qQ%%%%%qQ%%%%%%qQ%%%q%%QqQ%q%%Q%%%q%Q%%%qQ%%%qQ%qQ%%%%%q%%%Qq
12957E7Q%qQ%%%%q%Q%%q%%%Qq%%%%Qq%%%Q%%%%%%%%%%%%q%Q%%%%%%%%%qQ%q%%%%%Q%%q%%Q
12942F5%%%%%%%%%%%%%%%%%%%%%%%%%%%%%%%%%%%%%%%qQ%%qQ%%%%%qQ%%qQ%q%%QqQqQ%Qj6
12926E7J6q%qQ%%%%%%%qQ%%%%%%%%%%%%%%q%%QqQq%%QqQ%%%%%%%%qQq%Q%qQ%qQ%%%qQ%%qQ
12910F5%%%%%%%%%%%%%%%%%%%%q%%Q%%qQ%%qQ%%%%%%%%%%%%%%%%%%%%%%qQ%%%%%%%%qQ%%%
12895F5%%qQ%%qQ%%%qQ%%%%%%%%%%q%Q%%%%qQ%%%%%qQ%%%%%%q%QqQqQ%%qQ%qQ%%%q%Q%qQq
12879E7Q%%%%%%%qQ%%%%%%%%%%%%%%%%%%%%%%%%%%%%%%%%%%%%q%%Q%%%%q%Q%%%%%%%%%%%%
12863F5%%%%%%%%%%%%%%%%%%%%%%%%%%%%%%%%%%%%%%%%%%%%%qQ%%%%%%%%%%%%%%%%%%%%%%
12847F5%%%%%%%%%%%%%%qQ%%%%%%%%%%%%%%%%%%qQ%%%%%%%%%%%%%%%%%%%%%%%%%%%%%%%%%
12831F5%%%%%%%%%%%%%%%%%qQ%%%%%%%%%%%%%%%%qQ%%%%%%%%%%%%%%%%%%%%%%%%%%%%%%qQ
12816F5%%%%%%%%%%%%%%%%%%%%%qQ%%%%%%%%qQ%%%%%%%%%%%%%%%%%%%%%%%%%%%%%%%%%%%%
12800F5%%%%%%%%%%%%%%%%%%%%%%%%%%%%%%%%%%%%%%%%%%%%%%%%%%%%%%%%%%%%%%%%%%%%%
12784F5%%%%%%%%%%%%%%%%%%%%%%%%%%%%%%%%%%%%%%%%%%%%%%%%%%%%%%%%%%%%%%%%%%%%%
12768F5%%%%%%%%%%%%%%%%%%%%%%%%%%%%%%%%%%%%%%%%%%%%%%%%%%%%%%%%%%%%%%%%%%%%%
12753F5%%%%%%%%QqQq%%%%%%%%%%%%%%%%%%%%%%%%%%%%%%%%%%%%%%%%%%%%%%%%%%%%%%%%%
12737F5%%%%%%%%%%%%%%%%%%%%%%%%%%%%%%%%%%%%%%%%%%%%%%%%%%%%%%%%%%%%%%%%%%%%%
12721F5%%%%%%%%%%%%%%%%%%%%%%%%%%%%Qq%%%%%%%%%%%%%%%%%%%%%%%Qq%%%%Qq%%%%%%%%
12705F5%%%%%%%%%%%%%%%%%%%%%%%%%%%%%%%%%%%%%%%%%%%%%%%%%%%%%%%%%%%qQQ%qQq%%%
12689F5Qq%%%%%%Qq%%%%Qq%%%%%%%%%%%%%%%%%%%%%%%%%%%%%%%%%%%%%%QqQq%%%%Qq%Q%q%
12674F5%%%%%Qq%%%%%%%%%%%%%%%%%%%%%%%%%%%%%%%%%%%Qq%%%%%Qq%Qq%%%%%%%%%%%%%%Q
12658G3q%Q%%%q%%%%%%%%%%%%Qq%Qq%%%%%Qq%%%%%%%%%%%%%%%%Qq%%%Qq%%%%%Qq%%%%%%%%
12642F5%%%%%%%%%%Qq%%Q%q%QqQq%%QqQ%%qQq%%%Qq%%%%%%%%%%%%%%%%%%%%%%%%%%%%%%%%
12626F5%%%Qq%Q%q%Q%q%%%Q%%%q%Q%%%%%%qQ%%q%%%Q%%%%qQ%%%%qqK4j6Q%q%%Qq%%Qq%Q%q
12611F5%Q%%qQq%QqQq%Q%%qQqQqQq%%%%%%%Q%q%%%%%%%%%%Q%q%Q%q%%%%Q%qQq%%%Qq%Qq%%
12595F5%QqQ%%%%%%%%qQq%%%%Q%%%%%%qQ%%%%%%%q%%%%Q%%%%q%Q%%%%q%%Qq%QqQq%%Qq%%%
12579F5%Q%%%qQ%%%%%%qQ%%%%%q%QqQqQ%%%%%%%%%%%q%Qq%%QqQ%%%%%%%q%Q%%%%%%%%%%qQ
12563G3%%%%%%qQq%Q%%q%Qq%Q%%%%%%q%Q%%%%%%%%q%%%QqQ%%%%%%%%%%%%%%%%%%%%%%%%%q
12548F5Q%%%%%%%%%%qQqQ%%%%%%%%%%%%%%%%%%%%%%%%%%%%%%%%%%%%%%%%%%%%%%%%%qQ%%%
12532G3%qQqQ%qQ%%%%%%%%%%%%%qQ%%%%%%%%%%%%%%%%%%%%%%%%%%%%%%%%%%%%%%%%%%%%%%
12516G3%q%Q%%%%%%%%%%%%%%%%%%%%%%%%%%%%%%%%%%%%%%%qQ%%%%%%%%%%%%%%%%%%%%%%%%
12500G3%%%%%%%%%%%%%qQ%qQ%%%%%%%%%%%%%%%%%%%%%%%%%%%%%%%%%%%%%%%%%%%%%%%%%%%
12485G3%%%%%%%%%%%%%%%%%%%%%%%%%%%%%%%%%%%%%%%%%%%%%%%%%%%%%%%%%%%%%%%%%%%%%
12469G3%%%%%%%%%%%%%%%%%qQ%%%%%%%%%%%%%%%%%%%%%%%%%%%Qq%qQ%qQ%%%%%%%%%%%%%%%
12453G3%%%%%%%%%%%%%%%%%%%%%%%%%%%%%%%%%%%%%%%%%%%%%%%%%%%%%%%%%%%%%%%%%%%%%
12437G3%%%%%%%%%%%%%%%%%%%%%%%%%%%%%%%%%%%%%Qq%%%%%%%%%%%%%%%%%%%%%%%%%%%%%%
12421G3%%%%%%%%%%%%%%%%%%%%%%%%%%%%%%%%%%%%%%%%%%%%%%%%%%%%%%%%%%%%%%%%%%%%%
12406G3%%%%%%%%%%%%%%%%%%%%%%%%%%qQ%%%%%Qq%%%%Qq%%%%%%%%%%%%%%%%%%%%%%%%%%%%
12390G3%%%%%%%%%%%%%%%%%%%%%%%%Qq%%%%%%%%%Qq%%%%%%%%%%%%%%%%%%%%%%%%%%%%%%%%
12374G3%%%%%%%%%%%Qq%%%%%%%%%%%%%%%%%%%%%%%%%%%%%%%%%%%%%%%%%%%%%%%%%%%%%%%%
12358G3%%%%%%%%%%%QqQq%%QqQq%%%%%%%%%%Qq%%%%Qq%%%%%%%%%%%%%%%%%%%%%%%Qq%QqQq
12342G3%Qq%%%%Q%%%%qQq%%%%%%%%%%%%%%%%%%%Qq%%%%%%%%Qq%%%Qq%%%%%%%%Qq%%%%%Qq%
12327G3%%%%Q%qQq%%%%%%%%%%Q%%%%%%%%%%%%%%%%qQ%q%%Qq%%%%%%%%%Qq%%Q%%%%qQq%%%%
12311G3Q%%q%Q%%%%%q%%%Qq%QqQq%Qq%QqQ%qQ%%%%qQqQ%qQ%qQ%%%%%%qQq%%Q%qQq%%Q%%%%
12295H1%%%%%%%%q%Qq%Q%%%%%%%%%qQqQ%%%%%%%%%%q%%Qq%%QqQ%%%%%%%%%qQ%%%%qQ%%%%%
12279H1q%Q%%%%%qQqQ%q%%%Q%qQ%%%%%%%%qQ%%%%%%%%%%%qQqQqQ%%%%%%%%%%%%%%%%%qQqQ
12263H1q%Q%%%%%%%%qQ%%%%%%%%%%%qQ%%qQ%%%%%%%%%%%qQ%qQ%%q%Q%%%%%%%%%%%%%%%%%%
12248H1%%%%%%%%%%%%%%%%%%%%%%%%%%%%%%%%%%%%%%%%%%%%%%%%%%%%%%%%%%%%%%%%%%%%%
12232H1%%%%%%%%%%%%%%%%%%%%%%qQ%q%QqQqJ6qq%k4J6L2k4%Q%%qQ%%%%%qQj6Q%Q%%%qQ%%
12217H1%%%%%%%%%%%%%%%%%%%%%%%%%%%%%%%%%%%%%%%%%%%%%%%%%%%%%%%%%%%%%%%%%%%%%
12202H1%%%%%%%%%%%%%%%%%%%%%%%%%%%%%%%%%%%%%%%%%%%%%%%%%%%%%%%%%%%%%%%%%%%%%
12186H1%%%%%%%%%%%%%%%Qq%%%%%%%%%%%%%%%%%%%%%%%%%%%%%%%%%%%%%%%%%%%%%%%%%%%%
12170H1%%%%%%%%%%%%%%%%%%%%Q%%q%%%%%%%%%%%%%%%%%%%%%%%%%%%%%%%%%%%%%%%%%%%%%
12154H1%%%%%%%%%%%%%%%%%%%%%%%%%%%%%%%%%%Qq%%%%qQ%%%%%%%%%%%%%%%%%%%%%%%%%%%
12138H1%%%%%%%%%%%Qq%%%%%%%%%%%%%%%%%%%%%%%%%%%%%%%%%Qq%%%%Qq%%Q%%qQq%Q%%qQ%
12123H9%%%qQq%Qq%%%%%%Qq%%%%%%%%%%%%%%%%%%%%%Q%%qQq%%%%%%%%%%%%%%%%%%%%%%%Qq
12107H1%%QqqQ%%%%%%Qq%%Qq%%%Q%q%%Q%qQ%%q%Qq%Qq%%%%Qq%QqQq%%QqQ%%qQ%qQ%%%%%%%
12091H9%%%q%%%%%%%%%%%%%%%%%%%%%%%%%%%%%Qq%%%%QqQqQ%%qQq%QqQ%qQ%%%%%qQqQ%%%%
12075H9%q%%Qq%%%%%%Qq%%%Qq%%QqQq%Qq%%%QqQ%q%%%Qq%%%%%%%%QqQ%q%Q%qQqQqQ%qQ%qQ
12059H9qQ%%%qQqQ%%%%%%%%qQ%%qQ%%qQ%%qQ%%qQ%%%%%%%%%%q%Q%%qQ%%%%qQq%Q%%%%%%%%
12044H9%%%%%%%%%%%%%%%%%%%%%%%%%%%%%%%%%qQ%%%%%%%%%%%%qQ%%%%%%%%%%%%%%%%qQ%%
12028H9%q%%Q%qQ%%%qQ%%%%%%%%%%%%%%%%%%%%%%%%%%%%%%%%%%%%%%%%%%%%%%%%%%%%%%%%
12012H9%%%%%%%%%%%%%%%%%%%%%%%%%%%%%%%%%%%%%%%%%%%%%%%%%%%%%%%%%%%%%%%%%%%%%
11996H9%%qQ%%%%%%%%%%%%%%%%%%%%%%%%%%%%%q%Q%%%%qQ%%%%%%%%%%%%%%%%%%%%%%%%%%%
11981H9%%%%%%%%%%%%%%%%%%%%%%%%%%%%%%%%%%%%%%%%%%%%%%%%%%%%%%%%%%%%%%%%%%%%%
11965H9%%%%%%%%%%%%%%%%Qq%Qq%Q%q%%%%%%%%%%%%%%%%%%%%%%%%%%%%%%Q%q%Qq%%%%%Q%j6
11949H1Q%%%%%%%%%%Qq%%%%Qq%%%%%%%%%%%%%%%%%%%%%%%%%%%%%%%%%%%%%%%%%%%%Qq%%%%
11933H9%%%%%%%%%%Qq%%%%%Qq%%%%%%%%%%%%%%%%%%%%%%%%%%%%%%%%%%%%%%%%%%Qq%%%%Qq
11917H9%%%%%%Qq%%%Qq%QqQ%qQq%QqQq%%Q%qQq%Qq%%%%%%%Qq%%%%%Qq%%%%%%%Qq%%Qq%%%Q
11902I7q%%%Qq%%%%%%Q%q%QqQ%q%%%Q%q%Qq%%QqQq%%%%Qq%%%%%%%QqQq%%%%%%%%QqQqQq%%
11886H9%Q%q%%%%Q%%%qQqQ%qQ%q%Qq%%%%%%%%Q%%q%%%%%%%%%%%QqQ%qQq%QqQ%%%q%%%Q%%q
11870H9Q%%%%qQqQ%qQ%%%%%%%%qQ%%%%%%%%%%%%%%%qQ%%%%%%qQ%%qQ%%%%qQ%qQ%%%%%%%%%
11854I7%qQ%%%%%%%%%%%qQqQ%%%%%%%%%%%%%%%%%%%%%%%%%%%%%qQ%%%%%%%%%%%%%%%%%%%%
11838I7%%%%%%%%%%%%%%%%%%%%%%%%%%%%%%%%%%%%%%%%%%%%%%%%%%%%%%%%%%%%%%%%%%%%%
11823I7%%%%%%%%%%%%%%%%%%%%%%%%%%%%%%%%%%%%%%%Qq%%%Qq%%%%%%%%%%%%%%%%%%%%%%%
11807I7%%%%%%%%%%%%%%%%%%%%%%%%%%%%%%%%%%%%%%%%%%%%%%%%%%%%Qq%%%%%%%%%%%%%%%
11791I7%Qq%%%%%%%%%%%%%%%%%%%%%%%%%%%%%%Qq%%%%%%%%%%%%%%%%%%%%%%%%%%%%%%%%%%
11775I7%%%%%%%%%%%%%%%%%%%%%%%%%%%%%%%%%%%%%%%%%%%%%%%%%%%%%%%%%%%%%%%%%%%%%
11759I7%%%%%%%%%%%%%%%%%%%qK4qq%Q%%q%QqQq%%%%%%%Qq%%Qq%%%%%%Qq%%%%%%%%%%%%%%
11744I7Qq%%%%%%%%%%%Qq%%%%%%%%%%%%%%%%%Q%%qQ%%q%%%%%%%%%%Q%qQ%qQq%Q%%%%qQ%%%
11728A05%qQqQ%q%Q%q%Q%%%%%%q%Q%%qQ%%%%qQ%qQ%%%qQ%%%%%q%%%QqQqQq%Q%%qQ%%%%%%%
11712A05%%%%%%%%%%%%%%%%%%%%%q%Q%%%%%%%%%%%%%%%%%%%%%%%%q%Q%q%QqQqQqQ%%%%%%%
11697A05qQ%qQq%%%QqQqQ%%%%%%%%%%%%%%%%%%%%%%%%%%%%%%%%%%%%%%%%%%%%%%%%%%%%%%
11681A05%%%%%%%%%%%%%%%%%qQ%qQqQqQ%%%%%%%%%%%%%%%%%%%%%%%%%%%%%%%%%%%%%%%%%%
11666A05%Qq%%%%%%%%%%%%%%%%%%%%%%%%%%%%%%%%%%%%%%%%%%%%%%%%%%%%%%%%%%%%%%%%%
11650A05%%%%%%%%%%%%%%%%%%%%%%%%%%%%%%%%%%%%%%%%%%%%%%%%%%%%%%QqQq%%%%%%%%%%
11635A05%%%%%%%%%%%%%%%%%%%%%%%%%%%%%%%%%%%%%%%%%%%%%%%%%%%%%%%%%%%%%%%%%%%%
11619A05%%%%%%%%%%%%%%%%%%%%%%%%%%%%%%%%%Q%%%%%%%%%%%q%%%%%%%%%%%%%%%%%%%%%%
11604A05%%%%Qq%QqQq%%%%%%%%Q%q%Qq%%%%Q%%%%q%Q%%qQ%%%%%qQ%q%%%Q%q%Qq%Q%%%%%%%
11588A13%q%Q%%q%Qq%Q%q%%%%%Q%%q%Q%qQ%%qQ%qQqQ%%qQq%%Qq%Qq%Q%%q%%Q%qQ%%%qQqQ%
11572A13qQ%%%%%%%%%%%%%%qQ%%%%q%Q%%%%%%qQ%%q%%QqQ%%q%%%Qq%%QqQ%qQqQ%%%%%%%%%
11557A13%%%qQ%%%%%q%Q%%%%%%%%%%%%%%%%%%%%%%%%%%%%%%%%%%%%%%%%%%%%%%%%%%%%%%%
11541A13%%%%%%%%%%%%%%%%%%%%%%%%%%%%%%%%%%%%%%%%%%%%%%%%%%%%%%%%%%%%%%%%%%%%
11526A13%%%%%%%%%%%%%%%%%%%qQ%%%%Qq%qJ6q%%%%%%%%%%%%%%%%%%%%%%%%%%%%%%%%%%%%
11510A13%%%%%%%%%%%%%%%%%%%%%%%%%%%%%%%%%%%%%%%%%%%%%%%%%%%%%%%%%%%%%%%%%%%%
11495A13%%%%%%%%%%%%%%%%%%%%%%%%%%%%%%%%%%%%%%%%%%%%%%%%%%%%%%%%%%%%%%Qq%QqQ
11479A21q%%Qq%%%%Qq%%%%%%%%%%%%%%%%%%%%%%%Qq%%%%%%%%Q%q%%%Qq%Q%q%%Q%q%%%%%%Q
11464A21%%%%%%%%qQqQ%%%%qQ%%%%%%%qQ%%%%qQ%%%q%Q%%q%Q%qQ%qQ%qQqQqQ%%%%%%%%q%%
11448A13Q%qQ%%qQ%%%%%%%%%%%%%%%%qQ%%qQ%q%Q%%qQqQ%%%%%%%%%%%%%%%%%%%%%%%%%%%q
11433A13Q%%%%%%qQ%%%%%%%%%%%%%%%%%%%%%%%%%%%%%%%%%%%%%%%%%%%%%%%%%%%%%%%%%%%
11417A21%%%%%%%%%%%%%%%%%%%%%%%%%%%%%%%%%%%%%%%%%%%%%%%%%%%%%%%%%%QqQ%qQq%%%
11401A21%%%%%%%%%%%%%%%%%%%%%%%%%%%%%%%%%%%%%%%%%%Qq%%%%%%%%%%%%%%%%%%%%%%%%
11386A21%%%%%%%%%%%%%%%%%%%%%%%%%%%%%%%%%QqQq%%%%%%Qq%%%%%%%%%%%%%%%%%%%%%%%
11370A21%%%%%Qq%%Qq%%%%%%%%Qq%%Qq%QqQ%qQq%%%%%%%%Qq%%%%%%%%%Qq%Qq%%%%%%%Qq%Q
11355A29%%%%qQq%Q%%qQ%qQ%%%%%q%%Q%%qQ%%%%%qQq%%%%Q%%%%%%%%%q%%%%Qq%%Q%%%%qQ%
11339A29%%%%%%%%%%%%%%%%%%%%%%%%%%%%%%%%%%%%%%%%%qQ%%%%%%%%%%%%%%qQ%%qQ%%%%%
11324A29%%%%%%%%%%%%%%%%%%%%%%%%%%%%%%qQ%%%%%%%%%%%%%%%%%%%%%%%%%%%%%%%%%%%%
11308A29%%%%%%%%%%%%%%%%%%%%%%%%%%%%%%%%%%%%%%%%%%%%%%%%%%%%%%%%%%%%%%%%%%%%
11292A29%%%%%%%%%%%%%%%%%%%%%%%%q%qQK4%l2QJ6q%%%Q%q%%%%Qq%%%Qq%Qq%%%%QqQqQqQ
11278A37q%%%%%Qq%%%%%%%%%%%%%%QqQ%q%Q%%q%%%QqQ%q%%%%%%%%%%Qq%%%%%%%%%%%Q%qQq
11262A29Q%q%%%%%%%%Q%%%%%%q%%%%Q%%qQ%qQqQ%%%qQ%%qQ%qQ%qQ%qQq%Q%%%%%qQ%%%%%qQ
11246A37%%%%%%%%%%qQ%%qQ%%%%%%%%%%%%%%%%%q%Q%%%qQ%qQqQq%%Q%%%%%%%%qQ%%%%%%%%
11231A37%%%qQ%qQ%%%%%%%%%%%%%%%%%%%%%%%%%%%%%%%%%%%%%%%%%%%%%%%%%%%%%%%%%%%%
11215A37%%%%%%%%%%%%%%%%%%%%%%%%%%%%%%%qQQq%%%%%%%%%Qq%%%%%%%%%%%%%%%%%%%%%%
11200A37%%%%%%%%%%%%%%%%%%%%%%%%%%%%%%%%%%%%%%%%%%%%%%%%%%%%%%%%Qq%%%%%%%%%%
11184A37%%%Qq%%%%%Qq%%%%%%Q%qQ%%%%%%%%q%%%%%%%%%%%%%%%%%QqQq%%QqQq%%%Q%q%QqQ
11169A45%%%%q%%%%Q%%qQ%%%%%qQq%Q%%qQ%q%Q%%%%%%%%%%%%%%%%%%%%%%%%%%%%%%qQ%%q%
11153A37Q%qQqQqQ%%%%%%%%qQ%%%%%%%%%%%%%%%%%%%%%%%%%%%%%%%%%%%%%%%%%%%%%%%%%%
11138A45%%%%%%%%%%%%%%%%%%%%%%%%%%%%%%%%%%%%%%%%%%%%%%%%%%%%%%%%%%%%%%%%%%%%
11122A45%%%%%%%%%%%%%%%%%%%%%%%%%%%%%%%%%%%%%%%%%%%%%%%%%%Qj6QQqQq%Q%q%%%%%%
11107A45Qq%%%%%%%%%%%%%%Qq%%%%%%%%%%%%Qq%%%QqQ%%%qQq%%%%%Qq%%Q%%%%qQ%%qQ%%%%
11091A53qQ%qQ%%qQ%%%%%%%%%%%%%%%%%%%%%%%%%%%%%%%qQ%%%qQ%%%%%%%qQq%%QqQ%%qQ%%
11076A53%%%%%%%%%%%%%%%%%%%%%%%%%%%%%%%%%%%%%%%%%%%%%%%%%%%%%%%%%%%%%%%%%%%%
11060A53%%%%%%%%%%%%%%%%%%%%%%%%%%%%%%%Qq%%%%%%Qq%Q%q%%%%%%%Qq%%%%%%%%%%%%%%
11044A53%%%%%%%%%%%%%%%%%%%%%%Qq%%%%%%%Qq%%%%%%%%%%%Q%%qQqQqQ%qQqQ%q%Qq%Q%%q
11029A53Qq%%%Q%%%%%%%%%%%%%%%qQ%%%%%%qQ%%%%%%%%%%%qQ%%%%qQ%%%%%%%%%%%%qQ%%q%
11013A53Q%%%qQ%QqqQ%%%%%%%%%%%%%%%%%%%%%%%%%%%%%%%%%%%%%%%%%%%%%%%%%%%%%%%%%
10998A61%%%%%%%%%%%%%%%%%%%%%%%%%%%%%%%%%%%%%%%%%%%%%%%%%%%%%%%%%%%%%%Qq%%%%
10982A61%%%%%%%%%%%%%%%%%%%%%%%%%%%%%Qq%QqQq%%%%%%Qq%%%%%%%%%%%%%%%%%%%%%%%%
10967A61Qq%%%%%%%%%%Q%q%Q%%%%%qQ%%%%%%%%%%qQ%%%qQqQ%qQ%q%Qq%%QqQqQ%%%%qQ%%%%
10951A69%%%%%%%%%%q%Q%%%%%%%%%%%%%%%%%%%%%%%%%%%%%%%%%%%%q%Q%%%%%%%%%%%%%%%%
10935A69%%%qQq%QqQ%%%%%%%%%%%%%%%%%%%%%%%%%%%%%Qq%%%%%%%%%%%%%%%%%%%%%%%%%%%
10920A69%%%%%%%%%%%%%%%%%%%%%%%%%%%%%%QqQq%%%%%%%%%%Qq%%%%%%%%%%%%Qq%Qq%%%%%
10904A69%%%%%%%Qq%Qq%QqQq%%%%Q%%%qQ%q%QqQ%%qQ%%%%%%%%%%%%%%%%%%%%%%%%%%%%%%%
10889A77%%%%%%%%%%%%%%%%%%%%%%%%%%%%%%%%%%%%%%%%%%%%%%%%%%%%%%%%%%%%%%%%%%%%
10873A77%%%%%%%%%%%%%%%%%%%%%%%%%%%%%%%%%%%%%%%%%%%%%%%%%%%%%%%%%%%%%%%%%%%%
10858A77QqQqQ%%q%Q%q%%%%Qq%Q%q%Q%qQ%%qQ%%%%%q%Q%%%qQ%qQ%%qQ%%qQ%%%%%%%%%%%%%
10842A85%%%%%%%%%%%%%%%%%%%%%%%%%%%%%%%%%%%%%%%%%%%%%%%%%%%%%%%%%%%%%%%%%%%%
10826A85%%%%%%%%%%%%%%%%%%%%%%%%%%%%%%%%%%%%%Qq%%%qJ6q%J6j6Q%%qQ%q%%%%%Qq%%%
10812A85%%%%%%%%%%%%%%%%%%Qq%%%%%%%%%%%%Qq%Q%qQq%%Qq%%%Q%qQq%Q%qQq%QqQqQ%%%%
10796A93%%%%%%%qQ%%%%%%%%%%%%%%%%%%%%%%%%%%%%%%%%%%%%%%%%%%%%%%%%%%%%%%%%%%%
10780A93%%%%%%%%%%%%%%%%qQ%%%%%%%%%%%%%%%%%%%%%%%%%%%%%%%%%%%%%%%%%%%%%%%%Qq
10765A93%%%%Qq%%%%%%%Qq%%Q%qQq%%Qq%%%%%QqQ%%qQ%q%Qq%Q%%q%Q%%q%Qq%%%%%Q%%qQ%%
10749B01%qQ%%%%qQ%qQ%%%%%%%%%%%%%%%%%%%%%%%%%qQ%QQ%j6qJ6j6Q%%%%%%%%%%%Qq%%%%
10734B01%%%%%%%%%%%%%%%%%%%%%%Qq%%%%%%%%%%%%%%%%%%%%%%%%%%%%Qq%QqQ%%q%%%%%%%
10719B01Q%%%qQ%%%qQ%qQqQqQq%%Q%%%%%%%%%%%%qQ%%qQ%%%%%qQ%%%%%%%%qQ%%%%qQqQ%%%
10703B09%%qQ%%%%%%%%%qQqQ%%%%%%%%%%%%%%%%%%%%%%%%%%%%%%%%%%%%%%%%%%%%%%%%%%%
10688B09%%%%%%%%%%%%%Qq%%%%%%%%%%%%%%QqQq%Qq%QqQq%Qq%%%%%%%%Q%%qQqQ%%%%%%q%%
10672B09%QqQq%%Q%q%%%QqQ%%qQ%%%%%%%%%%%%%%%%%qQ%%%%qQ%%%%%%%%%%%%%%%%%%%%%%%
10657B17%%%%%%%%%%%%%%%%%%%%%%%%%%%%%%%%%%%%%%%%%%%%%%%%%%%%Qq%%%%%%%Qq%QqQq
10641B17QqQq%Q%q%Qq%Q%%qQqQ%%%%%%%q%QqQ%qQ%%%qQ%%%%%%qQ%%%%%%%%%%%%%%%%%%%%%
10626B25%%%%%%%%%%%%%%Qq%%%%%%%%%%%%%%%%%%%%%%%%%%%%%%%%%%%%%%%%%%Qq%%%%%%%%
10610B25%Qq%%%Qq%%%%%%QqQ%q%%Q%%q%%Q%q%Q%qQ%q%%%%Q%qQ%qQqQ%%%%%%%%%%%%%%%%%%
10594B33%%%%%%%%%%%%%%%%%%%%%%%%%%%%%%%%%%%%%%%%%%%%%%qQ%%Q%qQq%Qq%Qq%%Qq%%%
10579B33%%%%%Qq%%%%%%%%%%%%%%%%%%%%%%Qq%%%Qq%%Q%%q%QqQqQ%qQqQ%%%%%%%%%%%%%%q
10563B33Q%%%%%%%%%%%%%%%%%%%%%%%%%%%%%%%%%%%%Qq%%%%%%%%%%%%%%%%%%%%%%%%%%%%%
10548B41%%%%%%Qq%%%%%%%%%Qq%QqQq%Qq%%Qq%QqQq%Qq%%%%%%%%%QqQqQ%%qQ%%%%%%%%%%%
10532B49%%%%%%%%%%%%%%%%%%%%%%%%%%%%%%%%%%%%%%%%%%%%%%%%%%%%%%%%Qq%%%%%%%%%%
10517B49%%%%%%%%Q%%q%Qq%Q%%%qQ%%%%%q%QqQ%%%%%%%%%%%%%%%%%qQ%qQ%%%%%%%%%%%%%%
10501B57%%%%%%%%%%%%%%%%%%%%%%%%%%%%%%%%%%%%%%%%%%%%%%%%Qq%%%%%%%%%%%%%Qq%%%
10485B57%%%QqQq%%%Q%qQ%%%q%%Qq%Q%q%Q%qQ%%%%%%%%%%%%%%%%%%%%%%%%%%%%%%%%%%%%%
10470B65%%%%%%%%%%%%%%%%%%%%%%%%%Q%q%%%%%%%%%%%%%%Q%q%Qq%Q%q%%QqQ%%%%%%%%%%%
10454B73%%%%%%%%%%%%%%%%%%%%%%%%%%%%%%%%%%%%%%%%%%%%%%%%%%%%%%%%%%%%%%%%Qq%%
10439B73%%Qq%%QqQ%qQqQ%%%%%%%qQ%qQ%%%%%%qQ%%%%%%%%%%%%%%%%%%%%%%%%%%%%%%%%%%
10423B81%%%%%%%%%%%%%%%%%%%%%%%%%%%%%%%%%%%%%%%%Q%q%Q%qQ%%%qQ%q%%%Q%%%%%%%%%
10408B89%%qQ%%%%%%%%%%%%%%%%%%%%%%%%%%%%%%%%%%%%%%%%%%%%Qq%%%%%%%%%%%%%%Qq%%
10392B89%Qq%%%%%%QqQqQ%%%%%%%%%%%%%%%%%%%%%%%qQ%%%%%%%%%%%%%%%%%%%%%%%%Qq%%%
10377B97%%%%%%%%%%%%%%%%%%%%%%%QqQ%qQqQ%%qQqQ%%%%%%q%Q%qQ%%%%%%%%%%%%%%%%%%%
10361C05%%%%%%%%%%%Qq%%Q%q%%%%%%Qq%%%Q%q%Q%%qQ%q%Q%j6J6qqJ6%j6qqQQ0qm8P2q8L2
10347C29k4Qq%QQj6J6qj6J6%%q%%Qq%qJ6%%%q%QqQqQ%%%%%%%%%%Qq%%%Qq%%%%%%%%%%%%%%
10333C13Q%qQq%%%Qq%%%Q%%%qQ%qQqQ%qQ%qQ%%%%%%%%%%%%%%%%%%%%%%%%%%%%%%%%%%%%%Q
10318C29q%%%%%Qq%%%%%%%QqQ%qQqQ%qQ%%%%qQ%%qQ%%%%%%%%%%%%%%%%%%%%%%%%%%%%%%%%
10302C29%%%%%%%%%%%%%%%%%%%%%%%%%%%%%%%%%%%%%%%Q%qQq%QqQqQqQq%%Q%%%%%%%%%%%%
10287C37%%%%%%%%%%%%%%%%%%%%%%%%QqQqQ%%qQ%%%%q%%QqQ%%qQ%%%%%%qQ%%%%%%%qQ%q%Q
10271C45qQQq%%%%%%%%%%%%%%%%%%%%%%%%%%%%%%%%%%Q%q%Q%%%%qQqQqQ%%%%%%%%%%%%%%%
10255C53%%%%%%%%%%%%%%%%%%%%%%%%%%%%%%%%%%Qq%%%%%%%Qq%%Q%%%q%Qq%Q%%%%%%%%%%%
10240C61%%%%%%%%%%%%%%%%%%%%%%%%%%%%%%%%%%Q%%qQ%qQqQq%Q%%%%%%%%%qQ%%%%%%%%qQ
10224C69%%%%%%%%%%%%%%%%%%%%%%%%%%%%%%QqQq%%%Q%%%%%%%%%%qQqQ%%%%%%%%%%%%%%%%
10209C77%%%%%%%%%%%%%%%%%%%Q%%q%Q%%%q%Qq%%%Q%%%%%%%%%%%%%%%%%%%%%%%%%%%%%%%%
10193C85%%%%%%%%Qq%QqQqQ%%%%%%%%qQ%%%%%%%%%%%%%%%%%%%%%%%%%%%%%%%Q%q%%Qq%Q%q
10178C93%%%%Q%qQqQ%%%qQ%%%%%qQq%Q%%%%%%%%%%%%%%%%%%%%%%%%%%%%Qq%Qq%Q%%%%%q%Q
10162D09%qQ%%qQ%%%%%%%%%%%%%%%%%%%%%%%%%%%%%QqQqQq%Qq%%%QqQ%%%%%%%%%%%%%%%%%
10146D17%%%%%%%%%%%%%%%%%%%Qq%%%%%%%%%%Q%%qQ%%%%%%%%%%%%%%%%%%%%%%%%%%%%%%%%
10131D25%QqQ%%%q%%Q%%%%qQ%%%%%%%%%%%%%%%%%%%%%%%%%%%%%%%%%%%%%%%%QqQq%%%QqQ%
10115D41qQ%qQ%qQqQ%%%%%%%%%%%%%%%%%Q%%q%%Q%q%Qq%QqQ%%%%%%%%%%%%%%%%%%%%%%%%%
10100D49%%%%%%Qq%%%%QqQ%%%%%%qQ%%%%%%%%%%%%%%%%%%%%%%%Q%%%%%%%%%%%%%%%%%%%%%
10084D65%%%%%%%%%%%%%%%Qq%%%%Qq%QqQq%Q%%%%%%%%%%%%%%%%%%%%%%%%%%%%%%%Qq%%%%%
10069D73Q%qQ%qQqQ%%%%%%qQ%%%%%%%%%%%%%%%%%%%%%Q%qQqQqQqQ%%q%QqQqQqQ%%%%%%%%%
10053D89%%%%%%%%Qq%Q%%%%%%%%%%%%%%%%%%%%%%%%%%%%%%%%%%%%%%%Q%%%qQ%%%%%%%%%%%
10038E05%%%%%%%%%%%%Qq%%%Q%q%Q%%%%%%%%%%%%%%%%%%%%%%%%Qq%%QqQ%qQ%%%qQ%%%qQ%%
10022E21%%%%%%%%%%%%%%%%%Q%q%%Qq%%Q%%%%%%%%%%%%%%%%%%%%%%%%%%%Qq%%%%Q%%%%%%%
10006E37%%%%%%%%%%%%%%%%%%%%%%Q%%%%q%Q%%%%%%%%%%%%Qq%%Qq%%%Q%q%Q%q%QqQ%%%%%%
9991E53%%%%%%%Qq%%%Q%qQ%%%%%%%%%%%%%%%%%%%%%%%%%%%%Qq%Q%%qQ%%%%%%%%%%%%%%%%%
9975E69%%%%%Q%q%%Q%qQ%%%%%%%%%%%%%%%%QqQ%%q%Q%%%%%%%%%%%%%%%%%%%Qq%Qq%%Qq%%Q
9959E93%q%Q%%%%%%%%%%%%%%Qq%%%Q%%%%%%%%%%%%%%%%%%%%%%%%%%%%%%%Q%%%%%%%%%%%%%
9943F09%%%%%%Q%%%%%%%%%%%%%%%Qq%%%%%%%%%QqQ%%%%%%%%%%%%%%%%%%%Q%q%QqQ%%%%%%%
9928F33%%%%%%%%%%%%%%%Qq%Q%%%%%%%%%%%%%%%%%Q%q%%%%%QqQ%qQ%%%%%%%%%%%%%%%%%%%
9912F49%%Q%%%%%%%%%%Qq%%%%%%Q%%%%%%%%%%%%%%%%%%Q%qQqQ%%%%%%%%%%%%%%%%%%%%%Q%
9896F81%%%%%%%%%%Qq%Qq%%%Q%%%%%%%%%%%%%%%%%%%%%%Qq%Q%%%%%%%%%%%%%Qq%Q%%%qQq%
9880F97J6j6J6k4J6%qJ6q%%%%Q%%q%Q%qQ%%%%%%%%%Qq%Q%%%%%%%%%%%%%%%%%%%Q%%%%%%%%
9866G29%%%%%%%%%%%%%%Q%%%%%%%%Qq%%%%Q%%%%%%%%%%%%%%%%%%%Q%qQ%%%%%%%%%%%%%%Q%
9850G61qQ%%%%%%%%%%%%%%%%Qq%Q%%%%%%%%%%%Q%%qQ%%%%%%%%%%%%%%%%%%%Q%%%%%%%%%%%
9834G85%%%Q%%%%%%%%%%%%Qq%%%%Q%%%%%%%%%%%%%%%Q%%%%%%%%%%%%%%QqQ%qQ%%%%%%%%%%
9818H17%%%%Q%%%%%%%%%%%%%Q%q%Q%%%%%%%%%%%%%%%Q%%%%%%%%%%Q%qQ%%%%%%%%%%%Q%%%%
9803H57%%%%%Qq%Qq%Q%%%%%%%%%%%Q%qQ%%%%%%%%%%%%%QqQ%%%%%%%%%%%Q%%%%%%%%%%%%%%
9787H89%Q%%%%%%%%%%%%Q%%%%%%%%%%%Q%%%%%%%%%%%%Q%%%qQ%%%%%%%%%%Q%%%%%%%%Qq%%Q
9771I37%%%%%%%%%%%%QqQ%%%%%%%%%%%%Q%%%%Qq%%Q%q%Q%%%%%%%%Q%%%%%%%%%%%Q%%%%%%%
9755I77%%%%%%%Q%%%%%%%%%Q%qQ%%%%%%%QqQ%%%%%%%%%Q%%%%%%%%%%%%%%Q%%%%%%%%%%%Q%
9740A025%%%%%%Q%%%%%%%%%%Q%%%%%%%%%QqQqQ%%%%%%%%%Q%%%%%%%%Q%%%%%%%%%%%%Q%%%%
9724A073%%%%%Q%%%%%%%%QqQ%%%%%%%%Q%%%%%%%%QqQ%%%%%QqQ%qQ%%%%%%Q%%%%%%%%%Q%%%
9708A129%%%%%Q%%%%%%%%Q%qQ%%%%%%Q%%%%%%%%%%Q%%%%%%%%%%Q%%%%%%Q%%%%%%%%%%Q%%%
9693A185%%%%Q%%%%%%%Q%%%%%%%Q%%%%%%%Q%qQ%%%%%%%Q%%%%%%%%%Q%%%%Q%%%%%%%%%Q%%%
9677A249%%QqQ%%%%%Q%qQ%%%%%%Q%%%%%%%%Q%%%%%%Q%%%%%QqQ%%%%%%Q%%%%%%%Q%%%%%%%Q
9662A321%%%%%%Q%%%%%%Q%%%%%%%Q%%%%%%%%Q%%%%Q%%%%%%%Q%%%%%Q%%%%%%Q%%%%%%%Q%%%
9646A393%%%Q%qQ%qJ6%%%%%%%Q%%%%%Q%%%%%Q%%%%%%Q%%%%%%%Q%%%%%%Q%%%%%Q%%%%%Q%%%
9631A473%%%Q%%%%Q%%%%%Q%%%%%Q%%%%%Q%%%%%%Q%%%%Q%%%%%%Q%%%%QqQ%%%%%Q%%Q%%%%Qq
9615A561%Q%%%Q%%%%%%Q%%%%Q%%%%Q%%%%%Q%%%%%Q%%%Q%%%%%Q%%%QqQ%%%%Q%%%QqQ%%%%Q%
9600A665%%Q%%%%Q%%%%Q%%%%Q%%%%Q%%%%%Q%%%%Q%%%%Q%%%Q%%%%%Q%%%Q%%%%%Q%Qq%Q%%%Q
9584A777%%%%Q%%%Q%%%%%Q%%Q%%%%Q%%%Q%%%%Q%%%Q%%%%Q%%%%Q%%%Q%%%Q%%Q%%%%Q%%%Q%%
9569A897%QqQ%%%Q%%%%Q%Q%%%Q%%%%Q%%%Q%%%Q%%Q%%%Q%%%%Q%%QqQ%%Q%Q%%%%%Q%%Q%%Q%%
9553B033%%Q%%%%Q%%Q%%Q%%Q%%%%Q%%Q%%%Q%%%Q%%%Q%%Q%%Q%%%Q%%Q%%Q%%%%Q%%Q%%%Q%%Q
9537B185%Q%%Q%%%Q%%%Q%%Q%%Q%%%Q%%Q%%Q%%%Q%QqQ%Q%%Q%Q%%Q%%%Q%Q%%%%Q%Q%%Q%%Q%%
9522B353Q%%%Q%Q%%%Q%Q%%%Q%Q%%Q%%Q%%Q%Q%%Q%%Q%%Q%%Q%Q%%Q%%Q%Q%%Q%Q%%Q%%%Q%Q%%
9506B545Q%%Q%%Q%Q%Q%%Q%%Q%Q%%Q%%Q%Q%%Q%QQqQ%Q%Q%%Q%%Q%Q%%Q%%QQ%%Q%Q%%Q%Q%Q%Q
9491B769%%Q%Q%%Q%Q%Q%%QQ%%%Q%Q%Q%Q%Q%Q%Q%%Q%Q%Q%Q%Q%Q%%QQ%%Q%Q%Q%%Q%QQ%%Q%Q%
9475C009Q%Q%Q%QQ%%Q%Q%Q%QQ%Q%Q%%QQ%%QQ%%QQ%Q%Q%Q%QQ%Q%Q%Q%Q%QQ%Q%Q%QQ%%QQ%Q%
9460C297Q%Q%Q%Q%QQ%QQ%Q%QQ%Q%Q%Q%QQ%QQ%Q%QQ%%QQ%QQQ%%QQ%QQ%QQ%Q%QQ%QQ%QQ%QQ%
9444C625Q%QQQ%QQ%Q%QQQ%Q%Q%J6%QQ%QQ%QQQ%QQ%QQ%QQ%QQ%QQQ%QQ%QQQ%QQQ%QQQ%QQQ%Q
9429D001QQ%QQQ%QQQ%J6%QQ%QQQQQQ%QQQ%QQQQQ%QQQQ%QQQQQQ%QQQ%QQQQQ%J6%QQ%J6QQQ%
9414D425QQQQ%J6QQqK4QJ6k4%M0%J6q%K4QQQ%QQQQQQQQQQQQQQQ%J6QQQQQQQQQQQQQQQQQQQ
9400D889QQQQQQQJ6%QQJ6%J6QQQQQQQQQJ6QQQQQQQQQQJ6QQQQQQJ6QQQQQQJ6QQQQJ6QQQJ6Q
9387E417QQQJ6QQQQJ6QQJ6QQQJ6QQJ6QQQJ6QQQJ6QQJ6QQQJ6QQJ6QJ6QQJ6QQQJ6QJ6QQJ6QJ6
9374E969QQQJ6J6QJ6QQJ6QJ6QJ6QQJ6QJ6J6QQJ6QJ6QJ6J6QJ6QQJ6J6QJ6QJ6QJ6J6QJ6QJ6J6
9364F521QJ6J6QJ6QJ6J6QJ6J6QJ6QJ6J6J6QJ6J6QJ6J6J6QJ6J6J6QJ6J6QJ6J6J6QJ6J6J6J6
9355G065QJ6J6J6J6J6QJ6J6J6J6J6J6J6J6QJ6J6J6J6J6J6J6J6J6J6J6J6J6J6J6J6J6J6J6J6
9347G617J6J6J6J6J6J6J6J6J6J6K4J6J6J6J6J6J6K4J6J6J6J6K4J6J6J6J6K4J6J6J6K4J6J6
9339H201J6K4J6J6K4J6J6K4J6J6K4J6J6K4J6K4J6J6K4J6K4J6J6L2QK4K4J6J6K4J6K4J6K4J6
9331H873K4K4J6K4K4J6K4K4J6K4J6K4K4J6K4K4J6K4K4K4J6K4K4K4K4K4J6K4K4K4K4J6L2J6
9323I617K4K4K4K4K4K4K4K4K4K4K4K4K4K4K4K4K4K4K4K4L2K4K4K4L2K4K4K4K4K4L2K4K4L2
9315A0465K4K4L2K4K4L2K4L2K4K4L2K4L2K4K4L2K4L2L2K4L2K4L2K4L2L2K4L2L2K4L2L2L2L2
9307A1425K4L2L2L2K4L2L2L2L2L2L2L2L2L2K4M0L2L2L2L2L2L2L2L2L2M0L2L2L2L2M0L2L2M0
9300A2521L2L2M0L2L2M0L2M0L2M0L2M0L2M0M0L2M0L2M8L2M0L2M0M0M0M0M0L2M0M0M0M0M0M0
9292A3785M0M0M0M0M0M8M0M0M0M0M0M8M0M0M8M0M0M8M0M8M0M8M0M8M8M0M0M8M8M8M0M8M8M8
9284A5257M8M8M8M0M8M8M8M8N6M8M8M8M8M8M8N6M8N6M8M8N6M8M8N6N6M8N6N6M8N6N6M8N6N6
9276A6977N6N6N6N6N6N6N6N6O4N6N6N6N6O4N6O4N6N6O4O4N6O4O4N6O4O4O4N6O4O4O4O4O4O4
9268A9009P2O4O4O4P2O4O4P2O4P2P2O4P2P2P2O4P2P2Q0O4P2Q0P2P2P2Q0P2P2Q0Q0P2Q0P2Q0
9261B1441Q0P2Q0Q0Q8Q0Q0Q0Q0Q0Q8Q0Q8Q0Q8Q0Q8Q8Q8Q8Q0R6Q0R6Q8Q8R6Q8Q8R6R6Q8R6R6
9253B4369R6R6Q8J04R6R6R6J04R6J04R6J04J04J04J04J04J04J04J04J04J12J04J12J04J12
9247B6921J12J12J12J12J12J12J20J12J20J12J20J20J20J20J20J20J20J28J20J28J20J28J28
9242B9649J28J28J28J28J36J28J36J36J28J44J36J36J36J36J44J36J44J44J44J44J52J44J52
9237C2817J44J52J52J52J52J60J52J52J60J60J60J60J60J60J68J68J60J68J68J76J68J76J68
9231C6513J76J76J76J84J76J84J84J84J84J92J84J92J92J92J92J92K00K00K00K00K00K08K00
9226D0881K08K16K08K16K08K16K16K24K16K24K24K32K24K32K32K32K32K32K40K40K48K48K40
9221D6089K48K56K48K56K56K64K56K64K64K72K64K72K80K72K80K80K88K88K88K88K96K96K96
9216E2361L04L04L04L12L12L12L20L20L20L28L28L36L28L36L44L44L44L52L60L52L60L68L60
9210F0009L68L76L76L84L84L92L92L92M00M00M08M08M16M16M24M24M32M32M48M40M48M56M56
9205F9481M56M64M72M80M72M88M96M88N04N04N12N12N20N28N36N36N44N52N52N60N68N68N84
9200H1377N84N92N92O08O16O16O24O32O40O48O48O64O64O80O80O96O96P04P20P20P36P36P52
9195I6625P52P68P76P84Q00Q00Q16Q24Q32Q48Q48Q64Q80Q88Q96R04R20R28R52R52R68R84R92
9189A16601J008J016J032J040J064J072J088J104J120J128J152J160J176J200J208J232J248
9185A35649J264J280J296J320J336J352J376J392J416J432J464J472J504J520J544J568J592
9182A59777J616J640J664J688J720J744J776J800J824J856J888J920J952J976K016K040K080
9178A90977K112K152K184K224K248K312K336K368K424K464K504K552K592K640K688K736K792
9174B32305K840K888K952K992L056L120L168L232L296L360L424L496L568L624L712L776L864
9170B88673L936M016M096M192M272M368M464M552M648M752M864M968N072N192N304N432N552
9166C68353N688N816N952O088O240O392O544O696O880P032P216P400P592P776P992Q192Q408
9162D86257Q632Q872R104R360R616R880J0160J0448J0744J1064J1384J1712J2072J2432J2808
9159F44545J3200J3616J4040J4480J4952J5432J5936J6464J7016J7592J8200J8816J9488K0176
9155H73953K0896K1656K2448K3279K4168K5081K6048K7072K8144K9280L0464L1719L3049L4456
9152A251713L5936L7504L9168M0920M2800M4775M6889M9128N1520N4056N6776N9680O2775
9149A873640O6097O9648P3463P7569Q1975Q6721R1848R7384J03367J09857J16895J24560J32889
9146C105913J41984J51936J62823J74776J87944K02440K18481K36248K55992K77992L02576
9144E419105L30143L61144L96136M35793M80879N32393N91488O59623P38568Q30537R38343
9141A1714152J065464J216458J397079J614921J879960K205512K609608L116999L762161M594023
9139C5176337N683210P133613R101287J1824971J5676573K1241923K9438726M1638180N9550703
9137B36465523Q3863949J08678908J09651388N0166554n0166554j09651414j08678908q3863923
9135B36465523n9550703m1638180k9438746k1241903j5676593j1824951r101287p133623n683200
9133C5176337m594023l762161l116999k609608k205512j879960j614921j397079j216449j065473
9131A1714152r38336q30544p38568o59616n91495n32393m80879m35793l96136l61144l30143
9128E419105l02576k77992k55992k36248k18481k02440j87935j74785j62823j51936j41984
9126C105913j32889j24551j16904j09857j03367r7377r1848q6728q1975p7560p3472o9648
9123A939737o6097o2775n9673n6776n4063n1512m9128m6897m4775m2792m0928l9168l7496
9120A287657l5944l4448l3049l1727l0456k9280k8144k7072k6048k5089k4159k3280k2456
9117I16505k1656k0896k0168j9480j8832j8192j7592j7016j6464j5936j5432j4952j4480j4040
9114F71369j3616j3200j2808j2432j2072j1720j1376j1064j0744j0456j0152r880r624r352
9111E12873r104q864q640q408q192p984p784p592p400p208p048o864o704o544o392o240o088
9107C85817n952n816n688n552n424n312n192n072m968m864m752m656m552m456m368m272m192
9103C00729m096m024l936l856l776l704l640l560l488l432l352l296l240l176l112l048l000
9099B40993k952k888k840k784k744k680k648k592k552k504k456k424k376k336k304k256k224
9095A97433k184k152k112k080k040k016j976j952j920j880j856j832j800j768j744j720j696
9091A64705j664j640j616j584j576j544j520j496j480j456j440j408j400j368j360j336j312
9087A39505j304j280j264j248j224j216j192j176j168j144j136j112j104j088j072j064j040
9083A19673j032j024j000j000r76r68r52r44r36r20r04r04q88q72q64q56q40q40q24q08q08
9079A00513p92p84p76p68p60p44p44p28p28p12p04p04o88o88o72o72o56o56o40o40o32o24
9073H5001o16o16o08n92n92n84n84n68n68n60n52n52n44n36n36n20n28n20n04n04n04m88m96
9068G2329m80m80m80m72m64m56m56m56m48m40m40m40m32m24m24m16m16m08m08m00m00l92l92
9063F2305l84l84l84l76l76l68l68l60l60l60l52l52l44l44l36l44l28l36l28l28l28l12l20
9058E4233l20l04l12l12k96l04l04k96k88k96k88k88k80k80k80k80k72k72k72k64k64k64k64
9052D7633k56k56k56k56k48k48k48k40k48k40k40k32k40k32k32k32k24k24k24k24k16k24k16
9047D2177k16k16k08k08k16k00k08k08k00k00k00k00k00j92j92k00j84j92j84j92j84j84j84
9042C7609j76j84j84j76j76j76j68j68j76j68j76j60j68j68j68j60j60j60j60j60j60j52j60
9037C3745j52j52j52j52j52j44j52j44j44j44j44j44j44j44j36j44j36j36j36j36j36j28j36
9031C0457j36j28j28j36j28j20j28j28j28j20j28j20j20j20j28j12j20j20j20j20j12j20j12
9026B7625j12j12j12j12j12j12j12j04j12j04j12j04j04j04j04j12r6j04j04r6j04j04r6j04
9021B5073r6r6r6r6r6r6r6r6r6r6q8r6q8q8r6q8q8q8q8q8q8q8q8q8q8q0q8q0q8q0q0q8q0q0
9013B2033q0q0q0q0q0q0q0p2q0q0p2q0p2q0p2q0p2p2p2q0p2o4q0p2p2o4p2p2o4p2p2o4p2o4
9005A9513o4p2o4o4p2o4o4o4o4o4o4o4o4o4o4n6o4o4o4o4n6n6o4o4n6n6o4n6o4n6n6n6n6n6
8997A7409o4n6m8n6n6n6n6n6n6m8n6n6n6m8n6n6m8n6m8n6m8m8n6m8m8n6m8m8m8m8m8n6m0n6
8989A5625m8m8m8m8m8m8m0m8m8m8m0m8m8m0m8m8m0m8m0m8m8m0m0m8m0m0m8m0m8m0m0m0m0m8
8982A4105m0m0m0m0m0m0m0m0m0m0m0m0m0l2m0m0m0m0l2m0m0l2m0m0m0l2m0l2m0l2m0l2m0l2
8974A2809l2m0m0l2l2m0l2l2m0l2l2l2m0l2l2l2l2l2m0k4m0l2l2l2l2l2l2l2l2l2l2k4l2l2
8966A1681l2l2l2l2l2k4l2l2k4l2l2k4l2l2l2k4l2l2k4l2k4l2k4l2k4l2k4l2k4l2k4k4l2k4
8958A0697k4l2k4l2k4k4l2k4k4k4l2k4k4k4k4l2k4k4k4k4k4k4l2k4k4k4k4k4k4k4k4k4k4k4
8951I833k4k4k4k4k4j6k4k4k4k4k4k4k4j6k4k4j6k4k4k4k4k4j6k4j6l2j6k4j6k4k4j6l2j6
8943I073k4j6l2j6qk4j6k4j6l2j6k4j6j6k4k4j6k4j6j6k4j6k4j6k4j6j6k4j6j6k4j6k4j6j6
8935H385k4j6j6j6k4j6j6j6k4j6j6j6k4j6j6j6k4j6j6j6j6j6k4j6j6j6j6j6j6k4j6j6qk4j6
8927G769j6j6j6j6j6j6j6j6j6j6j6j6j6j6j6j6j6j6j6j6j6j6j6qj6j6j6j6j6j6qj6j6j6j6
8919G225j6j6j6qk4qj6j6qj6j6j6j6qj6j6j6qj6j6j6qj6j6j6qj6j6qj6j6qj6j6qj6qj6j6q
8910F673j6j6j6qqj6j6qj6qj6qj6j6qj6qj6j6qj6qj6qj6qj6qj6qj6qj6qj6qj6qqj6qj6qj6
8900F129qj6qqj6qj6qqj6qqj6qqj6qj6qqj6qj6qqqj6qj6qqqj6qqqj6qqqj6qqj6qqqj6qqj6
8888E585qqqqj6qqqqj6qqqqqj6qqqqj6qqqqqj6qqqqqqj6qqqqqj6%j6qqqqqqqqqqqqqqj6%j6
8874E049qqqqqqqqqqqqqqqqqqqqqqqqqqqqqqqqqqqqq%j6q%qj6%j6%qj6%qqqqqqqq%qqqqqq
8860D553qq%qqqqqqqq%qqqqqq%qqqqqq%qqqq%qqqq%qqqq%j6%qqq%qqqq%qqqq%qqqq%qq%qq
8844D113qq%qqq%qqq%qqq%qq%qqq%qq%qqq%qqq%q%qq%qqq%qqq%qq%q%qq%qqq%q%qqq%qq%q
8829C729%qq%q%qq%qq%qq%q%j6Qj6%q%q%qq%q%qq%q%q%qq%q%qq%qq%q%q%qq%q%q%qq%q%qq
8814C409%q%qq%q%%qq%q%q%q%q%q%q%q%qq%q%q%q%q%q%q%q%q%qq%%q%qq%q%%q%q%qq%%qq%
8798C129q%%q%q%q%q%q%qqQq%q%q%q%q%q%%qq%q%q%%q%q%%q%q%q%qq%%q%%q%q%q%%q%q%q%
8783B881%q%%q%q%q%%q%q%%q%q%q%%q%%q%q%%q%q%%q%q%%q%q%%q%q%%q%q%%q%%q%q%%%qq%
8767B665%%q%%qq%%q%%%q%%q%q%%q%q%%%q%%q%%q%q%%%q%q%%q%q%%%q%%q%%q%%q%q%%%q%%
8751B481q%%q%q%%%q%%%q%%qQqq%%q%%%q%q%%q%%%q%%q%%q%%q%%%q%%q%%q%%q%%%%q%q%%%
8736B313q%%q%%%q%%%q%%%q%q%%%q%%%%q%q%%%q%%%q%%%q%q%%%%q%%%q%%q%%%%q%%q%%%q%
8720B161%%q%%%q%%%q%%q%%%%q%%%q%%%q%%qQq%%q%%%q%%%q%%%%q%%%qQj6J6qj6Q%%q%%%q
8705B033%%%%q%qQq%%%q%%%%q%%%q%%%%q%%%q%%%q%%%%q%%%%q%%%%%q%%%q%%q%%%%%q%%%q
8690A913%%%%q%%%%%q%%%q%%%%q%%%%%q%%%%%q%%%q%%%q%%%%%q%%qQ%q%%%q%%%%%q%%%%q%
8674A809%%%%q%%%%q%%%%q%%%%q%%%%%%q%%%%%qQq%%%q%%%%q%%%q%%%%%%q%%%%%%q%%%%qQ
8659A721q%%%q%%%%q%%%%%%%q%%%%%q%%%%%q%%%%qQq%%%%%qQq%%%q%%%%%q%%%%%%q%%%%%q
8643A625%%%%%q%%%%%q%%%%%%q%%%%%%%q%%%%%%%q%%%%%q%%%%%q%%%%%%%%%q%%%%%%q%%%%
8628A553qQq%%%%%%q%%%%%%%%q%%%%%%%q%%%qQq%Qq%q%%%%%%%%%%q%%%%%%%q%%%%%%%q%%%
8612A481%%qQq%%%%%%q%%%%%%%%q%%%%%%%q%%%%%%%%q%%%%%%q%Qq%%%%%%%%q%%%%%q%%%%%
8596A417%%%%qQq%%%%%%q%%%%%%%%%%q%%%%%%%q%%%%%%%%%q%%%%%%%%%q%%%%%%%%%q%%%%%
8581A361%%%q%%%%%%%q%Qq%%%%%%%%q%%%%%%%q%%%%%%%%q%Qq%%%%%%%%%%q%%%%%%%%%%%q%
8565A305%%%%%%qQq%%%%%%qQ%%%q%%%%%%%q%%%%%%%%%%q%%%%%%%%%%q%%%%%%%%%%%%q%%%%
8550A257%%%%%q%Qq%%%%%%%%%q%%%%%%%%%%%%%q%%%%%%%%q%%%%%%%%%%%%%q%%%%%%%%%%%%
8534A217%%%q%%%%%%%%%q%%Qq%%%%%%%%qQ%%q%%%%%%%%%%q%%%%%%%%%%%qQq%%%%%%%%%%qQ
8519A177qQq%%%%%%%%%%%%%%qQq%%%%%%qQq%%Qq%%%%%%%%%%%%q%%%%%%%%%%%%%q%%%%%%%%
8503A137%%%%%q%%%%Qq%%%%%%%%%%%%%%q%%%%%%%%%%%qQq%%%%%%%%%%%%%%qQ%q%%%%%%%%%
8488A105%%q%%Qq%%%%%%%%%%%%qQ%%qQq%%%%%%%%%%%%%%q%%Qq%Qq%%%%%%qQ%%%qqL2qk4Q%
8472A073j6K4qqQ%%%qQ%%%q%%%QqQq%%%%%%%qQq%%%%Qq%%%%%%%%%%%qQ%%q%%%%%%%%%%%%%
8457A049%%%qQ%q%%%%%%%%%%%%%%%%qQ%q%%%%%%%%%%%%%%%%%%qQq%%%%%%%%%%%%%%%q%Qq%
8442A017%%%%%%%%%%%%%%%%%%%%q%%Qq%%%%%%%%%%%%%%%%q%%%%%%%%%%%%%%%%%%%%%%%%%q
8426I93QqQ%q%%%%%%%%%%%%%%%%qQ%q%%%%%%%%%%%%%%%%%%%q%Q%%%q%%%%%%Q%q%%Qq%%%%%
8410I77%%%%%%%%qQ%%%qQq%%%%%%%%%%%%%%%%q%%%Qq%Qq%Qq%Qq%%%%%%%%%%%%%%%%%qQq%%
8395I53%%%%%%%%%%%%%%%%%%%%%%%%%%q%%Qq%%%%%%%%%%%%%%%%%%%%%%%q%%%%%%%%%%%%%%
8379I37%%%%%%%%%%%%%%%%%%%%%%%%%%%q%%%%Qq%%%%%%%%%%%%%%%q%QqQq%%Qq%%%%%%%%%%
8363I21%%%%%%%%%%%%%%%%%%%%qQqQ%qQ%%%q%Qq%%%%%%%%%%%%%%%%%%%%%%%%%%%%%qQqQqQ
8347I13q%Qq%%%%%%%%%%%%%%%%%%%%%%%%%%%%%%%%%q%Q%q%Q%%%q%%%%%%%%%%%%%%%%%%%%%
8331H97%%%%%%%%%%%%qQq%%Q%%q%%%%%%%%%%%%%%%%%%%%%%%%%%%%%%%%%%%%%%%%%%%%q%%%
8316H81%%%%Qq%%%%%%%%%%%%%%%%%%%%%%%%%%%%%%%%%%q%Q%q%Qq%%Q%q%%Q%%q%%%%%%%%%%
8300H73%%%%%%%%%%%%%%%%%%%%%%%%%%%%%%%%%%%%%%qQqQ%qQqQqQ%%qQqQq%%%%%%%%%%%%%
8284H65%%%%%%%%%%%%%%%%%%%%%%%%%%%%%%%%%q%%QqQ%qQqQqQ%%%qQqQqQ%q%Qq%%%%%%%%Q
8268H65q%%%%%%%%%%%%%%%%%%%%%%%%%%%%%%%%%%%%%%%%%%%%%%%%%%%%%%%%qQ%%qQ%%%%q%
8252H49Q%q%Q%%%%%%qQq%%%%%%%%%%%%%%%%%%%%%%%%%%%%%%%%%%%%%%%qQ%%%%qQ%%%qQ%%%
8237H49%%%%%%%%%%%%%q%Q%qQq%Q%qQ%%qQq%%%%%%%Qq%Qq%Qq%%%Qq%%QqQq%QqQq%%Q%qQ%q
8221H41%%%%%%%%%%%%%%%%%%%%%%%%%%%%%%%%%%%%%%%%%%%%%%%%%%%%%%%%%%%%%%%%%%%%%
8205H41%%%%%%%%%%%%%%%%%%%%%%%%%%%qQ%qQ%%%%%%%%%%%%%qQ%%%%%%%%%%%%%%%%%%%%%%
8189H41%%%%%%%%%%%%%%%%%qQ%%%%qQqQ%%%%%%%%%%%%%%%%%%%%%%%%%%%%%%%%%%%qQq%Q%%
8174H41%qQ%qQ%%%%%%%%%%%%%%%%%%%%%%%qQ%%%q%Q%%%%%%%%%%%%%%qQ%%%%%%%%%%%%%%%%
8158H41%%%%%%%%%%%%%%%%%%%%%%%%%%%%%%%%%%%%%%%%%%%%%%%%%%%%%%%%%%%%%%%%%%%%%
8142H41%%%%%%%%%%%%%%%%%%%%%%%%%%%%%%%%%%%%%%%%QqQq%%%%%%%%%%%%%%%%%Qq%%%QqQ
8126H49qQ%%%q%Q%%%%q%%%Q%%%Qq%%qQqQ%%qQ%%%%qQqQ%%%%%%%qQ%%%%%%%%%%%%%%%%%%%%
8110H49%%%%%%%%%%%%%%%%%%%%%%%%%%%%%%%%%%%%%%%%%%%%%%%%%Qq%%%%%%%%%%%%%%%Qq%
8095H49%%%%%%%QqQq%%%Q%qQqQ%%%%%qQ%%%qQ%%%%%%%%%%%%%%%%%%%%%%%%%%%%%%%%%%%%%
8079H57%%%QqQq%%%%%QqQqQq%%%%%%%%%%%%%QqQq%%%Qq%%%%%%Q%%%%%%%%%%%%%%%%%%%%%%
8063H65%%%%%%%%%%%%%%%%Qq%%%%%%%%%%Q%q%Q%qQ%%q%%Q%%%%%%%%%%%%%%%%%%%qQ%%%%%%
8047H73%%%%%%%%%%%%%%%%%%%%%%%%%%%%%%Qq%%%%%%%%%Q%%qQqQ%%%%%%%qQ%%%qQ%%%%%%%
8031H81%%%%%%%%%%%%%%%%%%%%Qq%%%%Q%%%%%%%%%%%%%%%%%%%%%%%%%%%%%%%%%%%%%%%%%Q
8016H97%q%%Q%qQ%qQq%Q%%%%%%%%%%%%%%%%%%qQ%%%%%%%%%%Q%qQ%j6qJ6J6j6QqQ%q%%%%%Q
8001I05%%%%%%%%%%%%%%%%%%%%%%%%%%%%%%%%%%%%%Q%%qQ%%%%%%%%%%%%%%%%%%%%%%%%%%%
7985I13%%%%%%%%%%%QqQ%%%%%%%qQ%%%%qQ%%%%%%%%%%%%%%%%%%%%%%%Qq%%%%%%QqQqQ%%%%
7969I29%%%%%%%%%%%%%%%%%%Qq%Qq%%%%%%%%%Qq%%%Q%qQ%%%%%%%%%%%%%%%%%%%%%%%%Qq%Q
7953I45%%%%%%%%%%%%%%%%%%%%%%%%%%%%Q%q%Q%%%%%%%%%%%%%%%%%%%%%%%%%%%%%QqQqQq%
7938I53Q%%%%%%%%%%%%%%%%%%%%%%%%%%%%%%%%%%Q%%qQqQ%%%q%Q%%%%%%Qq%%%%%%%Qq%QqQ
7922I77%%%%%%%%%%%%%%%%%%%%%Q%%%q%QqQ%%%%%%%%%%%%%%%%%%%QqQ%%%q%%%Q%qQ%%%%%%
7906I93%%%%%%QqQqQ%qQqQ%%%%%%%%%%%%%%%%%%%%%QqQ%%%%%%%%%%%%%%%%%%%%%%Qq%%Q%q
7890A009Q%%%%%%%qQQq%%%%%%%%%%Q%q%QqQ%%%%%%%%%%%%Qq%Q%%%%%%%%%%%%%%%%%%%%%%%
7875A033%%%%%Qq%%%Q%qQ%%%%%%%%%%%%%%%Q%%%%%%%%%%%%%%%%%%%%%%%%%Q%%%%%%%%%%%%
7859A057%%Qq%%Q%%%qQqQ%%%%%%%%%%%%%%%QqQ%%%%%%%%%%%%%%%%%%QqQ%%%%%%%%%%%%%%%
7843A081%%%Q%%%%%%%%%%%%%%%%%%QqQ%qQ%%%%%%%%%%%%%%%%%%%Q%%%%%%%%%%%%%%Q%q%Q%
7828A113%%%%%%%%%%%%%%Qq%%%%Q%%%%%%%%%%%%%%%%%%%%Q%%%%%%%%%%%%QqQ%%%%%%%%%%%
7812A137%%%QqQ%%%%%%%%%%%%%%%%%%Q%%%%%%%%%%%%Qq%%Q%%%%%%%%%%%%%%%Q%%%%%%%%%%
7797A169%%%%%%%%%Q%%%%%%%%%%%%%%%%Q%%%%%%%%%%%%%%%%%%%Q%%%%%%%%%Q%%qQ%%%%%%%
7781A201%%%%%%Q%qQ%%%%%%%Qq%%Q%%%%%%%%%%%Q%%%%%%%%%%qQ%%Q%%q%%QqQ%%%%%%%%%%%
7766A233%Q%%%%%%%%%%%%Q%%%%%%%%%%%%%Q%%%%%%%%%%%%%Q%%%%%%%%%%%%%%Q%%%%%%%%%%
7750A273%%Q%%%%%%%%%%%%Q%%%%%%%%%%%%%%%%Q%%%%%%%%%%%Q%%%%%%%%%%%%%Q%%%%%%%%Q
7735A321%%%%%%%%%%%%%Q%%%%%qQ%%%%%%Q%%%%%%%%%%%%QqQ%%%%%%%%%Q%%%%%%%%%%%%%Q%
7719A361%%%%%%%%%%Q%%%%%%QqQ%qQ%%%%%%%%Q%%%%%%%%%%%%%Q%%%%%%%Q%%qQ%%%%%%Qq%Q
7703A409%%%%%%%%%Q%%%%%%%%%%Q%%%%%%%%%%%Q%%%%%%%%%%Q%%%%%%%%%Q%%%%%%%%%%%Q%%
7688A457%%%%%%%%%Q%%%%%%%Q%%%%%%%%QqQ%%%%%%%%%Q%qQ%%%%%%Q%%%%%%%Q%%%%%%%%%%%
7672A505Q%%%%%%%%Q%%%%%%%%%QqQ%%%%Q%%%%%%%%Q%%%%%%%%Q%%%%%%%%Q%%%%%%%%%%%Q%%
7657A569%%%%%%Q%%%%%%Q%qQ%Qq%Q%%%%%%%Q%qQ%%%%%%Q%%%%%%%%QqQ%%%%%%%Q%%%%%%%Q%
7641A633%%%%%%Q%%%%%Q%%%%%%%%%%Q%%%%%%%%%Q%%%%QqQ%%%%%Q%%%%%%Q%%%%%%QqQ%%%%%
7626A697%QqQ%%%%QqQ%%%%%%Q%%%%%%%Q%%%%%%Q%%%%%%%Q%%%%%%Q%%%%%%%Q%%%%%Q%%%%%%
7610A769%Q%%%%%%%Q%%%%%%Q%%%%%QqQ%%%%Q%%%%%%%Q%%%%%%Q%%%%Q%%%%%%%Q%%%%%Q%%%q
7594A841QQ%%%%%%Q%%%%%Q%%%%%%Q%%%%%Q%%%%%%%Q%%%%%Q%%%%Q%%%%%Q%%%%%%%Q%%%QqQ%
7579A937%%%QqQ%%%Q%%%%%Q%%%%Q%%%%%QqQ%%%%%Q%%%%%Q%%%Q%%%%%Q%%%%%%Q%%%%Q%%%Q%
7563B033%%%%Q%%%%%Q%%%%Q%%%%%Q%%%%%Q%%%%%Q%%%%Q%%%Q%%%%%%Q%%%Q%%%%Q%%%%%Q%%%
7548B129%Q%%%Q%%%%Q%%%%%%Q%%%Q%%%Q%%%%%%Q%%QqQ%%%%J6q%Q%q%QQJ6J6k4qQ%qQ%Q%%%
7533B233%Q%%Q%%%%%%Q%%%%Q%%QqQ%QqQ%%%%Q%%%Q%%%Q%%%Q%%%Q%%%%Q%%%%%Q%%Q%%%Q%%%
7518B353%Q%%%%%Q%%Q%%%Q%%QqQ%%Q%%%%Q%%%Q%%Q%%%Q%%%Q%%%Q%%%Q%%%%%Q%%%Q%%Q%%%%
7502B481Q%Q%%%Q%%%%Q%%%Q%%%Q%%Q%%Q%%%%Q%%%Q%%Q%%%%Q%%Q%%%Q%%Q%%%Q%%Q%%%%Q%%%
7486B625Q%%Q%%Q%%Q%%%%Q%%Q%%Q%%%Q%%Q%%%Q%%Q%%Q%%%Q%%%Q%%Q%QqQ%%Q%%Q%%Q%%Q%%%
7471B785%Q%Q%%Q%%Q%%Q%%%%Q%Q%Q%%%%Q%%Q%%Q%Q%%%Q%%Q%Q%%Q%%Q%%Q%%Q%%%Q%%Q%%Q%%
7455B961QQqQ%%Q%Q%%%Q%Q%Q%%Q%%%Q%Q%%%Q%Q%%%Q%Q%%Q%%Q%%Q%Q%%%Q%Q%%Q%Q%%Q%%Q%Q
7440C161%%Q%Q%%Q%%Q%Q%%%Q%Q%%Q%Q%Q%%%QQ%%Q%Q%%Q%Q%%Q%%Q%Q%Q%%Q%Q%%Q%%Q%Q%Q%Q
7424C377%%Q%%Q%Q%Q%%Q%Q%Q%Q%%QQ%qJ6%%Q%Q%Q%Q%Q%Q%%Q%Q%%Q%Q%Q%Q%Q%Q%%QQ%%Q%%Q
7409C609%Q%Q%Q%Q%Q%Q%Q%Q%%Q%Q%Q%Q%Q%Q%QQ%%Q%Q%%QQ%Q%Q%Q%Q%Q%Q%Q%Q%QQ%%Q%QQ%Q
7393C881%Q%Q%Q%QQ%%Q%Q%Q%%J6%QQqQQ%Q%QQ%Q%QQ%%Q%QQ%Q%Q%QQ%Q%Q%Q%QQ%QQ%Q%Q%QQ
7378D177%Q%Q%QQ%Q%Q%QQ%QQ%Q%QQ%Q%QQ%QQ%Q%Q%QQ%QQ%QQ%QQ%Q%QQ%QQ%Q%QQQ%QQQ%Q%Q
7362D513%QQQ%QQ%QQQ%Q%QQ%QQ%QQ%QQ%QQQ%QQQ%QQ%QQQ%QQQ%QQ%QQ%QQQ%QQ%QQQQ%QQ%QQ
7347D897Q%QQQ%QQQQQ%QQ%QQQQ%QQQQ%QQQ%QQQQQ%QQQ%QQQQQ%QQQQ%J6%QQQQ%QQQQ%QQQQQ
7331E329QQQ%QQQQQ%QJ6%QQQQQQ%QQQQQQQQQQQ%QQQQQQQQ%J6QQ%J6%QQQQQQQQQQQQQQQQQQ
7317E809Q%J6QQQQQQQQQQQ%J6QQQQQQQQQQQQQJ6%QQQQQQQQJ6QQQQQQJ6QQQQQQQQQQQQQJ6Q
7302F329J6Q%QQJ6%K4%QQJ6QQQQJ6QQQQQJ6QQQQJ6QQQQQJ6QQQJ6QQQQJ6QQQJ6QQJ6QQQQJ6
7290F857QQJ6QQJ6QQQJ6QQQQJ6QJ6QQJ6QQQJ6QQJ6QJ6QQJ6QJ6QQJ6QJ6QJ6%J6QJ6QJ6QJ6Q
7278G393QJ6QJ6QJ6QJ6QJ6QQJ6J6QQJ6J6QQJ6QJ6QJ6QJ6QJ6J6QJ6QJ6QJ6QJ6J6QJ6J6QJ6Q
7268G937J6QJ6QJ6J6QJ6QJ6J6QJ6J6QJ6QJ6J6J6QJ6J6J6QJ6QJ6J6J6QJ6J6QJ6J6J6J6QJ6J6
7259H489QK4QJ6J6QJ6J6J6QJ6J6J6J6J6QJ6J6J6J6J6J6QJ6J6J6J6J6J6J6J6J6J6QJ6K4QJ6
7250I049J6J6J6J6J6J6J6J6J6J6J6J6J6J6J6J6J6J6J6J6J6J6J6K4J6J6J6J6J6J6J6K4QK4J6
7242I625J6J6J6K4QK4J6J6J6K4J6J6J6J6J6K4J6J6J6K4J6J6J6K4J6K4J6J6J6K4J6J6K4J6J6
7234A0249K4J6K4J6J6K4J6K4J6J6K4J6J6K4J6K4K4J6J6K4J6K4K4J6J6K4K4J6K4J6K4K4J6J6
7226A0921K4J6K4K4K4J6K4K4J6K4J6K4K4J6K4K4J6K4K4K4K4K4J6K4K4K4K4J6K4K4K4K4K4K4
7218A1673J6K4K4K4K4K4K4K4K4J6L2J6K4L2J6K4L2J6L2K4K4K4K4K4K4K4K4L2J6L2K4K4K4K4
7211A2489L2K4K4K4K4L2K4K4L2K4K4K4K4L2K4L2K4L2K4K4K4L2K4L2K4L2K4L2K4K4L2L2K4K4
7203A3401L2K4L2L2K4L2K4L2L2K4L2L2L2K4L2L2L2K4L2L2K4L2L2L2L2L2K4L2L2L2L2L2L2L2
7195A4425L2L2L2L2L2L2L2L2L2L2L2M0K4M0L2L2L2M0L2L2L2M0L2L2L2M0L2M0L2L2M0L2L2M0
7187A5569L2M0L2M0L2M0M0L2L2M0M0L2M8K4M0M0M0L2M0M0M0M0M0M0L2M8L2M0M0M0M0M0M0M0
7179A6857M0M0M0M0M0M0M0M0M8M0M0M0M8M0M0M8M0M0M8M0M0M8M0M8M0M8M0M8M0M8M0M8M8M0
7172A8305M8M8M8M0M8M8M8M8M0M8M8M8M8M8M8M8M8N6M0N6M8M8M8M8N6M8M8N6M8M8N6M8N6M8
7164A9961N6M8N6M8N6M8N6N6M8N6N6N6N6M8N6N6N6N6N6N6N6N6N6O4N6N6N6N6O4N6N6O4N6N6
7156B1849O4N6O4O4N6N6O4O4O4N6O4O4O4O4N6O4O4O4O4O4O4P2O4O4O4P2O4O4O4P2O4P2O4P2
7148B4025P2O4P2P2P2O4P2P2P2P2P2P2P2P2P2P2Q0P2P2P2Q0P2Q0P2Q0P2Q0Q0Q0Q0P2Q0Q0Q0
7141B6545Q0Q0Q0Q0Q0Q8Q0Q0Q8Q0Q0Q8Q0Q8Q8Q8Q8Q0Q8Q8Q8Q8Q8Q8Q8Q8R6Q8Q8R6Q8R6Q8R6
7133B9481R6R6R6Q8R6R6R6J04R6R6R6J04R6J04R6J04J04R6J04J04J04J04J04J04J04J04J12
7127C2185J04J04J12J12J04J04J12J12J20J04J12J12J20J12J20J12J12J20J20J12J20J20J20
7121C4785J20J20J28J20J20J20J28J28J20J28J28J28J28J28J28J28J36J28J36J28J36J36J36
7116C7721J36J36J36J36J44J36J44J36J44J44J44J44J44J44J52J44J52J52J44J52J52J52J60
7111D1049J52J52J60J52J60J60J60J60J60J60J68J60J68J68J68J68J76J60J76J68J76J76J76
7106D4833J76J76J76J76J84J84J84J84J84J84J84J92J92J84J92J92K00J92K00K00J92K00K08
7100D9169K00K00K08K08K08K08K08K16K16K08K16K24K16K16K24K24K24K24K24K32K32K32K32
7095E4169K32K40K40K32K48K40K40K48K48K48K48K56K56K48K64K56K56K64K64K64K72K72K72
7090E9977K72K72K80K80K80K88K80K88K88K88K96K96K96K96L04L04L04L12L12L12L12L12L20
7085F6769L28L20L28L28L28L36L36L36L44L44L44L44L52L60L52L60L60L68L60L76L68L76L76
7079G4793L84L84L84L92L92M00M00M00M08M08M08M24M16M16M32M24M32M40M32M48M40M56M48
7074H4361M56M64M64M72M72M72M80M88M88M88M96N04N04N12N12N12N20N28N36N28N44N44N44
7069I5889N68N44N76N68N68N84N84N92N84O08O08O08O16O16O24O40O32O48O48O64O56O64O80
7063A09969O80O88O96P04P04P12P20P28P36P36P52P52P60P76P76P84P92Q00Q08Q16Q24Q40
7058A26553Q40Q48Q56Q72Q72Q80Q96R04R12R20R28R44R52R60R68R84R84J000J016J024J032
7054A46145J040J064J064J080J088J104J112J128J136J152J168J176J192J200J224J232J240
7050A65545J264J272J288J304J328J328J352J368J376J400J416J432J448J464J488J504J520
7046A89097J536J560J576J600J616J632J656J680J696J720J744J768J784J816J832J856J880
7042B18049J912J928J960J984K008K040K064K088K120K152K184K208K240K272K304K336K360
7038B54209K408K432K472K504K552K576K616K656K696K736K768K816K864K904K944K992L040
7034C00185L080L136L176L232L288L328L384L448L496L544L616L672L728L792L848L920L984
7030C59857M056M120M192M256M336M416M488M568M648M736M816M904M992N080N176N272N368
7026D39281N472N568N680N784N896O016O128O248O368O496O624O752O896P040P176P328P480
7022E48233P632P792P960Q136Q304Q480Q672Q864R056R256R464R680R904J0128J0360J0600
7019F92521J0856J1112J1376J1648J1936J2224J2528J2832J3160J3496J3832J4192J4568J4936
7016H71217J5336J5744J6167J6609J7064J7528J8024J8528J9056J9592K0168K0760K1368K2008
7012A129169K2672K3352K4080K4815K5609K6408K7264K8144K9063L0017L1031L2081L3176
7009A486881L4328L5528L6784L8104L9488M0944M2456M4063M5736M7504M9369N1320N3384
7006B045889N5552N7847O0264O2825O5528O8392P1423P4624P8040Q1656Q5505Q9584R3944
7003B991073R8584J03528J08823J14472J20521J27015J33961J41448J49480J58144J67488
7001D414537J77576J88496K00328K13168K27127K42329K58920K77048K96920L18711L42713
6998G157873L69168L98399M30809M66800N06928N51760O02024O58551P22376P94673Q76903
6996A3536264R70834J078599J202841J346799J514512J711088J942920K218233K547607K944858
6994C1014555L428152M021831M758702N683928O860414Q377340J0363489J3008386J6596445
6992A04113242K1563173K8586698L8735247N3682420P5928437J08592409J52928444J98179045
6990G82309115J99952599R1480216r1480110j99952652j98179204j52928338j08592435p5928437
6988B46680754n3682394l8735247k8586711k1563160j6596465j3008366j0363489q377346
6986E5767576o860408n683928m758702m021825l428158k944851k547614k218233j942920j711088
6984A9649849j514512j346799j202832j078608r70834q76903p94673p22367o58560o02024
6982I881737n51760n06928m66808m30801l98399l69168l42713l18711k96920k77057k58911
6979E663561k42329k27127k13168k00320j88504j77576j67488j58144j49480j41448j33961
6976C664016j27015j20521j14472j08823j03528r8592r3936q9593q5496q1656p8040p4631
6974B487713p1416o8392o5528o2825o0271n7840n5561n3384n1319m9361m7504m5743m4056
6971A754513m2464m0936l9488l8104l6784l5528l4328l3176l2081l1031l0025k9055k8144
6968A303369k7264k6408k5609k4815k4080k3361k2663k2008k1368k0760k0168j9600j9056
6965A006209j8520j8024j7536j7056j6609j6167j5744j5336j4944j4560j4192j3832j3496
6962H00193j3160j2840j2520j2224j1936j1648j1376j1112j0848j0608j0360j0136r896r680
6959F41849r472r256r056q856q672q488q304q128p960p792p640p480p320p184p032o896o760
6955E05553o624o496o368o248o128o008n896n784n680n576n464n376n264n176n088m984m904
6951D08489m816m736m648m568m488m416m336m264m184m128m048l984l920l856l792l728l672
6947C36905l608l552l496l440l392l328l280l232l184l128l088l032k992k952k896k864k816
6943B82625k776k736k696k656k616k576k544k504k472k440k400k368k336k304k272k240k208
6939B40481k176k152k120k096k064k032k016j976j960j936j904j880j864j832j808j792j760
6935B07113j744j720j696j680j656j640j616j600j576j552j544j520j504j480j464j448j440
6931A80233j408j400j384j368j344j336j320j304j288j272j264j248j232j216j208j184j184
6927A58273j160j152j144j128j112j096j096j080j064j056j048j032j024j008j000r92r84
6924A40097r68r60r52r36r36r20r12q96q96q88q72q72q56q48q40q32q24q16q08q00p92p92
6919A20881p76p68p60p60p44p44p36p28p20p12p04p04o88o88o88o72o64o64o56o56o40o40
6914A05369o32o24o24o16o08o08o00n92n92n84n76n76n68n68n52n60n44n52n36n36n28n28
6908I2665n20n20n12n12n04n04m88m96m88m88m80m72m72m72m64m56m56m56m48m48m40m40m32
6903H1697m40m24m24m24m16m16m16m08m08m00m00l92m00l84l84l92l76l84l76l68l68l68l68
6898G2561l60l60l52l60l44l52l44l44l44l36l36l36l28l28l20l28l28l12l20l12l12l12l12
6893F4881l04l04l04k96k96k96k96k80k96k88k88k80k80k80k72k80k72k72k64k72k64k64k64
6887E8369k64k56k56k56k56k56k48k48k48k48k40k40k40k48k32k40k32k32k32k32k24k32k24
6882E2785k24k24k24k16k16k24k16k08k16k16k08k08k08k08k00k08k00k00k00k00k00k00j92
6877D7969j92j92j92j92j92j84j92j84j84j84j84j84j76j84j76j76j84j68j76j76j68j76j68
6872D3785j68j68j68j68j68j60j60j68j60j60j60j60j60j52j60j52j60j52j52j52j52j52j44
6866D0129j52j52j44j44j44j44j44j44j44j36j44j36j44j36j36j36j36j36j36j36j36j28j28
6861C6913j36j28j28j28j28j36j20j28j28j20j28j20j20j28j20j20j20j20j20j20j12j20j20
6856C4065j12j20j12j12j12j20j12j12j12j12j04j12j12j04j12j04j04j12j04j04j04j04j12
6851C1537r6j04j04j04j04r6j04r6j04r6r6r6j04r6r6r6r6r6q8r6r6r6q8r6q8r6q8q8r6q8
6844B8649q8q8r6q0q8q8q8q8q8q0q8q8q0q8q0q8q0q8q0q0q0q0q0q0q0q0q0q0q0q0q0p2q0q0
6836B5825p2p2q0p2q0p2q0p2p2p2p2q0o4q0o4q0p2o4p2p2o4p2o4p2p2p2o4p2o4p2o4o4p2o4
6828B3409o4o4p2o4o4o4o4o4o4o4o4o4o4o4n6o4n6o4o4n6o4n6o4n6o4n6o4n6n6o4n6n6n6n6
6820B1321o4n6n6n6n6n6n6n6n6n6n6n6m8n6n6n6m8n6n6n6m8n6m8n6m8n6m8n6m8m8n6m8n6m8
6813A9489m8m8m8n6m8m8m8m8m8m8m8m8m8m8m8m8m8m8m0m8m8m8m8m0m8m8m0m8m8m0m8m0m8m0
6805A7897m8m0m8m0m8m0m8l2m8m0m8m0m0m0m0m8m0m0m0m0m8m0l2m8m0m0m0m0m0m0m0m0l2m0
6797A6489m0m0m0m0l2m0m0m0l2m0m0m0l2m0m0l2m0l2m0l2l2m0m0m0l2l2m0l2l2m0l2l2m0l2
6789A5241l2l2m0l2l2m0l2l2l2m0l2l2l2l2l2l2m0l2l2l2l2l2l2l2l2l2l2l2l2l2l2k4l2l2
6781A4129l2k4m0k4l2l2l2k4l2l2l2k4l2l2k4l2k4l2l2l2k4l2k4l2k4l2l2k4k4k4l2l2k4l2
6774A3137l2k4k4k4l2k4k4l2k4l2k4k4l2k4k4l2k4k4k4l2k4k4l2k4k4k4k4k4k4k4l2k4k4k4
6766A2249k4k4k4k4k4k4k4k4l2j6l2k4k4k4k4k4k4k4j6k4k4k4k4k4k4k4j6k4k4k4k4k4k4j6
6758A1449k4k4j6k4k4k4k4j6k4k4j6k4k4k4j6k4j6l2j6j6k4k4k4j6k4j6k4j6k4j6k4k4j6j6
6750A0729k4j6k4k4j6k4j6k4j6k4j6k4j6j6k4j6k4j6j6k4j6j6k4k4qk4j6k4j6k4j6j6j6k4
6743A0065j6j6k4j6j6k4j6j6j6j6k4j6j6j6j6k4j6j6j6j6k4j6j6j6k4qk4j6j6j6j6j6k4j6
6735I465j6j6j6j6j6j6j6j6j6j6j6j6j6j6j6j6j6j6j6j6j6j6j6j6j6j6j6j6j6j6j6j6j6j6
6727H921qj6j6j6j6j6j6j6qk4qj6j6j6j6j6j6j6qj6j6j6j6qj6j6qj6j6j6j6j6qj6j6qj6j6
6718H369qj6j6j6j6qj6j6qj6j6j6qj6qj6j6qj6j6qj6j6qj6j6qj6j6qj6qj6j6qj6qj6j6qj6
6709G825qj6j6qj6qj6qqj6j6qj6qqj6qj6j6qj6qj6qj6qj6qj6qj6qqj6qj6qj6qqj6qj6qqj6
6698G281qj6qqj6qj6qj6qqj6qqqj6qj6qqj6qqj6qqqj6qqj6qqj6qqj6qqj6qqqqj6qqj6qqqq
6686F737j6qj6%j6qqqj6qqqqj6qqqqj6qqqqj6qqqqqj6qqqqqqj6qqqqj6qqqqqqj6qqqqqqqq
6673F201qqj6qqqqqqqqqqqqqqj6%qqj6qqqqqqqqqqqqqqqqqqqqqqqqqqqqqqqqqqqqqqqqqq%
6659E673j6q%qqj6q%qqqqqqqq%qj6qq%qqqqq%qqqqqqqqqqqq%qqqq%j6%qqqqq%qqqq%j6q%q
6644E217qqqqq%qqqq%qqqq%qqqq%qqqqqq%qq%qqqq%qqqq%qqqq%qqq%qqq%qq%qqq%qq%j6%q
6629D793qq%qq%qq%qqqq%qq%qqq%q%qqqq%q%qq%qqq%qq%qq%qq%qq%qqqq%q%qq%qq%qq%qq%
6613D417qq%q%q%qq%qq%qqq%q%q%qq%qq%qq%q%q%qqq%qq%%qq%q%qq%qqQqQqk4q%q%QQm0J6
6598D105j6j6K4j6%q%qj6q%q%%q%q%q%%j6Qqq%qq%q%q%qq%qq%%q%q%q%qq%%q%qq%q%q%q%q
6584C825%q%qq%%qq%%q%qq%q%qq%%%qq%%qq%q%q%q%q%%q%q%q%q%q%q%q%q%q%q%q%q%q%q%%
6569C561q%q%q%q%q%%q%q%q%q%%q%q%q%q%q%%q%q%%q%q%q%%qq%%q%q%%q%q%q%q%%q%q%q%%
6553C321q%%q%q%%q%q%q%q%%q%%q%q%%q%q%q%%q%%q%q%%q%%q%%q%q%%q%q%q%q%%q%%q%%q%
6537C105%q%%q%%q%q%%q%q%q%%q%%q%qQq%q%%q%q%%q%%q%%q%%q%%q%%q%%q%q%%%q%q%%%qq
6522B905%qQqq%%%q%%%q%%%q%%q%q%%%q%q%%q%%%q%%q%%q%%q%%q%%%q%%q%%q%%q%%q%%%q%
6506B737%q%%%q%%q%q%%q%%%q%%q%%%q%%%q%%q%%q%%%q%%q%%q%%%%q%q%%q%%%q%%%q%%%q%
6491B577qQq%q%%%q%%%q%%%q%%%q%%q%%%q%%%q%%q%%%q%%%q%qQq%qQq%%%q%%q%%%q%%%%q%
6475B433q%%%q%%%q%%%%q%%%%q%%q%%%%q%%%q%%%q%%q%%%%q%%%q%%%q%%%%q%%%q%%%q%%%q
6460B297%%%%q%%%q%%%q%%%%q%%q%%%%q%%%%q%q%Qq%%%%q%q%%%%%q%%qQq%%%q%%%%q%%%q%
6444B177%%q%%%%%q%%%%q%%%%q%%%%q%%%%q%%q%%%%q%%%%%q%%%%q%%%%%q%%%%q%%%q%%%%q
6429B065%%%%q%%%%%q%%%q%%%%%q%%%%%%q%%%q%%%%q%%%%q%%%%q%%%%q%%%%q%%%%%q%%%%%
6413A969%q%%%%%q%%%q%%%%%q%%%q%Qq%%q%%%%%%%q%%%%%q%%%%q%%%%%%q%%%%%q%%%%%q%%
6397A873%%q%%%%qQq%%%%q%%%%qQq%%%%%q%%%%%%q%%%%q%%%%%%q%%%%q%%%%%%q%%%%%%%q%
6382A785%%%q%%%%%q%%%%%qQq%%%%q%%%%%%%%q%%%%%q%%%%%%q%%%qQ%q%%%%qQq%%%%%q%%%
6366A705%%%%qQq%%%qQq%q%Qq%%%%%%q%%%%%%%q%%%%%%q%%%%%%q%%%%%%%q%%%%%%q%%%%%q
6351A625Qq%%%%%qQq%%%%%%%q%%%%%q%%%%%%%%%q%%%%%qQq%%%%%%q%%%%%%qQq%%%%%qQ%q%
6335A561%%%%q%%%%%%%%q%%%%%%%q%%%%%%%q%Qq%%%%%q%%%%%qQ%qQq%qQq%Qq%%%%%%q%%%%
6320A497%%%qQq%%%%%%%%q%%%qQ%%q%%%%qQq%%%%%%%%q%%%%%%%%%q%%%%%%%%%%q%%%%%%%%
6304A441q%%%%%%%%%%q%%%%%%%%q%%%%%%%q%%%%%%%%q%%%%%%qQ%q%%%%%%%qQ%q%%%%%%%%q
6288A377%%Qq%%%q%%%%Qq%%%%qQq%%%%%%%%%%q%%%%%%%q%%%%%%%%%q%%%%%%%%%%%q%%%%%%
6273A329%%%%q%%%%%%%%%%q%%%%%%%%%%q%Qq%%%%%%%q%%%%%%%%%%q%%%%%%%%%%%%q%%%%%%
6257A281%%%%q%%%%%%%%q%%%%%%%%%%%q%%%%%%%%%%%%qQq%%%%qQqQ%q%Qq%%%%%%%%q%%%%%
6242A233%%%%%%%q%%%%%%%%%qQq%%%%%%%%%%%q%%%%%%%%q%Qq%%%%%%%%%%%%%%q%%%%%%%%%
6226A193%%qQq%%%%%%%%%q%%%%%%%%%%%%%qQq%%%%%%%%%qQ%%%q%%%%%%%%%%%q%%%%%%%%%%
6211A153%%%qQq%%%%%%%%q%%%Qq%%%%%%%%%qQqQq%%%%%%%%%%%%q%%%%%%%%qQq%%Qq%%%%%%
6195A113%%%%%%%%q%%%%%%%%%%%%%%q%Qq%%%qQqQq%%%%%%%%%%%%%%q%%%%%%%%%%%%%qQ%qQ
6180A081q%%Qq%%%%%%%%%%%q%%%%%%%%%%%%%%%%%q%%%%%%%%q%Qq%Qq%%%%%%%%%%%%qQq%%%
6164A041%%%%%%%%%%qQ%%qQq%%%%%%qQ%%%qQ%q%%%%%%%%%%%%qQq%Qq%%%%%%%%%%%%q%%%Qq
6148A009%%%%%%%%%%qQqQ%q%Q%q%%%%%%%%%%%q%%%%%%%%%%%%%%%qQq%%%%%%%%%%%%%%qQqQ
6133I85qQq%%%%Qq%%q%qJ6%%%qQ%q%%%%%%%%%%%qQq%%%%%%%%%%%%%%%%%qQqQq%%%%%%%%%%
6117I53%%%%%%qQ%q%%%%%%%%%%%%%%%%%%q%%Qq%%%%%%%%%%%%q%%%%%%%%%%%%%%%%%%%%%q%
6101I21Qq%%%%%%%%%%%%%%%%%%q%Qq%%%%%%%%%%%%%%%qQq%%%%%%%%%%%%%%%%%qQq%Qq%%%%
6086H97%%%%%%%%%%qQ%q%%%%%%%%%%%%%%%%%%%%%%%%%q%%%%%%%%%%%%%%%%%%%%q%Qq%%%%%
6070H73%%%%%%%%%%%%%%%%%%qQq%%%%%%%%%%%%%%q%%%%%%%%%%%%%%%%%%%%%%%%%%qQq%Qq%
6054H49%%%%Qq%%q%Q%%q%%%%Qq%QqQq%%%%%%%%%%%%%%%%%%%q%%%%Qq%%%%%%%%%%%%%%%%%%
6038H33q%Qq%%%%%%%%%%%%%%%%%%%%%q%QqQq%%%%%%%%%%%%%%%%%%%%%%%q%Qq%%%%%%%%%%%
6022H09%%%%%%%%%%%qQ%q%%%%%%%%%%%%%%%%%%qQq%Qq%%%Q%qQq%%%%%%%%%%%%%%%qQ%%%%q
6007G85%%%%%%%%%%%%%%%%%%%%%%%qQq%%%%%%%%%%%%%%%%%%%%%%qQ%%%%%%%q%%%Q%q%%%%%
5991G69%%%%%%%%%%%%%%%qQq%%Q%qQqQq%%%%%%%%%%%%%%%%%%%%q%%Qq%%%%%%%%%%%%%%%%%
5975G53%%%%%%%%%qQ%qQ%q%%%%%%%%%%%%%%%%%%%%%%%%%%%%q%%%%Qq%%%%%%%%%%%%%%%%%%
5959G37%%%q%%Q%q%%%%%%%%%%%Q%q%%%%%qQ%%%%%%%%%%%%%%%%%q%%%%%%%%%%%%%%%%%%%%%
5944G21%%%%%%%%%qQ%%qQ%%q%%%%%%%%%%%%%%%%%%%%%%%%%%%%%%qQqQq%Q%q%%%%%%%%%%%%
5928G05%%%%%%%%%%q%%%%%%%%%%%%%%%%%%%%%%%%%%%%%%%qQ%%qQ%q%%%%%%%%%%%%%%%%%%%
5912F89%%%%%%%%%%%%%%qQ%%%%%%%q%Qq%%%%%%%%%%%%%%%%%%%%%%qQ%%%q%%Q%%%q%%%%%Q%
5896F81%%%%qqQ%%qQ%%%%%%%%%%%%%q%%%%%Qq%%%%%%%%%%%%%%%%%%%%%%%%%%%%%%%%%%q%Q
5880F65q%Q%q%%%Q%q%%%%%%%%%%%%%%%%%%%%%%%%%%%%%%%%%%q%%%Qq%%%%%Qq%%%%%Qq%%%%
5865F49%%%%%%%%%%%%%%%%%%%%%qQq%%%%%%%%%%%%%%%%%Qq%%%%%%%%%%%%%%%qQ%%%%%%%%%
5849F41q%Qq%%%%Qq%%%%%%%%%%%%%%%%%%%%%%%%%%%%%%%%%%%%%%%%q%Q%%q%%%%%%%%%%%%%
5833F25%%%%%%%%%%%%%%%%%%%%%%qQ%%%%%%%%q%Qq%Qq%%%%%%%%%%%%%%%%%%%%%%%qQ%qQq%
5817F09Q%q%QqQqQ%%%%%q%Q%q%%%%%Qq%%%QqQq%%%%%%%%%%%%%%%%%%%%%%%%%%%%%%%%%%%q
5801F01%%%%%%%%%%%%%%%%%%%%%%%%%%%%%%%%%%%%%%q%%%%Q%%%%%%%%%%%qQ%%qQ%q%%%%%%
5786E93%%%%%%%%%%%%%%%%%%%%%%%%%%%%%qQqQ%Qqq%%QqQq%%%%%%%%%%%%%%%%%%%%%%%%%%
5770E85%%%%%%%%%%%%%%%%%%%%%%qQ%qQq%QqQ%qQ%%%%q%%%%Qq%%%%%%Qq%%%%%%%%%%%%%%%
5754E77%%%%%%%%qQ%%%%qQ%q%%QqQqQq%%%%%%%%%%%%%%%%%%%%%%%%%%%%%%%%%%%%%%%%%%%
5738E69%%%%%%%%%%%q%QqQ%%q%%%Qq%Qq%%%%%%%%%%%%%%%%%%%%%%%%%%%%%%%%%%%%%%%%%%
5722E61%%%%%%%%%%%%%%q%QqQ%q%%%%%%%%%Q%%qQq%%%%%%%%%%%%%%%%%%%%%%%%%%%%%%%%%
5707E53%%%%%%%%%%%%%%%%%%%%%%%%%qQ%q%%%Qq%%%%%%%%%%%%%%%%%%%%%%%%%%%%%%%%qQ%
5691E45%%%%%%%%q%Q%%%%%%%%%%q%%%%Qq%%%%%%%%%%%%%%%%%%%%%%%%%%%%%%%%%%%%%%%%%
5675E37%%%%%%%%%%%%%%%%%%%%%%%qQqQ%%qQq%Q%%qQqQ%qQqQ%qQ%qQq%%%%%qK4qqL2k4Qj6
5660E29%%%%%%Qq%%Qq%%%%%%%%%%%%%%%%%%qQ%qQ%%%%%%%%%%%%%%%%q%Qq%Q%q%Q%qQq%%Q%
5644E29%q%%%%%%%%%%%%%%%%%%%%%%%%%%%%%%%%%%%%%%%%%%%%%%%%%%%%%%%%%%%%%%%%%%%
5629E21%%%%qQ%q%%QqQq%%%%Q%%q%%Q%qQ%%%q%%Qq%%%%%%%%%%%%%%%%Qq%%%%%%%%%%%%qQ%
5613E13%%%%%%qQ%%%%%%%%%%%%%%%%%%%qQ%qQ%qQ%%%%q%%Qq%Q%q%%%%%%%%%%%%%%%%%%%%%
5597E05%%%%%%%%%%%%%%%%%%%%%%%%%%%%%%%%%%%%%%%%%%%%%%%%qQ%%qQ%q%%QqQq%%Qq%%%
5581D97QqQqQq%Qq%%%%Qq%%%%%%%%Qq%%%%%%%%%%%%%%%%%%%%%%%%%%%%%%%%%%%%%%%%%%%%
5565D97%%%%%%%%%%%%%%%%%qQqQ%%%%%q%Q%q%%%Qq%%%%%%%%%%%%%%%%%%%%%%%%%Qq%%%Qq%
5550D89%%%%%%%%%%Qq%%%%%%%%%%%QqQq%%%%Qq%%%%%%%%%%%%%%%%%%%%%%%%%qQ%%%%q%QqQ
5534D89qQ%%%qQ%%%%%%%%%%%qQ%qQ%qQq%%%%%%%%Qq%%%Qq%%%%Qq%%%%%%%%%%%%%%%%%%%%%
5518D81%%%%%%%%%%Qq%%%%%%%%%%%%%%%%%%%%%%%%%%%%%%%%%%%%%%%%%%%%%%%%%%%%%%%%%
5502D81%%%%%%%q%Qq%%%%%Qq%%Q%%q%%Qq%%%%%%%%%Q%qQq%%%Qq%%%%%%%%%%%%%%%%%%%%%%
5486D73%%%%%Qq%%%%%%%%%%%%%%%%%%%%%%%%%%%%%%%%%%%%%%%%%%%%%%%%%%%%%%%%%%%%%%
5471D73q%Q%%%%%q%Q%qQq%%Q%q%%%%%Q%%q%%%%Qq%%%%%%%%Q%q%%%%%Qq%%%%%%%%%%%%%%%%
5455D65%%%%%%%%%%%%%%%%%%%%%%%%%%%%%%%%%%%%%%%%%%%%%%%%%%%%%%%%%%%%%%%%%%%%%
5439D65%%%%%%%%%%%%%%%%%%%%%%qQ%%%qQ%%%%qQqQ%%%%%%%%%%%qQ%%%%q%%%%%Qq%%%Q%%q
5423D57%%%%Q%%q%%%Q%%%qQq%Q%qQ%%%qQ%%q%%%Qq%%%%%%%%%%%%%%%%%%%%%%%%%%%%%%%%%
5407D57%%%%%%%%%%%%%%%%%%%%%%%%%%%%%%%%%%%%%%%%%%%%%%%%%%%%%%%%%%%%%%%%%qQ%%
5392D57%%%%%%%%%%%%%%%%%%qQqQ%%%qQ%%q%QqQ%%%%%qQ%%%%%%%%%%%%%%%%%%%%%%%%q%%%
5376D49%%%Q%q%%%%%%%%%%%%%%%Qq%%%%QqQ%qQ%qQqQq%%Q%%q%%Qq%%%%%%%%%%%%%%%%%%%%
5360D49%%%%%%%%%%%%%%%%%%%%%%%%%%%%%%%%%%%%%%%%%%%%%%%%%%%qQ%%%%%%%%%%%%%%%%
5344D49%%%%%%%%%%%%%%%%%%%%%%%%%%%%%%%%%%%%%%%%%qQ%%%%%%%%%%%qQ%%%%%%qQ%%%%%
5329D49%%%qQq%Qq%QqQ%%q%Q%%%q%Q%%q%%%Q%%%%qQ%%%%%qQ%%qQ%qQ%q%%%%%%Q%qQ%q%%Qq
5313D41%%Qq%%Qq%%Q%%%%q%%Qq%%%%%%%%%%%%%%%%%%%%%%%Qq%%%QqQqQq%%%%%%%%%%%%%Qq
5297D41%%Qq%%%%%%%%%%%%%%%%%%%%%%%%%%%%%%%%%%%%%%%%%%%Qq%%%%%%%%%%%%%%%%%%%%
5281D41%%%%%%%%%%%%%%%%%%%%%%%%%%%%%%%%%%%%%%%%%%%%%%%%%%%%%%%%%%%%%%%%%%%%%
5265D41%%%%%%%%%%%%%%%%%%%%%%%%%%%%%%%%%qQ%%%%%%%%%%%%%%%%%%qQqQ%%%%%%qQ%%%%
5250D41%qQ%%%%%%%%%%%%%%%%%%%%%%%%%%%%%%%%%%%%%%%%%%%qQ%%%%%%%qQ%%q%Q%%%%%%%
5234D41%%%%%%%qQ%qQ%%%%%%%%%%%%%%%%%%%%%%%%%%%%%%%%%%%q%%%Q%qQ%%%%%%%%%%%%%q
5218D33Q%%qQq%%Q%%qQ%%%%%%%q%Q%%%%%%qQq%%%%%%%%QqQq%Q%%q%Q%%qQqQ%q%QqQ%%qQqQ
5202D41q%Q%%%%%%%qQqQq%%%%%%%Qq%%%%QqQ%q%Q%%%%%%%%%q%Qq%QqQ%qQqQq%%%%Qq%%%%%
5186D33%%%%%%%%Qq%%Qq%%%%%%%%%%Qq%%%%%%%%%%Q%%%qQ%%%%q%%%%%%%%%%%Q%%%qQq%%%%
5171D33%%%%%%Qq%%Q%%%%%q%%%%%%%%%%%%%%%%%%Q%q%%%%%%%%%%%%Qq%%%%%%%%Qq%%%%%%%
5155D33%%%%%Qq%%%%%%%%%%%%%%%%%%%%%%%%%%%%%%%%%%Qq%%%%%%%%Qq%%%%Qq%%%Qq%%%%%
5139D33%%%%%%%%%%%%%%%%%%%%%%%%%Qq%%%%%%%%%%%%%%%%%%%%%Qq%%Q%q%%Q%qQ%q%%Qq%%
5123D33%%%%%%%%%%%%%%%Qq%%Q%q%QqQq%%QqQ%%%qQq%j6K4q%QqQq%%%Qq%%%%Qq%%Qq%Q%q%
5108D33Qq%%%Qq%%%%%%%%%%%%%%%%%%%%%%%%%%%%%%%%%%%%%%%%Qq%%%%%%%Qq%Q%%q%%%%Qq
5092D33%%Qq%%QqQ%%qQ%%%%q%%QqQ%qQ%%q%%Q%qQ%%%%%%%%q%Q%%%%%qQ%%%%%%%%%%%q%Q%q
5076D33QqQqQ%%%%qQqQqQqQqQqQ%%%%%q%Q%%qQ%q%%Qq%%%%Q%%%qQqQqQ%%qQ%%%%%%%%%%q%
5061D33Q%qQ%%%%%qQ%%%%%%%%%%%%%qQ%%%%%%%%%%%%%%%%%%%%%%%%%%qQ%%%%%%%%%%%%%%%
5045D41%%%%%%%%%%%%%%%%%%q%Q%%%%qQ%qQ%%%%%%%%%%%%%%%%%%%%%%qQ%%%%%%%%%%%%%%%
5029D41%%%%%%%%%%%%%%%qQ%%%%%%%%%%%%%%%%%%%%%%%%%%%%%%%%%%%%%%%%%%%%%%%%%%%%
5013D41%%%%%%%%%%%%%%%%%%%%%%%%%%%%%%%%%%%%%%%%%%%%%%%%%%%%%%%%%%%%%%%%%%%%%
4997D41%%%%%%%%%%%%%%%%%%%%%%%%%%%%%%%%%%%%%%%%%%%%%%%%%%%%%%%%%%%%%%%%%%%%%
4982D41%%%%%%Qq%%%%%%Qq%%%%%%%%%%%%%%%%%%%Qq%%%%%Q%q%%%%Qq%%Qq%Qq%%Q%q%Q%q%%
4966D41%%%%%%%%Q%%%q%%Q%%qQq%%%Q%%qQ%qQ%%%QqqQqQ%%%%%%%%%qQ%%%%%qQ%%%%%%%%%%
4950D49%%%%%%%%%%%%%%qQ%%%%%%%%%qQ%%%%%%%%%%%%%%%%%%%%%%%%%%%%%%%%%%%%%%%%%%
4934D49%%%%%%%%%%%%%%%%%%%%%%%%%%%%%%%%%%%%%%%%%%%%%%%%%%%%%%%%%%%%%%%%%%%%%
4918D49%%%qQ%%%%%%%%%%%%%%%%%%%%%%%%%%%%%%%Q%q%Q%q%%%%%%%%%%%%%%%%%%%Qq%%%%%
4903D49%QqQq%%%%Qq%Qq%QqQ%%%q%%%%Qq%QqQ%%%%%%%%%%qQ%%q%%QqQ%%%%%%%%%%%%%%qQ%
4887D57%%%%%%%%%%%%%%%%%%%%%%%%%%%%%%%%%%%%%%%%%%%%%%%%%%%%%%%%%%%%%%%%%%%%%
4871D57%%%%%%%%%%%%%%%%%%%%%%%%%%%%%%%%%%%%%%%%%%%%%%%%%%%%%%%%%Qq%%%%%%%%%%
4855D57%%%%%%%%%%%%%%%%%%%%%%%%%%%%%%%QqQq%%%Qq%Q%%q%Qq%%QqQqQq%QqQ%%q%%%%%%
4839D57Qq%Q%%%q%%%%Q%q%Q%qQ%%%%%%%%%%%%%%%%%%%%%%%%%%%%%%%%%%%qQ%%%%%%%%%%%%
4824D65%%%%%%%%%%%%%%%%%%%%%%%%%%%%%%%%%%%%%%%%%%%%%%%%%%%%%Qq%%%%%%%%%%%%%%
4808D65%%%%%%%%%%%%%%%%Qq%%%%%%%%%%%%%%%%%%%%%Q%%%%qQ%%%%qQ%%%%%%%%%%%%%qQ%%
4792D73%%%%%%%%%%%qQ%%qQ%%%%%%%%%%%%%qQ%qQ%%%%%%%%%qQ%%%%%%%%%%%%%%%%%%%%%%%
4776D73%%%%Qq%%%%%%%%%%%%%%%%%%%%%%%%%%%%%%%%%Qq%%%Q%qQqQqQ%%q%%QqQ%qQ%%%%%%
4760D81%%%%%%%%%%%%%%%%%%%%%%%%%%%%%%%%%%%%%%%%%%%%%%%%%%%%%%%%%%%%%%%%%%%%%
4745D81%%%%%%%%%%%%%%%%%%%%%%%%%%%%%%%%%%%%%%%%%%%%%%%%%%%%%%%QqQq%%%Qq%%Qq%
4729D81Q%%qQ%%qQ%%%%%%q%Qj6Q%J6%K4l2%q%Qq%Q%%Q%qQq%%%%%%%qQ%%%%%%%%%%%%%%%%%
4714D89%%%%%%%%%%%%%%%%%%%%%%%%%%%%%%%%%%%%%%%%%%Qq%%%%%Qq%%%Qq%Q%%%%q%%Q%qQ
4698D97q%%QqQ%qQ%%%%%%%%%%%%%%%%%%%%%%%%%%%%%%%%%%%%%%%%%%%%%%%%%%%%%%%%%%%%
4682D97%%%%%%%%%%%%%%%%%%%%%%%%%%%%%%QqQ%%%%qQq%%%%QqQ%q%%Q%%%%%%%%qQ%%%%%%%
4667E05%%%qQ%qQqQ%%%%%%%%%%%%%%%%%%%%%%%%%%%%%%%%%%%%%%%%%%%%%%%%%%%%%Qq%%%Q
4651E13qQ%qQ%qQqQ%q%Q%%qQqQqQ%%%%qQ%%%qQqQqQ%%%%%%%%%%%%%%%%%%%%%%%%%%%qQ%%%
4635E13%%%%%%%%%%%%%%%%%%%%%%%%%%%%%%%%%%%%%%%%%%%%%%%%%%%%%%Q%qQqQqQ%%%%%%%
4619E21%%%%%q%Q%%%%qQqQ%%%%qQ%%%%%%%%%%%%%%%%%%%%%%%%%%%%%%%%%%%%%%%%%%%%%%%
4603E21%%%%%%%%%%%%%%%%%%%%%QqQ%%%qQ%%%%%%%%%%%%%%%%%%%%%%%%%%%%%%%%%%%%%%%%
4588E29%%%%%%%%%%%%%%%%%%%%%%Qq%%%%%%%%%%%%%%%%%QqQ%q%Q%qQ%%%%%%%%%%%q%%%Qq%
4572E29Q%%%%%%%%%%%%%%%%%%%%%%%%%%%%%%%%%%%%%%%%%%%%%%%%%%%%%%%%%%%%%%%%%%%%
4556E37Q%qQ%%%%%%%%%%%%%%%%qQq%Q%qQ%%%qQ%%qQ%%%%%%%%%%%%%%%%%%%%%%%%%%%%%%%%
4540E45%%%%%%%%%%%Q%q%%QqQ%%q%QqQ%%%%q%Q%qQqQ%%%%%%%%%qQ%%%%%%%%%%%%%%%%%%%%
4524E53%%%%%%%%%%%%%%%%Qq%%%Qq%%%QqQq%%%%%%%QqQq%Q%%%%%%%%%%%%%%%%%%%%%%%%%%
4509E61%%%%%%%%%%%%%%%%%%%%%%%%%%%%%%%%%%%%%%%QqQ%qQq%QqQq%Q%%%qQ%%%%%%%qQ%%
4493E69%qQ%%%%qQ%%%%%%qQQj6QQq%%%%%%%%%%%%%Q%q%Qq%%Qq%Q%%%%%%%%%%%%%%%%%%%%%
4477E77%%%%%%%%%%%%%%%%%%%%%%%%%%%%%%%%%%%%%%%%%%%%%%Qq%%%%%%%%%%%%Q%qQ%%%%%
4462E85%%%%%%%qQ%qQ%qQ%%%qQ%%%%%%%%%%%%%%%%%%%%%%%%%%%%%%%%%%%%Qq%%%%%Q%%%%%
4446E93%%%%%%%%%%%%%%%%%%%%%%%%%%%%%%%%%%%%%%%%%%%%%%%%%%%%Q%%%qQ%%qQqQqQ%%%
4430F01%%%%%%%%%%%%%%%%%%%%%%%%%%%%%%%%%%%%%%%%%%Qq%QqQ%qQqQ%%%%q%Qq%Q%qQ%%%
4414F09%%%%%%%%%%q%Q%%%%%%%%%%%%Qq%%%%%%%QqQ%q%%Qq%Qq%Q%%%%%%qQ%%%%%%%%%%%%%
4398F17%%%%%%%%%%%%%%%%%%%%%%%%%%%Qq%Q%qQ%%q%Q%%%%%%%%%%%%%%%%%%%%%%%%%%%%%%
4383F25%%%%%%%%%%%%%%%%%%%Q%%q%Q%qQ%%%%%%qQ%%%%qQ%%%%%%%%%%%%%%%%%%%%%%%%%%%
4367F33%%%%%%%%%Q%%q%QqQqQ%%%%%%%%%%%%%%%%%%%%%%%%%%%%%%%%%%%%%%%Qq%Qq%%%QqQ
4351F49%%%%%%%%%%%%%%%%%%%%%%%%%%%%%%%%%%%%%%%%%%%%%%%%%%%%%%%%Qq%%%%Q%%%%%%
4335F57%%%%%%%%%%%%%%%%%%%%%%%%%%%%%%%%%%%%Q%qQ%%%%q%%Q%%%%%%%%%%%%%%%%%%%%%
4319F65%%%%%%%%%%%%%%%%%%Q%%%%%q%QqQ%%%qQ%%%%%%%%%%%%%%%%%%%%%%%%%%%QqQqQqQq
4304F73Q%%q%QqQ%%%%%%%%%%%%%%%%%%%%%%%%%%%%%%%%Qq%%%%%Qq%Q%%qQ%%%%%%%%%%%%%%
4288F89%%%%%%%%%%%%%%%%%Qq%%%%Q%%%q%Q%%%%%%%%%%%%%%%%%%%%%%%%%%%%%%%%%%%%%%%
4272F97Qq%Q%%%%%%%%%%%%%%%%%%%%%%%%%%%%%%%%%%%%%%%%%%%%%Qq%Q%q%Q%%%%%%%q%Q%%
4256G13qQ%%%QqJ6j6%%%%%%%%%Q%q%%%Qq%QqQq%%Q%%%%%%%%%%%%%%%%%%%%%%%%%%%%Q%qQq
4241G21%QqQq%Q%%%%%%qQ%%%%%%%%%%%%%%%%%%Qq%%%Q%%%qQ%%%%%%%%%%%%%%%%%%%%%%%%%
4225G37Qq%%%%%%%%%%Qq%Q%%%%%%%%%%%%%%%%%%%%%%%%%%%%%%%%%Qq%%%%Q%%%%%%%%%%%%%
4209G53%%%%%%%%%%%%%%Qq%Q%%%q%Q%%%%%%%%%%%%%%%%%%%%%%%%%%%%%%%%%Q%q%%%%Q%qQ%
4193G69qQ%%%%%%%%%%%%%%%%%%Q%q%Qq%%Q%%%%%%%%%qQ%%%%%%%%%%%%%%%%%%%%%%QqQqQ%%
4178G85%%Qj6Q%%%%%%%%%Qq%%%%%%%%%%%%%QqQ%q%QqQqQ%%%%%%%%%%%%%%%%%%%%%%%%%%%Q
4162H01%%%%%%%%%%%%%%%%%%%%%%%%%%%%%%%%%QqQq%%Q%%%%%%%%%%%%%%%%%%%%%%%%Qq%%%
4146H09Q%%%%%%%%%%%%%%%%%%%%%%%%%Qq%Q%%%%%%%qQ%qQ%%%%%%%%%%%%%%%%%%%%%%%Q%%%
4131H33%%qQ%%%%%%%%%%%%%%%%%QqQq%%Qq%%Q%%%%%%%%%%%%%%%%%%%%Q%qQ%q%Q%%%%%%%%%
4115H49%%%%%%%%%%%%%%%%%%%Q%%%%%%%%%%%%%%%%%%%%%%%%%%%%%%Qq%%%%Q%%%%%%%%%%%%
4099H65%%%%%%%%%%%%Qq%Q%%%%%%%%%%%%%%%%%%%%Q%%%%%%%%%%%%%%%%%%%%%%%%%%%%%%%%
4083H81%Q%qQqQ%%%%%%%%%%%%%%%%Q%qQ%%%qQqQ%%%%%%%%%%%%%%%%%%Qq%QqQqQ%%%%%%%%%
4067I05%%%%%%%%%%%%%QqQ%%%%%%%%%%%%%%%Qq%%%%%%QqQ%%qQ%%%%%%%%%%%%%%%%%%%Qq%%
4052I21QqQ%%%%%%%%%%%%%%%%%%%Q%q%Qq%Q%%%%%%%%%%%%%%%%Qq%%Q%%%q%Q%%%%%%%%%%%%
4036I45%%%%Qq%%Q%%%%%%%%%%%%%%%%%%Qq%Q%%%q%Q%%%%%%%%%%%%%%%%%Q%%%%%%%%%%%%q%
4020I61%Qq%QQ%qQqQ%%%qQ%%%%%%%%%%%%%%%%Q%%%%%%%%%%%%%%%%%%%Qq%%%Q%%%%%%%%%%%
4004I93%%%%%%%%%%%%%%Q%%%%%%%%%%%%%%%%%%%%%Q%%%%%%%%%%%%%%%%%Q%q%%Q%%%%%%%%%
3988A017%%%%%%%%%%%%%Q%%%%%%%%%%%%%%%%%%%%QqQ%%qQ%%%%%%Qq%%%%%%QqQ%%%%%%%%%%
3973A041%%%%%%%Q%%%%%%%%%%%%%%%%%Q%%%%%%%%%%%%%%%%%%%%%Q%%q%Q%%%%%%%%%%%%%%%
3957A065%%%%Q%%%%%%%%%%%%%%QqQ%%%%%%%%%%%%%%%%%Q%%%%%q%Q%%%%%%%%%%%%%%Qq%QqQ
3942A097%%%%%%%%%%%%%QqQqQ%%%%%%%%%%%%%%%Q%%%%%%%%%%%%%%%QqQ%%%%%%%%%%%%%%%%
3926A121%Q%%%%%%%%%%%%%%%%Q%%%qQ%%%%%%%%%%Qq%Q%%%%%%%%%%%%%Qq%%%%%Q%%%%%%%%%
3911A153%QqQ%%%%%%%%%%%%%%%%QqQqQ%%%%%%qQ%QqQ%%%q%%%Q%%%%%%%%Qq%%QqQ%%%%%%%%
3895A185%%%%%%%QqQ%%%%%%%%%%%%Q%%%%%%%%%%%%%%%%Q%%%%%%%%%%%%Q%q%%Q%%%%%%%%%%
3879A217%%%%%%Q%%%%%%%%%%%%%%%QqQqQ%%%%%%%%%%QqQ%%%%%%%%%%%%%Q%%%%%%%%%%%%Qq
3864A249Q%%%%%%%%%%%%%%%Q%%%%%%%%%%%%QqQqQ%%%%%%%%%Q%%%%%%%%%%%%%%%%Q%%%%%%%
3848A289%%%%Q%%%%%%%%%%%qQ%%Q%qQ%%%%%%%%%%%Q%qQ%%%%%%%%%%%Q%%%%%%%%%%%%%Q%%%
3833A329%%%%%%%%%%Q%%qQ%%%%%%%%%Q%%%qQ%%%%%QqQ%%%%%%%%%%%%%%%Q%%%%%%%%%%%Q%%
3817A369%%%%%%%%Q%qQ%%%%%%%%%Q%%%%%%%%%%%%%%%%Q%%%%%%%%%Qq%Q%%%%%%%%%%Q%%%%%
3802A409%%%%%Q%%%%%%%%%%Qq%QqQ%%%%%%%%%%Q%%%%%%%%Qq%Q%%%%%%%%%%%Qq%%Q%%qqJ6q
3786A441J6qK4k4K4qk4J6Qq%%%%QqQqQ%%Qq%%Q%qQ%%%%%%%%Qq%%QqQ%%%%%%%Q%%%%%%%QqQ
3772A497%%%%%%%%%Q%%%%%%%%%%%%%%Q%%%%%%%Q%%%%%%%%QqQqQ%%%%%%%%%QqQ%%%%%%%%%%
3757A537%%%Q%%%%%%Q%%%%%%%%%Q%%%%%%%%%%%Q%%%%%%%%%Q%%%%%%%Q%%qQ%%%%%%%Q%%%%%
3741A593%%%%Q%%%%%%%%%QqQ%%%%%%%%QqQ%%%%%%%%%%QqQ%%%%%%%Q%%%%%%Q%%qQ%%%%%%%Q
3725A649%%%%%%%%%%Q%%%%%%%Q%%%%%%%%QqQ%%%%%%%Q%%%%%%%%QqQ%%%%%%Q%q%Q%%%%%%%Q
3710A705%%%%%%%%Q%%%qQ%QqQ%%%%%%%%%Q%%%%%%%%Q%%%%%Q%%%%%%%QqQ%%%%%%%%%%Q%%%%
3694A761%%%%Q%%%%%%%Q%%%%%%%QqQ%%%%%%Q%%%%%%%%%Q%%%%QqQ%%%%%%%%%Q%%%%%Q%%%%%
3679A825%%%Q%%%%%%%QqQ%%%%%Q%%%%%%%%%Q%%%%%%Q%%%%Q%q%%QQq%%QqQ%%%%%%Q%%%%%Q%
3663A897%%%%%%QqQ%%%%%%%%Q%%%%%Q%%%%%%%Q%%%%%%%%Q%%%%%%Q%%%%%%Q%%%%%%%Q%%%%%
3648A961%Q%%%%%%%Q%%%%%%Q%%%%%%%%Q%%%%Q%%%%QqQ%%%%Qq%Q%%%%%%Q%%%%%QqQ%%%%%%%
3632B033Q%%%%%Q%%%%%Q%%%%%%Q%%%%%Q%%%%%%%Q%%%%%%Q%%%%%QqQ%%%%Q%%%%%Q%%%%%%Q%
3616B121%%%%%Q%%%%Q%%%%%%Q%%%%%Q%%%%%Qq%Q%%%%Q%%%%%%%Q%%%Q%%%%%%%%%Q%%%Q%%%%
3601B201%Q%%%%Q%%%%%%Q%%%%%Q%%%%%%Q%%%Q%%%%%%Q%%%%%Q%%%%Q%%%%%%%Q%%%%%Q%%%%%
3585B289Q%%%%%Q%%%%Q%%%%Q%%%%%%Q%%%%Q%%%Q%%%%%%%Q%%%Q%%%%%Q%%%%Q%%%%%%Q%%%%%
3570B385Q%%%%Q%%%Q%%%%%Q%%%%Q%%%%%Q%%%%Q%%%%%%Q%%Q%%%%%Q%%%%Q%%%%Q%%%%Q%%%%%
3554B489Q%%%%Q%Qq%Q%%%QqQ%%Q%%%%Q%%%Q%%%%%%Q%%%%Q%%QqQ%%%Q%%%Q%%%%%Q%%%%%Q%%
3539B601Q%%%%%Q%%%Q%%%Q%%%%%Q%%%%%Q%%Q%%Q%%%%%Q%%%%%Q%%%Q%%%%Q%%%Q%%%Q%%Q%%%
3523B721%%Q%%%%Q%%%Q%%Q%%%%%Q%%%Q%%%%Q%%%Q%%%Q%%%%Q%%%Q%%Q%%%%%Q%Q%%%%%Q%%%Q
3508B849%%%Q%%%Q%%%Q%%%Q%%%Q%%%Q%%%%Q%%%Q%%Q%%%Q%%%%Q%%Q%%%Q%%%Q%%%Q%%%%Q%%Q
3492B985%%Q%%%Q%%%%Q%%Q%%%Q%%%Q%%Q%%%Q%%%Q%%%Q%%Q%%%Q%%%Q%%Q%%%Q%%%Q%Q%%%%Q%
3476C129%%Q%%Q%%%%Q%%%Q%%Q%%%Q%%Q%%Q%%%Q%%Q%%Q%%Q%%%Q%%%Q%%%Q%Q%%Q%%%Q%%Q%Q%
3461C289%%%Q%%%Q%%Q%%%Q%Q%%%Q%%Q%%Q%%%Q%Q%%%Q%Q%%Q%%%Q%%%Q%%Q%Q%%Q%%%Q%Q%%Q%
3445C457%%%Q%%Q%%Q%Q%%Q%%Q%%Q%%%Q%Q%%Q%%%Q%%Q%%Q%Q%%%Q%Q%%QqQQ%%Q%Q%%%Q%%Q%%
3430C633Q%Q%%Q%%Q%%Q%Q%%%Q%Q%%Q%Q%%Q%Q%%Q%%Q%%%Q%Q%%%Q%Q%Q%%Q%%Q%Q%%Q%Q%%Q%Q
3414C841%%%Q%Q%%Q%Q%%Q%Q%%Q%%Q%Q%%Q%Q%%Q%Q%Q%%Q%%Q%%QQ%%Q%%Q%Q%Q%%Q%Q%%Q%%Q%
3399D049Q%Q%%Q%Q%%Q%Q%Q%%QQ%Q%%Q%%Q%%QQ%%Q%Q%%QQ%%Q%%Q%Q%Q%Q%Q%Q%%Q%Q%Q%%Q%Q
3383D289%Q%%Q%Q%Q%Q%%QQ%%Q%Q%Q%Q%Q%Q%%Q%Q%Q%Q%Q%Q%Q%Q%Q%Q%Q%Q%%Q%Q%QQ%%QQ%%Q
3367D545%Q%Q%Q%Q%Q%Q%Q%Q%Q%Q%Q%QQ%%QQ%%QQ%Q%%QQ%Q%%QQ%QQqQQ%Q%Q%Q%QQ%Q%Q%Q%Q
3352D825%Q%Q%QQ%Q%Q%QQ%Q%Q%Q%Q%Q%QQ%Q%Q%QQ%QQ%%QQ%Q%QQ%Q%QQ%Q%Q%Q%QQ%Q%QQ%Q%
3336E129Q%QQ%Q%QQ%Q%QQQ%Q%Q%QQ%Q%QQ%QQ%Q%QQ%Q%QQ%QQ%QQ%QQ%Q%QQ%QQ%Q%QQ%QQ%Q%
3321E465QQQ%QQ%%QQQQ%J6qJ6%QqJ6J6qQ%QQJ6%%QQ%QQ%QQ%QQ%QQQ%QQ%QQ%QQQ%Q%QQQ%QQ
3306E817Q%QQ%QQ%QQQ%QQQQ%QQ%QQQ%QQQQ%QQ%QQQQ%QQQ%QQ%QQQQ%QQQ%QQQ%QQQQ%QQQ%QQ
3291F225QQQQ%QQ%QQQQQ%QQQQ%QQQQQ%QQQQ%QQQQQQQ%QQQQQ%QQQQQ%QQQQQQQ%QQJ6%Q%QQJ6
3275F681%QQQQQQQ%J6%QQQQQQ%J6%QQQQQQQQQQQ%QQQQQQQQQQQQQQQ%QJ6%QJ6%QQJ6%QQQQQ
3261G145QQQQQQQQQQQJ6%QQQQQQQQQQQJ6%QQJ6%QQQJ6%J6QQQQQQQQQQQQQQJ6QQQQQQQQQQQ
3247G657QQQJ6QQQQQQQJ6QQQQQQJ6QQQQ%K4%%K4%K4qK4%K4Q%QQJ6%J6QQQJ6Q%J6QQQJ6QQQ
3234H161QQJ6QJ6%J6QQQJ6QQQJ6QQQQJ6QJ6QQQQQJ6QQJ6QQJ6QQQQQJ6QJ6QQQJ6QQJ6QQJ6Q
3222H697QQJ6QJ6QQJ6QQJ6QQJ6QQQJ6QJ6QJ6QQJ6QQJ6QJ6QQJ6QJ6QJ6QJ6QQQJ6J6QJ6QJ6Q
3211I241QJ6QJ6QJ6QJ6QQJ6QJ6QQJ6J6QJ6QQJ6J6QJ6J6QQJ6QJ6J6QJ6QJ6QJ6QJ6QJ6QJ6J6
3201I785QJ6QJ6J6QJ6J6QQJ6J6J6QJ6QJ6J6QJ6QJ6J6QJ6J6J6QJ6QJ6J6J6QJ6QJ6J6J6J6QJ6
3191A0337QJ6J6J6QJ6J6J6QJ6J6QJ6J6J6J6QJ6J6J6J6J6QJ6J6J6QJ6J6J6J6QJ6J6J6J6J6J6
3182A0881QJ6J6J6J6J6QJ6J6J6J6J6J6J6J6J6J6J6J6QJ6J6J6J6J6J6J6J6J6J6J6J6J6J6J6
3174A1417QK4J6QK4J6J6J6J6J6J6J6J6J6J6J6J6J6J6K4QK4J6J6J6J6J6J6J6J6K4J6J6J6J6
3166A1993J6J6J6K4J6J6J6J6J6K4J6J6J6K4J6J6J6K4J6J6J6K4J6J6J6J6K4J6J6J6K4J6J6K4
3158A2601J6J6K4J6J6K4J6J6K4J6K4J6J6K4J6K4J6J6K4J6J6K4J6K4J6K4J6J6K4J6K4K4J6K4
3151A3257J6K4J6J6K4J6K4K4J6J6K4K4J6K4J6K4K4J6K4J6K4K4J6K4J6K4K4J6K4K4K4J6K4J6
3143A3953K4K4J6L2J6K4K4J6K4J6K4L2J6K4K4K4J6K4K4K4K4J6K4K4K4K4K4K4K4J6K4K4K4K4
3135A4721K4K4K4K4K4K4K4K4K4K4K4K4K4K4K4K4K4K4K4K4K4K4K4K4K4L2J6L2K4K4K4K4K4L2
3127A5553K4K4K4K4K4L2K4K4K4L2K4K4K4L2K4L2K4K4K4L2K4K4L2K4L2K4K4L2K4L2K4K4L2L2
3120A6457J6L2K4L2K4L2L2K4L2K4L2K4L2K4L2L2K4L2L2K4L2K4L2L2L2K4L2K4L2L2L2L2K4L2
3112A7433K4M0K4L2L2L2K4L2L2L2L2L2L2L2L2L2K4M0K4M0K4M0K4M0K4M0K4M0L2L2L2L2L2L2
3104A8505L2L2M0L2L2L2L2L2M0L2L2L2L2M0L2L2M0L2L2M0L2M0L2L2M0L2L2M0M0L2L2M0L2M0
3096A9681M0L2M0L2M0L2M0M0L2M0M0L2M0M0L2M0M0M0L2M0M0M0L2M0M8L2M0M0M0M0M0L2M0M0
3088B0969M8L2M8L2M0M0M8M0M0M0M0M0M8M0M0M0M0M0M8M0M0M0M8L2M8L2M8N6M0M8M0M0M8M0
3081B2393M0M8M8M0M8M8M0M8M0M8M0M8M8M8M8M0M8M8M0M8M8M8M8M8M8M8M8M8M8M8M8M8M8M8
3073B3969M8M8M8M8M8N6M8M8M8N6M8M8N6M8M8N6M8M8N6N6M8M8N6M8N6N6M8N6M8O4M8N6N6M8
3065B5713N6N6M8N6N6N6N6N6N6N6N6N6N6N6N6N6N6N6N6O4N6N6O4N6N6O4N6N6O4N6O4N6O4N6
3057B7657O4N6O4N6O4O4O4N6O4O4N6O4P2N6O4O4O4O4O4O4O4O4P2O4O4O4O4O4P2O4O4P2O4P2
3050B9833O4P2O4P2P2O4P2O4P2P2P2O4P2P2P2P2P2P2P2P2P2P2P2Q0P2P2P2Q0P2P2Q0P2P2Q0
3042C2273Q0P2Q0P2Q0Q0Q0P2Q0Q0P2Q8Q0Q0Q0Q0Q0Q0Q0Q0Q8Q0Q0Q8Q0Q0Q8Q8Q0Q0Q8Q8Q0Q8
3034C5025Q8Q8Q8Q8Q8Q0R6Q8Q8Q8Q8Q8R6Q8Q8R6Q8R6Q8R6R6Q8R6Q8R6R6R6R6R6R6R6R6R6R6
3026C8145J04R6J04R6R6J04R6J04R6J04J04J04J04J04J04J04J04J04J04J04J04J12J04J12
3021D0617J04J12J04J12J12J04J12J12J12J12J12J12J12J12J12J20J12J20J12J12J20J20J20
3015D3209J12J20J20J20J20J20J20J28J20J20J28J20J28J20J28J28J20J28J28J28J36J20J36
3010D6057J28J28J36J28J36J36J28J36J36J28J44J36J36J36J36J44J36J44J36J44J44J36J44
3005D9193J44J52J44J44J44J44J52J44J52J52J52J44J60J52J52J52J52J52J60J52J60J60J60
3000E2673J60J60J60J60J60J60J68J68J60J68J68J68J68J68J68J68J76J68J76J76J76J76J68
2994E6521J84J76J76J84J76J84J84J84J84J84J84J84J92J84J92J92J92J92J92J92J92K00J92
2989F0817K00K00K00K00K00K00K08K08K00K08K08K08K16K08K08K16K16K08K16K24K16K16K24
2984F5625K24K24K24K24K24K24K32K24K32K32K40K32K40K32K40K40K40K40K48K40K48K48K48
2979G1025K48K56K48K56K48K64K56K56K64K56K64K72K64K64K72K72K72K72K72K80K80K72K88
2973G7121K80K80K88K88K88K88K96K88K96K96L04K96L04L04L04L04L12L12L12L20L12L20L20
2968H4033L20L20L28L28L28L28L36L28L36L36L44L52L44L36L52L52L52L60L52L60L60L68L60
2963I1913L76L60L76L76L76L76L84L84L84L92L92L92L92M00M00M00M08M08M16M08M16M16M24
2958A00969M24M24M32M32M32M32M48M40M48M48M48M56M56M64M56M72M64M72M80M80M80M80
2952A10937M88M96M96M96N04M96N12N12N12N20N20N28N28N28N36N44N44N44N52N52N60N60
2947A22465N68N68N76N76N84N84N92N92O00O08O00O16O16O16O24O32O32O40O40O48O56O56
2942A35889O64O64O72O72O88O80O96O96P04P04P12P20P20P28P36P36P52P44P60P60P68P76
2937A51641P84P84P92Q00Q00Q16Q16Q32Q24Q32Q48Q48Q64Q64Q72Q72Q88Q88R04R04R12R20
2932A70305R28R36R52R52R60R68R76R84R92J000J008J016J024J040J040J056J064J072J080
2928A89353J088J096J112J112J128J136J152J160J168J176J184J200J216J216J232J240J256
2924B09225J272J272J288J304J312J328J336J352J360J376J384J408J408J432J432J456J472
2920B32417J480J496J512J520J544J552J576J584J600J616J632J656J664J680J704J712J736
2916B59681J744J776J784J808J816J848J856J880J904J920J936J968J976K008K016K048K072
2912B92041K080K120K128K160K184K200K232K256K272K304K336K352K384K400K440K464K496
2909C30849K512K552K576K608K640K672K696K736K760K800K832K864K888K944K968L000L040
2905C77937L080L112L152L200L232L272L312L360L392L448L480L528L576L624L664L720L760
2901D35849L816L864L912L968M024M072M128M184M240M304M360M416M480M544M608M664M736
2897E08169M808M872M944N016N080N160N232N320N384N472N552N632N720N800N896N984O072
2893F00113O168O264O360O464O560O672O768O888O992P104P216P344P456P584P712P832P968
2889G19465Q104Q240Q384Q520Q680Q824Q984R128R296R464R632R808R984J0168J0352J0536
2885H67569J0744J0936J1144J1359J1568J1801J2015J2257J2496J2736J2991J3249J3520J3792
2882A038177J4064J4359J4648J4961J5272J5584J5928J6255J6609J6976J7336J7719J8113
2879A246001J8520J8928J9360J9800K0256K0728K1208K1704K2224K2752K3296K3863K4448
2876A523088K5056K5672K6321K6984K7679K8385K9120K9879L0672L1496L2329L3215L4121
2873A904017L5063L6041L7056L8103L9209M0327M1513M2744M4008M5336M6720M8151M9649
2870B447937N1200N2832N4520N6280N8127O0049O2056O4160O6352O8656P1048P3575P6217
2867C263009P8975Q1872Q4921Q8119R1472R5017R8728J02640J06768J11104J15695J20536
2865D438856J25649J31056J36784J42839J49265J56080J63304J71000J79176J87888J97160
2862F179057K07063K17648K28936K41056K54009K67943K82880K98968L16289L34975L55160
2860I183984L76984M00656M26337M54255M84656N17833N54103N93825O37448O85424P38320
2857A5053825P96808Q61609R33615J013849J103520J204040J317120J444743J589345J753807
2855B7072281J941666K157199K405678K693592L029042L422158L885842M436472N095226N889708
2852F2028864O856310Q043650R517411J1367855J3720809J6754693K0726965K6016757L3192931
2850B08226245M3126320N7173395P7470493J07364842J51856874K17184817L05856729L96358303
2849A564618018L99905198J82960431j82960431l99905198l96358196l05856836k17184817
2847F45218169j51856874j07364815p7470520n7173395m3126334l3192917k6016757k0726965
2845A28289592j6754680j3720809j1367868r517411q043650o856310n889708n095226m436472
2843D6607458l885842l422158l029042k693592k405672k157205j941666j753816j589336j444743
2841B2284386j317120j204040j103520j013849r33623q61601p96808p38320o85424o37440
2839A2992641n93833n54103n17833m84664m54247m26337m00656l76991l55153l34975l16289
2836H177560k98968k82880k67936k54016k41047k28945k17648k07055j97168j87888j79176
2833E614833j71000j63313j56071j49265j42839j36784j31056j25649j20528j15703j11112
2831D091513j06760j02640r8728r5009r1480q8119q4921q1879p8977p6208p3575p1048o8656
2828B973513o6352o4160o2056o0049n8127n6288n4512n2832n1200m9649m8151m6720m5336
2825B258081m4008m2744m1513m0335l9201l8103l7056l6041l5063l4121l3215l2329l1496
2822A772856l0672k9879k9128k8377k7679k6984k6321k5672k5056k4448k3863k3296k2752
2819A428729k2232k1704k1208k0720k0256j9800j9368j8928j8512j8113j7719j7344j6968
2816A175857j6609j6263j5920j5584j5272j4961j4648j4359j4072j3784j3520j3249j2991
2813I84625j2736j2496j2257j2015j1801j1575j1352j1144j0936j0744j0544j0352j0168r976
2810H26529r808r632r464r296r136q976q832q664q528q384q240q104p968p840p704p584p464
2806F80905p336p216p112o992o880o768o672o560o464o360o264o168o072n984n896n800n720
2802E70641n632n552n472n392n312n232n160n088n008m944m872m800m736m672m608m544m480
2798D85137m416m360m304m240m184m128m072m024l968l912l864l816l760l720l664l624l576
2794D17505l528l488l440l400l352l312l280l232l192l152l120l072l040l008k968k928k904
2790C63089k864k832k792k768k728k696k672k640k600k592k544k520k488k464k440k400k384
2787C18665k360k328k304k280k248k232k208k176k160k136k112k088k064k048k024k000j984
2783B81913j960j936j920j904j880j856j848j824j808j784j768j752j728j720j696j688j664
2779B51177j648j632j616j600j592j568j552j544j528j512j496j480j464j456j440j432j408
2775B25209j408j384j376j360j352j336j320j312j304j288j280j264j256j240j232j224j208
2771B03065j200j192j176j160j168j144j136j128j120j112j096j088j080j072j056j056j048
2767A84033j032j024j024j008j000r92r84r76r68r60r52r44r36r28r20r12r12q96q96q80q80
2762A64009q72q64q56q48q40q40q32q24q16q16q00q00q00p76p84p76p68p60p60p52p44p36
2757A46345p36p28p28p12p12p12p04o96o88o88o80o72o80o64o64o56o48o48o48o32o40o32
2752A31377o24o16o16o08o08o00o00n92n92n84n84n84n68n76n60n68n60n52n52n44n44n36
2747A18609n36n36n28n28n20n20n12n12n04n04n04m96m96m88m88m88m80m80m72m72m72m64
2742A07609m64m64m48m56m48m56m40m48m40m40m32m24m32m32m24m16m16m24m08m08m08m08
2737I8073m08l92m00m00l92l92l84l84l84l84l84l76l68l76l68l68l68l60l60l60l60l52l52
2732H9401l52l52l52l28l52l36l44l36l36l28l36l28l28l20l28l20l20l12l20l12l12l12l12
2727H1825l04l12l04k96l04k96k96k96k96k88k96k88k88k88k80k80k80k80k80k80k72k72k72
2721G5177k72k72k64k64k72k56k64k64k56k56k56k56k56k48k48k56k48k48k48k40k48k40k40
2716F9305k40k32k40k40k32k32k32k32k32k24k32k24k24k24k24k24k16k24k16k16k16k16k16
2711F4097k08k16k08k08k16k00k08k08k08k00k08k00k00k00k00j92k00j92k00j92j92j92j92
2706E9457j92j84j92j84j92j84j84j84j84j84j76j84j76j84j76j76j76j76j76j76j68j76j68
2700E5305j76j68j68j68j68j68j68j60j68j60j68j60j60j60j60j60j60j60j52j60j60j52j52
2695E1569j52j60j52j44j52j52j52j44j52j52j44j44j44j52j44j44j36j44j44j44j36j44j36
2690D8201j36j44j36j36j36j36j36j36j36j28j36j28j36j28j36j28j28j36j28j20j28j28j28
2684D5153j28j20j28j28j20j20j28j20j20j28j20j20j12j20j20j20j20j12j20j12j20j20j12
2679D2385j12j12j20j12j12j12j12j12j12j04j12j12j12j04j12j04j12j04j04j04j12j04j04
2674C9865j04j04j04j04j04j04j04r6j04r6j04j04r6r6r6j04r6r6j04r6r6r6r6r6r6r6q8r6
2668C7089r6q8r6r6q8r6q8r6q8q8r6q8q8q8q8q8q8q8q8q8q8q8q8q8q0q8q8q0q8q0q8q0q0q8
2660C4089q0q0q8q0q0q0q0q0q0q0q0q0q0q0q0q0p2q0q0q0p2p2q0p2q0p2q0p2q0p2p2p2p2q0
2652C1441p2p2p2p2p2p2p2p2p2p2o4p2p2p2o4p2p2p2o4p2o4o4p2o4p2o4p2o4o4p2o4o4o4p2
2644B9089o4o4o4o4o4o4o4o4o4o4o4n6o4o4o4n6o4o4n6o4o4n6o4o4n6o4n6n6o4n6o4n6n6o4
2636B6993n6n6n6n6n6o4n6n6n6n6n6n6n6n6n6n6n6n6n6n6m8n6n6n6m8n6n6m8n6n6n6m8n6m8
2629B5121n6m8n6m8n6m8n6m8m8n6m8m8n6m8m8m8m8m8n6m8m8m8n6m0m8m8n6m0n6m0m8m8m8m8
2621B3433m8m8m0n6m0m8m8m8m0m8m8m0m8m8m8m0m8m8m0m0m8m8m0m0m8m8m0m8m0m8m0m8m0l2
2613B1913m8m0m0m8m0m0m0m0m8m0m0m0m0m0m8m0m0m0m0m0m0m0m0m0m0l2m8m0l2m0m0m0m0m0
2605B0529m0l2m0m0l2m0m0m0l2m0m0l2m0m0l2m0m0l2m0l2m0m0l2m0l2m0l2m0l2m0l2l2m0l2
2598A9281m0l2l2m0l2l2m0l2l2m0l2l2l2m0l2l2l2l2m0l2l2l2l2l2l2l2l2m0l2l2l2l2l2l2
2590A8137l2l2l2l2l2l2k4m0k4l2l2l2l2l2l2k4m0k4l2l2l2l2k4l2l2l2k4l2l2k4l2l2k4l2
2582A7097l2k4l2l2k4l2l2k4l2k4l2k4l2k4l2l2k4l2k4l2k4l2k4l2k4k4l2k4l2k4l2k4k4l2
2574A6137k4k4l2k4l2j6l2k4k4l2k4k4l2k4k4k4l2k4k4k4k4l2k4k4k4k4k4l2k4k4k4k4k4k4
2566A5265k4l2j6l2k4k4k4k4k4k4k4k4k4k4k4k4k4k4j6l2k4j6k4k4k4k4k4k4k4j6l2j6k4k4
2559A4457k4k4k4j6k4k4k4k4k4j6k4k4k4j6l2j6j6l2j6k4k4k4j6k4k4j6j6k4k4k4j6k4k4j6
2551A3713k4j6k4k4j6k4k4j6k4j6k4j6k4j6k4j6k4k4j6k4j6k4j6k4j6k4j6k4j6k4j6j6k4j6
2543A3025k4j6j6k4j6k4j6k4j6j6j6k4j6k4j6j6k4j6k4j6j6k4j6j6j6k4j6j6k4j6j6k4j6j6
2535A2385j6j6j6k4j6j6k4j6j6j6k4j6j6j6j6j6j6k4j6j6j6j6j6k4j6j6j6j6j6j6k4j6j6q
2527A1801k4j6j6j6j6j6j6k4qk4j6j6j6j6j6j6j6j6j6j6j6j6j6j6j6j6j6j6j6j6j6j6qj6j6
2519A1233j6j6j6j6j6j6j6j6j6j6j6qj6j6j6j6j6j6j6j6qj6j6j6j6j6j6qj6j6j6j6j6qj6j6
2511A0689j6j6qj6j6j6j6qj6j6qj6j6j6j6qj6j6j6qj6j6j6qj6j6j6qj6j6qj6j6j6qj6j6qj6
2502A0145j6qj6j6j6qj6qj6qj6j6qj6j6qj6j6qqj6j6j6j6qqj6qj6qj6qj6j6j6qqj6j6qj6q
2493I609j6qj6j6qj6qj6qj6qj6qj6j6qqj6qj6qqj6j6qqj6qj6qj6qj6qj6qj6qqj6qj6qqj6q
2482I065j6qqj6qqj6qj6qqj6qj6qqj6qqj6qqj6qqj6qqj6qj6qqqj6qj6qqqj6qj6qqqj6qqqj6
2470H513qqj6qqqqj6qqj6qqqqj6qqj6qqqj6qqqj6qqqj6qqqqqj6qqqj6qqqqqj6qqqqqj6qqq
2458G969qj6%j6qqqj6%j6qqqqqqqj6qqqqqqqqj6qqqqqqqj6qqqqqqqqqqqj6qqqqqqqqqqqqq
2444G441j6%qj6%j6qqqqqqqqqqqqqqqqqqq%j6qqq%j6qqqqqqqqqqqqqqqqq%qj6q%j6qq%j6%
2430F961qqqqqqqqq%qqj6%qqqqqqqq%j6%qqqqq%j6qqq%qqqqqq%qqqqqqq%qqqqqqq%qqqqqq
2415F489q%qqq%qqqq%qqqqqqqqq%qqqqq%%j6%qqqq%qqqq%qqqqq%qqq%qqqq%qqq%qqq%j6%q
2400F065q%qqqqq%qq%qq%qqqq%qqq%qqq%qqq%qq%qqqq%qq%qq%qqqq%q%qqq%qq%qq%qqqq%q
2385E665%qqq%q%qqq%q%j6%qq%j6%%qQj6%qqqq%q%j6%q%q%qqq%q%qq%qq%qq%q%qq%q%qqq%
2370E329q%qq%qq%q%qq%qq%%qq%qq%qq%qq%qq%q%q%qq%q%qq%q%qq%q%q%qq%q%q%qq%qq%q%
2354E001q%q%qq%q%qq%q%q%q%j6Qqq%q%q%qq%q%q%q%q%qq%q%q%q%q%qq%%qq%q%q%q%q%qq%
2339D705%qq%q%%qq%q%q%q%q%qq%q%%q%q%q%q%qq%%q%q%q%q%qq%%q%q%q%q%q%q%q%q%q%%q
2324D433%qq%%q%qqQqq%q%q%q%q%%q%q%q%%qq%%q%q%q%q%qq%%q%%q%q%q%%qq%%q%q%%q%q%
2308D185%q%q%q%%qq%%q%q%%q%%q%q%%%j6%j6Q%q%%qq%%q%q%%q%q%%qq%%q%q%q%%q%q%%q%
2293C961%q%%q%q%%q%%qq%%q%q%%q%%q%q%q%%q%q%%q%%q%%q%q%%q%q%%q%q%%q%%q%%q%q%%
2277C753q%%q%q%%q%%q%%q%q%%q%q%%%q%%q%q%%q%%q%%q%%q%q%%%qq%%q%%%q%q%%%q%q%qQ
2262C561j6%%%q%%q%%%q%%q%q%%q%%%q%%q%%q%%q%%q%q%%%q%%q%%q%%q%%q%%q%%q%%q%%q%
2246C377%%q%%q%%q%%%q%%q%%q%%q%%q%%q%%q%%q%%%%q%q%%%q%%q%%q%%%q%%q%%q%%%q%%q
2231C209%%%q%%q%%%q%%q%%q%%%q%q%%%q%%%q%%%q%%q%%%q%%%q%%q%%%q%%%q%%q%%%q%%q%
2215C057%q%%%q%%%q%%%%q%%q%%%q%q%%%%q%%%q%%%q%%q%%%q%%%%q%q%%%q%%%%%q%%q%%%q
2200B913%%q%%%q%%%q%%%q%%%q%%%q%%%q%%%%q%%q%%%q%%%%q%%%q%%%%q%%q%%%q%%%q%%%%
2184B785q%%%q%%%q%%%q%%%q%%%%q%%%q%%%%q%%%q%%%%%q%%q%%%%q%%q%%%%q%%%q%%%%q%%
2169B657%q%%%%q%%%%q%%%q%%%%%q%%%%q%%q%%%%q%%%q%%%%%q%%%q%%%q%%%q%%%%%q%%%%%
2153B545q%%%q%%%%%q%%%%q%%%%q%%%%q%Qqq%%%%Qj6%%q%%%%%q%%%q%%%%%qQq%%%qQq%q%%
2138B433%%q%%%%%q%%%%q%%%%%q%%%%q%%%%q%%%%q%%qQq%%%%q%%%%%%q%%%%q%%%%%q%%%%%
2122B337q%%%%q%%%qQ%q%%%q%%%%q%%%q%%%%%%q%%%%%q%%%%%q%%%%%q%%%%%q%%%%%q%%%%%
2107B241q%%%%%%q%%%%q%%%%q%%%%%q%%%%%%q%%%%q%%%%%qQq%%%%q%%%%%q%%%%q%%%%%%q%
2091B145%%%q%Qq%%%%q%%%%%qQq%%qQ%q%%%%q%%%%%q%%%%q%%%%%%qQq%%%%%%q%%%%%q%%%%
2075B065q%%%%%%%q%%%%%q%%%%%%%q%%%%%q%%%%%qQ%q%%%%%q%%%%%%q%%%%%%q%%%%q%%%%%
2060A985%%q%%%%%%%q%%%%%%q%%%%%q%%%%%%%q%%%%%%q%%%%%%%q%%%%%%%q%%%qQq%%%%%%%
2044A913q%%%%%q%%%%%%%%%q%%%%qQq%%%%%%q%%%%%%qQqQq%%%%qQq%%%%%q%%%%%%%q%%q%%
2029A833QqQq%%%%q%%%%%%%%q%%%%%%%q%%%%%%%%%q%%%%%%%q%%%%%qQq%%%%%%%q%%%%%qQq
2013A769%%%%%%%q%%%%%%%%%q%%%%%qQq%Qq%%%%%q%%%%%%q%%%%%%%%%qQq%%%%%%q%%%%%%%
1998A713%%q%%%%%q%%%%%%%q%%%%%%%%%q%%%%%%%%q%%%%%%%%%q%%%%%%%%%q%%%%%%qQ%q%%
1982A649%%%%%%q%%%%%%qQq%%%%%%%q%%%%%%%%%%q%%%%%%%%q%%%%%%%%q%%%%%%%%qQq%%%%
1966A593%%%%q%%%%%%%%%%q%%%%%%%%%%q%%%%%%%q%Qq%%%%%%%q%%%%%%%%%q%%%%%%%q%%%%
1951A537%%%%%%%qQq%%%%%%q%%%%%%%%%%%qQ%q%%%%%%%%q%%%%%%%%%%%q%%%%%%%%q%%%%%%
1935A489%%%%%%%q%%%%%%%%q%%%%%%%%%q%%Qq%%%%%qQq%%%%%%%%%q%Qq%%%%%%qQq%Qq%%%%
1920A441%%%q%%%%%%%%%%%q%%%%%%%qQ%%q%Q%qQq%q%%%Qj6L2k4qQ%qQ%%qQ%q%%%%%%%%q%%
1905A393%%%%%%q%Q%qQq%%%%%%%%%qQq%%%%%%%%%%q%%%%%%%%%%%%%q%%%%%%qQq%%%%%%%%%
1889A353qQ%%q%%%%%%%%%%%q%%%%%%%%%%%%q%%%%%%%%%%%%%%q%%Qq%%%%%%%%q%%%%%%%%%%
1874A313%%%%q%%%%%%%%q%%%%%%%%%%%%%q%%%%%%%%%%%%qQq%%%%%%%%qQ%%%qQqQq%%%%%%%
1858A273%%q%%%%%%%%%%%%%q%%Qq%%qQq%Q%%%%qQ%q%%%%%%%%%%q%%%%%%%%%%%%%%q%%%%%%
1843A233%%%%q%%%%%%%%%%%%%%%q%%%%%%%%%%%%q%%%%%%%%Qj6%Q%qQq%Q%q%%%%%%%%%%%%q
1827A193%%%%%%%%%%%%q%QqQq%%%%%%%%%%%%q%%%%%%%%%%%%%q%%%%%%%%%%%%%%%%%%q%%%%
1812A161%%%%%%%%%%q%%%%Qq%%%%%%q%%%%%%%%%%%%%%%%q%%%%%%%%%%%%%%%%%%%q%%%%%%%
1796A129%%%%%%qQ%q%%J6qq%%%%%%%%%%%%qQq%%%%%%%%%%%q%%%%%%%%%%%%%%%q%%%%%%%%%
1781A097%%%%%%%qQ%q%%%%%%%%%%%%q%Q%q%%%%%%%%%%%%q%%%%%%%%%%%%%%%%%%%%q%%%%%%
1765A065%%%%%%%%%%%%%%%q%%%%%%%%%%%%%%%%%q%%%%%%%%%%%%%%q%%%%%%%%%%%%%%%%%%%
1750A041q%%%%%%%%%%%%%%%%%%%q%Qq%%%%%%%%%%%%%%%%q%%%%%%%%%%%%%%%%%q%Qq%%%%%%
1734A009%%%%%%%%%q%%%%%%%%%%%%%%%%%q%%Qq%%%%%%%%%%%%%%%qQ%%q%Qq%%%%%%%%%%%%%
1719I85%%q%%%%%%%%%%%%%%%%%%%%%%q%%Qq%%%%%%%%%%%qQ%%%%q%%%%%%%%%%%%%%%%%%%q%
1703I53%%%%%%%%%%%%%%%%%%%%%q%%%%%%%%%%%%%%%%%%%%%%%q%%%%%%%%%%%%%%%%%%%%%q%
1687I29%%Qq%%%%%%%%%%%qQ%%%q%%%%%%%%%%%%%%%q%%Q%q%Q%q%QqQq%%%%%%qQ%%%%q%%%%%
1671I05%%%%%%%%%%%%%%%%%%%%%q%Q%q%%%%%%%%%%%%%%%%qQ%%%q%Qq%%%%%%%%%%%%%%%%%%
1655H89%q%%%%%%%%%%%%%%%%%%q%%%%%%%%%%Qq%%%%%%%%%%%%%%q%Qq%%%%%%%%%%%%%%%%%q
1640H57Qq%%%Q%q%%%%Qq%QQj6j6QQq%%%%%%%%%%%%%Qq%%%%%%%%%%%%%%%%%%%%qQ%q%Qq%Qq
1624H41%%%%%%%%%%%%%%q%%%%%%%Qq%%%%%%%%%%%qQ%%%%%%q%%%Qq%%%%%%%%%%%%%%%%%%qQ
1609H25%q%Qq%%%%%%%%%%%%%%%%%%%%%%%%qQq%%%%%%%QqQq%%%%%%%%%%%%q%Qq%%%%%%%%%%
1593H01%%%%%%%%%%%%%%q%Qq%Q%q%%%%%%%%%%%%%%%%%%%%%%%q%Qq%%%%%%%%%%%%%%%%%%%%
1577G85%%qQ%%qQq%%%%%%%%%%%%%%%%%%%%%%%%%%qQq%%%%%%%%%%%%%%%%%%%%%%%q%%%Q%%%
1561G69%q%%%Qq%Qj6Q%%%%%%%%%%%%qQqQq%%%%%%%%%%%%%%%%%%%%%%%%%%%%q%%%Qq%%%%%%
1546G45%%%%%%%%%%%%%%%%%%%%qQ%%%q%%%%%%%%%%%%%%%%%%%%%%%%%q%Qq%%%%%%%%%%%%%%
1530G29%%%%%%%%%%%%%%%%%%%%%qQq%%%%%%%%%%%%%%%%%%%%%%%%%%%%q%%%%%%%%%%%%%%%%
1514G13%%%%%%%%%%%%%%%%q%%%%%%%%%%%%%%%%%%%%%%%%%%%%%%%%%%%%qQqQq%%%%%%%%%%%
1498F97%%%%%%%%%%%%%%%%q%QqQq%%%%%%%%%%%%%%%%%%%%%%%%%%qQ%%q%%%%%%%%%%%%%%%%
1482F81%%%%%%%%%%%%%%%%%%%%qQqQqQq%%Q%%q%%%%%%%%%%%%q%%Q%qQ%q%%%Qq%%%Qq%%%%%
1467F65%%%%%%%%%%%%%%%%%%%%%%q%Q%%q%QqQ%q%%%%%%%%%%%%%%%%%%%%%%%%%%%%%%q%Qq%
1451F49%%Qq%%%%%%%%%%%%%%%%%%%%%%%%%%%QqqQqQ%Qj6Q%q%Q%%q%%%%%%%%%%%%%%%%%%%%
1435F41qQ%%qQq%%%Q%q%%%%%%Qq%%%%%%%%%%%%%%%%%%%%%%%qQqQq%%QqQq%%%%%%%%%%%%%%
1419F25%%%%%%%%%%%%%%%%%%%qQ%%qQ%qQq%%%%%%%%%%%%%%%%%%%%%%%%%%%%%%%%%%%%%%%q
1404F09Qq%%Q%qQqQq%%%%%%%%%%%%%%%%%%%%%%%%%%%%%qQq%Qq%%%%%%%%%%%%%%%%%%%%%%%
1388F01%%%%%%%qQ%%%%q%Qq%QqQqQq%QqQq%%%%%%%%%%%%%%%%%%%%%%%%%%%%%%%qQ%q%%%%%
1372E85%%%%Q%%q%%%%%%%%Qq%%qQ%%%qQqJ6qq%%%Q%%%%j6J6%q%%%%Qq%%%%%%%%%%%%%%%%%
1357E77%%%%%%%%%qQ%%%%%%%%%%%%q%%%%%%%%%%%%%%%%%%%%%%%%%%%%%%%%%%%%%qQ%%%%%%
1341E69qQ%%%qQ%qQq%%%%%%%%%%%%%%%%%%%%%%%%%%%%%%%%%%q%Q%%%q%Q%qQq%%%%%%%%%%Q
1325E61q%%%Qq%%%%%%%%%%%%%%%%%%%%%%%%%%%q%%%%%%%%%%%%%%%%%%%%%%%%%%%%%%%%%%%
1310E45%%%%qQ%%%q%%Qq%%%Q%%%qQq%%%Qq%%%%%%%%%%%%%%%%%%%%%%%%%%%%%%%%q%%Qq%Qq
1294E29Q%q%%%%%%%%%%%%%%%%%%%%%%%%%%%%%%%%%%%%%%%q%%Qq%%Q%%%qQ%q%%%%%%%%%%%%
1278E21%%%%%%%%%%%%%%%%%%%%%%%%%%%%%%%qQ%%q%%%%%Q%q%%%Qq%%%%%%%%%%%%%%%%%%%%
1262E13%%%%%%%%%%%%%%%%%%qQ%q%%%%%%%Qq%%Qq%%%%%%%%%%%%Qq%%%%%%%%%%%%%%%qQ%%%
1246E05%%%%%%%%%%%qQq%%%%%%%%%%Qq%%%%%%%%%%%%%%%%%%%%%%%%%%%%%%%%%%%%%%%qQ%q
1231D89QqQ%%qQq%Qq%%%%%%Qq%%%%%%%%%%%%%%%%%%%%%%%%%%%%%%%%%%%%qQ%qQqQqQ%qQ%q
1215D81%Qq%%Qq%%%%%%%%%%%%%%%%%%%%qQqQJ6j6qQqQqQqQ%%%%%%q%Q%qQ%q%Q%%q%Qq%%%%
1199D73Qq%%%%%%%%%%%%%%%%%%%%%%%%%%%%%%%%%%%%%%%%%qQ%%%%%q%%QqQqQq%%Qq%Qq%Qq
1184D65%%%%%%%%%%%%%%%%%%%%%%%%Qq%%%%%%%%%%%%%%%q%Q%%%%%%%%%%%%%%%q%%%%%%Qq%
1168D57%%%%%%%%%%%%%%%%%%%%%%%%%%%%%%%%%%%%%%%%%%%%%%%%q%%QqQ%%%%%%q%%%%Qq%%
1152D49%%%Qq%%%%%%%%%%%%%%%%%%%%%%%%%%%%%%%%%%%%%%%%%%%%%%%qQq%%%Qq%%%Qq%Qq%
1136D41%%%%%%%%%%%%%%%%%%%%%%%%%%%%%%%%%%%%%qQ%%%%%%%%%%qQq%%%%%%QqQqQq%%%%%
1121D33%Qq%%%%%Qq%%%%%%%%%%%%%%%%%%%%%%%%%%%%%%%%%%%%%%%%%%%q%Qq%%%%%%%%%%Qq
1105D25%%Q%q%%%%%%%%%%%%%%%%%%%%%%%%%%%%%%%%%%%%%%%%%%%%%%%%%qQq%Q%%%%%%%%q%
1089D17Q%q%%%%%Qq%%%%%%%%%%%%%%Qq%%%%%%%%%%%%%%%%%%%%%%%%%%%%%qQ%%%%%%%%%%%%
1073D17%%%%%%%%%%qQqQ%q%Q%q%Q%q%%%%%%%%%%%%%Qq%%%%%%%%%%%%%%%%%%%%%%%%%%%%%%
1057D09%%%%%%%%%%%%%%%%%%%%%%%%%%%%q%Q%qQ%%%qQ%qQq%%%%%%%%%%%%%%%%%%%%%%%%%%
1042D01%%%%%%%%%%%%%%%%%%%%%%%%%%%%%%%q%%Qq%Qq%Qq%%%Qq%Qq%%%%%%%%%%%%%%%%%%%
1026C93%%%%%%%%%%%%%%%%%%%%%%%%%%%%%%%%%%qQ%%%%%%%%%%%%%%%%%%%q%%Qq%QqQq%%%%
1010C85%%%%%%%%%%%%%%%%%%%%%%%%%%%%%%%%%%%%%%%%%%%%%%%%%%%%qQ%qQ%%%%%%%%%%%%
994C85%qQ%%%qQqQ%%%%%%qQqQ%qQ%qQqQ%qQq%%%%%%%Qq%%%%%%%%%%%%%%%%%%%%%%%%%%%%%
978C77%%%%qQ%%%%%qQ%Q%q%qqL2l2J6j6%J6j6L2l2J6%qQq%%%Q%q%%Q%%%%%q%Qq%%%Qq%%%%
964C69%%%%%%%%%%Qq%%%%%%%%%%%%%%%%%%%%%%%%%%%%%qQ%%%%qQq%%%%Q%qQ%qQ%%%%q%Qq%
948C61Q%qQ%q%Qq%%Qq%%%%%%%%%%%%%%%%%%%%%%%%%%%%%%%%%%%%%%%%%%%%%%%%%%%%%%qQ%
932C61%%qQ%%%%%%%%%%qQ%%q%%%%%%%%%%Qq%Qq%%%%%%%%Qq%%%%Q%%q%%%%%%%%%%%%%%%%%%
916C53%%%%Qq%%%%%%%%%%%%%%%%%%%%%%%%%%%%qQ%%qQqQ%%qQ%%qQq%Q%q%Qq%Qq%Qq%Q%%q%
900C45%%Qq%%Qq%%QqQ%q%%%%%%%%%%%%%%%%%%%%%%%%%%%%%%%%%%%%%%%%%%%%%%%%%qQ%%%%
884C45%%%%%qQ%%%%qQ%q%Q%q%QqQ%%%%qQ%%%qQqQq%%%%%%%%%%%%%%%%%%%%%%%%%%%%%%%%%
868C37%%%%%%%%%%%%%%%%%%%%%%%%%%%%%%%%%%%%%%%%%%%%%%%%%%%%%qQ%q%QqQ%%%%%%%%q
852C29Q%%%q%Qq%%%%%%%%%%%%%%%%%%%%%%%%%%%%%%%%%%%%%%%%%%%%%%%%%%%%%%%%%%%%%%
836C29%%%%%%%%%%%%%%%%%q%Q%%%%%%%%%%%%%qQqQ%q%%Q%%%%%%%%%q%Q%%q%%%%%%%%%%%%%
820C21%%%%%%%%%%%%%%%%%%%%%%%%%%%%%%%%%%%%%%%%%%%%%%%%%%%%%%%%%%%%%%%%%%%%%%
804C21%%%%%%%%%%%%%%%qQ%%qQqQqQq%%%%%Qq%%%Qq%%%Qq%%%%%%%%%%%%%%%%%%%%%%%%%%%
788C13%%%%%%%%%%%%%%%%%%%%%%%%%%%%%%%%qQ%qQ%%%%q%Q%qQ%%qQ%%%%%%%%qQ%q%QqQq%Q
772C13%q%%%%%%%%%%%%%Q%%q%%%Q%%%q%%%%%%%%%%%%%%%%%%%%%%%%%%%%%%%%%%%%%%%%%%%
756C05%%%%%%%%%%%%%%%%%%%%%%%%qQqQ%qQ%qQ%%%%%%%%%%%%%%%%%%%%%qQ%%%%%%%q%Q%%q
740B97%Qq%QqQ%%%qQ%q%%%%%%%%%%Q%%q%%%%%%%%%%%%%%%%%%%%%%%%%%%%%%%%%%%%%%%%%%
724B97%%%%%%%%%%%%%%%%qQ%%%qQqQ%%%%qQ%%%%%%%%%%%%qQqQ%%%%%%%qQ%qQqQq%%%%%%%%
708B89%Qq%%%Qq%%%Qq%%%%%%%%%%%%%%%%%%%%%%%%%%qQ%%%%Qq%%%%%%%%%%%%%%%%%%%%%%%
692B89%%%%%%%%%%%%%%%%%%%%%%%%%%%%%%%%%%%%%%%%%%%%%%%%qQqQqQ%%%qQ%q%%Qq%%%%Q
676B89%%q%Qq%%%%%%%%%%%%%%%%%%%%%%%%%%%%%%%%%%%%%%%%%%%%%%%%%%%%%%%%%%%%%%%%
660B81%%%%%%%%%%%%%%%%%%%%%%%%%%%%%%%%%qQ%%%%%%%%%%%%qQqQ%%%%q%Q%%%%%q%%Q%%%
644B81qQq%%%Q%q%%%%%%%%%%%Qq%%%%%%%%%Qq%%%%%%%%%%%%%%%%%%%%%%%%%%%%%%%%%%%%%
628B73%%%%%%%%%%%%%%%%%%%%%%%%%Qq%%%%%%%%%%%%qQ%%%%%%%%%%%%%%%%%%%%%%%%%%%%%
612B73q%Qq%%Q%qQ%%qQ%q%%%Qq%%%%Qq%%%%Qq%%%%%%Qq%%%%%%%%%%%%%%%%%%%%%%%%%%%%%
596B65%%%%%%%%%%%%%%%%%%%%%%%%%%%%%%%%%%%%%%%%%%%%%%%%%%%%%%%%%qQqQ%%qQ%%%%%
580B65%%%%%%%%%%%%%%%%%%%%%%%%%%%%%%q%%%%%%%%%%Q%%%qQqQqQq%%Qq%Q%q%%%%%%%%Qq
564B57%Q%%q%%%%%%%%%%%%%%%%%%%%%%%%%%%%%%%%%%%%%%%%%%%%%%%%%%%%%%%%%%%%%%qQ%
548B57%%%%%%%%%qQ%%%%%%%%qQ%qQ%%%%%%%%%%%%%%%%%%%%%%%%%%%%%q%%%Q%qQqQq%%%%%%
532B49QqQq%%QqQ%qQ%%%%q%%%Q%qQ%q%%Qq%Q%q%%%%%%Q%q%%%%%%%%%%%%%%%%%%%%%%%%%%%
516B49%%%%%%%%%%%%%%%%%%%%%%%%%%%%%%%%%%%%%%%%%qQ%q%J6qqQ%%q%%Q%%%%%%qQ%%%%%
500B49%%%%%%%%%%%%%%%%%%q%Q%%%%%%qQ%%%%%qQqQ%q%%%%%Qq%QqQ%%qQq%%%%%%%%%%%%%%
484B41%%%%%%%%%%%%%%%%%%%%%Qq%%%%%%%%%%%%%%%%%%%%%%%%%%%%%%%%%%%%%%%%%%%%%%%
468B41%%%%%%%%%%%%%%%%%%%%qQ%%%%qQ%%%%%%qQ%%%%%%%%%%%%%%%%q%Q%%%%%%%%%%%qQ%%
452B41%%%%%%%%qQ%%%q%%%%%%Qq%Q%%qQq%%%%%%%%%%%%%%%Qq%%%%%%%%%%%%%%%%%%%%%%%%
436B33%%%%%%%%%%%%%%%%%%%%%%%%%%%%%%%%%%%%%Qq%Q%qqQ%%%%%%%%%%%%%%%%%%%%%%%%%
420B33%%%%%%%%%%%%%%%%%%%%%%%%%%%%%%%%%%%%%%%%%%%%%%qQ%%%%%%%%%%%%q%%%Q%q%%%
404B25%%%Qq%Qq%Qq%Q%qQq%%Q%%q%%%%%Qq%Qq%Q%q%Q%q%%%Qq%%%%%%%%%%%%%Qq%%%%%Qq%%
388B25QqQ%q%%%%%%%%%%%%%%%%%%%%%%%%%%%%%%%%%%%%%%%%%%%%%%%%%%%%%%%%%%%%%%%%%
372B25%%%%%%%%%qQ%%%%qQ%%%%%%%%%%%%%%%%%%%%%%qQq%%QqQqQ%%%%%%%%%%%%%%%%%%%%q
356B17Qq%%QqQ%q%%%Qq%%%%%%%%%%%%%Qq%%%%%%%%%%%%%%Qq%%%%%%%%%%%%%%Q%%q%%%%%%%
340B17%%%%%%%%%%%%%%%%%%%%%%%%%%%%%%%%%%%%%%%Qq%%%%%%%%%%%%%%%%%%%%%%%%%%%%%
324B17%%%%%%%%%%%%%%%%%%%%%%%%%%%%%%%%%%%%%%%%%%%%%%%%%%%%%%%%%%%qQ%qQ%%%%qQ
308B17%%%%%%qQ%%%%%%qQqQ%%%qQ%%qQqQq%%Qq%Qq%%%%%%%%QqQq%%%Q%%q%Qq%%%%%%%%%%%
292B09%%%%%%%%Qq%%%%%%Qq%%%%%%%%%%%%%%%%%%%%%%%%%%%%%%%%%%%%%%%%%%%%%%%%%%%%
275B09%%%%%%%%%%%%%%%%%%%Qqq%Q%%%%%Qq%%%%%%%%%%%%%%%%%%%%%%%%%%%%%%%%%%%%%%%
259B09%%%%%%%%%%%%%%%%q%Q%%%qQ%%%qQ%%qQ%q%%Q%%%%qQ%%%%%q%Q%q%Q%%%q%%%%%%%%%%
243B01%Q%%%%q%%Qq%%%%%%%%%%%%%%%%%%%%%%%%%%%%%%%%%%%%%%%%%%%%%%%%Q%qQq%%%%%%
227B01%%%%%%%%%%%%%%%%%%%%%%%%%%%%%%%%%%%%%%%%%%%%%%%%%%%%%%%%%%%%%%%%%%%%%Q
211B09q%%%%%%%%%%%%%%%%%%%%%%%%%%%%%%%%%%%%%qQ%%%%%%%qQ%%qQ%%q%Q%qQ%qQqQ%%%%
195B01%%q%Q%%%%%%qQ%%qQqQ%%%%%%%%%%q%%%%Q%%%%%%%qQqQq%Q%%%%%q%%%%Qq%%%%%%%%%
179A93%%%%%%%%%%%%%%%%%%%%%%%%%%%%%%%%%%Qq%%%%%%%%%%%%%%%%%%%%%%Qq%%%%%%%%%%
163A93%%%%%%%%%%%%%%%%%%%%%%%%%%%%%%%%%%%%%%%%%qQQq%qQ%%%%%%%%%%%%%%%%%%%%%%
147A93%%%%%%%%%%%%%%%%%%%%%%%%%%%%qQ%%%%%%%%%%%qQ%qQ%%%%%%%qQ%%%%%%qQ%%qQ%%%
131A93%%%%%%qQ%%%%%q%%%%Qq%Qq%%%%%%%%%Q%q%Q%q%%%%Q%%%%%%q%%%%%%%Qq%%Qq%%%%%%
115A85%%%%%%%%%%%%%%%%%%%%%%%%%%%%%%%%%%%%%%%%%%%%%%%%%%%%%%%%%%%%%%%%%%%%%%
99A85%%%%%%%%%%%%%%%%%%%%%%%%%%%%%%%%%%%%%%%%%%%%%%%%%%%%%%%%%%%%%%%%%%%%%%%
83A85%%%%%%%%%%%%%%%%%%%%%%%%%%%%%%%%%qQ%%qQqQ%%%qQq%Q%qQ%qQ%q%%QqQ%%%%%%%qQ
67A85%%%qQ%q%%QqQqQ%%%%%%%%%qQ%%%%%%%%q%%%%Q%q%%%%%Qq%%QqQqQ%q%%%%%%%%Qq%Q%q
51A77QqQq%%%%%%%%Qq%%%Qq%%%%%%%%%%%%%%%%%%Qq%%%%%%%%%%%%Qj6J6q%%%Q%j6%QK4j6%
35A85j6QqJ6qQq%%qQ%%%%%Qq%%%%%Qq%%%%%%%%%%%%%%%%%%%%%%%%%%%%%%%%%%%%%%%%%%%%
20A77%%%%%%%%%%%%%%%%%%%%%%%%%%%%%%%%%%%%%%%%%%%%%%%%%%%%%%%%%qQqQ%%%%%%q%Qq
3A69Q%%%%%%%%%%qQqQ%qQ%qQ%%%%%qQ%%qQ%qQq%QqQ%%q%%%%QqQ%q%%%QqQq%%%%QqQq%%%%%
-13A69%%%%%QqQq%Q%%%qQq%%%%%%%%QqQ%%qQq%%%%%%%QqQq%Q%q%QqQq%%%%%%%%%%%%%%%%%
-29A69%%%%%%%%%%%%%%%%%%%%%%%%%%%%%%%%%%%%%%%%%%%%%%%%%%%%%%%%%%%%%%%%%%%%%%
-45A69%%%%%%%%%%%%%%%%%%%%%%%%%%%%%%%%%%qQ%%%%%%%%%%%%%%%%%%%%%%%%%%%%%%%%%%
-61A69%%%%%%%%%%%%%%%%%%%%%%%%%%%%%%%%qQ%%%%%%%q%Q%%%%%%%%%%qQ%%%%%%%%%%%%%%
-77A69%%%qQ%%%%%%%qQ%q%Q%q%%%%Q%%q%Q%%%qQqQq%%Q%%qQ%q%QqQq%%%%%QqQ%qQ%%%qQq%
-93A61%Q%qQ%%qQq%%Qq%%%%%%%%%%%%%%%%%%%%%%%%%%%%%%%%%%%%%%%%%%%%%%%%%%%%%%%%
-109A61%%%Qq%%%Qq%%%%%%%%%%%%%%%%%%%%%%%%%%%%%%%%%%%%%%%%%%%%%%%%%%%%%%%%%%%
-125A61%%%%%%%%%%%%%%%%%%%%%%%%%%%%%%%%%%%%%%%%%%%%%%%%%%%%%%%%%%%%qQ%%%%%%%
-141A61%%%%%%%%qQ%%%qQ%%%%%%%%%%%%%%%%%%%%%%%%%%%%%qQ%%%%%%%%%%%%%%qQ%%%%%%%
-157A61%%%%%%%%qQqQqQ%q%%Q%%%%q%%%%%Q%%qQqQqQqQqQ%q%%%Qq%%%%%Q%%q%Q%%qQq%%Qq
-172A53Qq%Q%%%%%qQ%q%%%QqQ%q%%%%%%%%%%%%Qq%%%%%%%%%%%%%%%%%%%%%%%%%%%%%%%%%%
-188A53%%%%%%%%%%%%%%%%%%%%%%%%%%%%%%%%%%%%%%%%%Qq%%%qQ%Qq%%%%%%%%%%%%%%%%%%
-204A53%%%%%%%%%%%%%%%%%%%%%%%%%%%%%%%%%%%%%%%%%%%%%%%%%%%%%%%%%%%%%%%%%%%%%
-220A53%%%%%%%%%%%%%%%%%%%%%%%%%%%%%%%%%%%qQ%%%%%%%%%%%%%%%%%%%qQ%%%%%%%%%%%
-236A53%%%%%%%%qQ%qQ%%%%%%%qQ%%%%%qQ%%%qQ%%%%%%%q%%Q%%%%%qQ%%%%%%%%%qQ%%qQ%q
-251A45Qq%Q%%%%%%%%%%qQqQqQ%%%qQ%%qQ%qQ%%qQqQqQq%%%%%%Q%%%%qQ%%q%%Q%%qQq%%Qq
-267A45%%%%%QqQ%qQ%%%q%%Qq%%%%%%%%Qq%%%%%Qq%%%%%%%%%%%%%%%%%%%%%%%%%%%%%%%%%
-283A45%%%%%%%%%%%Qq%%%%%%%%%%%%%%%%%%%%%%%%%%%%%%%%%%%%%%%%%%%%%%%%%%%%%%%%
-299A45%%%%%%%%%%%%%%%%%%%%%%%%%%%%%%%%%%%%%%%%%%%%%%%%%%%%%%%%%%%%%%%%%%%%%
-315A45%%QqQqQq%%%%%%%%%%%%%%%%%%%%%%%%%%%%%%%%%%%%%%%%%%%%%%%%%%%%%%%%%%%%%
-330A45%%%%%%%%%%%%%%%%%%%%%%%%%%%%%%qQ%%%%%%%%%%%%%%%%%%%%%%%%%%%%%%%%%%qQ%
-346A45%qQ%%qQ%%qQ%%%%%%%%%%%qQ%%%%%qQ%qQ%%%%qQqQ%%qQ%%%%%q%%%QqQ%qQ%%%qQq%%
-362A37%%QqQq%%%Q%q%Q%qQ%%%%qQqQq%%%%Q%qQ%%qQ%q%Q%%%%%q%Q%%q%%Qq%%%%%%%%%%%%
-378A37%%%%%%%%%%%%%Qq%%%%%%%Qq%%%%%%%%%%%%%%%%%%%%%%%%%%%%%%%%%%%%%Qq%%%Qq%
-394A37%%%%%%%%%%%%Qq%%%%%%%%%%%%%%%%%%%%%%%%%%%%%%%%%%%%%%%%%%%%%%%%%%%%%%%
-409A37%%%%%%%%%%%%%%%%%%%%%%%%%%%%%%%%%%%%%%%%%%%%%%%%%%%%%%%%%%%%%%%%%%%%%
-425A37%%%%%%%%%%%%%%%%%%%%%%qQ%%qQqQ%%%q%%J6qQj6Q%qQqQ%%%%%%%%%%%%%%%%%qQ%%
-440A37%%%%%%%%%%%%%%%%%%%%%%%%%%%%%%%%%%%%%%%%%%%%%%%%%%%%%qQ%%%q%Q%qQ%%%qQ
-456A37%%qQ%%%%%q%Q%qQ%%%qQqQqQq%Qq%%Q%%qQqQqQ%%%%qQ%%%%%%%qQ%%%%%%%qQ%%qQqQ
-472A37%%%q%QqQ%%%qQ%%%%qQ%%qQ%%%%%%qQq%Q%%%q%Qq%Qq%%%%Qq%%Qq%%%Qq%%%%%%%%%Q
-488A37q%%%%%%Qq%%%%%%Qj6Q%%%%%%%%%Qq%%%Q%q%%%%%%%Qq%%%%%%%%%%%%%%%%%Qq%%%%%
-503A29%%QqQq%%%QqQq%Qq%%%%%Q%%qQq%QqJ6qj6QQ%J6l2Q%%%%%%QqQq%%Qq%%%%%%%%%%%%
-518A29%%%%%%%%%%%%%%%%%%%%%%%%%%%%%%%%%%%%%%%%%%%%%%%%%%%%%%%%%%%%%%%%%%%%%
-534A29%%%%%%%%%%%%%%%%%%%%%%%%%%%%%%%%%%%%%%%%%%%%%%%%%%%%%%%%%%%%%%%%%%%qQ
-550A29%%qJ6q%%q%Q%%%%%%%%%%%%%%%%%%%%%%%%%%%%%%%%%%%%%%%%%%%%%%%%%%%%%%%%%%
-565A29%%%%%%%%%%%qQ%%%%%%%qQ%%%%%%%%%%%%%%%%%%%%%%%%%%%%%%%%%%%%qQ%%%%%%%%%
-581A29%%%%%%%%%%%qQ%%%%%%%%%%%q%Qq%%Qq%Qq%Q%%q%QqQq%Q%%%%q%Q%%qQqQq%%%%Qq%%
-597A21Q%q%Q%qQ%%qQ%q%%Q%qQq%%%%%%%%%%%%%%%%%%%Qq%%Qq%%Qq%%%%Q%q%%%%%%%%%%%%
-613A21%%%%%%%Qq%%%%%%%%%%%%%%%%%%%%%%%%%%%%%%%%%%%%%%%%%%%%%%Qq%%%%Qq%%%%%%
-629A21%%%%%%%%%%%%%%%%%%%%%%%%%Qq%%%%%%%%%%%%%%%%%%%%%%%%%%%%%%%%%%%%%%%%%%
-644A21%%%%%%%%%%%%%%%%%%%%%%%%%%%%%%%%%%%%%%%%%%%%%%%%%%%%%%%%%%%%%%%%%%%%%
-660A21%%%%%%%%%%%%%%%%Qq%%%%%%%%%%%%Qj6J6q%qQ%%%%%%qQ%%%%%%%%%%%%%%%%%%%%%%
-676A21%%%%%%%%%%%%%%%%%%%%%%%%%qQ%%%%%%%%%%%%%%qQ%%q%Q%qQ%%%%%%%%%%%%%%%%%%
-691A21%%%%%%%%%%%%%%%%%%%%%%%%qQqQ%qQ%%q%Qq%QqQ%%%%%qQ%%%%qQ%%%%%%%%%%qQ%qQ
-707A21%%qQ%%q%Q%%%qQqQ%qQ%qQqQq%Qq%%%Q%qQ%%%%%%%%%%%q%%%Q%qQqQ%q%%Q%q%Q%qQq
-723A13Q%qQ%%%%%%%%%%%qQ%%%%%%%%qQ%%%%q%Qq%Q%%qQqQ%%q%%Q%qQq%%%%%%Qq%%Qq%%Q%
-739A21qQq%%%%%%%%%%%%%Qq%Q%q%Qq%%%%Qq%%%%%%QqQqQ%%%%%%%%q%Q%q%%%%%%%%%%%%%%
-754A13Qq%QqQq%%%QqQq%%%%%%%%%%%%%%%%%%%%%%%%%%%%%%%%%%%%%%%%%%%%%%Qq%%%%%%%
-770A13%%%%%%%Q%q%%%%Qq%%%%%%%%%%%%%%%%%%%%%%%%%%%%%%%%%%%%%%%Qq%%%%%%%%%%%%
-786A13%%%%%%%%%%%%%%%%%%%%%%%%%%%%%%%%%%%%%%%%%%%%%%%%%%%%%%%%%%%%%%%%%%%%%
-802A13%%%%%%%%%%%%%%%%%%%%%%%%%%%%%%%%%%%%%%%%%%%%%%%%%%Qq%%%%%%%%%%%%%%%%%
-818A13%%%%%%%%%%%%%%%%%%%%%%%%%%%%%%%%%%%%%%%%%%%%%%%%%%%%%%%%%%%%%%%%%%%%%
-833A13%%%%%%%%%%%%%%%%%%%%%%%%%%%%%%%%%%%%%%%%%qQqQ%%%%%%%%%%%%%%%%%%%%%%%%
-849A13%%%%%%%qQ%%%%%%%%%%%q%Q%%%%%%%%%%q%Q%q%Q%q%QqQq%QqQqQq%QqQ%%%%%%%%%%%
-865A13%qQq%Q%%%%%%%%qQqQ%qQ%%%%%%qQ%%%qQqQ%%%qQq%Q%%%%%%qQ%%qQ%q%Q%%%%%q%Q%
-881A13q%Q%qQ%q%%Q%q%Qq%%%%Qq%%Qq%%%Q%%q%Q%q%%Qq%QqQ%%%%%q%Q%%%q%Q%%%%%%qQq%
-897A05%%Q%qQ%qQq%QqQ%%k4J6%J6k4J6J6qj6Qqk4J6J6qQq%%Q%Qq%qQj6Q%%%QqQ%%q%%%%Q
-910A13q%%%Qq%Q%%qQq%QqQq%%%%Qq%%%%%QqQ%qQq%Qq%%%%%%Qq%%%%Qq%%%%%%%%Qq%%%%%%
-926A05%%%%%%%%%%%%%%%%%%%%%%%%%%%%%%%%%%%%%%%%%%%%%%%%%%%%%%%%%%%%%%%%%%%%%
-941A05%%%%%%%%%%%%%%%%%%%%%%%%%%%%%%%%%%%%%%%%%%%%%%%%%%%%%%%%%%%%%%%%%%%%%
-957A05%%%%%%%%%%%%%%%%%%%%%%%%%%%%%%%%%%%%%%%%%%%%%%%%%%%%%%%%%%%%%%%%%%%%%
-973A05%%%%%%%%%%%qQ%%%%%%%%q%Q%%%%%Qq%Qq%%%%%%%%%%%%%%%%%%%%%%%%%%%%%%%%%%%
-989A05%%%%%%%%%%%%%%%%%%%%%%%%%%%%%%%%%%%%%%%%%%%%%%%%%%%%%%%%%%%%%%%%%%%%q
-1005I7Q%%%%%%%%%%%%%%%%%%%%%%qQ%%%%%%%qQ%%%%%qQ%%%qQ%%%%%%qQ%%qQ%%%qQ%%qQqQ
-1020A05%%qQq%Q%%%qQ%qQq%%%Q%%%%%%%%%%%%%%%%%%%%qQqQq%%Q%%%%qQq%QqQ%qQ%%%%%%
-1036A05qQ%%qQqQ%%%%%%qQ%%q%%Qq%Q%%%%%%%%qQ%%%%%%%%%qQ%%%%q%%%%%%%QqQ%q%%Q%q
-1052I7%Qq%%Q%q%%Q%%%%%%qQ%qQ%q%%Qq%%%%%%%%%%Qq%%%%%%%%%%%%%%%%Q%q%%%%%%%QqQ
-1067A05qQ%q%%%%Qq%QqQq%%%%Q%%%q%%%Qq%%%%%%Q%%q%Q%%%%%q%%Q%%q%%QqQq%%%%%Qq%%
-1083I7%%%%%%%%%%%%%%%%%%%%%%%%%%%%%%%%%%%%%%Qq%%%%%%%%%%%%%%%%%%%%%Qq%%%%%%
-1099I7%%Qq%%%%%%%%%%%%%%%%%%Q%%%%%q%%%%%%%Qq%%%%%%%%Qq%%%%Q%q%%%%%%%%%%%%%%
-1115I7%%%%%%%%%%%%%%%%%%%%%%%%%%%%%%%%Qq%%%%%%%%%%%%%%%%%%%%%%%%%%%%%%%%%%%
-1130I7%%%%%%%%%%%%%%%%%%%QqQq%qQQj6Q%%%%%%%%%%%%%%%%%%%%%%%%%%%%%%%%%%%%%%%
-1146I7%%%%%%%%%%%%%%%%%%%%%%%%%%%%%%%%%%%%%%%%%%%%%%%%%%%%%%%%%%%%%%%%%%%%%
-1162I7%%%%%%%%%%%%%%%%%%%%%%%%%%%%%%%%%%%%%%%%%%%%%%%%%%%%%%%%%%%%%%%%%%%%%
-1177I7%%%%%%%%%%%%%%%%%%%%%%%%%%%%%%%%%%%%%%%%%%%%%%%%%%%%%%%%%qQ%%%%%%%%%%
-1193I7q%Q%%%%%qQ%qQ%%%%%qQ%%qQqQ%%%%%%%%%q%%%%Q%%%%%%%%%%%%%%%%%%%%%%%%%%%%
-1209I7q%%%%QqQ%%%%%%%%q%%%Q%q%Q%qQ%%qQ%%q%Q%%%%%%%%%%%%%%%%%%qQ%qQ%%qQq%QqQ
-1225I7%%%%%%%%%%%qQqQ%%qQ%%%qQq%Q%qQ%%%qQ%%%%%%%%%%%%%%qQq%Q%qQ%qQ%%%%qQq%Q
-1241I7%%%%q%Qq%Qq%Qq%%%%%%%%%%%%%QqQq%Q%qQq%%%
-1250H9
##$OBSERVED MULTIPLETS=	(I, X, Y, Hs, Vs, An, H, C, N, (J))
$$ I: Multiplet Index
$$ X: Strt Coordinate
$$ Y: End Coordinate
$$ Hs: Horizontal Chemical Shift
$$ An: Normalised Integral Area
$$ H: Hydrogens
$$ C: Category
$$ N: Name
$$ (J): Coupling Constants
(1, 73.035212317158283213, 73.156405870217326992, 73.095809093687805102, 0.61818209321054640171, 1, s, 3)
(2, 55.859861127528390057, 55.981054654457636843, 55.92045789099301345, 1.1272727888768310223, 1, s, 1)
(3, 22.726944052074255609, 22.848137566278762023, 22.787540809176508816, 2.2545451179126221319, 2, s, 4&comma;5)
##$OBSERVED MULTIPLETS AREAS=	
(1, 0.85836013675491285024)
(2, 1.5652443444214294566)
(3, 3.1304880503429375338)
##$OBSERVED MULTIPLETS PEAKS=	(I, X, Y)
$$ I: Multiplet Peak Index
$$ X: Peak x Position
$$ Y: Peak Intensity
(1, 73.095809093687805102, 0.082569420337677001953)
(2, 55.92045789099301345, 0.15056774020195007324)
(3, 22.787540809176508816, 0.30113545060157775879)
##$PREDICTED PEAKS=	(X Y T A)
(55.91486542748956623,  , 3.7999999999999998224, <1>)
(73.086891653296149229,  , 6.0999999999999996447, <3>)
(22.785114634795931465,  , 3, <4>)
(22.785114634795931465,  , 3, <5>)
##$PREDICTEDCOUPLINGCONSTANTS=	J(A,B)	$$ (Hz)
140.28(1, 1)
4.08(1, 3)
0.44(1, 4)
0.44(1, 5)
4.08(3, 1)
140.4(3, 3)
3.49(3, 4)
3.49(3, 5)
0.44(4, 1)
3.49(4, 3)
124.24(4, 4)
0.44(5, 1)
3.49(5, 3)
124.24(5, 5)
##END=		$$ NMR SPECTRUM
##TITLE=	Predicted 13C NMR Spectrum
##JCAMP-DX=	6.0	$$ MestReNova 17.0.0-41178
##DATA TYPE=	NMR PEAK TABLE
##DATA CLASS=	PEAK TABLE
##BLOCK_ID=	4
##ORIGIN=	Mestrelab Research S.L.
##OWNER=	ctheodore
##CROSS REFERENCE=	NMR SPECTRUM: BLOCK_ID=3                                     
##.OBSERVE FREQUENCY=	125
##.OBSERVE NUCLEUS=	^13C
##NPOINTS=	3
##FIRSTX=	22.787540809176508816
##LASTX=	73.095809093687805102
##XFACTOR=	1
##YFACTOR=	1
##FIRSTY=	0.30113545060157775879
##XUNITS=	PPM
##YUNITS=	ARBITRARY UNITS
##PEAK TABLE=	(XYW..XYW)
22.787540809176508816,0.30113545060157775879,0.012119351420450657358
55.92045789099301345,0.15056774020195007324,0.012119352692925218842
73.095809093687805102,0.082569420337677001953,0.012119355305903717346
##$MNOVA/PEAK_DATA_TABLE=	(T,F,A,ST,SP,APT,APC)
$$ Complementary to PEAK TABLE
$$ T: Type
$$ F: Flags
$$ A: Annotation
$$ ST: Shape Type
$$ SP: Shape Parameter
$$ APT: Attached Peaks Type
$$ APC: Attached Peaks Count
Compound,None,,0,0,0,0
Compound,None,,0,0,0,0
Compound,None,,0,0,0,0
##END=		$$ NMR PEAK TABLE
##END=		$$ LINK
