##TITLE=	benzene 1h
##JCAMP-DX=	6.0	$$ MestReNova 17.0.0-41178
##DATA TYPE=	LINK
##BLOCKS=	4    
##ORIGIN=	Mestrelab Research S.L.
##OWNER=	ctheodore
##$MNOVA/METADATA=	(DOCUMENT,BASE64)
eyJuYW1lIjoiL1VzZXJzL2N0aGVvZG9yZS9Eb2N1bWVudHMvY2xhc3Nlcy9OTVIgZXhwZXJpbWVudC9
naXRodWIgZmlsZXMvYmVuemVuZS9iZW56ZW5lIDFoLm1ub3ZhIiwicGFnZXMiOlt7Iml0ZW1zIjpbIj
EiLCAgICAgICAgICAgICAgICAgICAgICAgICAgICAgICAgICAgICAiMyIgICAgICAgICAgICAgICAgI
CAgICAgICAgICAgICAgICAgICAgXX1dfQ==
##TITLE=	
##JCAMP-CS=	3.7	$$ MestReNova 17.0.0-41178
##BLOCK_ID=	1
##ORIGIN=	Mestrelab Research S.L.
##OWNER=	ctheodore
##$MNOVA/METADATA=	(ITEM,BASE64)
eyJhbmdsZSI6MC4wLCJwb2ludHMiOlt7IngiOjUzMjEuMCwieSI6NTgzNS4wfSx7IngiOjU2MzAuMjU
3OTIzODM5NDIyLCJ5Ijo1ODM1LjB9LHsieCI6NTYzMC4yNTc5MjM4Mzk0MjIsInkiOjYwODcuNzE2Mj
k2OTAwNDI5fSx7IngiOjUzMjEuMCwieSI6NjA4Ny43MTYyOTY5MDA0Mjl9LHsieCI6NTMyMS4wLCJ5I
jo1ODM1LjB9XSwieiI6MS4wfQ==
##NAMES=	
##ATOMLIST=	
$$ AN	AS	NH
	1	C	1
	2	C	1
	3	C	1
	4	C	1
	5	C	 
	6	C	1
	7	H	 
##BONDLIST=	
$$ AN1	AN2	BT
	1	2	S
	2	3	D
	3	4	S
	4	5	D
	5	6	S
	6	1	D
	5	7	S
##MAXRASTER=	32768
##XY_RASTER=	
$$ AN	X	Y	Z
	1	-32768	-12612	0
	2	-32768	12612	0
	3	-10921	25224	0
	4	10921	12612	0
	5	10921	-12612	0
	6	-10921	-25224	0
	7	32768	-25224	0
##END=		$$ JCAMP-CS
##TITLE=	Predicted 1H NMR Spectrum
##JCAMP-DX=	6.0	$$ MestReNova 17.0.0-41178
##DATA TYPE=	NMR PEAK ASSIGNMENTS
##DATA CLASS=	ASSIGNMENTS
##BLOCK_ID=	2
##ORIGIN=	Mestrelab Research S.L.
##OWNER=	ctheodore
##CROSS REFERENCE=	STRUCTURE: BLOCK_ID=1                                     
NMR SPECTRUM: BLOCK_ID=3                                     
##.OBSERVE FREQUENCY=	500
##.OBSERVE NUCLEUS=	^1H
##NPOINTS=	6
##XUNITS=	PPM
##YUNITS=	ARBITRARY UNITS
##PEAKASSIGNMENTS=	(XYWA)
(7.2742916801433130658, 0.24283803999423980713, 0.00075137114105405800046, <1>)
(7.2742916801433130658, 0.24283803999423980713, 0.00075137114105405800046, <2>)
(7.2742916801433130658, 0.24283803999423980713, 0.00075137114105405800046, <3>)
(7.2742916801433130658, 0.24283803999423980713, 0.00075137114105405800046, <4>)
(7.2742916801433130658, 0.24283803999423980713, 0.00075137114105405800046, <6>)
(7.2742916801433130658, 0.24283803999423980713, 0.00075137114105405800046, <7>)
##END=		$$ NMR PEAK ASSIGNMENTS
##TITLE=	Predicted 1H NMR Spectrum
##JCAMP-DX=	6.0	$$ MestReNova 17.0.0-41178
##DATA TYPE=	NMR SPECTRUM
##DATA CLASS=	XYDATA
##BLOCK_ID=	3
##ORIGIN=	Mestrelab Predictor, Modgraph NMRPredict Desktop
##OWNER=	ctheodore
##NUMDIM=	1
##$MNOVA/METADATA=	(ITEM,BASE64)
eyJhbmdsZSI6MC4wLCJheGVzIjp7IngiOnsibWF4IjoxMi41MDAwNzgxMjU0ODgyODUsIm1pbiI6MC4
wMDAxOTA3MzYwNTUzODE1OTYxNH0sInkiOnsibWF4IjowLjI2NzEyMTg0Mzk5MzY2MzgsIm1pbiI6LT
AuMDI0MjgzODAzNDc0NjcyODV9fSwicG9pbnRzIjpbeyJ4Ijo1MzIxLjAsInkiOjU4MzUuMH0seyJ4I
jo4NzIyLjAsInkiOjU4MzUuMH0seyJ4Ijo4NzIyLjAsInkiOjgyMDguMH0seyJ4Ijo1MzIxLjAsInki
OjgyMDguMH0seyJ4Ijo1MzIxLjAsInkiOjU4MzUuMH1dLCJ6IjowLjB9
##.OBSERVE FREQUENCY=	500
##.OBSERVE NUCLEUS=	^1H
##.SOLVENT NAME=	DMSO-d6
##.PULSE SEQUENCE=	
##.ACQUISITIONMODE=	SIMULTANEOUS (DQD)
##$ORIGINAL FORMAT=	Predictor
##$MNOVA/SCALES_VERSION=	9
##$PARAMETER FILE=	(parameters, ASCII, , 0)
$$ <?xml version="1.0" encoding="utf-8"?>
$$ <PredictorParameters>
$$     <Title>Predicted 1H NMR Spectrum</Title>
$$     <Origin>Mnova: NMR Prediction</Origin>
$$     <Name>Mestrelab Predictor, Modgraph NMRPredict Desktop</Name>
$$     <Version>1.7, 1.22 (5.076)</Version>
$$     <Nucleus>1H</Nucleus>
$$     <Solvent>DMSO-d6</Solvent>
$$     <From>0</From>
$$     <To>12.5</To>
$$     <Frequency>500</Frequency>
$$     <LineWidth>0.75</LineWidth>
$$     <Size>65536</Size>
$$     <DEPT>0</DEPT>
$$     <ProtonatedCarbons>0</ProtonatedCarbons>
$$     <ExcludeLabile>true</ExcludeLabile>
$$     <FastPrediction>0</FastPrediction>
$$     <ProtonDecoupled>0</ProtonDecoupled>
$$     <Reference/>
$$     <Options>
$$         <Settings>
$$             <Predictor Name="Mestrelab Predictor">
$$                 <Settings>
$$                     <Model>/Applications/MestReNova.app/Contents/Resources/data/1H.mbst</Model>
$$                 </Settings>
$$             </Predictor>
$$             <Predictor Name="Modgraph NMRPredict Desktop">
$$                 <Settings>
$$                     <Algorithm hoption="2" hsolvent="1" usnucleus="1">Fast Increments</Algorithm>
$$                     <JsAlgorithm>Fast Increments</JsAlgorithm>
$$                     <NMRSOAPDIR>/Applications/MestReNova.app/Contents/Resources/NMRPredict</NMRSOAPDIR>
$$                     <NMRTEMPDIR>/private/var/folders/3f/5b3_td5j7k3f1lyt31390d3jfxj842/T/NMRPredict-1574477954</NMRTEMPDIR>
$$                     <NMRUSDATABASEDIR>/Users/ctheodore/Library/Application Support/Mestrelab Research S.L./MestReNova/NMRPredict/NMR1HDatabase</NMRUSDATABASEDIR>
$$                     <Databases>ABCDEFGHIJKLMNOPQRSTUVWXYZ</Databases>
$$                 </Settings>
$$             </Predictor>
$$         </Settings>
$$     </Options>
$$     <MoleculeID>{d9dac1ca-8c69-4c6c-9e61-47e2c314b702}</MoleculeID>
$$ </PredictorParameters>
$$ 
##XUNITS=	HZ
##YUNITS=	ARBITRARY UNITS
##FIRSTX=	6250
##LASTX=	0.095367431640625
##DELTAX=	-0.095367431640625
##XFACTOR=	1
##YFACTOR=	1.1308027436366308224E-10
##FIRSTY=	9.7388692665845155716E-09
##MINY=	5.2475113143657381443E-10
##MAXY=	0.24283803999423980713
##NPOINTS=	65536
##XYDATA=	(X++(Y..Y))
6250H6qPkKqK%%JK%kLkLnNkJ%%kJJkK%%%k%KjjKk%%j%K%JlJ%%jJkLkJjJ%%LkkKKlKkJJ%j%
6243H2%lKMjljLj%%jJ%j%%JJ%jJkK%%%%J%jkJKjJljJJKl%KjjJ%JlLkJ%J%JkJjJJ%Jmk%NlJ
6237H2kM%jjJkJJ%%%kjMjkKLkjkLkkKKkKkjLlJ%j%JkKjJjKlKjMk%kJJlK%JkmLKkKjjJ%Kj%
6230H2Jjj%%%KJj%jjJ%%KjkMmK%jJ%jJjJj%jJmLMjljLJl%NlnL%%kjOKjm%%%LmKKJmLkJkJK
6223H4kLk%%j%%J%%%LnMmKJkKjkKjKj%%%jlMkJ%KJl%J%jKjj%%%%JJ%%%mK%%k%L%kJkKjJjK
6217H3j%kKlNjlJJkL%%j%j%kJJkKK%kjKj%JlLKj%kKKnKKjjkLjkL%jJ%lK%%JJk%Lm%Kj%J%j
6210H2JKlJKk%jJJj%jJ%JJkjjL%jJj%kLj%%JjJjkKkJ%KjkKjJkJJ%%%jKjkLj%kJMkjKlKkkK
6203H2%%JjJ%JKlkLJj%%KllMjLJkKkl%KoNMlJmNkj%JJ%jj%%%Kk%jjJJkJJ%%K%jkKJ%lJ%jJ
6197H3%%Jjj%KjJlJJJj%Jk%MlkkOnNmLkJJj%%%jkLj%j%%%J%JkKkLj%%lNjlKjJjJ%jJjjL%l
6190H1JKmKJ%%JkJ%jkJKj%MmMnKkJK%jjJjKkkLj%j%%jJJk%L%jJjKkJ%%kK%jJjJ%%%kK%j%J
6183H3jLl%kMlLkKl%%KlNnMjlKJjJkLl%JkLjJ%j%mLJKJm%kMlL%%kKJlJJJpNKlNnRrLKpNLp
6177H0Rj5kLMlLmkMKRKj0L%oOK%jjJ%jJkKkjlMKKn%JlMj%KmM%k%KKj%k%%Ln%LjJJJljJKJn
6170H1JKjK%jJlJKkKj%%JlKj%KkJJjJl%jOlKkKkJjj%Lk%kKj%%JlK%jJjJj%MmJJ%%mN%l%JJ
6163H4%kJ%JkLkjj%LkKJjlKjKj%LjjkKjlKJ%%%jKjj%kMjjJ%JlJLjjJ%jlLJj%mNjjjMkJkJ%
6157H3J%jKkJ%jJ%%j%j%%JJjKmK%JjjK%%%%jK%%jkMmNmKJ%JllO%JjqN%%mRoJj%jjM%kJlLJ
6150H5Jjj%LjkJ%Klj%LlKkLk%%K%k%Kk%K%jJkKJ%k%jjLjLkkkNkKj%%j%JmMjk%Kj%jJJ%j%%
6143H4%jK%JJlJJnLkKJlK%kJK%lLJkKkJkJKjJlNokKJ%jkKJ%%jL%kkLkL%jlK%KjkJJ%Jk%j%
6137H2JKjKl%LlJJj%%JJkJ%jJkLlL%jJk%KlKj%KjjMjkjKKmJ%jJJk%%KkjJ%%KkJkjLlLKk%j
6130H4K%%%%kKkjLmMJlNnJMn%JLKjjkMjlmjKLkkOlLjlJKlJKmLjjjJ%jJ%KLmkM%jJkLmKj%%
6123H5%KjjJ%jkK%JlJjKKlJjkN%lj%MjkK%%%J%l%KJkK%kJjJ%%%jJjJKkKk%%JlJJ%j%%KlKk
6117H4%KjkJLl%JJnOoOm%mLjLKJk%%%%jKjKk%%%%JkJjJJjJjJ%jJJJmJ%j%%jKj%JjLkj%k%K
6110H4%Jj%lMJKlJ%lMj%KlKk%kLjLkJk%jj%JJJkJjKjJLk%%j%kLjJkjJ%K%jjJjJmMjJjKoLL
6103H7%mjmOkjK%KK%jJkJJ%JlkJLlMlKkK%%jJjk%KjJkKkK%kJ%Jj%jJJJ%%j%%KkJkj%K%jjK
6097H6%Kjj%%Jj%%%J%%jkMkj%LkjJ%jKkKjK%%mKJjjKJjjK%kjJJJlKjj%%JJmM%%lMj%jKjkK
6090H7%kjJjK%JkKmMkJKlJJjjJ%j%K%mLKjlL%jj%KjjJkKkJ%JjJJjJJk%lKKjKkJk%JjkK%%%
6083H5kJ%%K%Jl%%JKkJjkJjLmK%%jLlLjkKjLjK%%mjJkQj%lkMnPlkJJ1j5MkNk%ojMJJljNkK
6077H7oNJ%JkJm%JJNn%K%jJk%%%JKkJkKjlMkJJjLk%%jjK%JjkJJ%%lK%%%%jJjJJlLjJjjK%k
6070H5JJjKkJJk%Ml%jLj%jJJjj%JjKlKlKjLjlMJnkLjJJjLk%KljLj%JjkLjJ%jjJjJjJ%kKkK
6063H7kLKjkjJKmL%j%%JJjj%jJkJ%%jLkj%JLjl%Kkj%MjKlJ%jLjJmK%KmK%%kK%lL%jJnMjMj
6057H8jJmKJjjMk%jjL%kJj%lL%%LljOmjQmlNrOk%KmMjk%Lj%j%Ljkj%JjJ%%jjLj%jMmKJk%j
6050H6K%%JjJjj%J%jkK%%%%JKlKk%jNm%JKkj%lNljK%jjJJkLlJ%Jk%L%kkNk%JjjJj%KJkKkj
6043H6jJJKlKk%Jl%OkkKjOnl%LjJ%kJ%KJjlJj%JjLj%%JkjJJj%Jj%%%JlLkJ%%%Jk%JkK%%jJ
6037H7%k%JMlkJ%%%%J%jJ%Jj%jJ%J%kjJ%KjJkJjKjjKjJk%K%%KkJ%lLjJkjJj%%J%jJJlJLmj
6030H4JQKnoMjrMOjJ%kL%mLJJjjlLjKjJJ%kLmJKlKMnJLljKlK%%k%J%jJJjJ%Jj%JkKlj%KK%
6023I0lK%j%JkJK%%jkJKnN%lJj%LmLlKlLJJlKJjkKlJ%J%%%KmJJ%KjlMjJkJJmjMkkLjjKKj%
6017H9lK%%%KjmL%kK%%%Kj%kLjjJjj%LkJj%%%jJ%%%lJ%J%jKkJ%Jk%%KjJKn%OoMj%JmK%kLk
6010H6KkKjJ%%%jJjKjK%%%mMjLmKj%jKj%%JmKKK%j%kkJNllLlJ%MoKkQrMjjjjOnKj%JkKJkK
6003H9Jm%jKJ%j%jJjKJ%j%JJkK%J%kKkmNJjkKk%JJjJlK%k%NnJkOnJ%kMlJJlKj%j%JJlJJMk
5997H9%%%kKjLnNkj%JJkJJjJKlJ%kJjK%kM%pLMjjljL%%%kKj%JjKkK%%k%kJMlMjjkJJ%jjL%
5990I1mKk%KjKjjJ%j%LkJ%KlKjjKJkJ%j%ljLjNnJJ%jK%mNkoPljKLlkKj%jKjJkjLmMlPjlKk
5983H9mJMJKoRln%OrKJ2pjomOJ6j1k6K4J8j4j2J1j3%J4J0k7J6LpPrLpMKKKmJjjNmlJKMk%n
5978H6%PljkLmM%k%%MjjkL%kjjNllNlKnOJ%nJKMrKLkKKmJjL%jJkJKmL%%%%j%%JJj%jkJJk%
5971H8J%%%%JkJjK%Ll%JnNJj%kKjj%kLMm%NkkkL%lJLlkJKkKkLjJJljMk%%%%%Jj%j%Kjj%%%
5965I0%%jKk%kKjJJK%%kKlJLkkKJkMmjjOlkL%%kJ%JlLjLmJJKmMl%KlKmjKJJjLjkjJjJKjJ%
5958I2lJkKjJJlKJjJ%KjllLLKoM%l%JjKjLlkLkLlJj%JKkKl%KjK%j%jJlL%jkMlLlJJjK%kKk
5951I0K%j%J%j%kMjkJjKkKk%JJjJmMjjJKmLj%JlKjKkJ%%kM%lJjjLj%KmLjjJj%Lj%jjKmKJk
5945H9lLjJkKjMJklN%jl%MlJJJjjjLk%%j%K%JjmMJmKJJjk%Jj%%%JjKj%JJl%%Ll%Lk%jJkJN
5938I5mkJ%%%%KlJjLkJKjj%%jJJJk%lMjJJlK%lMmLlLlMklJJJJjLm%%lNkNrJkOnqJ1LjjJjJ
5931I1JjjPp%L%%k%jL%jj%jLJ%jkKnMkM%lK%lJKJklLkJ%%JJj%%jkKJj%L%mjLjJ%lK%kJJ%K
5925I3k%%%%Kj%%%%lK%Jj%JJlJkLJj%JkJjK%j%JjjLjJmjJNoLkLnKJJlNmMjJmMk%%KlK%%jK
5918I4mKKkJ%%jj%JJJkjKmMjJ%lJ%%J%jKj%jJj%kKk%JLk%Jl%K%%JjjKjjK%JjjjKkLJkjJ%j
5911I1JKjk%%Jj%JJjkjLkKk%JJj%%JjJ%mNklQl%mKJJjjPokJJj%KjJkjLkj%LjjJ%Jjj%J%kK
5905I2jjK%JjjJ%lMjJkjM%lLlJ%%j%JLlJ%j%JJjlNk%%%Jj%%LnLjkKJ%jkLkKkKkJJjkJKk%%
5898I2Jj%%K%%JjjjKjjKJl%JLl%jJlKkMj%jLnNkjKjKk%%%JkLj%%j%JkLkjJkJKKk%kJkJJ%J
5891I4j%JJJl%jKjj%KkNnKmJ%L%kK%kjLk%Kj%mLjJJ%jJKmjL%JkJJ%kKJkLk%kKjkLJlKlKKk
5885I3jLlNqMkL%LpOnKl%j2J3J0plN%oK%jPkkjJkMlJnMjK%jJkKkLk%lKJj%Kj%lK%KkK%jjJ
5878I3%Ml%%Jl%jOnKkLoMJKmJJkKkKlJ%KkJJjKkJ%Kj%jJJkjLlJ%%%j%%KjJJKmjJjJKkJkLj
5872I5lMjkJKlMmNmMlkJkLKlKjkJj%JJj%jjL%%%%k%kMJ%kjJKkJkMlJj%kKjK%lLj%j%%LkJm
5865I1NkjjMk%KljJKjjJk%%LlMmKjjJKjJkKkJjKkK%%Kk%JjkKjKkKj%j%Kjj%mMjjKjNkNqOl
5858I6JkLklNnKJ%JkJJ%%j%KmK%%%Jk%%JLn%LkJ%kK%jJkKJjjKlLjjJj%lKKnLjLjjKk%%%jK
5852I5kKj%jKj%kK%JjjjKKl%kPlkJJjjJKjjKJnJ%JJJlNl%KjJkKkKkkJ%MoKKkKkKjjKj%jJk
5845I3%K%kjLjjK%%KmK%kLjj%K%jJj%j%J%kMlLl%%%KJkJJmPmJj%%kjLj%%JKmJkKJJkKj%%k
5838I4JjJJmKK%kLkK%JnJjMkjjLjLoOl%jJJJjk%lNLnLklOKq%Ojjj%%LmNjmKjjK%JjjKj%kJ
5832I5Jj%%JjjJJkJJjJ%JJjjjjJkMlKkK%j%NokJJ%%%%JjJJ%KkJ%jKkKjJjJk%jKj%Ll%KlJ%
5825I6JJLnJlKJkKkKk%kK%JJjk%JJjJk%K%%%kKMmKkMkkJjjJJJkJJjkJJJJljKj%JJlKJ%kJJ
5818I8j%jKk%JJjj%%Ljk%JKkJjjKjkJjKJjKkJkjMjkLk%jJlMlMmKjlLlJNllLJlNj%%%jkN%l
5812I7J%jJ%jkLJ%j%%J%KrNlO%m%LjJJjjjKl%kJKkKkL%%j%JjJ%kJJ%kJJkKJ%lLjj%J%%%%K
5805A00l%LmMjlJJ%%j%Kkj%Kj%Lk%kKJj%KjJlJjJjJjJkjKjKk%JkK%J%j%J%J%%%j%%%KlKmK
5798I7OmKmMjlkOkkJ%LjmKKk%JLmJk%JJjNn%KkjJKKlj%Kj%%jKmLj%%%J%j%jJ%K%lKl%Kjj%
5792I6JkMmLjJkKjJ%jJJj%%JlKmMjJjKmMmKLkjj%JK%%k%%%j%%KJ%NoMoNnjQMrnNPoomJ3Jp
5785I6kLoOjNlJ%kjKJJlKjK%jkMlJJKjmKJJlJkKKkKl%JlJJ%JjKk%jLlKKmJkM%nKJjLkJJk%
5778I8JjJj%%JjJ%JjJjjJJl%LmKJlJJJJmKJ%%%kKl%MkjKkJJkJlNlkLjJLoMmKJljKJ%KjjkK
5772I7J%%%%jJ%JKkjkKjLj%j%J%JjJJk%JJ%kJ%jjKJlKk%LnMjJKlLkj%KlLj%kJK%%k%jLkJj
5765I9%JjjK%%jKjKmLjj%JkL%kJKnKJj%LkjNpJKKpO%ljPl%lMkkKLmjLLljJj%%lJ%LjlKkLj
5758I9%%KJjkj%J%JkKjJJ%lKJk%%%%JKlkM%lJ%Lj%JJk%kLlJJ%j%j%%%JJjjJJkKj%KkjJ%%K
5752A02lK%j%%J%lKJ%jKj%mNm%JKkKmLKn%OlKmKJlJKjJjJ%kL%mjJK%j%Kk%jLJ%lK%kL%j%j
5745A00K%%jjkKJjJjJJlK%JKlkJjj%JLJl%Km%K%KkjKkK%%%JJj%JJjkJjLklMmK%jJKmMl%J%
5738A01K%oOl%jLjMpOKpnJ9j7PonNPkkjK%%JKnJLj%jJ%k%Lk%j%JkJJJJjJJljLljL%KmjKjJ
5732A01kKj%%LkkKlMjJk%Lk%JJjjJkLj%j%%%%j%%jLjkJLk%%JMmJkjJjK%k%J%j%%KkJj%Kk%
5725A00KkjJMlkM%JoOKknj%LkJKkJJjkKJkK%JkjKmL%%j%JKj%JKljJJkjKjK%lL%jjJK%kJ%k
5719A01jKLkjjJ%%%kK%k%KjJ%mNkLkJj%%JkMl%K%j%Jj%kJJ%kjLkMkkKj%JjKkkMj%kkMoMPj1
5712I7MMlNnJNnLkKnNl%%%Jjj%KJlJlLkLmOoJJLk%KjKkJ%j%lKJ%JjJljJ%J%j%mKL%jLk%jj
5706A01JKjJJjlKkK%%%%%kkKjJJ%%%kKjK%%k%%KKnL%jj%KkKlJLl%LjlMJkLpQl%Nj0M%%%Kj
5699A04J%j%jj%JKkJjjjKJlK%KmjKLjjJ%%j%LlJ%%JkjK%JkK%jJJlJlL%jJJmL%%%%%j%JkKj
5693A03jJ%%%%Jjj%kKLmKkKjKl%NkjkjMKjlJkLkjLlK%lNjj3J3mMPj6JRpPjOmlJJMm%KmMmJ
5686A04JlMmK%LllM%j%JlK%%JlLkJj%JkKkLKnJ%KlJKJ%jkJKnLK%Jk%KJk%%kJJjkMkJ%jjKj
5680A05%%%J%jJlKJ%%k%KjJjJkJJkJJjkJ%%J%LpOmNljjN%lnJKjJLlLkjKJjJJJmJJ%j%%JkJ
5673A05JjjjJLjkJKlJ%Kk%%%%J%Jj%kKJlKjLmJL%JlmM%kKkJ%%%k%K%%kLjjJjJJj%jKjJk%J
5667A05%%jK%%%j%Jj%JJjnM%k%JJMmjlM%J%%jOnqOPmjj%JkJ%jLlJ%%jJkLjKl%%%Lk%Jk%J%
5660A05JjKj%j%JkK%%JjJ%jkK%jJ%%kKkLKoLJ%%lJK%JjJjkjKjkLJJmJJLm%%JjJ%KkkLJkjJ
5653A06Jj%j%Kj%%kK%KlJLmKmMjjL%mL%lLkKjjK%jJkMkKlK%jkKlLjkJlLj%KjjJkKJjKjlNk
5647A06%j%%jJKlJKkkOjjmMjJJm%JLkJj%%kKKjj%JJlJJ%jK%kLmLj%KjklLKKkkjKjLnL%jkj
5640A03%QokKJKKkJKJmjNJj0MlOnL%LnKjMlJjKj%jjKj%Jl%%KkJKjjjJJJjjKkJJkKjj%jJJl
5634A05JKJk%K%jJk%KmJ%KjjJlJLlKJlL%l%Mkj%LjJkKjjjKjKk%JJJjJJl%%%j%%J%jjJ%%%K
5627A09jJjMmJJmJ%%JjJ%jJjjJJkJj%%jKJ%%lK%%j%LJmM%lJJ%JlJJ%kLjJ%Jk%kKlNjJj%kK
5621A10%%mM%%kj%Lk%JJJkkLj%kKJk%Kj%%%JlJjJJ%j%%KkkK%%JjJ%%%kkM%Lm%Nnj%%%JJkM
5614A11mjLJ%jj%J%kK%Kkk%JlMKl%lL%jJJKjkKkKjJJl%%%j%Ljk%LkJjLlLkKJmJKk%%JjKkK
5607A11jjmMJjkKjJJ%kjKJj%%J%jj%KJjkKkJJjJJlJ%%%%%JJj%J%j%%m%QnLmLKm%LjjlNjl%
5601A08LlLjj%JmJLkJkJ%%JJ%lMk%JjjMmJ%jJJj%J%jJjJjjJjkL%Kk%LlJ%Ljk%JkJlL%kJJ%
5594A10jJ%j%KmLmN%%kjLJkjNoLLmNnLkJ1j4O%Kj0RO%j3qNLjrQrKQM%j4J3rJ8lknjRmKjmJ
5588A11%J%KmJkKjMlJj%lNkKJlKmLj%JmNk%%JJljLlMmMkk%OmJjJlJ%KjjJJ%%jJj%K%jjJj%
5582A11KkJJjJj%JkJJkJLljJjJjJJjjJlJJ%JjlLlJjjLMkkLJlkK%jLj%%JkKjLk%k%L%k%jKj
5575A12J%kKlMl%JjJj%Lk%%MmKk%kJK%k%K%kLJJmjJKmJjJ%%%j%JJJjkMjjkJKkJjJJj%Jj%j
5569A11LmKj%J%jKKk%k%JkKj%LoL%JJjmLNllN%mKlJ%J%J%kKjkJK%j%J%lKkKJlJjKlJNl%%%
5562A12%jjLlLmLkjLLl%KJkLj%mLjKnLKmjMkJjKkjLJjkKjJj%jjLj%%%kJkL%%JJkJ%kKkK%j
5555A13%%jJjKJj%lM%Jj%jKjjkKjKJlK%jjjK%%J%l%jL%jJj%%j%KkJk%KJjKlKJlMl%jJKjk%
5549A12JjJ%Jjj%K%kK%kJ%%LmMk%jJ%JkJJkK%j%%%%%%jKkJ%%JjkMlj%KkkLKnMkLm%KJjjNm
5542A13JJ%jJkLlLlQokKnLjJ%kJMlkKMljkK%kL%Kj%jKm%KKkkNnKKk%KkJ%%%jjJKl%JKkj%L
5536A16%kJKljKJjjjL%kJJ%ljM%lLj%JlLjjJ%KkkJJJlLjJjj%K%kLk%%lLjJJ%lJJj%jjKJNn
5529A15%kJKl%JjjKjK%j%%JjjKkJJ%jjKkJJ%%JlJKj%jJ%jJJjKj%%kK%jKmKJ%mMj%JJjjJkj
5523A13J%K%jjJKk%Kj%jLmJ%Jk%Kl%LlKj%KJjJkJ%KkKjkJ%%JnNk%LljKLn%%KNmjQpMl%kJk
5516A15LJkJKlJkLlKjLmJ%Km%Kjj%L%kkLJj%K%k%j%JjjJJ%%JlJLkKkjJJJj%Jj%J%j%j%%Kk
5509A17Kk%JJkKj%%JkjJjLljJKkKjKjj%%JjjJ%jLjKmj%L%jJ%lKkL%KKo%%K%j%K%jj%%J%%%
5503A18%kJJj%Jj%KjjkLJk%%%JkL%%jjKjjJJ%kKj%j%Lj%j%J%jkJJ%jLm%Mj%JkJjkLlJJlKJ
5496A18jJljNjlLjkK%jKlOnKlLJJlNpNlJKlLNmkoJ2j5QlqJ3JlNKj0OnMmkKLlN%m%jJ%Lk%l
5490A15LJkjMlJJj%kK%%JkLjj%jJKk%J%%kJKj%lJJKnMlLk%Jj%KkK%Jjk%KkJ%KkkLj%%jKj%
5483A18jLjjKj%%JkJjJJlLjk%JK%kKjK%mNj%lJ%KjKnJ%KjJ%%jlKKlJ%%%%KkJ%%%kJJLlJkN
5477A23nJJjJj%Kk%%J%%jKkKkLjLmjjLlOmkjM%j%%JJj%JjjJjkLjJ%kJKkJk%LlLKnKkKjJkM
5470A23mK%%Kk%J%JlLJn%MknMlKlJ0qMnKJJjMqjMJLjjkJJjjLlKlJLlKkJ%j%Lj%J%jkK%%kL
5464A22mJJ%j%J%j%%KkLljJKjlOmMlkKjKkMlJkKJkJ%%K%j%jjJkMl%kKJj%LlJj%J%%J%k%KJ
5457A23%jkMj%%kJJnMKkmKK%kMlj%jKKj%kLjJjjJjjJ%Lj%j%JKlJJ%JjkJKmKJJl%jKJkJJkJ
5451A23kKj%JJjjKJkLkJjj%j%JJjJlK%%j%JjJjj%%Mk%lLJlJ%LkjJlJKjKj%lKLpKLJ%%JnNk
5444A23KjjpOkOk%kkjK%KKljJ%j%j%LJjJnJOlJlJJlKJ%%j%LmJJj%jKLl%jJ%%%kJjJLlK%kK
5437A24%j%%JjJj%%jKk%Kj%%JjLl%jK%Kk%JkJjJJj%%jJlNnK%jJkL%%jJlMkJjkLJljLkmLKK
5431A25jjKjjKkJkLj%kKkL%%jJkMkj%K%kJjJkLjkJJ%%%%JlJ%%%K%jKlKJjkjJLlMlKlJ%jK%
5424A26kLlK%JkJk%KjJjL%nKJlKjJKmMl%K%j%kKk%L%JkkMk%%JlKnRpMjJ%jJ%jJljjOlK%kK
5418A26%%kJjK%jk%LjLlJ%JjmJMkKjkKlMj%kLj%kJKk%JJjlLKlJKlMnKjJJk%%JJj%Jj%%jJj
5411A25JJ%kJJkK%j%%kMjjjJ%J%%%%jjJjJjKJj%%JljL%%JJkKnLkMkjKk%%%%%JJjj%JjKl%%
5405A25KJJlJkMk%jK%j%jkNj%jkKjLkJ%%k%KlNkJjmLJJ%jjJKjl%JjK%lLJkjKjKlKlMl%J%l
5398A24KjJjMoMJlOoJ%JjKJqKkJ0JnjRr%J2j2K2k8QoOj4K1nJ%jnPkJkm%JKKkKklJkPpOoKJ
5392A27JkKJMn%kKJJmK%jK%%Kkk%JJkjKJJmOl%k%%KkMl%JkKJlKjJlJKkJ%jKjjJlMj%j%Ljj
5385A28%KJlJKlLjj%%jLl%JjLjj%Lk%KnOoNjjlMlK%j%JkJJJmMkMljKJ%jJjJlM%k%JjJkjJ%
5379A30j%%JmJL%%KlJJ%jkK%kK%jJ%j%Kj%jKlMlJkJK%lK%jKj%j%JJmK%K%%%l%JlMj%%JlK%
5372A29kKJ%lNmKKkj%KkmLMqKRkjjmOnMlMm%Lj%J%kLnL%kJjKJjJ%kKkJ%j%LnLJJkj%%%KlJ
5366A30k%%KjJ%jKk%JjJJ%KkJ%mNjlJ%KkJ%jjJ%%%jMl%kKKJkLmj%J%Lj%jJkK%%%%kKj%JKj
5359A33kKLo%Nl%LjJ%lKkJJj%j%jJ%%KlKjjLjjJjjKlKJJkKk%%JjKjJj%jJjJ%lKKlJKlKj%K
5353A34kKJKllJJJkK%mLJjKjkLl%Kk%%jLkK%%kjJKk%J%j%%%%L%kJKkjKKkKkl%kMjQjj4J5n
5346A36Oj5R%kjK%%lLKm%LklMjJ%j%j%LklK%K%JkJ%J%kk%Mj%kJjK%jjjMlKJj%Jkj%%JNpLj
5340A34%jjKKmKj%j%JJj%%%kL%l%J%KjKjkJjLljK%%jKj%%%J%j%JJJ%k%LmJ%J%oKMlKkLLlJ
5333A36jj%K%jJj%%Kk%jJJ%mLjj%JjKjJlMj%JkJJjJj%kLjJj%Jj%KkjMmJkN%jmLkJ%Klj%Kk
5327A33Kk%LkKjkKjJkJ%JJjLlJj%%KkJJljK%KjjkLJlLkLljLKlmLjK%LoMlLKmKk%KlKj%J%K
5320A38JjmKK%jkKj%kLj%%JkjJKkJ%%jJ%KmJJ%JkK%jjJ%LklLkMmJJ%%JjjK%kjJ%%%%jKjjj
5313A34LjjJJjJlKJJj%jJ%%%%jJ%kKkKjjjOlKjlJ%kNjl%KjkLKljKJ%%jJkLjJKl%JkKjk%K%
5307A38%kKkJJ%%%%%%jLj%kJkLkkL%lLK%%mKJJjk%MkJ%jjkMjjJ%jJJjjkLJkJKlJjJ%%JkjM
5300A41lJ%jKj%%%jk%%KjM%j%jpJ1rOjkK%j2J6j6J0pMNqJ0JmKJnKKmMjJlJKkJjKj%j%JJjK
5294A41jlLmMJk%%%%%JJj%j%KJmJKkJk%%%JJ%jJkJJKj%jj%%jKj%JJmK%J%jKkkMjkK%Ljj%j
5288A40%jJJkKjkKLmJJlLjjJ%%KlKlK%%J%K%l%JjKlK%j%JmMjJj%Jj%jK%%%%lLJjJmKJjJ%%
5281A41JkK%kKj%JlKjKjjjK%%jKjKm%LkKjKjjjJJjjJJkJJkLlK%jLjkLkKkjLk%kJkNlJ%%j%
5274A41J%%%%%JjjlMM%oJNmKlKKJlmKLKojMKjl%KkKJ%j%jJjj%MmK%jKjj%%jjKJkJ%Jj%jLJ
5268A45lJ%%jMkkL%MnKlLjmL%Jj%lMkj%JkKJ%jJkjL%j%JlJkLLmJ%%j%K%kLkmL%Jj%Jj%K%j
5261A43%jjkKLljKLJkj%jKjKlJ%KJkjjLjjKjkJ%JjkKJkJ%Kj%J%k%JJjJJkjLkJjjLjkK%j%J
5255A45JkJkjLKjjjjjMkJj%%%LlJjLkJJKkkJj%kKjJjjJJk%jLkKlKjJKkkLnMKlJ%MpjPk%Mp
5248A42Oq%NlKKkjKjJjK%KlJlJK%kKj%LlK%kK%JkJ%kJJlK%J%mjL%%%jJJkJjKkJJjkLjkLjJ
5242A46Kl%J%kKJjJj%%%J%J%JkkLJ%k%%J%lKJ%j%jLkLlJjKk%%JjKKkmLjLkkj%LjKk%%JmKK
5235A48%kLk%jMnKK%lMnJLjkL%kjKlKJJk%%KlJ%KmM%kLkKlj%J%KklP%ljMljJ%jjK%%kJjJ%
5228A47%J%%%kJJKk%Kk%JkLkjLkkKJ%jJ%JmLJjj%Ml%%mPkmNqQmjMJJkLpKLmL%kKj%%lKKjl
5222A46Lj%%%%JkKjjKJ%JjkKJlkL%J%lLkK%j%KlJJKkKkLlJ%j%%KkJkJJj%JkK%k%LmMlK%Kl
5215A50k%MjkLl%J%JjkLjkK%jLjjJjK%kKkKjjkMnMJl%JkKkNlJ%Jl%J%JJkJkkNkJlMjjLmLl
5209A49%kPnJL%kjJ%KlKJl%jM%j%lLkL%KnLjJlK%%LlkJJjMmJlQmjkK%oQLpJpJ3mjKKn%Q%r
5202A50KOj5MRmRj2MNLjqmOLOj0k0L4k5l3L5M6J6n5J2qj4PJ3jj0K0ol9M3j6OLkk1K4qJO%j3
5198A48J4j1PlKpjNnjMKKl%kJOlj%LpJJLk%JLnjNj%lOplLN%mJJ%MqLJ%lMmJjjL%K%jJJmMk
5191A54%jj%J%NkkKkkJKJ%kkKkJMJnMlKkKJk%%JJmLMlkJKJkJjjlLJjk%Mk%lMk%jJ%%%KJ%j
5185A57j%KkKjjj%KjjLm%JJkKk%JjLl%JmQljj%LJkj%%JKkjJ%jJjjL%l%JjJ%J%kK%Lm%%MnK
5178A56Jjj%JjJj%j%%KjjKj%KlKjJKoLj%JkjMkNnKLoKKj%%KlJKjjJ%lMkKkJJj%%kJ%JJkJ%
5171A57%j%%K%jj%kJJjJjJjJKjjJjK%kJJlLjjKlJJ%%%j%J%%j%%J%Jj%%LnM%%kkKJjKKkj%k
5165A56MkJjJkjOj%lKjkjLJnMJkkLLkkKjj%KlNk%jJkJjK%%lKJlJj%KmLKlJJjJjJJkKkj%%%
5158A57J%K%kJkjJJL%lJjjjMKkjJ%kJKjJJjlK%%Kj%%jK%jJjJ%%kjjKkKJ%kJJkMmjKkNpNjj
5152A59%%nOLpRlOoj0J2lj%KjKjlJjJ%%%kJJJ%JjJ%JmK%%KlLjjjJJ%%JmKjJJjJl%K%%LmLl
5145A60JJKjlKpQlK%%jK%%%JkJkLlJjJ%JjJ%kK%%j%jJ%jKjjJjJ%kJlLKjkKjK%jjLkK%jJmK
5139A62K%kKj%kLJlJjK%jKj%Jj%jjK%Jl%%LkJjJk%JlMjJjJlJkMj%jLjlJJKjjLmJLlLljKjj
5132A62J%KjKkKkKmLnM%JkJjKlMkJ%%jJkJ%J%j%JlLjKlK%Jj%kKJ%KmLkjJmjkQJ%ljNnLlJL
5126A67m%KmL%%%Lk%j%MjlK%%k%%KmKK%%JkJkJjKj%Jk%%J%J%%jj%Lk%lN%%%jJkj%%J%J%jK
5119A67jkKJ%%%%jJJkJjJ%%jkL%k%K%%k%J%%%kJ%K%jj%%KkLl%KnNJlMkkLjJLkjj%%MljJJj
5112A68%%%%JkJj%kL%j%jJjjLjKj%kjJLjjjLk%KjjjJKlJJjNnJJj%K%nL%JLljJJk%K%kKkJj
5106A68JKj%mLJmKkL%JkjNlJlJKlLjJKJoK%lNK%lmNoOj0OMkmNnONqOojKj%KJlNjjkJ%%Lmk
5099A67%JkKKJk%JjJjJNljkJKk%KkKj%jLlJkK%jJjjOmjJ%%Jj%J%k%KjjKkjLjKjJjkKkKJkJ
5093A72jJ%jJj%kJ%Jk%K%j%kJ%JkLkKKJnMjLkmKjJLkJkKkLkKjjJj%%%kLkJ%lLjjJ%JK%mNm
5086A71Ll%LlKj%KlKKm%Lj%j%JJkLlKKlKjlKJ%j%%jJ%jKJk%JkKjJJlK%jKkkJ%KkjL%J%lJk
5080A71L%J%Ljk%jJ%j%Jjkj%LJ%kOnmQoJ%Jj%JJJlKkJjKj%%%Kj%jKkjM%lKjJkjLklN%k%JJ
5073A76k%JKkj%%J%JjkLKl%%JjkM%kJk%MlJk%LlJJkJlLjJkL%JkjKmLkLjJjJ%Jj%%%%JmMkJ
5066A76KkKj%JkLljMmLJnMjJj%l%NlJ%JkJjKjKl%Jk%JJ%jJJ%%JjJjjjKJkJLjlj%%JjL%kJj
5060A77LjJlKlJKl%jJ%Lk%JjjJ%%j%Ljl%J%%JK%%JJjjjJ%kLmLlLmK%KjJkjLl%MkLmJj%KNj4
5053A70RkQqLnOKklMpLJKlKj%%%%jMkkKkKjjMkJj%jJ%KlJJ%jjJJl%KkKjJjJkM%jkMjk%Mkk
5047A80%Kkj%J%%%%jj%LkJjjJ%%%MlLmKj%%LJlkJJ%jLkj%%jLjJ%jjKnNjJmL%kkOJoLJJlK%
5040A82%j%%jJJj%JJ%mLjLkkKKl%JLjlKKjjkKj%JLm%jKj%Kk%j%KlNklJjJMk%KlK%lLJkJJk
5034A83%KjJkJJj%jJ%kKJ%%kKjkJJJ%%Jj%%%%j%%kJ%jJkJJLnLLpJNLl%ljPrLJKkKjkj%JJj
5027A83JlMjkK%%jK%%%%J%%kKj%%%jJJj%jKJkJjJk%JjLkj%JJJ%%lLkKjJ%Jl%JKjjjKj%JkK
5020A87lKKmLjjJJjKlJj%K%JjjjkOkLljkLk%JKJklKkLjOlpNKklKjLkK%lLkLkJj%JKmJJjjJ
5014A87JjjLjKm%LkkK%jJjJjJKl%%JJ%jjJJK%mKJkkKKJnJ%Kk%JKkjKKlLjjJj%JJjjKljNkJ
5007A90%jJkMjjmKJJKoMlkJQkpjJ3j6NJ0mmkoJ6oLkJJpMOMnnOqKjM%mJkNl%jkNmKJk%KjLk
5001A91%jJlL%kMmLjkk%KlM%Jj%kPpM%JjjkK%JJlMm%JjJ%kMjjjjL%Jk%%jJ%KkLnLjkLKlK%
4994A93jKljK%%%j%J%%Jj%jMkkMmKjmOJ%mKkL%Lm%j%JjjM%jkKjjJLmMjkKjjJlN%k%jJkKJk
4988A93%%j%%J%J%%JkKk%KlL%jjJKkJJjlJJjJJkLjjJkMkJJjj%%kK%Jk%jJJJlJ%%jKjJKk%J
4981A96j%%JlKLklkQ%%rLlOKmLoKL%jK%%l%Lj%jJ%jMkkjJ%kM%kJkJKkjJKkJkK%j%%jJ%K%j
4975A96jLmKJKjlK%JlNkkKjJ%%kKj%KlJLkJkJKkJjjLkJ%jKjJj%%jJ%%k%%K%JjKj%kJkMm%J
4968A98OnKmJlMjMjl%Ll%%%JjjKjKlK%J%%J%jKlKjJ%JlKJkJJ%jjK%lJJJk%%JjKkjjMkkLJk
4962B00Kjk%%%JJjJKkJKjm%JKlLjj%%jL%j%KkLlLl%lJK%jJjKk%%LnMJjjjjJNnK%JJMp%JJ%
4955B03LrNKkjJk%kNJkj%JjKkJ%jjJKKmKJlJkJKjKk%JkKJjjjLkJjJkJlPjlJ%jJj%%%%J%k%
4948B01Mj%jJKlkL%KmJ%kJKkMm%K%%JkKk%JkJ%%Kj%kLkKkJJ%%j%KKpOkj%%Lk%KlJmOlKk%J
4942B05jKlLlJKkJ%J%%JkLmLk%%JkKjj%J%%jLkjK%%kjLjkKjJJKk%jLj%%J%j%J%%J%k%JJ%k
4935B07kJ%JjJJ%jjLlJjJ%%jKjjKlK%jK%jKk%Kl%KjNmJoLLjOqLJ%nKLmKLm%j%JJ%J%jj%J%
4929B08Lk%JlKK%kJlKjjNnMjjJ%JjjJjJJ%%kJJ%kJJjjJMmjkL%j%KkKkLlJ%jjJJKjj%KjkKK
4922B13%lKkKk%%Ll%%%JLm%%KjjJ%%%%%KkkKlMjkK%JLmLlKmK%LkKkj%%K%jJJjJmL%kJKlNn
4916B11K%%lL%%J%k%JJjJ%%jk%Mj%%kKlLLlJ%%Jk%kL%kLlkKLjjJkKkJJk%LJkjJjjjJMl%kj
4909B11KKJljMJjlJj%PJrLoJ0joQmj4MPlQKj1J2pmOkJKlMl%Nm%JjKjnL%jkL%KmKKk%%%MnL
4903B17%jjJ%KjJj%j%jj%JJjk%KJjjKjKjjNnK%j%%%%kLKkJ%jjK%%kKjJjjJ%KJj%%%%KlK%%
4896B20kJJk%JKjjj%JjL%kk%Kk%Ll%LlMKjjk%%KjkKKjlLjj%jLJjkjLkjJ%JJkjJKjJkLmKkK
4890B20JJlLmJ%MjlJj%JjLkkMj%j%J%%%k%MlKjJjJ%jJjjJMkjKj%%kL%kKlK%jKKkj%J%Jk%%
4883B23kMKlkJjJJkMjnNjl%%KjLk%JmLKlKlKJlLJkKkJJlKjK%ljKKjj%%J%%%JlLlLKj%k%%J
4876B25kK%kLk%Kj%jJkJJJ%jk%KkL%%%kJjJJl%KkK%jKk%KkJjKJjj%%JkL%lKJjKmLJjj%%Lj
4870B28kNmlJJKlJ%jKkL%j%jK%%jKjlMkLjkKkLk%J%kKjjJmKK%KlJj%j%Kk%J%lKLmJ%JJ%lM
4863B29lKjJlMk%J%%JjJKj%lJ%jKJkKk%%JjLjjjKj%lLjjKJjK%%lMnOlkJLkj7J0J2oL%qQoM
4857B30Lm%jOlkLlKJj%JKjjk%JJkNkk%Kj%JjjJ%%J%kKj%lLjMmK%jJkJK%kjJJjKk%JkKjJkM
4850B35lKJkjL%kjLkJjKkkK%%JlKJjJJlLjjJjJKmJjK%KlKj%%LoLKkKnL%LlLkjjKkLkJJ%jJ
4844B36jkK%%%JlKK%JjkJJk%%KJlJjkKjJ%JjjLjkKJjJjK%mMl%KjjJ%jJJ%jKkMk%kKk%K%%%
4837B38jJkJ%KKjl%Jk%K%%%Jj%JjKjjjKmLkKLklLlKKkLmKk%KlL%%jK%j%%jMmjK%J%j%JjJj
4831B39Jj%%%%%Kj%kK%%jJMn%%K%%jNl%jKlj%MmLkj%Mk%J%kLlK%KkLklK%jjJKjjj%NmlNKn
4824B40LkLk%%J%%jkLJk%%LnJMmJMk%jKmOlk%%K%kjOnKjjK%kJ%Jjj%K%%%%j%JkLkJJ%J%kK
4817B46%j%%kJJKk%%Kjj%Kk%K%JkJjlKMmLlJ%jJk%%KJmKkLJJkj%JlMjjKjj%jJlM%JkJLjkL
4811B49%KoNkRqlMj4RoNNj3J4j3j1J9J6l2OJ6MmjljmMjRm%nlNl%MnMLmMKrMKNmlLmLkjLmK
4805B47J%kJLMn%lLJlJjLkKkMlLnK%KmLjLkkK%%%%jJJJkjK%LjkKl%JjKJlJkKjlMlJJjkMj%
4799B50kL%%kKJKkjK%kjNlkMlJkKk%M%jJl%LjJlKKk%%kLjKlJ%j%J%kKjKkkKjJLjj%Jj%JLk
4792B55lMlJ%j%LjJ%kJkkNjjJkLkjL%kJJ%j%JMlj%%jJkLkJj%Jk%MlJmM%%%JmJ%JjLlLlMnK
4785B55%J%LjllQlkMmMjkkJ%J%%Lk%jJJj%KlM%kjJJk%J%kkMJ%lLjjjK%kJ%J%lLjJJjj%JKj
4779B59j%MmJJj%KjMknLjKlKkJkJ%%jK%%jKJjjJL%jjj%jKjK%jjKlK%Kj%kKjJk%%LjJ%lNlL
4772B65lkOm%lM%%j%JkKlKkjMkK%j%JkMlLk%jJKmKjJJj%%Lk%jLk%%%kKlMjJKkjL%lKkLkJ%
4766B66kJjJKlKjl%KKjjKjkLjk%K%JlKkJ%%K%kJjJJmKKJlJmMkMkJLolNjLj0J1kJLkjMl%kk
4759B64NmLJj%JjlJJK%%jJj%K%mLlNm%%LlKlMjjJ%%JjjJ%%JjJjjLjkMlkLjKkjJJ%jKk%%K%
4753B71kJj%K%kMkKkkJjK%jKk%jMj%j%j%J%%jJjJkJK%j%JnNkjJJlkLkMJlJK%kJKJl%%JJjJ
4746B73lK%jKjjL%%jKnJNjkjJLj%jJ%KlLk%jJJjjJjKlKJJkjKkKlKj%JjK%kJ%j%JkLkJJjJk
4740B74Lj%j%JjjLlLjj%JjJ%KkJjKjjkLjLmMkjLJnjJLn%JMnLJkMoNKljK%%%%JkJKl%jJMjl
4733B77%Jj%KJ%j%JjjjKj%%%jMklLj%MlkL%Jm%KJjLjjkJ%K%kKLlmPkJj%j%jMj%%jJ%jJ%%j
4726B82kLJk%K%k%KjKlLjj%jKj%LlJ%mNjjJlJkOmJJJ%Kjl%%JMn%Jk%KJ%jKjkJjj%K%K%kK%
4720B86%%%jjKjj%J%KjlKJjj%Kk%%%L%kL%%kjKJj%%jkKJ%%%JJjjJJjkKJmKLkKljMlJ%KkKl
4713B87Kk%JjLjlLjJ%ljOmP%JoJlk%J0r%MkjKjKKjjjJ%jjKjlMkLKklLjjJJjLl%JJk%K%jjj
4707B89Kk%KkMkj%%Lk%%%JjJjJ%kJJJ%jjKk%L%jlK%J%%jKjjjLk%Lkj%KkJ%JlKJ%%%%JmKJj
4700B93%JkJjKJjlKKLjkKlmMLl%KkjJJ%JJ%jk%JJjKkJjJnO%%jkLj%Kj%JkLl%NljJJ%jJJlJ
4694B98JjLl%jL%%%jj%%%Jj%KlKJj%jkKK%jkLkjLkJj%JJ%j%Lj%jj%Kj%KJljK%j%%NpLkmNk
4687B98J1j4MMlkKJKJmlOmK%LklLJjjLjJkjMlJKk%j%Kjj%J%%jKj%JJk%JJk%lLjJJkKJlM%j
4681C05KklMjJ%%jjKjjJJ%Jk%jJkL%jKJljKKkjKjjJJ%k%JJ%%jJJjJ%k%jJJKkk%%lMlKKkL%
4674C08j%jJjJJ%k%JJj%Lk%jJj%JjJ%J%%%kK%%j%%K%jKjJjjL%jkJLjkJj%jMmJkLJ%kjKjJj
4667C10J%j%KjJ%%JlKJkJKl%KkLlKmNkLkKkjJJjkKJjJjmNKkjlMjQqJmJ2j0JNJlKlnO%jJkJ
4661C15Llj%LljJK%jkLkKKj%kjL%j%JkLlJ%j%JJj%JJl%KjjL%JlKKkjJkLmJj%LjjJjKJkJjK
4655C19jJj%%JMoLlMJlLjJk%JlK%JJkJ%J%j%jL%mK%k%KLjlJkKLj%%JjlK%%%kLkJJJj%jJjJ
4648C23jJ%K%j%jJkJjKjkKjKjjJ%k%KKkKjj%Jj%KLn%jJ%MljJJ%%%KkKj%%KkJj%jJ%Kj%kJJ
4641C27j%JjjKlK%lMKlKjJ%%%%%lLk%KJnOkljKNpMMoNkjjJKjKJ%jJl%JlLkJJj%Lj%kJjJjJ
4635C30k%LkLjlK%jJJK%jlJKjKjKjjJkL%mOlj%JJJjj%jK%l%JJJkK%KjjJjK%jjjjMkjJKjkJ
4628C34JjjKj%Jj%jJ%KKl%JNp%JK%nLMjJk%JjLl%JjKjKkkLjjKjjLl%J%%%%kKjKk%LjJlJJl
4622C36%Ll%KJjjJjJL%jJ%kJJmJNnLj%%%jJ%%%MnjLKJjlMjkKjkjLj%jK%LkKKmJkJ%jkL%kO
4615C47%llMJj5RPllJLJj6RJj6J2N%jJMNrPqMkKJKlk%MkNk%jjMjlj%LjkMjjKlK%JmK%%JjJ
4609C47kLjjLmNkkMmKKjLnKk%jLkK%%j%LkJ%kJjLk%%jj%L%JlLoLJJjj%Jj%%J%LjjjKlJ%Kj
4602C50%%lNjMmJKlMnKJJmMJkjJ%JlJLjlKjKkL%jkK%J%jkKJjJJjjJj%JjJKl%%jKj%Jjk%KK
4596C56j%kjK%jK%J%%JjKk%jJ%JJj%Jj%Jj%J%%%%%%jj%Kj%KkKk%Lj%%%kKjL%Jm%kLkLlJJK
4589C61lLkK%j%%kJkLjK%jkK%kLkJK%JkjJKjj%Ll%J%%J%kJJJjJ%kKlKjJ%%jLnNmKK%JklMJ
4583C66kjJ%JJjJJ%%jJj%Kk%jKJjjjjJJJkKlL%Kl%%jKKkJjjKlJKkKkKkKkLJmMlJ%JjK%jjj
4576C67jKJ%%KjjJJjkJLlJJLljkMkKJ%kJ%Jj%KJlMnK%%jJJj%KlkJ%J%JJJjlJKjKkKJlJJ%j
4569C74JjJ%jJKk%JjlL%MoLkJJ%kLJlJ%L%kJ%jKk%%jkLkJJlJ%L%KlKMk%l%mLM%lLl%%Kjk%
4563C77jMkKJ%kJj%kLjLlK%jJJ%Jj%jJjJkKJkj%jLjj%JKJpMJJ%j%KlJJ%jjJ%Kk%J%kJ%Jjj
4556C81KJl%Nj%%%%j%JkKj%MmKj%%%jJ%jJKk%JLl%jMjjjJJJ%mKJJkJjKlLjjjNlLmLj%jLj%
4550C90j%Kjj%%Kk%LlJKjkK%JjlKjjJKJj%lLjLnLjMkLkJlKjJ%%%jJ%%jK%kLkjMlJJjjjKJ%
4543C95Mm%kLlMj%jJ%%%JlKj%%jjMLoKPr%kNMkkjLoMlMJJlLk%KjJj%%jKkL%%jmL%K%JkkNm
4536C99%%KkLjLoL%JjJJjkKjJKnNkKlJjLlJKjjjJLj%%Jjj%KkLk%%jKJjkMkj%JlJLk%J%jKJ
4530D07jkKjKk%jL%kMmL%%KmLkkKk%Lj%JlLjjLjJJlKj%%%KjjLjj%%J%kKJjJlK%J%%kLJjj%
4523D11%Kjj%Kj%jJKjjJjJkJK%jj%JJkK%kKJkJkJ%jLJk%kLjjJKkJKlM%kJjJkKkKjjjLMnjJ
4517D16P%oNp%jJ8rlJNmnLNkmmPnJ%KkLmKJJJ%%j%jkLjJ%k%J%%%jKJkJj%JJ%jJkJ%lKLJlJ
4510D22j%%jJJLnKMkJjJ%jJJj%kJJj%JJkK%%kKJjkJjL%kLjjJJ%jJ%JjlMjjkJMk%lJKjMjoJ
4504D25JL%%kK%mMJlK%jMk%j%KkJjJ%JJk%JJ%jK%m%L%%%%LkjjK%%J%JlJJJjjMkJnMJ%%JkJ
4497D36lL%%%jKnMJkJJjj%LjkKmLJlL%kLkLkJ%Lm%Kj%jJ%jK%k%jMj%JjJjKKoOkJlL%k%Jj%
4490D40LjjJkLjKj%j%%JKk%J%lLj%Jj%Kl%JLj%JjjjJJJjJj%jjKMoMLl%lJMlKJ%mKkKJjK%k
4484D47LkjJ%JJjlLJlKJmLlL%%%Jj%J%jJ%j%%LkK%%JmL%%lMlJkKkJK%lLJ%K%k%J%JkL%%kJ
4477D55jkLjJJjJkJkKj%jK%%K%kKkKkJjJKlJj%jL%kNjJk%jLlJJjjL%%%%JjjJJmNjjjJ%JjJ
4471D61jK%jKl%Ll%jJ%J%Jk%MnMj%lNjj%JJKkpJ2nKmPpMkkKJ%LJkj%jjL%jjLmKjLJl%KjKk
4464D67%%Km%KK%jkLJkJ%%%%JJ%lMJmK%JJmN%mKK%kjL%j%%%%%jK%j%%jjKJKlLkjKJjJjjKj
4458D75%JkMjlJ%KkjNnJK%j%K%KmJ%%%J%mMkLJ%JlJKljJ%%J%JlL%%jJ%J%%kPoKj%JJjJJ%k
4451D82Ljk%L%j%%%JJ%j%%mL%J%l%jjMjJjLlJK%j%JJjkMklKJJJkJJ%%%jLk%jJJJ%jJkKk%L
4445D91j%JkLnJJM%JmjKKLoNj%JkJm%KJK%l%J%kKkL%jjK%%KkJ%jJjJ%%LjlL%kK%j%jK%J%k
4438D96K%JkJjJjjKmM%j%jKKj%KkjJ%KlKJjjJJjjLlLlKjLjKlLkjKKkJ%j%%JjJJ%jjJJJkJK
4431E07lJJjKLl%klQojJKKJkjMkJjjLjKkJkkN%jk%%%Mkk%LJ%jkLkLkjKjJKk%kJKlJ%LjJlK
4425E13KlLk%JkJjLKnMkjLkjKJ%JKJpN%%%jKjNj0J%NLl%kjOkmJnNnJ1OrLj0LqNNKOJPk0J2
4419E26jk6K3MKJ0j0J0j6QomplMLJMmLKKkJMoMomPjLkLl%KkLj%LjjJm%PmJ%jjOo%kNlM%%K
4413E31l%lNkL%k%jjJJJj%KkMlJK%kjkLLlJKkKkkPl%Jl%JJ%jkKK%jjLlMmJJKjJjkL%kKJjj
4406E36jLjJkJJmNk%%%JjLk%%JLkjJJ%jj%JLlKjJjJkK%j%JJJkLlJJljNjKjj%%%kkPmJkK%J
4399E45KJl%%%K%JjKjlJ%Lk%Jj%JJjKl%%lNjJLl%%jKJlLJjJjLmJMk%%kMkLnMnLKL%l%jjkL
4393E54L%kjJ%%%KkLj%kKjKJ%lLk%jJKlJ%%%L%%j%JkKjKJ%k%jj%LkjL%jMl%LJmMjjjJKJmK
4386E64kKKjjMlK%j%%%KkKjjKJlLjjJjJ%j%JJJ%j%kM%jj%JKjMnjLJjJjlNl%lM%%kMkK%jKk
4380E73JkJJjKJl%MlJ%JjJjK%kJJjJ%KkJkJ%%JJ%%%%kJJLjlJJmNlK%jK%j%J%JjK%%JkJ%%J
4373E84jJK%lK%j%KlKj%JKkjKlLj%J%JJkK%LqNLp%KLqJ2l%kmQ%mNlJJkKKjk%%LjjLjjKjLm
4367E93JJJlJ%K%j%%jK%LoMk%KJkK%KmKJJlL%jkLjj%L%Jl%Jj%K%jkKjKj%KJjjLjjJJjJj%J
4360F04k%K%%J%MmMm%LjKjjL%jjJKl%JNmKnjOpL%LkLk%jMl%%%%Lj%Jj%Kjj%jK%KlJJjJ%k%
4354F12K%Kj%jkL%KJlJKjjL%jjK%kLjMlLljjMkJ%%kKlLJjJjJj%Kk%jLjJj%jK%J%K%JkJjKk
4347F25K%Jj%%%kLjKmkMKJklJ0j0JJJMjl%K%LlMjkKkLjjjKjKjjJkJLj%KnKKjJ%%jKmL%Kjj
4341F35J%%kMj%%%%KlJKKjj%%%%JjJjKkjKJ%%%Jk%JJ%JkK%kL%lLj%%KjjJK%jJJ%jJJKkkNk
4334F49lMJjl%K%JlNJjjjJ%JkJ%JkKj%JJ%j%jOm%J%KkJ%JlJKJj%%LjjKkJ%J%jJ%Jj%Kl%K%
4327F60%j%J%JKkJlKJ%%%KjjjLk%K%kKJ%jJ%k%LkKjKj%%JJKk%j%JkJK%jJKjlOpMKMolllQR
4321F78%j3J3n%O%okkPkLkLpMkNqJ0njLj%JKk%JJnMjJKkjLjKl%JJ%%JKj%KlJjLJlKK%JJqN
4315F85J%l%jMjJjJ%j%%JKjKlJJkK%%LmJJKjJlL%%LlJk%LkKkJKj%JjJJjKkL%kKJlLoL%JLk
4308F97%jJK%kK%k%JJJjJ%kJJKjjJLjk%J%jK%jJKjKkJ%jjJJ%jK%kKkJJ%JlJKJlMj%MmKj%K
4301G11%jKlL%jJJ%j%L%k%JJJkJ%jKjK%JjkKJ%JjjJmNJKnMkJJlMKn%Mk%KK%kmOkJKlj%%J%
4295G23KJjlM%jJjLjJkj%JJjKJlL%JjJjJjKkK%J%%%J%kJKkJ%J%kLK%lKkJJ%%%Kk%Jj%JJJJ
4288G40kJ%KkJ%lL%%LkJ%kMk%j%K%kKjK%lLKkKkJkNlLmMJkJKkKj%KkkJLjJ%%jKj%%J%jKkK
4282G53%%%%%jJJkLjJ%J%%JkLjjJJ%j%JK%%kKJjK%LmKlKKjjKjJKj%%JjKl%K%jkNkjJKjJkJ
4275G67LlMkL%kkKk%K%%KkNoPlJmNl%MlMokJ3q%JKmLKLpMJ%%JjJj%KkjLjj%J%LjLk%j%K%K
4269G86j%JlL%jKJjMnKkKj%%J%%JkMJmKKmMjkMlLkKJl%LjJkMjj%J%jK%jJjJ%JJjJjlNjKJk
4262G99jJ%KkJJkJMkkjLjK%jKnLL%LnMkLkJj%%KKmJLlL%kKjJJjJjJ%kMlJLk%K%jJ%J%J%jK
4255H17lJJK%Jj%jLjJ%%jJJLnMjJ%jJJj%%JJj%J%%%JjJJjK%%%%J%KoNj%LkJ%jK%%J%kLkJ%
4249H33%JJKjkLjJlPnJOm%kklP%%%jKKj%%JjJlLJj%JKj%Lkj%KjJjJ%jJjL%kJ%%KkKJjK%Jl
4242H49KJKjk%%LK%%jkjKJjJ%K%%jKJlJK%%J%j%%KJ%J%k%JjKjKJkJK%k%J%JjMlJKj%J%KkK
4236H71%jlNJjk%KJlKjK%LmLk%%JLjjJmM%K%kLkkNmLjJjK%JjJjK%jJJkLj%J%JjKjK%JlKjK
4229H88J%jMlJ%jJKKlLlJjKKjJj%%KlJJMkj%jK%Kmj%LJnOJKJmLmMlkOjkljQLNkKJ3j0j5%O
4223I06%J3j4qJ8jmkJMpPnJLJ%kmO%k%%LmMMolR%l%JjJJMl%kLJ%%%kL%j%K%jL%k%JkLkNjJ
4216I27jJj%JJ%JjJkLj%JjK%kJJJ%jJ%JjKJJ%kK%JjJ%jLj%Kk%J%KJj%KlkJKNjl%KjKlKK%J
4210I47%%JjKJ%j%JJjJ%kLKlKkK%JlLkKK%%%%KjjJKj%K%kKjKJkLJj%JkJkLjLLkjkK%JJKk%
4203I68jK%JjJ%%J%%%Kj%J%jJL%jJJ%jjJJJ%K%kJKk%jMkJkLJjKJkOjlLnM%%%kKKmLJJ%k%K
4197I90jLkKJmL%%LkJKkL%jjKjJj%JKJj%KJkKjJJjJJk%LJj%JjKmKjKjKjJJ%KJjJ%JjJJJj%
4190A013jLlJJJKm%L%JKJk%%JKkK%Jk%%KJJ%jL%JjMnMlkLM%kkLjKjkL%jKjM%jJ%jKjLkJJj
4184A037%JjJLlJK%%%%J%JjKjKjJkJJJ%jJMl%K%%jKK%jj%JJJjJJ%JlJJJkMjjJL%lKJ%JjKJ
4177A062j%JjKKkJlLKkMlLjKkNpKMMoKkMJjLlNqL%%M%jMkpRkjJ%%J%%JL%%%k%K%jjOkj%Mm
4171A084L%kLJkLlL%jJMkj%J%JJJJj%LJj%J%kKjJ%JK%kJJKjJJjJKk%JLjkJK%%MlJkJKkJJ%
4164A112JKjKjJK%kJJjLkLlKkMJ%jJkNmKk%kPjkL%%JjJJJjKkL%%kLK%k%J%KJ%%jJ%%%JK%j
4158A139J%JkK%%MjjKLkjkM%M%ljJKJKkL%j%JKjkKKkJ%K%j%L%%JJJlKJKKljKkJJK%k%LjLj
4151A169J%lL%j%KK%OrMLmLnRo%KJLkJ%jM%JlL%jK%%JJKlKJ%%JJjJj%KJ%JjKJkK%jK%KlJK
4145A198%%JJ%J%LkJlMKkjKJlNjJj%KJkKKkjM%%jJL%%%Kk%kMJJkJJ%%%J%jJNm%K%JJJJkjN
4138A230kJK%jjMJKmJ%MnNjjjOlkLKj%jJKkKJKj%K%jMkJjJJKkKJ%j%LJjJ%%kLL%mLJ%KlKK
4132A261jkNmKLnLJ%MkKJJj%JLjjJKkJJLkJkJLjJjL%kJKJjKlKKMlJJ%KpRnP%%MqPMj0JKrR
4125A292QrRoLjMmJ%JKLkKjkOnLkLJkJKlMLjl%K%LkLjJ%JKkJ%jMjJjJJKjJ%%LlJ%JKJj%JJ
4119A327KjKjJjJ%JJ%%KkK%JJ%KKl%KjL%JKlLl%M%%J%KJj%%JJkK%KjK%LkLLJm%LJnLMmJKK
4112A364%%NmK%%KjKJ%jjKL%%KjJKljKJMkjLjKjL%kJ%lM%J%JjK%LjLjKkMkMnL%KjJ%JjKj%
4106A398KjJKjKjK%JJjKJkJKjLJ%JmOlM%jKMm%JK%%JJ%JJMm%JLmJNklNJKlkLK%jMmMkOjJk
4099A438K%K%JkLkJ%KjjOjjJKj%MjJjLkJ%Kj%LjK%%LjJJk%LKLkjLJknQkKK%J%%%%JMkKJ%k
4093A478JKJJJ%%kKKjMJ%jjL%%KKjjJ%KlMJ%JjLJ%KjjLkJ%O%ljL%JjKJ%kJLjK%KjJLkJJj%
4086A519LJjJ%%Lj%KLjKjJ%JJ%jKJjKJJJKjJ%JJJJJJ%lLKjK%LjJjJ%J%KjJKjMkL%jLk%KJ%
4080A565%%M%kJjMjKJjKJJJJKlMJ%kJPljMljjJOnMkPj3J4KkjkLKJj%jJKJM%%kMnKLjJjMjJ
4074A609KKj%KJJK%JJ%%Kj%JjJJKLjj%JJj%NkKLJl%M%%jKJJ%JK%J%%LjKJ%%%KJKkJ%M%jKJ
4067A659jKJ%JJKKmK%MjJ%J%%KjK%%NmOnOm%NJjLKlMjJKmKJK%KJ%JKjJKlLLkJ%%LJ%JJ%%K
4061A709%JJKjLkJJJ%KjK%%KJjKkJLK%JN%mKKjL%JJlMjjLJMkJJK%jJLKlKKkLLjjJL%%JK%J
4054A762JkL%KkLLlJJMkLkJK%lQkMkL%JjkNKmLJkN%nQlJJL%JkM%%NlK%%%KMk%KJ%%L%jJL%
4048A816KjMJkK%JJ%L%LlNKmJ%OkJjMk%LkJ%JKMjLkJKkKJJ%JJ%K%KJKNnLJJjMlKJJKJjKKj
4041A874JJJK%JJJ%%KKjL%kPjl%MJJ%KKJlN%%kMJ%%%KJJJJjLJKlN%kM%%LjKK%jKK%jMJKk%
4035A933MkKjKKjLmMMMlL%%MmLM%jKKkNmJN%nO%LkJK%JKJLmLL%mNPp%MJ%LJmMNkOj7MJ4km
4029A993jJ4j4%J0J2j4J1j5J0LkJ5rj1NPKNj%kjKLoNKkPlLMlkJ2oNjMJlKK%j%KKJJJJKmMJ
4023B053LjLjMkLkLJK%jJMjJ%L%LJJjK%%LJLkJLjJJKJKj%NkKjJKkKLJ%MjLjNlNkJKK%%L%J
4017B123J%JL%jOjlK%MJ%LjLMkJKkLMkJL%%JLJ%%NKjKJKlKLjNlNlKJL%jLjJJL%JJLKk%M%J
4010B196%KLjLKJJjMmJMJ%JJK%KJ%M%KMk%JJM%JKKjMk%MK%%KjKJJJJKLjJKKjMJKlNJJkjOM
4004B278nPJnN%NnjML%KM%j%KMjJKLJlMkMjLLjKkJLMjL%KjK%M%MjLKKlKKJJKKjJKJKKJJ%%
3997B354LKk%N%JKKJK%KMj%L%J%KJLJ%MkLK%KjLKJKKkKJLJKJ%KK%jKJKLjLJNlKM%%NkKNpQ
3991B445jK%JK%JKJL%JL%KjJN%K%MJ%JjLKKJjM%MlN%JL%JJ%LLL%%KKJ%KK%JMkNkKLKjJK%M
3984B534%KJ%NKjJ%MJ%MJ%K%LjM%LKJjLLjJKJKJ%L%K%LN%jKKkNJ%jLLL%jNjJQJoMM%MmKJN
3978B630%%KMM%jMJ%LJKjMlMLJjLL%JK%M%MKjLKJKjLJM%JJJKL%L%jLLNJkLlN%KJLMj%MJJK
3971B732jMJK%KKLJK%M%JKKjNjM%KjKLJJJMJkMJKNjKLkMLKJLjLMmLMkLJL%LKK%M%JKKJNjK
3965B840K%M%KKkQlLKJKJKLkLL%KL%MJJJKJKJKKKKKLJK%KMlPJLkN%KKKJK%LKL%NkLJKKK%M
3958B956JJLJJMjMjKM%M%KK%LKKKJ%MjLNkPmMkOJM%JRmjOkQpQkKJPjJMJK%MLjKMkM%MLJLK
3952C078JK%MKjLL%LJMJKKJKLKJ%JMJKMkNKKkLJNjLLKM%L%JKNK%N%LLjJMKJL%MKMjM%JMKK
3945C207JLKKKJ%LLJMJLK%MJ%MN%jLMLkLMLkMJNMmMJKJNLjMK%N%LJJMJM%LNJJK%NJKLMJkJ
3939C341PjLNjMK%KNJJJLJKNJM%LKMJLMkKMLJN%LJL%%NKMJ%LKKMKKJMKKLJOJK%%LOJLJKNk
3932C491LLJM%LLLLKjMOmmJ3%OpOJ0kOj5J5j0J8%KjNLMKkLJP%K%N%OMkMJMMKkOJ%NKLJNJJ
3926C634KLMMkONkJLOJKLKJKOK%KNKLjKNKjQJKMJMKKM%LKMK%NLJLKLKJMjLLNJLLLLKMJLLK
3920C803KLJLLMJLLMjNKMjKKNJNkRmQLLJJNLKO%KNjLLLJMLMjNLJNJKO%KMLLMJLKLKLMLLLK
3913C983KMKKMJMLJNjNK%ONKKLJPJJLO%KKNLJMJP%KO%LN%MM%NKMLJMJNJLKMMLNKJO%KMKNJ
3907D173MN%MLLOKjNKRmJO%PJMLLLLML%LNMKMLLLN%MLNKM%NLMML%OLMKKLKNKLMLLKMLLMML
3900D383KMKOLJM%NJMOLMM%LLKO%P%MKLNKOKJMLOKMJOJNKNMJMNMJMLO%MNLJLON%LOLKNNJK
3894D603LMNKQjKQJQ%LLMKNJNLM%OMLMLNKNKOLLLNKMMLJOLNLMLMJOLOjMOLOKLLMP%P%NLMK
3887D843MJPMKOMKNLPJMLNMMJMNMKNMLLON%OKNNKMMKOKPLKLKQLMOLMLNMKNKOKNNKKkNJ5kQ
3881E101KNMLKPMMPKLNKNNMMLMKOMMMOMMLONKMPKMLLOJONMNLNOJMNNKNONLN%OOLOLM%PPNN
3875E383LMMOLMNLNOKPMMNMKOMNMNMLMMOMMOLOMMNNMOLMOMLOLNLNPLOPkPNMMOMNPQkONPLM
3868E686POKNOKOMNONLNLOLMQNMNKQMKJ0MLPJQMMPLOMLPNMNPLKQOKNP%J1KOPJMRKPNOOMPN
3862F009OLLPONNPLMPNOLQLNPMLPPKOOQNLPLPNLNQMNNONONNPKRLJ2%LMNNJ0NJJ0OPMNMQNP
3856F354LPNONOMQOMNONNQNPMQMMOPNNNQOLPPNNOQMMOOPNOPQLOLROQKRKRPMPNONOPPNPOOO
3849F746ONMJ0MPONQNPOPQJPQNNROOOMRNONPQNNPNQMQQONPPQKQJ1LQQPNNQRLQNOONJ0ONOQ
3843G156QNPPNQNROPPNPPPJ0MPNPOROQNPQOQQNQOQNQQNPOJ0MQOPRLJ3LJ0ONROJ1NOQOPJ0O
3837G584RNPQNJ1OQQOORPROOPPQQMRJ1NORNQJ5%PJ5LNJ0RPJ1MJ5MPj1L0Oj6L0J3QLKOJ5J1
3832G996LPPNQJ2PPQJ0OQPJ1OLJ2RPQOQJ2OOJ3POQRQJ0NJ0PRPJ0RPOJ1RPQQQJ0J0QNJ0RJ0
3827H429POJ2PRPJ3OPJ2NJ0RQJ0QQRORRJ0RPJ2QRQRRQJ0J0RQRPJ1QPJ2J0PQJ1QPJ1RRRRJ0
3822H894RPJ1RJ0J1RRQRQJ3PJ3J1QPRJ0RRJ2PJ0RRRJ1J1ROJ0J1J0RJ1RJ0PJ2J2RPJ1J0J0Q
3817I339QJ3J0J0QJ2RJ1RJ0J0J0J0J0J1J0J1J0QJ2J1QJ3QJ1J1QJ1QJ1J4RJ1QJ0J0J2J4QJ3
3813I750PJ3PJ5QJ2J0RJ2J2J0J0J2J2J0RJ2J1J2RJ0J1J3J0RJ3PJ6QJ1J3J1J1J3RJ0J3J0J1
3810A0171J2J2J1J2J0J0J2J0J6RJ0J1J4J1J1PJ7J1J7LJ7J0J2J2J1J3J2J1J0J4J1J2J1J3J4
3806A0580J0J1J3J1J1J3J1J3J2J3J0J4J0J4J2J1J2J3J3J4RJ6QJ6J1J4J0J4RJ7J0J5RJ5J2J2
3803A1018J2J6RJ4J2J3J4J0J3J6J1J2J3J7RJ5J2J5J3J4J1J5J3RJ6J5J2J3J2J4J5J3J3J3J3
3800A1475J4J5J1J3J4J6J0J4J4J5J2J6J4J3J3J3J7J3J1J6J3J4J3J6J5J3J5J4J2J5J2J8J6J5
3796A1950QJ7J1J8J4J8J3J3J6J3J6J1J6J6J5J2J7J7J3J4J6J5J4J4J4J7J4J5J7J4J3J6J6J5
3793A2448J5J6J5J5J3J7J3J7J4J8J6J6J6J3J4J7J5J6J7J4J7J5J7J7J5J4J8J8J4J8J4J4J4K1
3790A2981J7J5J6J5J7J8J6J6J4J9J6J7J6J4J8J8J6J7J6J8J6J7J5J8J7J8J7J8J4J7K0J5J7K0
3787A3549J6J9J7J6J7J7J8K0J6J9J5J9J9J7J5K1J7J9J7K0J5J7K1J9J9J2J9K6J6K0OK7J9J2
3783A4151K4J1K6J5J9J9K0J7K1J4K0K2J8J8K1J7K0J9K0J6K2J9K2J4K2K1J9J6K0K1K1J9J8K1
3780A4803K0K0K1J9K1J9K0J9K0K1K1K1K0J9K0K0K0K1K0K0K0J9K2K3J6K4J9K4J9K5J7K1K2K2
3777A5498K0K2K0K4J9K1K2K2K1K2K0K3K0K3K1K5K0K2K3K1K2K3K1J9K5K0K5K3K1K2K3K1K3K4
3774A6241K2K3K3K3K2K5J9K5K5K1K5K3K3K2K7K0K3K2K6K6K2K2K5K5K3K5K5K4K2K4K7K3K4K4
3770A7041K4K5K4K4K7K3K5K2K7K1L0K0K8K5K5K5K3K9K4K3K7K8K3K5K8K6K4K6K7K6K8K6K4K6
3767A7899K7K4L0K5L0K3K6K7K8K7K7K6K9K6K5L0K7K4L3K3K8K7K8K7K8K9K6K8L0K7K8K8K7K8
3764A8825K8L0K8K8L1K8K6L0K8L0K9L0K8L1K9K8K8L0L0L1L0K9K9K9L0L1K9L1L1K7L2L1K9L1
3761A9825L0L1L1L1L2K9L2L1K9L2L2K9L9L1K8L3K6L3L6L1L4L2L0L3L3L4L2L0L3L6L1L4L0L4
3757B0907L5L1L4L3L7L2L2L7L2L5L2L4L7L3L4L7L2L6L4L2L6L5L5L6L4L4L6L5L5L6L4L9L5L6
3754B2082L5L6L3M0L6L6L6L7M1L3L6L6L8L8L9L5M0L4L9M0L6L8M0L6M2L4L8M0M0L8M0L8L9L9
3751B3358L7L9L9M1M1L7M0M0L8M3L8M0M2L9M3M0M0M3L8M3M0M3M1M3L9M6M0M0M2M4L9M7L9M3
3748B4745M2M3M1M5M5M5M1M7M2M0M6M2M5M2M6M7M3M3M6M6M2M5M6M7M4M6M5M7M7M5M5M8M3N1
3744B6263M6M7M6M9M7M6M8M6N0M5M7N0M8M9M9M7M9N1M6N2M7N0N1M9N2M9M9N0N1N2M8N2N0N2
3741B7923N1N2N0N1N3N1N3N2N3N2N1N3N4N5M9N6N4N5N2N5N4N6M9N7N5N5N4N7N4N7N1N7N8N7
3738B9746N4N6N8N5N8N7N9O0N5N7N8N9N8N9O0N3O2N8N6O7N8O1N6O0O8N7N5N8O7O1O3O7M6O9
3735C1751N9O7O8N6P1O1O0O7N8O1O9O5O5O4O5O1O5O7O7O5O8O6O4O9O6O8O7O6O8O5O9O6P2O7
3731C3973P0O5P2O8P1P0P1O9O9P2P2O5P7P0P2P3P2P2P2P4P4P3P1Q0O9P6P6P0P8P2P7P8P4P7
3728C6434P6P5P8P5Q0P8P8P7P9P9P8P7Q1Q0P9P9Q2Q0Q1Q3Q0Q2Q2Q0Q6Q0Q5Q2Q3Q4Q6Q4Q3Q6
3725C9172Q4Q5Q8Q7Q5Q6Q8Q8Q5Q7R0Q8Q7Q7R3Q7R1R0Q8R6Q5R5Q9R2R5R2R3R2R3R7Q9R7R6R3
3722D2230J00R3R5R7R5R8R8R5R9R7R9R9J01R8J01J01R9J02J03R9J04J02J03J04J01J05J03
3719D4921J06J02J09J04J05J09J06J05J09J10J06J08J10J10J07J13J10J11J12J10J15J11J14
3717D7423J15J13J15J10J18J15J19J11J19J18J15J19J15J24J18J21J21J19J22J21J23J21J24
3715E0139J22J24J26J24J25J25J29J24J27J28J27J30J30J27J31J31J32J28J33J33J34J30J38
3713E3097J31J39J33J35J38J36J40J36J39J39J39J43J39J39J42J44J45J42J42J48J45J46J43
3710E6320J52J40J52J49J49J50J49J51J54J50J54J51J57J53J56J56J57J56J57J60J58J58J64
3708E9853J60J62J61J64J63J62J66J68J67J67J68J67J69J67J71J72J72J71J74J74J76J72J80
3706F3726J75J78J80J76J80J80J84J80J82J85J84J86J86J88J85J90J88J91J90J93J90J93J93
3704F7983J97J96J96J98J97K00J99K02K04J99K04K06K05K05K06K08K10K10K12K10K13K13K14
3702G2687K13K20K18K19K20K20K18K24K22K25K24K28K27K27K31K31K32K31K34K34K36K36K38
3699G7895K41K40K40K43K47K43K40K52K46K49K50K48K57K54K50K60K57K59K61K61K63K64K66
3697H3686K65K68K68K69K72K75K72K77K76K77K80K80K81K85K84K88K85K90K91K92K91K97K95
3695I0144K97L00L00L04L02L05L07L08L11L11L11L15L18L16L17L22L26L23L25L28L31L27L34
3693I7382L36L34L36L40L43L44L43L48L46L49L53L56L56L56L59L62L64L66L64L69L73L72L77
3691A05528L74L80L83L84L84L88L91L89L95L96L96M04L99M05M08M10M10M15M16M18M20M22
3689A14315M26M27M31M32M37M37M39M43M45M44M53M52M52M65M56M66M64M66M75M70M79M86
3686A24260M66M89M95M87M85N00M97N08M99N08N15N17N12N23N24N25N28N39N32N39N43N42
3684A35533N52N55N55N59N63N65N69N72N78N82N83N86N91N97N96O04O05O12O13O16O22O25
3682A48433O30O34O38O43O44O49O56O59O61O66O71O75O82O86O87O91P00P01P10P10P17P23
3680A63266P27P30P38P40P46P50P58P59P68P70P78P82P88P90Q01Q03Q10Q14Q23Q24Q34Q37
3678A80436Q44Q49Q58Q59Q71Q71Q84Q85Q94Q98R07R10R20R25R33R39R45R53R62R68R73R82
3676B00466R88R97J000J014J015J028J032J043J048J059J066J073J081J088J099J104J118
3674B18319J122J133J142J151J159J164J173J190J198J204J215J230J231J245J253J266J274
3673B38669J284J295J308J315J326J338J348J360J370J383J395J404J416J428J442J453J467
3671B62001J477J491J503J516J528J546J552J567J585J595J609J623J640J650J667J682J698
3669B88930J712J728J742J760J772J789J806J826J837J857J869J892J906J924J945J963J978
3668C20236J998K017K038K052K074K094K114K134K154K174K200K217K240K263K280K307K331
3666C56923K348K377K396K426K447K470K494K523K547K574K598K626K653K680K707K736K767
3665D00292K792K822K853K885K910K948K977L007L040L072L109L140L173L210L244L281L317
3663D52072L354L393L432L464L509L546L588L627L669L718L752L801L838L890L932L983M026
3661E14594M072M129M174M216M274M327M377M431M490M540M593M658M713M772M833M892M954
3660E91039N018N082N147N213N282N351N417N492N564N635N711N790N866N947O022O109O190
3658F85875O277O361O452O538O633O724O822O915P013P117P220P319P430P536P647P757P876
3656H05512P992Q113Q234Q355Q486Q614Q744Q882R019R159R300R453R599R747R907J0067J0230
3655I59413J0395J0567J0736J0916J1098J1283J1470J1666J1865J2066J2276J2485J2704J2924
3654A121864J3152J3385J3622J3869J4116J4373J4633J4903J5177J5459J5747J6043J6350
3652A312693J6658J6976J7304J7641J7985J8338J8700J9074J9455J9851K0251K0667K1092
3651A556685K1529K1978K2442K2916K3408K3907K4426K4955K5509K6072K6649K7248K7862
3650A875586K8504K9155K9826L0524L1247L1979L2745L3534L4348L5183L6053L6952L7877
3649B303513L8833L9827M0848M1908M3002M4141M5311M6533M7793M9099N0455N1862N3314
3647B896439N4836N6399N8039N9726O1492O3326O5231O7212O9273P1422P3663P5998P8426
3646C751482Q0970Q3608Q6382Q9267R2285R5442R8741J02195J05815J09606J13577J17747
3645D927117J22118J26715J31541J36614J41954J47576J53495J59736J66320J73270J80615
3644F567071J88380J96591K05292K14502K24296K34662K45705K57434K69916K83239K97433
3643I184521L12590L28805L46156L64740L84685M06102M29142M53948M80710N09606N40864
3642A3741869N74719O11462O51403O94886P42315P94170Q50947R13266R81755J057202J140472
3641B2754466J232655J335100J449293J576853J719713J880263K061360K266376K499312K764876
3640D1540267L068897L418744L823713M294974M846308N495094O263447P179789Q280844R614878
3639I7826955J1245775J3259158J5770693J8939075K2985575K8222959L5098274M4258272
3638B87606736N6647698P3646979R7240251J30125016J75408894K34741345L01993213L48714921
3637A706125053L10909707J30448887j30445592l10907468l48714657l01996837k34747143
3637H20671950j75412649j30125643r7239131p3645891n6646842m4257366l5097450k8222465
3636A80024513k2985377j8938853j5770305j3258739j1245454r614646q280647p179542o263179
3635F6487771n494839m846107m294941l823960l419176l069156k764872k499168k266230k061265
3634C1948057j880227j719666j576784j449252j335169j232781j140554j057209r81708r13191
3633A8661516q50898p94131p42295o94857o51381o11450n74714n40853n09598m80700m53946
3632A1756693m29138m06101l84680l64737l46153l28798l12593k97435k83232k69922k57426
3631H076478k45698k34673k24280k14512k05291j96586j88381j80617j73264j66322j59736
3630E887118j53492j47579j41948j36620j31538j26714j22117j17750j13579j09605j05812
3629D480364j02196r8742r5436r2284q9268q6380q3612q0965p8432p5996p3660p1425o9274
3628C382694o7211o5231o3322o1495n9729n8036n6399n4829n3323n1859n0454m9101m7792
3626B643913m6528m5318m4137m3006m1906m0850l9823l8835l7879l6948l6051l5189l4347
3625B123096l3534l2745l1980l1245l0525k9828k9153k8502k7863k7250k6650k6068k5507
3624A742246k4958k4424k3909k3406k2916k2443k1977k1530k1094k0666k0249j9851j9457
3623A455366j9072j8700j8335j7990j7640j7305j6975j6662j6346j6042j5747j5462j5176
3621A233914j4903j4635j4371j4117j3865j3624j3384j3152j2925j2705j2484j2275j2068
3620A059406j1861j1666j1471j1285j1096j0916j0736j0567j0397j0226j0065r909r751r599
3619I09861r448r304r157r023q881q744q615q483q356q238q105p996p871p762p647p535p430
3617G67266p322p217p115p015o918o817o725o633o539o449o364o276o191o109o022n946n867
3616F55741n786n715n636n563n491n421n349n280n214n147n084n019m952m895m830m768m715
3614E66876m656m600m539m485m433m376m327m275m222m173m119m077m030l978l935l881l848
3612D94922l797l759l707l672l628l590l545l507l467l431l393l354l316l283l242l212l172
3611D35847l141l107l073l041l009k975k946k911k884k852k825k790k767k738k708k678k653
3609C86749k626k600k570k549k523k495k471k445k423k399k375k352k329k306k282k261k239
3608C45504k219k197k176k152k138k112k094k073k056k037k014k001j980j961j940j925j909
3606C10520j893j869j856j841j823j806j788j774j759j741j728j715j695j680j667j653j639
3604B80593j624j609j597j582j569j552j542j532j516j499j491j480j464j453j440j432j417
3603B54794j404j394j381j372j360j349j337j327j318j303j297j285j273j262j256j245j232
3601B32399j228j213j204j198j188j181j165j155j151j143j132j123j115j107j098j088j083
3599B12827j073j066j057j047j043j033j025j018j012j005r96r85r84r73r66r61r54r45r41
3598A93743r31r24r21r12r05r01q92q84q83q74q68q62q56q49q45q37q31q28q20q15q11q02
3596A74692q02p92p86p81p76p72p71p57p59p52p43p38p37p33p26p22p17p11p09p01o97o97
3593A58313o86o85o82o73o74o65o63o59o54o49o44o44o38o33o31o24o21o18o15o10o05o05
3591A44135n95n95n90n90n81n85n75n73n72n64n63n59n54n53n50n43n48n37n37n31n27n30
3589A31783n21n23n16n16n08n04n05n11m99m98m93m85m83m82m87m83m77m76m66m70m62m65
3587A20953m58m60m56m53m48m46m47m42m36m40m35m33m28m28m26m24m18m19m19m13m10m09
3585A11405m05m05m05m00l97l99l89l94l90l87l85l86l78l80l76l76l74l71l70l65l66l62
3583A02945l62l62l56l55l54l55l48l48l48l47l42l41l38l38l36l34l31l31l29l28l25l24
3581I5413l22l24l17l19l16l14l13l08l15l05l07l07l02l02l00k99l01k94k93k94k92k92k85
3579H8392k90k88k84k83k83k80k80k76k77k77k76k70k70k70k71k66k68k62k64k62k63k60k59
3576H2113k56k57k53k55k51k57k48k49k46k52k42k44k45k42k42k39k36k39k39k35k36k33k33
3574G6484k30k32k28k30k25k28k29k20k22k24k21k22k16k21k14k18k15k17k14k12k12k10k10
3572G1414k10k07k06k06k06k06k03k02k02k01j97j99k00j97j97j96j95j92j94j93j92j88j92
3570F6833j87j92j88j85j87j84j88j80j83j83j81j80j79j80j79j77j77j75j75j75j76j71j74
3568F2677j71j71j70j70j73j63j69j64j70j63j65j65j64j62j61j62j63j60j60j60j55j60j56
3566E8900j59j52j59j54j53j52j53j54j48j57j45j51j50j48j52j44j49j45j46j44j47j40j46
3563E5452j42j43j40j41j44j38j39j42j37j36j39j38j38j35j36j34j33j37j31j35j33j30j32
3561E2299j30j32j28j30j30j29j25j31j26j26j26j26j24j27j25j20j25j24j23j21j20j23j19
3559D9409j19j22j19j21j17j16j18j19j17j16j18j14j16j11j16j14j15j12j14j12j11j11j12
3557D6749j09j11j09j10j10j07j09j08j09j05j09j04j08j05j04j06j03j05j03j05j03j01j04
3555D4302j04j01j01j00j04r6j01j00j00r7j00j00r4r8r9r6r7r8r3r9r4r1r6r6r7r1r5r8q8
3552D1478r0r1r6r5q6r2q8r2q9r0r3q7q9q8q7r0q7q7q9q5q6q8q5q5q7q4q6q3q5q6q2q7q0q2
3549C8501q5q2q3q1p9q4p9q1q3p9q1p9q0p9p7q0p9p7p9p7p8p7p8p7p9p3p9p6p3p8p4p6p1p6
3545C5832p2p7p4p2p4p1p5p4p1p2p0p6p1p1p1p0p1p1p0p0p2o7p1o8o8o7p1o8p0o7o7o6p0o6
3542C3431o5o8o9o4o8o5o4o8o4o2p2o2o5o2o3p2n9o5o2o5n1o5p4o1o1n7o8o0o4p0n3n7n9o9
3539C1258n4o1n8o3o3n8n5o0n9o0n7o2n8n7o1n7n7n9n6n6o2n4n6n4o0n9n3n5n7n6n7n2n9n3
3536B9300n4n5n5n5n5n3n6n2n3n2n5n1n6n3n1n2n0n6n0n3n2n4n1n4m8m8n2n2n2n3m9m8n2n0
3532B7518n0m8n2m9m9m9n0m9m7n0m9m7m9m9m7m9m6n1m8m3n0m8m5m6m6m9m7m6m8m4m8m6m6m6
3529B5892m7m7m3m6m3m7m3m6m5m3m6m2m7m2m2m2m9m2m5l8m6m3m6l9m6m3m4l9m5l9m3m2m3m1
3526B4408m6l5m4m3m2l9m2l9m3l8m2m3l8m2m1l8m1l9m4l4m1m0m1m1l7m0m0l7l9l9m0l8l7m1
3523B3044l5l8m1l6l9l9l6l7l8l6l9l7l6l4m4l6l5l5l6l7l8l8l7l5l6l6l5l5l5l6l6l4l7l5
3519B1797l4l5l7l5l4l4l6l6l3l5l3l8l2l7l1l4l2l4l4l7l2l3l5l2l3l4l2l5l3l1l1l5l2l3
3516B0645l1l4l4l0l4k6l7l3k6l4l5l3l2k6l3l3l0l4l2k5l3l1l2l1l0l0l3k8l1k8l1l2k7l3
3513A9583k9l2k6l1l1k7k9l2l0k9l0k6k9l1l0k8l0l0k7l0k7k9l1k6k6l1k8k8k6k8l1k7k7l0
3510A8601k8k5l0k7k7k9k2l1k7l0k3l0k6k6k5l0k7k5k8k5k7k8k4l0k6k4k6k7k7k6k4k6k6k8
3506A7691k8k5k4k6k5k5k6k8k3k7k4k5k3k5k5k6k4k6k3k6k4k4k5k6k5k4k4k3k3k5k3l0k1k3
3503A6847k2k3k7k4k1k7k7j8k4k4k3k3k3k5k2k4k2k5k3k2k5j8k7k2k3k1k3k3k1k5k4k1k1k3
3500A6061k2k3k2k0k4k3k2k1k0k3k2k1k3k1k4k0k0k2k2k0k1k2k3j9k2k0k4j8k1k0k3k0k4j9
3497A5330k2k0j9k5k0j8k2j8k3j8k3j9k2j6k3k0j9j8k3k0k0k1j8k1j8k0k0j8k2k0k1j7k0k1
3493A4645j9j7k0k1j9j7k0j9k1j7j9k1j6k0j8k1j8k0j8k2j6j9j5j7k3k0j8j4l0pj9k3k1qj7
3490A3995k3j8j7j9j7k2j4j7k0j8j9j4j9j8j8j7j8j6j8k0j6j5k0j8j7j6j6j8j9j7j7j7j8j6
3487A3393j4j9j6j9j4k0j6j5j6k0j3j9j4j9j7j5j7j7j4j8j8j7j3j7j8j3j6j6j4k1j7j3j7j5
3484A2836j6j7j3j8j7j5j4j8j5j6j2j8j5j6j4j7j6j6j6j4j4j7j4j4j6j6j5j8j3j3j5j6j8j2
3480A2312j5j7j4j4j6j4j8j2j3j7j5j4j4j5j4j1j7j9pj9j6j2j3j1j9j5j3j4j3j4j6j4j6j4
3477A1817j0j7j3j5j4j0j6j6j2j5j3j4j4j3j6j2j4j5j3j3j4j3j3j2j4j6j3j1j4j4j2j4j4j4
3474A1354j3j1j7j0j4j3j5j2j2j3j2j8qj7j0j2j3j7j2qj5j1j6j0j4j1j5j2j0j5j4j2j2j1j4
3471A0905j3j2j2j3j2j3j1j3j1j4j1j6rj5oj5j6rj2j4qj3j2j2j4qj5j0j3j2rj2j5rj4j3j2
3467A0457j1nj9rj3j2j0j1j4j0rj4j3j2j1rj5j2qj1j2j4rj1j1j3rrj6qj3j1j0j3rj2j0j3q
3463A0018j0j5j0j3pj2rj4j0j3qj1rj2rj4j3oj2j1rj0j0j2j2rj2j1qj2j1j0j1oj5j1qj0rj4
3459I590rj0j1j0j0rj0j1j1rj0j1rj1j1rrj2qj1qj1j0j0j2rpj0j1j1qj0j1pj1qj2qrj2j1q
3455I175j1oj1j0qj1j3lj5prj4opj3pj3nj2oj2rj0qj2oj4lj1rj1pqj3qpj1rqpj3qrpj0rpj2
3451H730qrj1oj0pj0j0pj1prrrj0rppj2orrqqj1mj1rj1oj0j0porpj1pj0rj0oppj1qrnpj2q
3446H294oj0qrrorpj2orpqoj0pj0qj1j0lj0poj3%j1qoqropj8Kj5pj2oj1oklk7pJqRk3ljk1
3441G874Qj5j3nj4%nj0prppqnppj0nj2rlnrj1orj0lppprqmj0nrqmj1nqqqopqnrqoqopj1kj0
3436G460jj2pqnpnrooj0oppnj0mqpppmproppppoonqpqpmqpppnqoqnpqompornoprmplrorlj3
3429G022lqnonqoqoononj0mornqmoppnqlpqmqmpopmronpoonnoopnnqnnqoomppooompoqlrn
3423F614onpmponqnnomqploqpllppnnqolonqmqmpnnqknpoqmnpknppmpponklrqJj2%plqlj0
3417F242p%ormnnoolpmnpmnnpkpnpnlploopolnnmqlpolnomnoookomoplnqmlnmpomlnqnlnq
3410E890jomrmknonlpnmlppllooolmoknpnnkommnqlmnnkqmpklpnmrJpnlqjj0l%qmllpnnmn
3404E574nnknokpkommmpkplomlmnmoknnmmmnlpmlpjpmmmnlnmolmlqmnpJmomjnnnlnmo%nom
3397E279lomnlknmollqjjonmmnmknlpjnrkmkkpo%mmnmljj1JmrqM%j2jlr%mqjoknjq%lolnl
3391E014nlpknjnlmnknkmlpko%pklnojnlmojlolmn%pjlmoklnjlmoolllklpkkmolknlnmllk
3385D763mnlnm%nmlmlkqjokm%ommmmklmjnnlmjnm%pqKo%nljr%nllnJmnljnmlmkmkmnkmmkm
3378D527kokmlllnmlkn%mokjnlmlklklnjpljmmkjo%pnJplkjnmjkmlnjlnlmjmkmllllkplkk
3372D310kolkml%lmknkp%knjmnjnkn%lnmjmjj1LjlnLopl%kjj0jKollljlnlmkjjolmkl%mml
3365D113lknlljjlp%knkjknlkklmlklmkjmnLmnnJnmkjmkmjnkkmlllklkklklkkmjo%mmkko%
3359C925mjlm%lnLp%lmlklll%kp%mk%pjjqJm%loj%lmklkkllljnjmjkmmkjmjjknjp%lkjoJm
3352C749lnKm%njkmj%n%mlnkk%n%jnllJomJlklkmjjmkkmjoJmnLnlklkklkloLoJn%%nknjj%
3346C588njn%oJnKmKqJnQrLon%qqk%mPkoj%p%llJo%ljml%mjmkm%joMrlLkkllkljjmjllkkj
3339C433klkjmlljkjjnjlklJml%lknk%llj%n%n%lkjkmJok%kmJmk%mkl%kl%nkjlkjjlkmjl%
3333C289kkJnmJqOnklmMnnLpjjkmKmjkkmjkk%kkll%lknKllkjjkjmklk%lmjkj%njJoKknlJk
3326C155mklmMp%kkkjjljmj%klkJlljkjkm%ljkkkljlkJlkkjklkljlJlmJmlKmJlkJoJ%mmJ%
3320C031plk%%nj%lljlkKm%nk%lk%k%n%jljkl%lj%mJmjkkkjlj%l%lk%lkl%jjkm%%nk%llj%
3313B909ljjmJn%jljk%lkl%kkjkjkljkkkJ%mkkkjjlJl%mjljlKmKmmjkjj%lJokKljKn%ml%j
3307B797nKm%jmkKln%%llJkjkjjo%%%klJl%ljjjoJkljjl%l%kjkkj%l%Jojl%j%jljjnjj%l%
3300B691jkljjkkJmj%mkJmJjlmj%kjjjlk%j%n%jnLkjnJl%mKkkjJj0J3j1jOj1LnQj1qM%Knk
3294B595jMmjjkl%mJjljLo%jljkjjkjk%mkjJmKljlkJkjkk%ljJljkjkJljlJllLmjjJm%kjjm
3288B502Jkkkjjjjk%lj%mJ%ll%kjj%lkjJoLm%jkjj%lkJkkkk%%jklKm%JmKpkkJ%mKjmj%mJk
3281B413kJk%lkLmjkjjkkjkkJlkjlK%kkJljjjj%jml%Jlkjj%%k%lknJKkkkjj%lJmKjkmKmJk
3275B329jjjmJj%lKoLllJm%jJk%lJnkKkkjj%jjlJkmkJjnnRjmK%jmk%%jnkJ%k%mKll%%kjjl
3269B247JljKm%mKjKojKljjkJlj%l%%k%kkjmJlKkjlJ%l%JljlkJk%k%%nJjjkjjjkjJlJljjk
3262B171jKjjkk%klKl%jk%kl%lK%oK%l%k%LpNpkMj0NmJjkjJlJjJll%JkjklKk%JlmJj%lJkJ
3256B103n%%kjJ%kl%jjk%JkkmKk%jkJ%kmjJ%k%ll%MmkjJ%mKljmKmM%oKllJk%KkjnMJnJ%oM
3249B036JomK%lkLlmjLqNj5J5Pk1J4j5J0nRNKrj2Jk0L4j3KrlJlpJ1ql%jLMmkjNlmNnmMKrK
3244A979JlKmKklkKkmjLjl%nK%jkJlJk%nLnJmJkJjJmj%k%JkkJkJjlKmjkjJjk%lKkkjjJJlj
3237A914JlJlj%JmjKl%kk%Jjk%lKljJj%klNoMmmKm%NoKn%j%j%jj%kkJjjj%kl%JjlJKoJjj%
3231A855kkJjjmKj%lJkJlKkk%j%mkj%Lkl%KkJlkLk%m%kkJ%kLmJk%jkj%jjkJlJjkLlkj%kJl
3224A796Jkj%%lJJmLjljj%k%ljNmJpMlK%JqMjj%jmMmJjk%jjjkKk%lJlJ%%jkmKlKjlJjjjkJ
3218A744%ljJkjJjjkj%%kJ%mLk%k%lJkjk%JkjjkjK%mjjLjjl%%k%%kkK%k%kkjJkjLkjl%jjJ
3211A692kjjkKjlJJkjoOklMlKm%kj%jJmKkJl%jkJ%%kk%KkjkJkJl%k%kKjlJ%lJ%k%%%j%%kk
3205A642k%jk%Kl%mLkkJ%jj%%jk%%%klK%l%jJjk%%JljkJj%j%lKkJoJj%LnKjlKj%nLlJnMkk
3198A592%joKkjMOpj%joPknMkKjjjJljkJkjKnMlj%jkKjmKj%jjJjkkJ%%lJJlJljKl%KlJjlM
3192A552mjJlJkJjJkjj%lJJllLjk%kJjjkJjjkKlMnJ%kJj%%lKj%jlJJlJlJKoJJjkjjKmjN%n
3185A505lK%lKJ%lj%%lKjj%jj%j%kJkJkjjJkJlLlmMkk%j%JmJJjlK%lkLk%kjk%KnKjLnjKjj
3179A463Jl%kJ%jjJkJl%%JlJkmL%Jl%KllM%ljJlJj%j%kJjj%jKkmJ%nMJjn%Lll%PmjkjJjKk
3172A425%%lKlJ%lJl%JkJj%%lkKk%%jJmLlKl%J%m%Ll%%kJ%%l%%kJ%kjlJJkJk%lJJl%JJl%%
3166A386JnLmL%kJjkjJjJ%lKpLJjJlJj%k%jJjjkJ%k%Km%jMkkKkmNqRmklLklK%jjjk%LljkJ
3159A349j%k%Kkk%kJ%j%kJ%%jj%%%jk%jj%k%KmKkjJj%kJJj%lJnM%kk%L%jm%LnJkLk%%%JmK
3153A316jkjL%nLj%kjj%JjjkKjk%%nMjnLjLkMq%%kJ%nRj9J2oMMj1QkJKJjqLMmkk%KKm%%kj
3147A280LjJkj%mKKj%ljJj%KmjjJj%kK%k%jj%%j%jk%JklL%l%KjjjjKlkJKk%k%%jJjJj%j%j
3140A250kKJlkKmLm%JjjJJmKkk%%%JljL%nK%kJj%jmKKkj%lKkJkL%lkKkJ%k%kKkJkJ%k%jJj
3134A217%%Jjjj%jjJJjmKjKkJkkjJjjJjJjj%kJKoNlJlJJkJk%kJjJlJkJKk%kJk%%jJj%jk%j
3127A187%k%J%lLm%%KkjJKoLlJjkL%kkJlKl%JjMjoNkjjj%Jk%kKkK%kj%%kjL%%mKj%kJ%kjJ
3121A159jkJjJ%k%k%jJJj%kJkKnKLkkJkJJoMk%kJJmK%jj%JmK%k%J%jj%%kJ%JjlJjJ%k%Jl%
3114A130LkJm%%k%J%j%k%JlJKkKmJjnMJkKjjk%LjkkJKkj%k%%JkkKjjJkKLmkJk%kKkKkj%j%
3108A103JkJjj%%%jJk%lJKjJJlJj%jkJmL%j%j%jJlKkKlj%%jkLKn%JjKkJ%%ljJJl%JjjJkJl
3101A076JlLjjlPmmj%LMoJlLLj0NJoNl%K%jlKJm%LlJj%%lKj%j%jkKjJk%kJ%kkLjJmKJj%%J
3095A055kk%JjkLkLqLjLmK%kJj%%jjJ%mL%JlJJjjjJ%lKlJkKlMljkLk%JjK%l%%kJj%%jlKJ%
3088A031lkNojQ%nlKjJJljKlj%JjjLmk%J%JJ%ljJjjJ%%%mKjJ%%mKkJ%jKjkKlJ%JjjkjKjJ%
3082A007KklLlkJKlJj%%j%jj%%JlKjJmLk%JjJk%jJjkkMmKjJk%J%kKlJ%%kJ%kJ%Jm%KmkMJj
3076I84nQnlNkJmKjkKjKljK%%mjKkK%kLlKjnL%jKkJlJjjKjjJjkJ%L%l%j%kKkj%JmKkNmj%K
3069I63kj%jK%kJJmK%kjKk%jkK%lJ%jKjkK%j%Jkk%KJljKmKLljj%jKmLkKnLjjjJjkLj%kMlk
3062I38JJKllKkJlJ%%JkkLj%%lJjJJk%%Kl%kKk%Kkj%Jj%kLjkj%JJlJlJjNkKmJjkKjJk%%jk
3056I17K%jJJljJjjJj%%LlnN%nJLkJjMp%LlKlKlLnPljRj4lQMj1J4Jkj2J0j2NQj6JMoRmMpN
3050I03k%LkkjPmmjL%jmOklKj%%kJKl%%lMkjJlKlJ%%jjlLkNnJjjJlKj%%%%jJ%jJJnJ%Jj%J
3043H83kkKjJJk%j%%%%jmMlJ%lLjJ%JmLj%jj%KlLjl%KkkMKkkL%o%%JKjJlMnJ%JlKjkjJjJm
3037H61MlJKlLjl%jJ%%%%jjj%J%%jkjJKl%JjkMkjLkKlJJl%jkLJmLj%jk%JlJKjkj%Kj%jkLj
3030H46kKj%JkjJkKl%%kKj%JJnNlJjjjMlLlJLmLNj3KLpMLmLlkLkJkJ%j%jLJkjkJJJj%%%m%
3024H28%JJlJJlJkK%kkKj%J%jjJkJkJ%j%JKqLJK%mkJJJJjJkj%%%jJj%j%j%KlJJmKKpLK%kj
3017H10%%jKkjKkJJkjJ%j%%kkLjJKmJ%%Kjj%mKkKkjKjkKkJJk%%JkJjjJKk%Jj%jjj%%JJk%%
3010G95%j%jKjmKjJKmKkjLjoQm%JKmKkJ%kK%JjkMmJ%j%lK%jjKl%KkNpJJjkK%kJkLlLjjKkJ
3004G81k%%kLjkLKkk%J%JpJ%mkOMmK%m%JJJmLmKjJkjjKJj%JlKjJkjJK%lLkkJjKl%Llj%JKm
2997G63jLmkLkKKJJpMklL%jKl%jK%j%kjJ%Jj%j%%k%%%KlJljLKj%j%lK%lLKkk%%KlJJKlkJJ
2991G50lK%jLkpNl%%JjLlj%LjjjJjkLjjJ%%lJKlKjjj%%KkJkKl%KjJ%kJj%%%jJJl%%KkjJjK
2984G36lJj%jJKjjlLkLjj%jkNm%%%k%%jLjlKj%jKkKjj%J%%lJk%Kj%LkkKlKlJ%NLoklOo%LK
2978G24ljLoJ%%J%jJl%LkLjjk%%JjKmKjkJj%JJ%j%kjK%jj%Jk%LjkKmJ%%%Kl%kJJ%%j%%j%J
2971G07lK%kLjkJ%JnLkJmNkJjJ%%j%KmKJjjJkKjj%j%jKlKkLkjjLkJLjmJ%kjLjJ%lLkkJ%%%
2964F94kKJlKmJJjjJJkjKkJJjnOlJjjK%jjJjjKkLl%%JkJ%j%Jjj%%mJKKjjj%JjjKj%jjJJnK
2958F79Ljk%jKj%j%JjlLkMljj%jJj%LJkjj%kL%pP%loRMj2oJ0Op%lPqJnJ0KlnKJKkJJJnOoK
2952F69JjjjJkjJJlK%kJjLk%%JkK%jLoKKjkkKJnMjJjkj%%K%JjJl%jJ%jJJj%jjJkLlKk%J%%
2945F57Km%%%k%LJljLmKJj%jkJ%J%Jkj%J%k%MjjjjnN%KkjKljKJ%kJjjkOm%jKjmL%j%jJ%kJ
2938F44jLnJ%J%%%%jjKkJ%%%j%kLj%jjkMk%JJj%mKJJlJj%Jj%J%j%j%%KkJj%jj%%JJjkKkK%
2932F35%k%jK%kjJ%KjkJ%jJjMnjjLj%JlPrK%%jkLKmj%kL%NpLl%J%jJjJlJKj%jJjJkkMjkKk
2925F21Lk%kJkKJlKkKk%%%jLj%jpOjJKkj%jJkLjJj%lKjKj%j%kjKj%KjlJKk%%JjKjj%%%%jJ
2919F12kkLjjJj%JkLlLkLjk%kJkjLKl%KlkLk%J%%jLl%%Kkj%Jjj%%jKmLJ%jjJj%jjJ%%JjkL
2912F02kJJkJl%%JjKnJMmJjJKj%j%J%%jJ%k%LmKJl%KjLmKljLk%JkjLmKJ%Jl%KlLmJLmKJl%
2905E90kLmJkQpLlpJ1kmOlKkkJpOMmJkJJlLjjkLlMk%%j%%kJ%Jj%KkjjJKl%Jk%L%kjJJ%%kL
2899E83lLlKkmNjjJj%j%Jj%JkJJj%j%JkJ%Km%KjJklLjJjJkKmMk%j%%JlLKjjj%kk%LKlJnLj
2892E68jMmJKJ%kJjJlKJkKk%%%%jJ%jjJJkjJ%%%JkKkJjjKjJjlMkJjJkLlJkKkJ%KkjlNoNjk
2886E60J%%%%JjJkK%l%Lkk%%%%kMk%jLkjj%%J%mNkkKjJlKJ%j%%%kjJj%%k%KlJMjoPlJ%%jJ
2879E52j%%JJjk%%%lLlKj%jJjMlLmJJlJ%jKj%%Kj%Jkj%kK%%%j%j%JkJKjkLkjjLlLkJ%Jjj%
2873E43Jk%%jJ%%kJj%J%jJJjLm%%%kJkJKk%%jJJJ%k%JlKJ%l%KlmMKKmKkKlKlKJmK%KkJjJk
2866E33%KJo%MKkj%JJ%lJlJJLm%Ll%%JlNjl%JkjLkJ%j%l%NmkOJnjJjJ%kLMj0MLoNnMmJOjm
2860E25Jl%%LJoLjnOlJj%LLoJO%jn%lJ0qKrJ1moJ7nqJ0rj0J9mk3J7j2J5lJj2J1lK5j7j%oO
2854E23qJOoKnN%jMkllNpL%jMjK%KmlNmJjjKk%JjJjKkMjjjlKJ%JjkK%jjlMJlK%JoN%%j%jK
2848E13jJJjljLkjOlmJJjMmK%J%kJkkMkJkJ%jkLKllKKoLJ%lKnMkJMkkJJk%%K%kJj%%%J%kJ
2841E04jJj%%k%JkK%Jjj%jJjJ%jJ%kjK%kK%%%j%%JJn%JLk%JjjJ%jKlKkJKlKjlLkKjjJjjJj
2835D94%%JlKjJJkK%jjKlJjJJlKJkKmKL%k%KlK%L%pRnmJMkjlL%JmKJl%%jLjj%KmLkJjkK%k
2828D86JLjjj%Jl%J%jKjJk%Kjj%Jj%KlLlkKkJ%JJjJlKjJ%KjlJ%Jj%J%%kJk%%J%%jJ%%jJ%%
2821D82%jkLk%jJJkjK%jJlLkNmJlJmOljJLmLjlJKlJ%JkJkK%%lKKnM%%l%KJj%JkJjJkKjkKj
2815D73Kj%jJ%l%JKlL%k%MmjkLkKkMjkjJkKjJjjjJjK%%kJk%J%jJjjJ%kJjNmKk%JJ%k%jKKm
2808D65J%J%jlKnJ1oKrRKoKMjk%oNk%JJjKnL%%JmLjl%Lk%JJkJlLjJ%%lKkK%kKjj%%JjLlLm
2802D58%%JJlMl%%lOmJkJ%jJJlLkJl%%K%kjJ%jNk%%mLkjJjMlJJ%j%JKmJLkkJjKkk%KjLm%J
2795D52llL%LnJKK%JmJ%Kj%kJ%J%KkJlJjJ%%k%JjjKkLk%%JKl%KjlLjJl%Ll%J%KkjJjjKKmJ
2789D46jKk%%jKj%JjjJ%Lo%JJkK%JkLkj%MkkJ%%jj%jjLjKk%jLkkJjMlmOkkkNJkjlNrJ0%kk
2782D39mL%LmKJj%j%LkkLk%JjJjjKk%jjKmM%JjkJKjjJjJkJj%JjkL%j%kLlKjjkL%JkLk%jJK
2776D36%lKkKlJj%%JJkjJ%j%Lm%KjJjKkJlKk%J%kK%jjJjJkJkKJ%kJ%mNJnMjkJJ%%kLlKj%J
2769D28JlJJjJj%%JkjJ%kKk%kKKlK%%jJjKjjjKJnJJjjKjKjKljJ%KkjLmJKlKjKj%j%JkK%j%
2762D21jJ%JlLjjKjJkKlK%jkNlj%kMj%%j%JKjl%JlNlLnOj0J4j5RjkjjNpKJkkLKkKlJj%JJ%
2756D16jKlJ%%%Kk%lM%jjK%mKJj%kJJjlM%j%%%%Jk%JjJJjjkLkJJJjjkK%kLmM%k%%%JlK%j%
2750D10%%JlKjJ%%%%jJj%j%KjkJKk%mKKk%J%%J%jkMl%k%LkK%j%jjKjJkJjKkKk%K%mK%Jjjj
2743D02Pn%Jj%kMjkJkJ%JjJ%kJ%%j%%JnNJlJj%jKkKjJjLlJk%%JlLjjLmKjkMmjKKkJ%kJ%Jk
2736C97%KJjmLk%KJlKjjL%jjJJJkkMNpKnjJmPjnMjLk%%%kKlKJjjKjKlKkKkJkK%lJJkKj%%J
2730C94%lJjKjJKkjKjKlJJjlJJKnMk%j%%%kKJJlK%%kLk%%Lkj%%%Jl%MlJl%Jj%LjJlKkKkK%
2723C89kjK%KjkK%lJJ%Klj%MllKjLlKj%jJ%jKjjJ%%kJJjjJk%KkKJjjjKj%lLj%%%%k%KjJ%j
2717C82JJlKJj%jkJK%mLmLjLmJ%%%jK%%lKJJkJJlLj%J%%jjlKK%jkKlK%jKjkLkKlJlNlKKlL
2710C81nOj0jQmMKqJJ0q%l%Ok%jkKKjkKmNl%K%j%kJ%%%KjlLl%JK%kKkJlL%KkJkJ%jJ%%%jk
2704C72JKlJ%jKmJJL%kKmK%%jKjjJkKk%%%%jKj%JkjLkJl%KjjKjKj%%%jLk%lJ%%kMmMlkOmJ
2697C68JJlKnNkJlJK%%KlJkJjj%JJJlK%JkjKj%KkK%%%kjJK%j%%Jm%KjjKjjKlLlJjMl%%K%l
2691C63JkKj%%%j%J%JjjjJJ%jKlKj%jJKmjJLlJj%Kk%jK%kKjLnLlMj%k%j%MkJmJ%KJ%%%kKl
2684C58j%Ml%%JjkLj%jLkjJ%JjjKj%JlJJjK%lMm%%%jLl%%K%%jLnLlJ%JJm%kKKk%K%lJJ%%%
2677C54J%kKjjLkj%kL%Jj%Jj%%KlKjjJ%lNk%j%%%%jJJlKmQmjJjkOo%JJjjjLkkKJ%J%%kjKj
2671C50%jKJkjK%KkkLmJKlLkjLmKJjJKlJ%k%%J%lKj%MloOLkj%jJkK%lM%lJ%lKjJkKJjk%JJ
2664C46JjjjLnKMmJkjOjkjLqMNmNnjJjlJLLmqK9nk1KOk0M0k5J2j5LKoPlNnJMkjkjkQ%jk%m
2658C39LjKKnM%l%kOkjk%LlJ%LlKjjlKLnJjKjJKkj%kK%mK%K%jjKj%kLJk%JjjkLjlOm%Kk%J
2652C37%%kj%Kj%KJkKlJJkKJkK%kJk%LmMn%LmjKJj%NklLJkJjJkKjJjJjj%JjJkKjJJkKk%Lk
2645C35%jJ%%jkJlMj%%%%%%K%kJjJ%jJnMk%%JjJjjKjKkjJj%jJK%l%JKlJ%JjjKj%k%JjjK%j
2639C28KJkJjk%JJkKjL%njKNl%oM%mOpLLJoMjJLkkJ%KkJ%JkjJjJkMk%%k%KJlK%jjJJjKjjM
2632C30l%jKJkj%jKjjjKk%J%%Ljk%J%j%%JkJjjJ%jJkKKl%%kKj%JjJ%%%lM%kj%JJlK%kJ%J%
2625C22kLlJJJmMj%%%j%jkKKj%%%kLlJ%kKjJJ%j%%J%j%%%J%%j%%jJ%jJkJjKjjjJJ%j%jKJk
2619C18JjjLjJ%mLk%MlnNjmK%%JjLjj%K%kjLmJMmKj%%%Kjj%jKkKmNmKkK%%%LlKojPnLJnNo
2612C11MOjl%Kkj2NNMpLkJjJjKl%K%jlM%JkkKJkJkJl%K%%Kk%LjkJ%Jl%J%%%JJkkK%kK%Jj%
2606C11JmK%JjKlLlKkK%%jjjJjKkK%jkJJJkjJJ%j%KmJjK%%jJlKLk%%JlKjLjj%kKmQqJ%JNk
2599C09%lKJkKjj%jJjKj%%jJ%jLljJ%JlMj%%lLkKj%JkJ%jj%Lj%jjK%%KljLlKjLk%Jl%%Kkj
2593C03%Jj%J%J%kJjJkjJLl%JkKKkkJ%J%%%%KlJLmj%KkJ%%kJK%KmjKlLoRj2J0rMjQoJJ%Jl
2586B99jMk%jLl%%%Kj%kK%jJl%%LkK%kJ%%%kK%KjjkK%%%jJkKKmMJlljLj%K%kK%%kJjKlJLl
2580B97KjkJJj%%%JkKJlJ%kJ%kJjJj%J%%%%jNk%jmKKjJ%lkM%%j%kJ%%jLnLlKKJmJ%LmJJJj
2573B93J%kJkJJj%Jk%jjMkLlJJjJk%LkJJ%mL%%jjJ%LnKL%m%MjkjjJJJlL%%kjLmJLlKj%l%%
2566B88LlJJkJJ%kJLkJmJjOoM%lJkJOoJJmLMlJ0j1ljmJ7qKlj1J4Jok%MJk%jlMj%%%J%%jLl
2560B87KmKL%lJjKjkJKlK%%jlK%%JJ%lLjjLl%JJkJ%kJjLlKjKj%j%jJj%jLjjJ%jJ%j%jKjjj
2554B83JkLkJkJK%j%j%jJJjJkJJ%JJkKo%K%L%Km%Jj%%JJlkK%KjjKjkKjJjLkJl%KKmJKlj%%
2547B80J%%J%mNmLj%jLk%jkK%%%kJ%%%%%%JkJjKjKjjKlJ%lKJ%kK%jjJJj%J%%%%JkkLK%kj%
2541B78%J%Jj%kL%kjLkjJj%kJJkLk%%JNpLJjkJJJjlLkJj%%Jk%JKmJJ%kLjkJJKkjJ%jjLk%%
2534B75j%LlJ%%j%Kk%Jk%JNnL%k%%jJjJJjJjJJlJk%J%K%kKjj%jLlKk%%%jLk%JkKjkMkkJjJ
2527B72kJMk%jLkl%JnMKlJMlKk%%kLjkKj%%%%j%JKjj%JkMlNl%Jm%%K%%%JljM%%j%JkjLj%%
2521B71JkjmMkLjjJkK%Jj%%%JkLkj%%%jJjJjK%lLjkLkJkJ%%JJkKJjj%jjLJkkLkjKLKmoKKM
2514B71rJ0lrPkKlKJKlKmOmjjLkJjJkjJJj%kKJlLk%%%KJl%Kj%J%%l%MkJjK%lKjkNlJJjjMo
2508B62NjlKkJJjjKlJ%JlJJJkK%%JkJjkLjKjkj%KJj%kK%J%jJkJj%LkJLlk%jJMmJkjkK%%K%
2501B62%lLkJ%jlNj%kK%j%JkM%l%%Kj%JjkJJ%k%%LlmMKjjJjJkLKk%%%k%jLjJlJJkjK%%jJj
2495B58jKjMmjKjkJ%Kj%%jJ%jJ%j%J%jjMkjK%Jj%k%Kj%JkLmjkK%oMPlkk%JLmJJLnL%jjJkM
2488B57k%KlJJ%%jLk%kLj%Kk%kJ%jJ%JjJlLk%KlK%k%jKJmKJJmKJJ%%j%J%jkJ%%%JJ%%l%Kj
2481B53kJK%k%jKjJJk%%JJ%JkJkJj%j%L%jkJLl%%kMmL%mOmjJjK%%JjkMJmjLj%%Kjjk%K%k%
2475B50K%kLk%%kJJkKKkkLk%%%K%jJkJ%jkMlKJjkjLjjKlKJkLlJJlKJJlKjkkLljKMl%JkKlL
2468B49jKKkkKlLljKjJJo%J1j2kJ2mmLOj3J5J1k5Jj3J5Qk1K5Kj9j0J9oP%Nj7PpOPkKJojKk
2463B44j%JjKKlJjKmMJ%lJlNljNkkmLKJlJLkk%Nk%lJ%Jj%JJJ%%%lKjKlJJlLjKkJlJJjJjJ%
2457B45%jjKk%%LkkMmMk%kK%j%%KkjJJm%KkLklNnLMlJlKLjlLjKk%%jKjkJJlMjkJK%jjJl%M
2450B44JkkJ%%%JkjJ%%Lj%k%%%%JjKmKjNn%%KkJjjL%jjJkJKlLjkKk%Kj%k%L%l%Lj%jjKkJJ
2443B40kJj%KkJJjjNkjj%kJLlLkjlKOnJk%kLjJjNlLkkjJ%Kk%%k%%JJj%%jkLK%kjLm%J%JjL
2437B39JlJ%kL%%jkjLkJJkKJm%NljKKm%jJKjJkj%Jj%KlLjKmKJJkKlJjK%jjKlJkL%%jjkLjJ
2430B35JJlLkKkKl%%JmKJJ%JmJ%%%Kk%kK%%%j%%%JjJJkkLLlJKl%mLJkK%%%k%LkKj%j%JjjK
2424B33kKk%Kj%%%j%JjLlJjLnKJJJljLk%%jJKk%JjJjKk%KjJk%Kj%jj%KkL%ljJ%KlLKlJj%j
2417B30kMqOj%qLJ0jnNjnKkJKjjkLjJjJJJkJjjJJKoKKjkK%KmMkjkLj%%Kk%%JJ%j%%j%Jj%M
2411B32m%lLkJJkJ%%%J%%%lJ%Ml%KlJKlK%%JjjJkMjk%kK%%J%lKjJ%J%%kK%%Kl%j%LkjNljK
2404B29lK%kKkKkJ%JmJJJlJJ%JJmJJ%%l%LkKjkKJJkJj%%%J%kJ%jJKlKk%KkjLlL%l%KlLlK%
2397B24%j%j%L%j%%KlJ%jKjKkjJJJj%j%kKj%%Jj%%%KlJj%%KJ%lJKkJjNrJ0qMnNmlKL%kJKk
2391B22LlLk%%%j%jKJmLkjJ%L%lJjJjJJj%%kKjJ%%jJk%%%%JJkJjJ%%l%JLjJ%%jkJ%%LljLk
2384B20%jJ%%%KlJ%kK%%kMl%J%jJLjkJj%jJJJk%Kj%%jjKlJj%J%LnMkKKjkj%jjKKlJKj%jJ%
2378B20k%JJjJjKkk%%%K%%Jk%KjkJlKJkKj%%jKjkJJJlkM%kJ%JkjLkMoM%lLjJj%%jKjJkJjJ
2371B16%lM%%jjJ%kL%%KmJj%Kj%kJJ%KllLLJmJj0J4j0jRoJ4j4JPljLlk%%KKlJlJkLkLjJkJ
2365B15jJj%KJnjKJ%J%kKjJjJj%jKj%%Jk%%JJkJ%%jJlL%jKmK%jjLjJlKJ%j%Jk%%Kk%%KlKk
2359B11Lj%kKJkJj%mLKjKkJjjLjlLJlJjjOjn%%JjK%JLl%mL%%Kl%jL%k%j%JjJj%KJjlK%jKj
2352B11%KjkKkjJ%%J%%jj%j%%Mk%JjjKjlMkMjk%jJKk%kJJJ%j%j%kjKKkJJmKJjL%nMjjkJKk
2345B07Ll%kJ%LlLmM%%kJlLj%LoNnPmLlJJk%K%jKk%jJ%kJjJLlKjJj%KkLnK%JJl%%kK%J%J%
2339B09kLkJJJjkJjJjJ%jkkOmMnKjjjLjkJJj%jJ%JjJjjJj%%KJkLlkKJjJ%KnJ%KlK%%jJ%jJ
2332B05%J%ljJKL%qOkJlMjJJjjJlKJjKkjJ%%%j%Jj%%kKJjJ%%ljOmMjj%jjLkKmKLllL%kJjK
2326B04kjJ%jkJLjkKJ%j%Kk%%JkKjJjkKkJ%jJ%k%J%K%kLjJklO%lK%JkkNlL%kkjKJjkNoJLN
2319B08Jj0Pmj1J2jkKkJ%LlK%lKjKjKl%JjJJjjKlJjJjJKjkKkJk%JJJ%j%j%%J%JjJjj%J%jJ
2313B01J%mKjLl%JjjK%%lLj%JJ%%kJkJjJJj%Lk%%%kK%%%j%%%J%k%J%kLk%%JjKljKkJJmNmO
2306B01mKjMnj%Mjj%KjKjj%J%%j%%JkKmJK%j%%%j%%KkJjJ%j%JjjjJ%%%JjKlJJ%JlJkLjjJj
2300A95Jj%%%%jJ%J%%kJJk%%%%LKk%lLj%jKKn%Mjjj%KjjK%kJKlJJm%M%%kmOlKjnO%jjK%Lm
2293A95KnLK%k%Jj%JjjLljKkKkjMkjLjlLk%Lj%j%%j%JjLkjJ%jKkMm%kNj%kLkJk%kLkK%jjK
2286A94jJj%jKlKjJkLkJjMlj%jLjJJkj%jJJJlKk%LJ%lJjJlKlL%Kl%%J%kM%lL%%kjjKJkK%J
2280A94jjjKk%%LljJMkkJjJjjMkJmMkKkK%jjJKmK%Jj%%KmjMlJ%lLjJj%Jj%%jM%%jJ%kJj%J
2273A92jJmMmNmL%jj%%KjlLJ%lNJkjjj3J9qjKPqJJj7RKOMlQnj0kRj1QLj%nNjKlJkLkkMjkL
2267A91kjlKMk%jjK%j%KJlkN%lJ%j%jJKj%jjKlM%lLk%JjjLlKkKlJ%Mm%Kl%K%KjjKkJjJ%jJ
2261A89JlJj%Kj%j%JjJjKjKmKkJ%K%Jjjj%LkKlKk%JjjJj%%kJK%k%kJL%jK%jkjMjkLk%kLj%
2254A86j%Kj%kK%%j%jLmNlJkKJKnKjJ%lJJJjJkK%jLl%KlJKJjj%kJj%%%KjjjJJlL%j%%jJKj
2247A85kKkKjKKmJJkKmOjklJMRj3%JjlK%KjJJjKmKkKKlKj%j%%%%K%lJJlJKkLj%%j%Jj%jLk
2241A83%%JkLk%%jKjKkmL%kKLmJkJJjKjJlJjJ%jK%%kJKlK%%lK%JJlKJk%JjJ%lLjJJkkLJjJ
2234A83jj%j%jJJjJ%lKLljMjjk%LJjjjjJ%J%JkLm%K%JmKKmL%%kKjMoJKkKk%KlJJ%%j%%jJJ
2228A80%JjJjKJk%Jj%KmJJj%Kj%kKkJ%Kj%%%kJ%kMlK%%kJkMl%%JkJjMl%%kLjjL%mMpJLk%j
2221A75KQrL%lL%kmPkKkKjkJ%%lMkJjKjjjKJJkjMkkjJ%J%j%Jj%J%J%%l%JjKkLjlMkjKKljj
2215A75Lj%KkkJKjJ%jjJjJJjjJKjkJJlKJ%jK%jjKlKj%JJk%jJ%%%%%jLnLKmjMlNoLjkLj%kJ
2208A75JjJKjKljLmKKmKJlj%L%jJj%jJLklK%jKjjKjjKjjLj%Jk%jjMkjMlj%%JKlLkKlJJ%j%
2201A75%%jJ%JJjjkJKj%JlMjj%jjJJ%K%mK%kJjJkKJlOo%K%mjOmKLl%jJKjK%lJkjJLjjJ%%%
2195A74jKjJkJlK%K%kJ%k%%JLjkKk%JjKjk%K%%jJ%lLmL%%%MnNnMk%k%%KlK%%%jJKk%jKjJk
2188A72K%%k%JjKjJlJjJkKj%%JjJkL%%j%jK%lLmMLnJ%Jj%%jKkJjkJ%jKJj%Jk%%k%%JJJk%K
2182A71kJ%JJlLkjJjKjKmKJk%JjjK%JkJ%JjKkJJlNnKmMkKJjmOmKkK%Jj%JkJjjLlLJlJjLKm
2175A71k%KjkLkNmJJn%NlKnLjOmlKMkQk1J5k3K1rJ1%mKknOKnMk%%jK%jJ%kjK%%kNkjjlLJ%
2169A69KkJkKj%JjJm%%%JjJMl%JjJ%%k%JjLlK%%lKjJ%jkMkjJ%j%J%%j%JKkj%LkjKj%%jK%J
2162A69k%j%JKjjjJJ%jJ%JklKKJKkjjKkjkNjj%jJJk%%lLKkLl%J%kK%%%jLkkKjLl%Ll%JjJ%
2156A67kMmK%%JjJk%jJlKMlLklJKkJKk%k%%JLmJKkjKj%k%KkJjNlJ%%kJKjkjJJ%%jLmJjJ%J
2149A65%jLkJlj%KMmkKK%MoN%oJJ%J%j%KkKmjKJ%JlJ%jJ%%JKl%KlLlKj%KlJ%JlLkJj%Jj%J
2143A64%JjjkMlMlkKkLjJJ%jjjjJ%%KjJkj%K%%JJmKJJkKJmLj%KkJ%k%%Ljk%%KkJkK%kJ%Jl
2136A61Mj%KKjllLj%kLj%%kK%lKJkJ%J%k%%JJkJJkJjKkJjJ%j%Kj%Jk%%kLjKk%Kk%Kjk%kKJ
2130A61lLJj%JjJkJkKJ%kLl%%J%JjKjk%JjKk%JjLl%LjlKjJk%%KkKl%kJLMkl%LNmmQj0%OJn
2123A59JkNnJkKKj%KjjJkJkLnMj%JJJ%lLk%jKkJkJ%%JJ%%jjJj%J%jj%%JJKmJKMp%JJJlLlj
2116A57MlJj%JjJJjj%%Jj%jKjJlK%kLjjJ%Jjj%KJ%kJ%jjJ%KkJKlkNkJnMLmlK%KJlLjk%%%%
2110A57KkJjkL%%JjKnK%j%MkKnKjJKlJ%%%Kk%%j%%J%JjJk%KjKkJkJkJJ%kJLl%JjKjJ%%lK%
2103A57kK%%jJKmJJKm%JLkJjJjjjJKk%%jJjLkKlL%mM%%lKj%lLnNKnNJn%kOjkJjKk%KjJj%k
2097A54%Lj%lM%JmLk%J%jJkKJ%lK%JkLkj%%KJjk%jJkNmMjjl%L%kJLjl%LjKmJ%KmKjKkKl%L
2090A56kKJlJ%JKlj%%K%%lKkLjkK%J%kJ%jMmkLMmJJklJMjJjlLlJJJkjJJjJLjlKm%JjkKKmN
2084A55JlJlL%k%jLjlKLjkKKlkJLlKlMnNkj%JjLkkKjMljkPmKrMJLJoQmqR%LpLKn%OlnjMLK
2077A56jklJllPj1Rjj0NJ8lk0K2Ll5L5j4L5m4M5l4K3j7qK9jl9J8j9NK5k0Rjj6J9lj3J0Rj9
2073A43J2Mj3NoJ0qJ0mKlkJJkPmJlJjMpKj%QnlMJj%k%Jj%kKMlLo%OkjjOn%j%%Lkj%K%ljJK
2067A52jKmLkKj%kjK%jKmNlJ%%kL%L%nKKnKMl%lMKmjjlKLmNjLlkNjJkkMlJKlkMkLkjJ%l%L
2060A51JkJkjMkkKj%%kNmJJ%Km%LjKlLkJJJlKkJKjjkKKl%jLljJ%MnJKj%%kLk%KkKJkjJJjJ
2053A51%JjkkK%%jKj%JjkKjK%kjKjKkLjljKlRn%jJjJkNpN%kKJoKLlK%j%%KjlJ%JKlJkL%%l
2047A46%LkkLkJKkj%jKkKjjL%kJJ%%lMkJJ%j%kKKj%nM%j%J%jjL%jjK%k%%JJkJ%%%KnLjKjj
2040A47J%kKlL%%j%jLkJkLlKkJmOjKkkKkjL%%KlJk%jLmK%JjJjkLKj%kLlK%mMlKkJ%JJ%j%K
2034A49kjj%Jj%J%jJ%Jk%Lm%LmJJ%kKJlKkJJ%%JjJlKjJJjJjJkKK%lJjjKjjJJ%%mMjKlKjJ%
2027A46kJjJjjJJkJ0nojMMknJ3j2jMkMJl%k%kOklJjKjJJkjLlKjJJkKJjjJ%%%J%jj%jjL%j%
2021A45%jKjJkJjKjkJJ%JkJJj%%jLmK%%kKjJjJjJjlKjKkKk%J%JJ%%%jJ%%jkLJjjjKjJkKlL
2014A45lLljKJmNkLkjK%%kJjj%%KkKl%JJjJK%%jkLlJ%%JJlMlJ%%%J%jkK%%Jjj%%%%jjJkKJ
2008A43MkLk%l%K%lKjJjJ%%k%%KjjJ%j%JJj%KklNk%jKjkK%k%%MjjlK%kLkKJ%lLlLmOl%mkO
2001A43jkjOljkMJJkkjL%k%%%%%KlMkkJ%J%kKkJJj%Jl%JjJjK%JkKjk%J%KlLkJlLlLkLjJj%
1995A41jjKJkj%Ljj%J%%jjJLjjjKoNjJJmLLmKJl%JjJlLJkJjKmJKMlkJJJ%pOjJJmJKj%Jm%J
1988A39JMl%lJL%kKj%%kKk%JJ%kkL%%kKJjjJ%%J%%j%kNlJJkJjjK%%%jkKkKLjjLl%%kK%%Jl
1981A39Kj%%kKJjjjJkJKk%K%jJ%%%KnLkKjkK%Mp%J0j2MLnKoRj1J5Lj4kJ3Kj6JOJJLqOmLjJ
1975A40lJJ%jL%lKKljKJljLkKJjJlK%%jjJkJJj%%JjKlK%jKKjjj%JnNklL%Kk%%LnLj%%jK%k
1969A37K%jjJ%%%%%lJK%l%JKkJK%jjjJjLKl%KmKkMkJkJnM%LnjKKJ%jJlLjjkLlKkKj%%J%Jj
1962A37%%jMmK%k%KkJkJ%jJJkJ%J%J%%j%JKlJJJmJ%JJ%jkJJk%j%%J%Jj%KJjk%J%%kLjkKkJ
1956A36JjKkjJJJkj%J%Kj%lJ%NlK%l%jK%LjlJLJoKjoQ%kkK%%%Jk%JjKlKj%jJ%%%%kMk%jJJ
1949A36jJ%%jk%K%%jjMjjJjJjKjjkMkjkOkjjJ%k%KjK%jjJjjJKJlJjkLj%JjmN%kJ%LnL%%%j
1943A34K%jJKoJJKkjJKkMmJj%Jl%LKkK%mLlMn%K%Kjj%KjjJ%j%%j%Jk%L%kJmMkK%JjjkLjJJ
1936A35j%kL%kJ%jJjJ%kKJJLmJjk%JJlMk%kMkKJljJjJ%%JkJ%mLJj%%LlLlLk%JlKjJkjLlkK
1929A31KmNm%%OjnNJm%mJ0j0J4rjlJKjJJ%lkNlKJjjLmjKK%JjjJ%lMkJ%JkJj%J%Jj%KnLkJ%
1923A32jMk%jkKKkJjLlJJj%%jJJlLj%%%j%%%%%JKlKkJlLJj%%%jJJjjKjjJkJJKjlJj%kNk%j
1917A31KlKJJLjjlk%JKKkj%jJJjkKJj%%jJjKkjJjKkKjj%KjJlMljKj%J%JjjJ%kLlLJlJkKLo
1910A28L%%Km%NoLk%K%Jl%%J%%%%JkJJ%jJJ%l%%KJ%%kjKlLJjKj%lKJj%KlLjjLo%N%llNKkl
1903A29Nn%JkKJJlJ%%JkJ%JjjLkjkLjjJKjKk%%%JkjLl%%KJk%JjJ%%kLk%LmJMmjKJJlNmjKj
1897A30%jjjKMlj%J%j%J%%%J%lJLl%J%JkKJlJ%%KlKJlL%klK%jKlNjjKjNpK%jJljJJjjJJj%
1890A28%JKmK%lK%kKjKjkK%%%kMlJJkKk%KjJkLlkLLk%JkJlMk%jNjmJ%JmLjJjJjK%kKkK%j%
1884A28kjPn%JjLkJ%j%jMlj%%%kLJKkKkKoMMjmjpR%oJ0mr%J6MljNj1ooMkQpPkjMJjjkKlkM
1877A27JJMj1OkMjlJjJjJ%Lk%%%%%JJJk%jkJLjJJjjl%JlPlkJKoO%%%mKk%LkLl%JjJ%%K%lj
1871A25K%%JjJj%%kJkK%J%%%%%JjKjjJjKmJMlKlKLljKknLKJJnJKj%L%l%jJkJJKkJ%kJkLjl
1864A23KK%kjLjKkK%j%%%j%J%kJkLk%J%Jk%%jM%jl%jKJjK%%jlLjJ%KjjlKKlKKlJjLljLj%j
1858A25KjjjMjkjKjjJJ%jLjkj%LjoMKmKjLLnmNMn%JLl%JkMnJJjKKkj%%jK%jjjK%JkKjjKjJ
1851A26%%jJkLk%%JjKk%JkKJklMkKnOjkK%lKkKkJkOm%jKk%KJkjJKkJj%%jJJ%%kNmjK%kLlJ
1845A24k%KKk%kJ%JK%%lK%JoNoNkKlNlkL%jKkKl%JkjMj%%JjJjLjjjJKlJJkkMk%%K%l%jK%K
1838A25j%%%jJkNlkK%LoJJLmKkJkKLl%%j%JJj%jjJjKlLjLk%lMJk%Kl%lLKjj%Lj%%JnKNjk%
1831A24jJmQnMmoKO%jlOmkJMl%oNJ%jKlJ%KlK%%kLmNnMmKJ%Jl%Jj%%JjL%jjjL%k%jK%jJjJ
1825A23%%%kMmJ%j%%JlJJJ%KmJ%%%Kk%%JJjJlMjk%KjkLjjLmJj%%LkKj%kKlKJ%lJ%LKkmJJl
1818A18MK%KlkjK%%JKm%j%Kj%Jk%K%%kjNkjj%KkJJKjlKj%%%JlKJj%k%%J%jKj%%LlK%lLljL
1812A21KjjJkJJkjLjj%JkKJ%kKkJ%%Ljk%JjJjJj%JjJ%JmLkJjjJJkMnMkkJjKjM%%KmkJJ%LJ
1805A25%l%kjMjkLlJ%%%jkLjJKjJj%j%Jk%JlJK%%%Kj%jJ%j%Kjj%Jk%%K%k%%J%%jj%%LlKkK
1798A21jk%Lj%JkLmKJkJJkMpL%J%%j%%%J%j%%JjLkjJlKjjjRpKlJKJJoM%KlLkj%lL%kKkKj%
1792A18jKKmKj%%%%JkKjj%J%jJ%%jjJjKj%%%%J%jkN%k%jJjjK%%%%K%kKJlKjLl%kL%jJj%j%
1785A18jJ%%%kK%j%j%NmLlJJmL%%JnQo%%JKKk%nNkLj3MOpJ1pPqLJKlNkkJ%lNlLlJjjJLjjm
1779A14%M%%JjjjMm%MmJJ%J%kK%%kJ%kMkk%LJoN%nQm%kKjJ%k%K%%jJ%Kl%JkJ%KlJ%LmNoLj
1772A17j%JmMkL%lK%kLmMj%JJlJkKJ%%JjknQlLlKj%%jjJKJj%lKJkLk%kMk%%%jjKjKkJkK%J
1766A18j%jJ%j%%jMnKJ%jj%LKl%Jl%L%ljKLjj%kjLJ%lKJkkKLkjJj%jLk%j%KkJ%%Kkj%JJJk
1759A16%KlKjJJKl%JJnK%mNljNjMnoL%kN%mOJlj%kMkJjJj%%Kj%jLkjJJjmM%%%J%jJkJ%Jk%
1753A15KkJjJk%Jj%jL%lK%KlJ%MlkMk%JkKjkK%lNkjJj%JjKk%KlJjJJj%jJjJ%JKlk%%J%%Ko
1746A10MkJ%jKlNjjjJKkJkJ%%%%J%kLj%%jJKlJjKj%jKkj%JjLjJjjJk%JJj%%jKkMj%lJKJkk
1739A13KMpMJlJJj%mLJjJkKjJ%j%jJJ%jJ%%j%KjKm%%%K%jj%jJKkJkKjkL%%l%OJm%%MomJ6m
1733A20qMlkMmNJkk%LkkL%JnKJlK%JjkMkJ%JJjj%KJkJj%%kLkJ%JkJjKJkj%JJjlLjjK%jJ%J
1726A16kJ%%lj%JJ%Kjj%Jj%J%%JkjKkJ%jJjLjkJJkJjJ%%jMk%jkLJkKj%jJjjK%j%Lm%%J%Kk
1720A13KlKlKjKjkJMk%jJjKlKJkj%JkKJkLk%JjkL%j%JkJ%%JjkLkJJ%jKlKkLJ%lKjJkJ%jjJ
1713A13j%kLjJj%jJjkL%%%jKjj%j%MlJjKjlKKjJm%MJlJ%L%nkkPoNmNJ%o%NljNmJKJkkLkKj
1707A12K%j%jJKmJ%J%%%j%Ljkj%%JJkJJjKlJKlJlK%%JJ%ljM%%kJJkJ%MmjJLklLJkJ%kKk%j
1700A10JJ%J%k%jK%%jK%jJjJ%lL%jkLlKJl%K%J%%kJ%%j%JJ%nK%Lk%JlJ%LjjjKJ%jj%JJjJj
1693A12lJkJLKlJlJ%Lj%jj%%JJjjJ%KkkJJJklNkKqPjjJJJl%MJnjJJJJlJ%%%K%lLkJKJk%jK
1687A13mMjnRnjNpjJOPj0kmNjKMoOj0MQJ2Jj3mj2J4k5J2NNlj3J4MnmKMKqOlKKJkJ%m%NkLp
1681A07OlJJ%kLkJjjkLk%J%LoMJkjKkMlj%KjjJjkMjjkJjK%jJJ%%jKkJjKjJJkJjjJkJjLlKk
1675A08jLjjJJmJJKjJ%KlKk%JjJ%KnOmLlLllOnjOJl%k%Jk%JK%jjKlKjJkJkJ%JkJJ%%%jLmJ
1668A07KJkJjKkjLJk%%KjjJj%%%%jJKkjjMlJkJJ%kJkKkKJ%kMl%Lk%%JjjjLj%kLkJ%Jj%Jjj
1661A08JJkJ%%%jJK%kKlKnlPnOmMMjoKJJkk%Kj%jK%kK%jjLmJ%J%JkKjjKjJj%%%%J%Jk%%Jj
1655A08JlK%j%J%JJlKjkMkJ%JlL%jj%JJkJjJkLjJkKk%KkLkjJkKkkNkjjJkLjj%JJj%J%%%%j
1648A07kJJJ%%lL%%MpPkl%%J%JjJJjjJ%kKjK%k%JmL%JjKkJmLk%%LkkjK%jJLk%lKKkJjLljK
1642A07kNk%lKjKl%K%%jK%kK%j%%jLk%Kl%KjJjjJ%%j%JKkKkkL%JkMmkL%J%%klLkjOkmJKjk
1635A04lRnKMqNklOmJJJj%%%KlJJ%%%kL%jkJ%KmLjj%LkjkJKkJJ%JkJKm%LkKkLj%JnL%lLjK
1629A08lKmNl%Lk%JjJ%%jjJ%jMkk%J%j%JJ%%kKj%JKk%JJlKkMlj%JkJ%J%jjLkjK%%kK%%jjK
1622A07%kK%%j%j%JjJ%j%Jjj%%%jLjJkJLjl%JJjJ%%jJjjKLjjkJ%JjjjjLJl%KKlkNm%J%JjJ
1615A06Kj%kK%kjLj%JkKkjLj%kLkJj%%%%jJkLjkMjk%%lKM%LpJlL%LlQpKlMkkjMmMjkjJJ%j
1609A04JJ%jjJ%%KkJ%lLkjLjJ%j%jJJkLlKj%kJJjj%KjjK%JmKJj%KjjJJ%lKjJJlJj%JLljJK
1602A06jjK%%kjLlL%KnjLjjKJjJjJ%ljLJkkKJ%%jJK%knJKjKkKj%KjJJjJjkKk%%MklMlLKlj
1596A04jJJjLlJ%jJ%%%MoJ%Jk%%%JjKj%jJJ%kMjlJlKJj%KJk%JjkJLljJ%JjK%%J%lJ%KkJ%%
1589A05Jjj%JKnKjKk%KlOnlPjMj2QnNj1ROJj4NjNnKJkmJLkK%JJJmLKkjJ%k%MkjKjk%%%KjJ
1583A04k%KkjJLlJkJKjj%%j%K%jJJJkkLkJkjLjKjJ%JlJjKjkL%k%K%%lKJ%kMmjKJ%lK%kKjL
1576A05k%JlLj%%LkkKJlKmLJJjmNlLJklJJjKk%JKmJK%j%j%jKjKlJ%%JkjK%KkJkJJ%jJk%J%
1570A02MlJjk%%j%JjLkkKlKJK%k%jJJ%KkKnKJJjJKkkJ%JjlMlJ%LljKKlJjMl%Ljk%%KjkLJk
1563A03j%L%JjlLjlQj5PNnRpkMl%JlMm%J%J%%NmJjjJ%jMnJ%KkLlJj%Jj%%jK%jjJ%%%%%jKk
1557A01JkJ%KKnJKJ%lKk%J%jJ%jJ%j%%J%%%KlJjJjJJ%lJj%KjJ%jKk%%%%JkK%%%%JjmLLljM
1550A04k%LqLKjjLkjjLjkLj%Jj%k%KjjK%%%%LlMmJKljjJj%K%j%J%kL%lKJJkJk%JJk%JjmQm
1543A00Kjk%JjjJ%Jj%KKmLkJjJKkJ%jJjjLk%Jj%%lMLojLJmN%lJj%KkjLKoLoRnJ1j3jM%JLj0
1537I4OjJk%KlLLlJkLkJ%kjKkjNmKjMljLk%%JkJJjJjJ%%kJ%%JmKJjJKjkKkJ%kMlMj%nMjLl
1530A00%j%Jj%LkKj%jJj%jMklJKlJ%J%j%J%jK%lLj%J%kjJ%K%jMk%JlKmjK%Ll%JjJ%JjjJK%
1524A02jJk%%KkJKlLjkJ%lNjjJk%JJj%jKkJ%jjKJj%%Jj%Kj%jk%%OmJjk%%Kj%%%JlKkL%jJm
1517I7J%%Lj%j%%KjJLk%nKjJMlJjJJl%KkLklJ%KLmmMpPqRmN%kLjJmKmOkj%LljJ%kK%%%KnL
1511I9J%k%JKjjjJjJ%j%jK%jK%j%kL%jJ%kMm%%jK%%J%nLjMjjlLJ%J%lJ%Kk%%JkJ%J%%jkKj
1504I8JjJ%%jJkLjj%LjjkMkl%KKlJJJjJlj%JKnKKKlJJ%%lKJk%%%Kl%L%%kLkJkKmKjK%jKjk
1497I6K%%%%KmJL%%kj%%J%jJjKkKlKkJJJjJj%J%jKjJk%j%JKkjJ%%jLJl%%K%lJMjokM%LjLm
1490I8kKKoPklJlKKkKpLJ0moj2J2j1J5jkJ5j4MRmnqkOjLKmLkjLkkMkK%nLkKJlMkkL%KnM%j
1484I8Kk%%jJJJjjJl%Mmj%KJkkJKjLlK%KjjkLkJjKjj%Jk%K%jKkKlJJLk%mJJJjMl%%JkJ%J%
1478I9kJJKk%%%jKjKmOn%kKkKk%KkJKkJjjLk%K%%%lK%jMmLljjMlK%j%%jJJkJJjJlKLjlLkj
1471I6jLjKlJJLn%Ll%K%J%Jj%Jkj%%jKJlKjJJlKmL%J%jjJkLjJjJ%jkJ%K%j%%jJJkMm%MoMj
1464I7Lmj%MJkKjmLjjLk%JKlJ%lLkJKjkKkj%jJKk%J%%%JJ%%l%Mjj%JjjjJjJKlKk%j%JLk%j
1458I5KkKjJJmK%KmKJ%k%kMjLk%%%jJ%jLl%J%%kKkJ%J%j%%%JkK%kJKkL%lLnJmMlMK%mkKjL
1451I6lLKlK%k%%JJjMljJJjj%MlkJLjkjKj%jJ%%j%jNl%Jj%J%jlJJK%lkLJJk%k%K%KkJ%%%%
1444I6jJkLk%J%k%LkjjMk%JJk%LJmJjJ%%%Jjjj%kKLKm%Ll%Nlk%jKkMlNqMkJJjkKkLmO%jkj
1438I4%%Jj%KlJJj%%JKlJ%j%J%JlKjJjJJ%%kKjJ%KlkJMlj%KmLjJJmL%%jKJjJk%KkKjJ%jK%
1431I8kKl%JlLjJkjLlKjJ%jjK%JlLl%KJjLoKKJkJ%kKjLkj%JjJjKk%KlJKmLk%K%j%JJkJlL%
1424I6kKkjJKkJ%%%%kLkJ%J%kJKkJj%%JjlLjJjjJ%%jLjjJkLlKKjk%%MnK%jjJJJ%kJj%KjKk
1418I5J%l%L%l%JKjkLkJjjjLJmOmkLNrNJjk%Lk%%kLj%%Jk%K%%jkKlKj%MljKjkJKJjkKk%Jj
1411I3Kk%%JjKkK%jjJkMmK%JjkL%%%%j%LlJ%%jlKJ%jJjLkjK%jkJLmJJK%jJ%k%kJKj%k%J%J
1404I4%%jJj%kJLj%NlJlJMoL%%JlJJ%%jkJ%%Jj%Jj%%%%jKJkKjlLJ%k%jKkLkj%%%%%jJ%%Kl
1398I2JkJKlK%%mLJJkK%%jkK%kOljjJ%Lj%j%%%JJlJ%JkJjjJJ%JjJjKlj%KJnM%jjLpKKnMjR
1391I9Joj1PJKJpNNk%njJLjKk%KLkmJK%%JkjJJKlJkKlK%JkJjLk%%Jj%jJkKJlK%lL%lJNkmK
1384I2jLj%%JJlJMmJ%jkjL%jjLjj%%MnLJjjkLjkJjjKkLJkjJJ%k%LjjjkKjJOpOoKj%KKnMJk
1378I3%JjKm%Mk%j%Jj%Kj%%J%kjKJkjKJj%mMJ%kK%jkK%JmLKjjjJLlJjJlJJKlKkJJkJJkJJk
1371I2Kjj%J%jjLk%%jKljOklN%l%kK%JJmKkkLKlLJkjjjlJ0njjoJ0j%lL%l%K%KjkK%%JL%m%
1365I2kJj%JJ%jjjKLk%k%JJkJjJJ%jj%JjKj%KjjKlL%KklLlLmNjkJj%JlMj%KjlK%%J%%%kKl
1358I0Lk%%%Kj%%JjJkJjJj%JJ%jJkkL%J%k%%jJlLLjmLKkjJK%m%KJjkLkJjJj%J%jKjjKkKJm
1351I0%KjJJkJkLjjKjJjj%J%%jJ%%%%jKJlKjj%K%%kKkJLljKlJj%KKmJ%%J%Jj%J%l%KlL%%%
1345I2%kJKjJkJjK%mKkNk%jlPjLpLrPLlQj0MlKjJMmj%JjKkK%mMjjlL%KmJK%jJjjK%kKJkJ%
1338I2k%jMlKj%lKj%Ljk%LjlJM%mJ%Jk%JKkK%jJjJJlJ%JJl%KJmL%jJJlJJjKJkJjjjLkjJJk
1331I0JjKjk%jMm%KkjMklKKLl%%JjJ%kJ%jJjL%lKkJkK%%JKjkJJ%jKKl%kJKjJkLl%JJjJjKm
1325I0%%KjJJmOmJjKkK%jjKKklK%jJJkkLj%KjlNlkLkJ%lMl%KjKj%Lm%JjmMKjjKkJjJkNm%N
1318I5kljKmlPjKkLkkKKlLkkJJ%%K%l%Jj%%jNojKJJJkKkjKjjjJKlJMmK%%%Jj%Jjj%Jj%%%K
1311I2jJKmJJjjjKjjJjjJJ%jJ%%%lLlKJkJJ%Km%KKmKj%jjLj%kNjmKKjLlLmkOlJkKkKk%K%j
1305I0jMk%lNjJmK%j%kKKkJ%k%kLjKJkK%kjLk%jJJkKjKlLKo%JLnKJmjNJl%K%JlJkLmKK%nN
1298I0kkMMmJJ%ljMnNmLJlkJMjMnKKj0Rl%j0J1LpQqpJ2j1J3j4J8j1Qn%j4J8%Nj1j1Qk9M1Q
1293A05k0J7j7LqJ2%nnPNnMmpPKjjLlKmOkK%kJ%lL%k%lNjljKjKjmNj%J%%jj%L%kjMJokNjM
1287I3kKkjjJjJ%JkkjK%%LlkMJmJMmNm%%%%J%jLkJk%%JmJLk%%j%KjjKJjoOJj%Jl%JMl%JkJ
1280H9jJj%J%%%kJ%jJJKl%j%j%Ml%%J%Jj%%jJ%%%%%%jJ%%jKKkk%JJjJkLmK%jJKjkKjjJLmK
1273H9Kkj%JjMmjMmjJLnMj%kLjJkLjjJ%lJjMkk%JJj%MmJRonM%%Mn%%KjJJlK%kK%j%%%kJKk
1266H9jK%lMnM%KmjLkJ%kK%%kK%%kKkJ%jKkjKkNm%LjkJ%Lk%jJj%lM%lJ%JJj%%jJKk%JJjJl
1260H7jKj%%jJ%kMkJ%%%jjJjK%kJJjJLlLnMljMjlNk%jjKjkK%Lk%lJLjmOlJj%%j%KKjmMjk%
1253H7JjKlKj%KjJjkL%J%j%j%j%Jj%%K%kJj%JJlKjKkJ%%j%%%KjjKk%%%KkJkK%%jjKjKj%%k
1246H6%kMKjkKj%LkJk%nO%mRmnMJ%kLl%nKKnN%KJlJj%L%lJjjKj%MmkJJK%jkKkJJ%jKlLkjL
1240H9JjjjJ%jjKk%%j%JJkL%kJ%j%Ljk%KkK%J%l%Kk%%JjLkkKjLlL%JlJjj%JKj%%l%LkK%jK
1233H9kJKmkOk%JkJlPjnJj%Jj%J%JlMk%jLkLl%%%Jj%%kMkJ%j%jKk%LjJkJjjjK%JKmJj%KKk
1226H8%Jjj%KjkJjJ%%KkJjjJJjLjlKk%%%Jj%jK%jKkMjk%JkjJLjJjkj%LLlj%jLnMmPpKPn%%
1220H8%%j%JJmLj%kJJJ%%k%%JjJJk%kLmMjLmKjJjjJJ%JjjJjJ%%jLjjjkLkKJkLlLl%JKmJKk
1213H6%J%jJLkJjjJJjJk%%JkJkMk%jJJj%jJ%kLjkK%%JjJjJjJjjKJoLjjjJLKnKLjjJJj%lKj
1206H6jK%kL%%lK%%j%%JJjjKl%JJj%J%%%%jkLJkj%%JjKkjLjkMlL%lJJjjJ%kJKJjjjKj%KmL
1200H7%k%JjJlL%%jMlkKJkNllNnJkLj%KlOrNLpJJJj1J4Nj0PnLJLqj0J1KkKnJJLJjkMj%kjJ
1194H6%jL%jkKjlKMnJjKJj%JjJkKJlJJJjk%%JjKkKkJlLjjJkMk%KjjJj%KkK%%kKkJ%%jKkKj
1187H6lKKJkJkKj%J%%jk%JJj%Jjj%JK%mMjj%KlKKJlklNJkkMnJL%j%JjKkKkKk%Kj%kKJj%%K
1180H8jjJ%kKkKkJ%J%k%J%%%jKmJJLmjKJkK%kJ%JkJJ%%j%Jk%%%Mkl%Lj%jKkLkjJJj%Jjj%%
1173H4KkLjKkkJ%JJlKk%kLkJlPmlJJkNkJj%JmLKj%kJJ%jK%jjLj%jJk%LKj%j%jjJJjJmLjJJ
1167H7jkLlKj%%J%lJKJ%K%mjJkJJkM%lKjJj%JJ%JjJkJJjjjJ%JkjM%l%JlKJkJ%%JjLmKkjKK
1160H7kjJjk%LKkJjmOljLjJjKjlJKJkjJjjKJk%%LkjK%jKjJj%%kKjJ%%jKk%JjJ%kLj%j%jK%
1153H6kLnN%nMjMljJ%lKkKjlKJ%%K%Jkj%JJjJjkjMkjJKkkJLkjLkKjjJ%jJJkJjJ%NqOjKkoK
1147H3jKjMJljj%KkJJJj%jJJjjLjkjK%kKj%Ll%KjJ%%%jKkj%J%JJ%%kJmJKjKkkLjJKmMmK%j
1140H4jM%kJk%%KlL%j%jjJ%%%jKmLKjj%K%mJK%JjjMmJKkjKlKkJKkJ%lJKmL%kPkkjKkKlJkL
1133H5j%J%J%kjjL%jk%JKkKK%l%J%JlKj%jJ%%%%%J%%j%JjJj%JkLlJ%%KjKlJj%%%KlJJ%jJj
1127H4J%k%JJjJ%%k%Kk%KjJjKlKj%JJk%jJ%%KkKjk%KLkkJkNmKoPoPkjK%lkJKlJlNlLljKKl
1120H2Jj%KkJJkJjJJjK%j%JjJ%kLl%%JjJ%J%l%%LmLJmJMmjMJkkLJl%kL%jJj%%lKJ%JlLJk%
1113H3%L%mJJj%JjJ%J%j%jjJjjK%%%K%ljLJjJJoKKmK%%KJnMkJK%%ljMkJjJ%j%%jLjKl%%%K
1107H5lKjK%kj%JJj%JkJLj%j%jKJ%kJlKjLlJjJjkNkKJmKk%KlNlJl%J%KmMjkJ%%%Jjj%LlJL
1100H6nLKkJjKkK%kKjM%LolKLmOj1JnkJ8nknOkjJJnOLqLkjKjKjJKlJ%Jk%JkLkKk%JjkLj%%
1094H2%%jjMjjJ%%JjJpPkKjjJkjKKjJj%%%%JjjjJ%%j%JJkL%j%jJlMk%JkjLJJjlKkKjkK%%J
1087H3j%j%Jk%LJljM%lKKkJlKlMk%Jj%K%lKjLk%%j%%K%k%MjlJjLlKlJ%J%kJJjJjjK%lMlJJ
1080H3KjlKkLjk%%LlKkLkJ%jJ%%Jk%JjKjJj%%J%j%jKJkjKj%jLkJkL%lK%JlLj%LlJ%JjjkOm
1074H4nLJ%%jJJ%KmLJjkLkjJJj%kK%Jj%%J%%j%%JkJ%%jJj%%%%%jjjKKkjKJkLlj%KkLjkjKj
1067H1K%JkKk%jL%jJjjLkKkjJ%%kjMkK%l%KkKkJ%%KlK%%j%Jj%Jj%%LoMk%j%NmK%k%%JjJjL
1060H4lK%%jjJKl%J%jJ%%KkkKj%JKlJjJkJ%jJJk%Jj%%K%%kK%JkMlKlLlMkJ%k%Jk%K%kKjJ%
1054H3%%%JlJJjJ%KlKjkLjjKkjLlKKj%%kJJnPmKJmLJLplkLKQj6MMKjj%J%K%nKJ%Jj%Jk%L%
1047H4mM%mL%%j%KlJ%%JkLJkJl%%%JLm%Kj%%jJjKmKKjmMJlJKkKjJjjJjKkJLnL%%jkKKljKj
1040H1%jLJlK%%k%LlJ%JkjJLmK%J%jKJmjJlKMJqMkLkLkjJjJjLkKj%kL%kJ%%%jJ%kKjKkKjk
1034H0Kj%J%Jj%Lk%k%Kk%KjjkKjJKJjkkK%JLmkLj%jJJ%JJkj%J%KkJj%kjKjKkJjKj%KJJkj%
1027H2kMjJkJKlJkKJjjJ%%%%kMoLlNkjLjmLJkKjkLlJKjjJlLjJj%KJlKlJJjKjkJjjJKjKj%%
1020H2%kJ%KmJJjjMkjNmJ%pP%j%%J%J%jjJkLkkK%jLlKkLk%%%%jJj%J%%jJ%%j%KJkJ%%k%J%
1014H1KkJkJ%J%KlJjjJjJjjJMlJlJKjjKlLj%%j%KJk%%KjJjJj%jJ%k%%LmMjJ%jj%JJ%kKKmK
1007H3kJLm%KjkK%kJkK%kJ%%KmMjkL%j%Ll%%%JJkJjJjJ%JlK%%k%JL%kk%LmJJNkKmqPNj4J2
1000H4j1J9j0LmJJLj0RnJJ%%%lJjLJJ%mLkLlL%jKlJk%KkJ%jJKk%j%%Jj%%Kk%kK%kKkKjkLJ
994H2jJjjJjJJ%%%JlJJ%%j%Jj%jMlKlK%kkPmK%%k%%%%%j%JkK%jKk%KJj%%%JmLMnkOnMljJK
987H3mNmMkkKj%LnJJJj%%JJl%jL%%k%%K%j%j%kL%kMlKkKJ%k%J%jJkJ%KjJlJ%jjJjJKj%%kM
981H3%k%%%%jKj%%%%lKJkJKkJ%%%J%kKJjjKjk%J%JnN%KmMlJKpNJmKKlj%J%K%J%jjJKljJJ%
974H2%k%JKljKJlJ%Lk%JjKlLkKjlK%%kKj%%%Kj%%JjjlL%%lM%mLKkjkOjlKJkJj%JjK%k%J%K
967H3mKkKjKkJ%KjkKkKkj%%Jj%JjJJ%jjJjkNlNj%mJKjkJ%KlJ%%KkJjKjJjKkjKjJJlJ%Ll%%
960H1Kkj%JJkJjjKmKLjjJjJjLlLmJk%JOlJmJJj%JKl%KjjjJj%%Kj%KmjKLk%JlLkLjJk%%Kkj
953G9JjJj%JJkjJKKl%%LnNj1LJ1Mj7JK%JKlKKjKkjLkJJlLmMjjKjjjJ%JJjJ%jjJkK%JkjKJl
947G8%Lm%KJlMJnJkLjKjK%jkJKj%%%%j%JJJkLm%%%L%Jkm%NjkKJ%jj%kJKj%JlJkKkNmKJmLJ
940H1jJj%Mo%jLK%pPmJKj%%%LoKKlNl%%jK%Jk%%JjlMlJjL%%kJkKKk%%jjJK%k%JJkLlJj%%j
933G8JJ%Jl%KJlLk%JKm%%jJJkJKkKJkJ%jjjjMlNklKJ%JjJk%K%j%kKJlJ%KoLM%nKKmKlOKkm
927G8JJJj%kj%JKkJJ%%kLlLj%J%%Kk%jjjLj%mOkkJj%LlKkJkKJj%JmKLkJjKkKlJ%%%kL%%j%
920G9%Jj%Jj%JkLkJ%%jKmNkJmMk%jKJ%jJmLjJKjjJkJj%%Kjj%%%KJJkJj%jJlLj%JlL%jjJKk
913H0%jJjKl%K%lKJk%Lj%jJJjK%j%mLLnKJj%lL%kJ%%j%KJkLnKJkK%lNk%jjKlJJLmJJ%jJJ%
906H1mL%jMlkLmK%jJLl%lOpMl%MKoQo%%JoRRj0j8K3j5PJ7qj9PlnNKJ2kKJokOj0JkJJ1pJq%
900G2PjLjkL%KnOlkJjjjK%JkjMjkLjLlJjJjk%LlMKmlOnMkj%Ll%jK%%JjkKj%%%%JkLlLmKj%
894G8jMkjJlKJ%J%kJ%JKjJj%Jl%LjjKl%JjkKKj%kKJkKlJjKk%K%mMmKJlMj%Jl%JJlKkMjKlJ
887G9kJkNm%JJkjJLjjJjjKKjjjjM%lkMjjJJk%%%K%%j%J%%KmjKJj%jLkj%jJKlKjJjJjJ%JlJ
880G8LmKklOjLpMJjK%JrNJJoJKjMKm%kLjlLJkJj%%%J%JjJkK%jJlK%KjKj%kKkKlKJlJK%jjJ
873G9j%JkK%%jK%%%kMmJkJ%%K%%jKjjLkJjj%KkJ%jJkL%kK%kJkKkK%jKkJ%Jj%%%JJkLmKjJJ
867H2jl%lOnL%jlOkLmKkMkJ%kkKKkkJJ%J%lLjJ%lJK%Jj%jjjKJkJ%%kKjKjkJJj%jKJjKlJ%k
860G7LjkNl%JjKkKlJj%%J%%%J%jJ%kJJ%jJk%JjjNm%Jk%KlKK%nRolNKlmNkkK%j2PPnMk%%%L
853H0klLJJj%Jj%JlLlLklNjlJKJkjLJlJJjjKJkkKJ%kjJJkjLKnJjL%kK%%%%JmLj%%lKK%jkL
846G9jjJ%KkK%kKkJJjkJKkMm%J%%%Jj%JlL%kkL%%Jjk%%JjLljjLkPjjoJMlMjj%%Jk%jJKjjJ
840G9j%%jKkKkKjjKj%%LkjJkJjjK%JlJ%JJjjJJlJJj%Njl%mKJjMkjJJkkKJjKjjJKkjLlJJJj
833G9JkJjjJ%jK%j%%jKJkKJljJ%%%JKmLnO%%nRolJOklLllNjkLk%kKJk%K%kKJ%j%KjlMljjL
826G9kKjJkKj%%J%JlJ%j%MlKkJJklMkKkJkMnLJjjJjjK%jJ%%%kKKkj%%JkKj%%jK%j%%JjJjK
819G9jkJKJk%%jKlKL%jj%kKkJMmJ%j%kJJJjlK%JjJ%%k%J%%J%jJ%%j%KkJJkJjkKMl%JKl%jK
813G9%mMjjJJ%k%JK%lK%jj%JKmjK%JJkJj%kKJ%%%%JkMkJJkkJ%%%kMjkLn%Nj%lkOmJkJPqjK
806G6J2rqJ2Kj1NkNKj5J2kLj%jlMlLk%KjkJJnNkjJ%jKkjJj%K%kJL%%lJJjjjKj%KjjjkLK%j
799G8%kLjJnLKkJ%kKjjJKlJ%JJJjj%jKkLjjJ%jJ%mKKk%K%j%jKlK%JJmM%j%jJjkkL%lJNmjJ
793G6Mk%kJ%%%%J%lLjJkJ%%kJ%K%jKjj%MmKk%K%j%jjKk%jKKlKjKjjKj%%%KjlL%kK%Jjjj%J
786G8kJjKk%LmMkJj%Jj%J%JjkK%JlKKmK%JjJKk%Jjj%%Jj%LoLmOkllJ3j3RnMl%%KlkMlJKKk
779G8jkKJ%lLmLk%N%kJjjj%JKkJjJjJjJ%jKlKjkMj%j%JJ%jJlMmLjjJKjj%KkJ%jJ%jkJjjLj
773G7%jjKJkKj%KlJJlK%%Kl%%%%K%jjJj%%JjJL%%%mMkJlKJk%Lj%%jJk%JJjJlJ%jJJ%kjK%%
766G7%KKlJJmLkJKnMKlj%LJm%NlkjKKkkL%mLJkKjlLlKjLjJkKkKJjlJJkKkJKlLjkjLjJjKkj
759G6%LjjjJKkKJkJk%jKjjj%NjjjKqRonJ1kJonMKKmNjLkJmM%jLlJ%%kL%JkKjkMkjkKjj%K%
752G8lLjJjKlKjKlKjJkLj%j%jL%jnM%%jjJ%Kk%Lk%J%J%jjJkjJMkkJJl%KKmKjJJjKJkj%LkJ
746G9lNpMlJKjkL%lLKJlkJkKJmNl%JJ%jLl%J%jJ%%Kk%kKj%JJlK%kLlL%Jl%%L%jjJjjjKJ%k
739G7%jjMjKkkjLjJ%kKkJkJJJj%jJJJk%jLlJ%kJ%KjlLjLkjJ%lK%KmK%%lNjJjlJJjMjKrMM%
732G9oO%jpOoPlJJjj%LKlJl%KJ%JkJlK%JJj%jjMlJ%JkjKjKjJk%%%JkK%JmLjjMlKmJlM%kJL
725G9nL%j%%JJkjLjj%%%JjJjjJkMJk%jKkjKkJKjkJJJjjKjj%Kj%%%k%MlKKk%mjJ%MkjK%k%J
718G6JJkKJlJjKlKkJLlJJJ%kJk%KlJjJ%jLkJ%jJjKjjjK%lKKlLlNnkJ%LK%kJlLlLkLlJjJ%%
712G7kL%JjKkjkLkJ%%JjJ%%kJMmLkjK%k%%%LkJ%%Rj3Oj0kJ7qqJ0oK0j9j3J0J0kpMMlo%OmN
706G9mMnN%k%%%Jj%KlJMoLLm%jjKkKkMjlK%JJjjkJKjlL%jlMkKjKkKkkMmLlL%j%%jLkjLjjJ
699G7jJJlMjlMnMjkKJjJkJ%%jKjJk%KlK%%JlJJJ%jKLnLJoJKjJ%jJ%K%kk%Lj%Kj%%%Jl%Ll%
692G7KjJlJkLjJJk%jJ%KjJ%%jj%J%%JmK%k%NoMjKkJ%k%%KlMjkKlK%JJj%%%KjkLmK%kjLkKk
686G6%JK%j%%lKKjk%LjkJ%%%kOqOLmrN%LkJLlJKmMk%%JJjjLlj%%KmNjjjJKllKJLm%jMmKjK
679G7kjKjJ%JjjJJj%%jJJjLn%KKkkLKjlJKlKjLkJJJkKlKjJkJJlKkM%k%kLjj%%Jj%%Kk%kKj
672G6KjJ%kkLjLlJkNpNmLjJjJkJKkj%LJlJ%%J%j%j%JjJmNl%%%JJKlKk%J%%%%jk%MjjLlJKl
665G6MmKjMoLnL%kLJk%JjLj%%JkjK%jJ%%j%%JjjJJkJl%Nj%%kj%%%KLoJJjJjKkLlKrQkqJ2K
659H0m%OlJnkJjMjj%jJK%kMljKkMkkLjjKkJkKjjK%J%JkkJNmLlJjJkMlJkjjMj%lLJ%mK%jJJ
652G7kLkJj%%jKJj%%%JlJKl%%JjJ%KJk%%Kj%J%kjJjjKkKJlKJkKJlKklMlLJnLKlLkkjM%%Jj
645G7k%JjNkkJ%%jJ%JmJKkK%j%JKl%JjjjKJkL%kJj%%JlK%jlKJ%lN%Kk%k%%%KjkKJ%lJ%Kjk
638G4KJkJJ%kL%k%jLkKkKkj%jKJjJJkJ%lMlJL%lKK%KlpN%nNmOl%Jj%JjLmMlLj%kJkJKkJlK
631G6K%m%LjJjJ%lLkKj%Jj%J%%j%LjjjMl%jJ%JmMkKj%Jj%J%JkjLmJKlJJkLlKj%JJkLj%j%j
625G6%j%KjJ%JjkLJ%k%j%J%%JjJjkMmLljMJk%kLkKljNmLmLjj%%Kj%J%%K%mKkJj%LmKjkLJj
618G6KjjJjjJj%%%L%jj%JJk%K%mNj%jKkkKkJKlKJKm%kLl%JLmJ%LllJKMlKlK%k%KJKl%%jKk
611G6kM%l%M%%pmQkj0OKjJ0mNj%nK%jlOjjjj%JkMmLmJJJjjJLl%Mm%%JJ%j%jJ%lLlKJjkJ%J
605G6Kk%J%J%k%lLK%kJKlK%%%%Jj%%KjJjj%jjLjjKJkmLJJlMm%jKKjj%jJkjMj%JjlkLKKkkL
598G8lkkNj%%JjJKlK%J%lKjJjJ%jjKlK%jMm%K%jJj%JJkJ%%J%%JkKjlJKjjMnJ%jJkL%jJkJj
591G5JkMl%JJ%kJ%JjKl%JJKlJ%KJmkM%jJ%%%k%J%J%%jjK%jj%KJkJkjjNnKkLL%pNkkJJJkJ%
584G6lNkJj%%j%KJkjK%jKjlJJ%JjjjKk%LjjKlJkLjKkKkJjJ%JjKjjlOjJl%L%lMl%jJ%Jj%%j
577G6J%kK%%%%%JljOmJ%j%J%Jj%%lLj%Kk%jJ%J%j%kJOo%%LlLK%m%Kkj%Ml%%JjjJ%JJjjJk%
571G5%jkL%j%LJkJ%%lJJJkKk%JJjJj%kK%K%kKkj%J%%J%jJJlJ%%%Jj%jjKjKjjKkKj%%J%Jj%
564G7K%jJlMljKlKj%KklMlKLoMmKMmMmmlNJ2j4J2qJ0j0KjjkO%oMkjJJJj%JJlKJl%Ll%Lkk%
558G4MkJ%jLmJJJJjjJk%JjKmKJJJkLlJmLmM%JkJjK%jj%%j%%JJkK%k%%J%%%jKl%%JJ%jJ%jJ
551G6j%%%%jLjKk%JjjK%lPp%L%%%l%LlK%%jKjJkJ%KmLJmLkJJ%%kJJjLlJ%%j%JJk%%%jjJ%j
544G4J%KoO%k%%jK%KnKJjjJ%Mk%%%jJk%jJKmKMlJ%jLm%KkJkLjJ%J%kJJ%kJ%%kJJJmK%jJ%J
537G7%jK%%nJ0qmLKLkJ%k%JkLjlJJjjJ%K%jK%%lM%l%KkJKk%%jJkKjJ%j%JJkJ%J%lLjjJj%K
531G8nL%JlK%jJlNk%%Jj%jjN%lkJJjkMjKkjKlKJJjJl%K%%%%kKkJjJ%jJL%lKk%KjKKpOlK%j
524G8jKkk%MmKKnKjKkJ%%KlKLlk%%JKkKkJ%kJJ%jJ%k%KlJJ%%jLk%%J%kOnKpNJlkQkkJk%kO
517G9njOnj%MJJJj1OJ%kKKjPmlKmMNLj4OqQq%NOjj7J6k5K8J0k0K4k2J9j8k6L4L6m6l1N4r2
512EJ43m5qj9mj2K3lQl0J0QQj4PMpLNmNpMqPmJOoM%mLmjNKpJkKLpP%pMM%l%Kj%%jjNoKKjK
506G9nLJkkNkKj%%%lJJKk%%%%%J%JlK%%lJ%LlKjKjkKkKKlj%KlKjLk%KJkjKLlk%J%L%njKKl
499G6LkJ%kKkjKj%%LmK%KmJ%%LjnM%%j%%jKjkJJLjlKKlJJkj%K%lLjJkKJ%mMjj%JJk%Jj%JJ
493G8j%%j%Kk%KkJj%J%%JjjjJJJJjJkjjK%%%%J%%JlKJlJkKjJJkNojJkMJ%kjLmJjKlNjJlKj
486G6%JjJj%JjKkjKjJjK%%%jKl%L%l%%KlKJ%%lMlJ%kjOnlJK%k%L%jJjjKkJ%JkJLmL%jJk%J
479G6j%JJ%j%Kk%kKJkJjLjjJkLlLk%%kKkK%%KmMjn%MJjJJjkjJKjJjJjkK%J%jJjJ%%Kjk%lM
472G7jJKk%jJJ%%%jjJj%J%%J%j%kLKkjKmMmLKkJjlK%J%j%Kl%lLKmM%j%kKJkj%JjkKLlJJJj
465G7%jJkLmLJk%jJ%JLojLKOmolRjnKkK%jJLkjkKl%KLkJJlJKjJjjLkJlLkMlKjkKjjJkLkjJ
459G6jK%JjjJkJ%%j%KKlkKJ%j%%kLJlK%kJkLj%JjJ%jJk%%%J%JKklMkJ%Kjk%jK%%KjjjKkKj
452G7JkJLkkLJkjjkNpN%J%j%kJj%Lkj%%%KkJjK%%j%JKlKkJ%%Jj%%%kJJ%kKl%%KjMkJj%Jkk
445G4NmLj%JljKJk%%Kj%%jJ%%%KlJjKk%JjjkLJJk%jKJ%kMkj%KkKkj%kMkJ%LmMlJlJ%Nn%Nk
438G8%jkj%M%lKjJJ%Ll%j%%%J%jJjKjlJLkKmLjjj%K%%%%%KlKl%K%k%%NllLJkKk%kJ%LmK%%
432G6JJlJLkjJkLkJj%%JjJj%%jLjkJKmJ%JJj%%%jLm%Kk%JlLKnKJjJkOmkNjlKkKKlK%%JlK%
425G7jJ%kKj%JlJkMkj%KLjjjJ%jKj%%kKjJj%JKjljKlNkJjjmMLj%Km%%J%KjKkjjKlJ%%KkJ%
418G6jJJJ%jJjlKJkMlKlLJlJMn%KMljjKoLoLKJlqJ3lj0QjNKknNjkOojKLkKJ%lJ%K%kJ%Kn%
412G5K%%%jLkj%%JJ%%kKJjkJ%JJ%k%J%lMlJKm%JJ%%JjjKk%J%JmJj%LlJ%kL%%%Kl%J%jMkJ%
405G8jjKJkjJ%%lKJJj%%j%jLKjLp%K%J%lJ%%LJl%KlkLJkKjj%jJJ%%%%%KkLkjkKj%KlKj%JJ
398G8kJjjLlMk%kKjJkKLlKljJJjJJjlK%jKjJ%kKj%JjJ%JjjJj%JJj%%jJj%KjKjJklK%JjKkJ
391G7JjjKKlmPKJpKoQoJPnjL%lj%KJj%k%j%MkJ%%jJJjJkj%LjkJjJ%%jJKjjKjkjK%kJKk%K%
384G7jjKkkJLlJJjLkkLjJjJ%jJ%%%kJjJj%MpNj%JkK%j%%KjJlMlKj%%%lKLjjjJjjLkKJjmKK
378G8kkM%jKj%KklKjKkJ%JJlLjjLkjJ%JlLkJj%JkKjKjjkJJ%%JkKkJkLlK%KnKlOk%lLjkMJl
371G6%%LkJ%JJk%%JJjkKjkKmOknOmJJjJ%jJ%kJjMkkOoK%jkKLlJ%LoJnNLJqJ0qL%JJJkk%L%
364G8LklJmM%%kLkKl%kJjMoOj%jKjJj%%JlLK%lJkKjK%Klj%jKKjjjKl%L%%k%jK%JkKk%JkK%
357G7Jj%lL%kLlK%mKLmLjJ%j%MmjJ%JkJKjjK%lMj%jkMnMlJK%kLmJjJKjK%ljJJJ%%JjjjJ%j
351G6K%kLjJj%jK%%%%%kJJ%jjjLnLJJlj%JkLLn%%LkJmNjj%KkJkKJk%JjKmJ%%%JjL%k%%jMk
344G7lL%kJJJlLjJ%LmLk%J%jKjjJmNjkkKkQkn%j%%J%JjkKKjLlKmJjKJ%Jkk%KkJL%lJJlJJJ
337G8jJkjKk%LjJjJkJjJk%jKJlKj%jKj%KJj%JlLkKlLjJj%JJkJj%%kJL%jJ%j%JjJJjjjLljJ
330G7JJjJmJjKKjlPMmnKlLlLJkkJkLlKj%KjjJjKj%kLjkKJjj%%kKj%J%%jjjNk%%Jj%j%JkJK
324G7JlOkoM%JkJ%jjjLj%JJk%KlKlM%%JljJKkLj%%kOoLkJJjk%J%Kjl%JJk%Nj1RjpPMoKpLk
317G1j2PJ3JoJ1pkLmM%kk%L%lLjkjKJjKJK%kjL%oM%nMk%jK%JlLjJ%%jJjKjjjJLlJjKmLkKl
310G5JJ%k%JKk%LkJk%J%jJ%KlKjkJKkKjj%JjkKJj%jLj%%kJjJ%jJkLkLkkK%MJn%jKj%KJmKk
304G5L%%jJ%kkL%Jj%%JkJJjJ%lJJJkjKkJJjJ%jKkJ%jJjKJkjJKjJKl%kMkJlLj%JlLJ%kkJ%%
297G7%%J%jJkJ%LlJjJj%LjjJk%%j%%%jJ%j%%JJk%KnLkK%NnKJjKmMKqN%%k%KlKkJkKKmK%jL
290G8jLm%Kj%j%KkjJ%%jK%%jJJjkK%%KlKkJJkJLjlLljLk%Lj%Kkj%%LlJJ%JjlJJjJj%J%JlK
283G8kJK%kJ%%JlKJjJjmLJk%%Lk%kK%%lL%jJ%mN%k%J%Jj%jLkj%%%jJLklL%JjJ%%%mMJk%JJ
277G9nK%J%%lM%jjJLmK%j%%%%KkLjkLkJj%jJlNlkKkjL%LkjjK%%%%%jKk%JLnLJjJmKjjJLj%
270G9k%KkLm%kMmjNmMnlOJlRm%KoLlLjJj%LJklKj%%KkJ%kJJ%JlKkLJmJLlJ%KkjKjjJjKj%%
263G8JjJ%%%%Jk%JkOmkMkjJjJ%jj%Lj%%JmK%jJ%%%lMkKj%%JkK%%j%%jJ%jJ%Jj%jJjjMjlKj
256G7Kj%Jl%KJ%%mL%kJKjj%JlLj%JJlLlJLjj%JjjJJj%j%J%%Jj%JJkj%JkLk%Kj%Jk%jLljKj
249G6JKl%%K%kJJlK%j%%J%%jJK%jJkK%m%KJ%jLmjJK%mMJnK%%Kk%%Jj%L%%kJOj0LKkMqMOqN
243H0mKKjjJKk%%%Kl%%K%%jKk%%%kJJJk%%kJjJJ%jkJjLjJj%%%jMlKjkKJlJLJmK%%k%K%jkK
236G8%%KjkJ%%kKJ%kJJjMlj%kKJkKKm%%Jj%jLlJjJ%jKJjmLLlJJk%JjKmMkj%K%JlKjJkLlKJ
229G9Jk%lNmKjjj%JLjKj%kMk%KkjkJJJkJJjjJjJkKJ%mLlKKjjkL%JlJJjlKKjKkK%lKjMkjJj
222G8J%JJk%KmJLlJJjkkK%%LJmLlKmQnnNnLKmOLqJjoJ0k%KnNkLl%Ljj%JkJkKLjl%%JjjLjJ
216G9J%lJkJ%JjJjJkJ%J%%%%kJj%KJkLjJj%kJJlJLjlJLjk%%Lk%%%jjL%kKkKjLkmM%kjKkLj
209G8jlMjJkLl%J%J%jJjJKlJ%JjLlJl%Lj%JkKJnK%jLlKLmJjJKk%JjjK%%%J%j%kLlJk%JjKj
202G7%j%KJlKkMmJLkkNjnOmJMmJkJ%%k%JJjjJjKkjKjLj%JjJLlJ%l%%jLj%JJl%KkKljLjJ%J
196G9%Jj%MkLkKj1MJ%%%K%lJJlL%%JmKKmLJJlKlKjJ%Kk%%%jJ%%JjJk%jK%kKjJkK%JkK%KoK
189G8M%lkJJ%j%K%l%MmjLKl%JJj%kKKmK%%%JkLk%kKlL%KkjK%kJjK%%j%JkJjKJJm%kNjkMmL
182H1n%NkKk%KjjlKJJl%Kj%%Kk%J%kK%%jLk%%jJ%kJLkj%JkJj%Jj%%jjLlMjKjjKm%Ll%%KKk
175G8%JJk%%JkKJ%kJ%%kJLkJjj%LkLnLkLjjKoNk%%jMpK%KLjjjOqlLJ1j1QoK%l%JOojjNmKj
169G8JJlKkJ%kK%jJL%lKk%%J%%kJJjJjKj%j%LkJKlj%JJ%kLjkkJMmK%%%jjKjKlJjJK%kJjJ%
162G9j%L%kjKjjjMjkkMj%J%%kKJjjJ%JjJ%JjlK%Kk%JmPoK%%mMkJ%k%KlNkj%jLk%Kk%JjJJ%
155H0Jk%%J%%kJK%jjJ%%%j%KnKJJkKjjJLnNkkLkkMlLk%%JkjK%j%jKkKj%kJKkLjjkJJJjKjK
148H1k%%%jJKkJjKnKJMkk%J%JmNnLKjm%NkjlJL%J%ljKjJjK%jj%%JJ%kjLkLmJK%kJj%J%%%j
142G8%K%jjJ%kMlJJkJjJKkJ%LnLj%lKKk%kJ%JjjJKjjJj%K%jkK%jLmLJ%%k%j%Jjj%KKkj%J%
135G9%%JjjKjJjJLjjjk%Nj%lJjMoNjJJmKj%kMjjjJ%jjJkKLjJl%%Kj%j%jMnMkNm%KjkLk%%j
128G9JKkjkNkJl%%MljjJjjLKkJjLkjLJmlNJkLJknMjKn%NnKkKJlOlKjnPmqJ5rJ2qmkMJlJ5k6
122F6J0KJ3Pk1%jmLMo%J%MkMlKlkJ0rMJoOmNJmMmKLpL%JmKjOpMjKljJKlk%OlJJjkKjLlKj%
115G9jkK%KkKKnJKkNl%Jj%jMj%mJK%j%%k%KkKj%Ll%Ll%kKjjK%JJlJLmJjjMkj%NJn%%J%KlJ
108H0jkJKmOkKkjK%j%JlLk%kJJLkj%Kkj%Lj%jKlJJj%%J%jKlJjMnKLlJJklL%MnL%lKkK%%Jl
102G8KJkjLjJ%k%JkK%%%%%jJ%K%jJkKk%jJ%kNljjNk%jJkLoPn%nPMqOlJjKJlMjkjJ%Lm%JLm
95G9%kLjJkKnN%KmK%J%kLl%JjJKmJKnKK%JmK%kJ%jKjJj%mPkJj%%KjJjkLJ%jjjJLl%%Kjk%M
88H3pLJ%%jK%%jKkJmJLmKJ%%kJJk%NpL%JkJ%M%llKJjJKKoKjMmJ%JjjJJJjjJ%%jj%K%j%JjK
81H2jjjJjJ%LlJJjj%kL%%j%JlKKlLkjlM%jJ%%jkMkJkjNkj%J%k%KjJjJJk%JJmLkLkjKKk%%j
74G9Kj%jKLoKJlMrP%Mjn%J3oj1QJJlkKkJK%JlJ%JkJkLkL%lJ%%kjKj%%JJ%lJ%%%KkJj%JJk%
68G9Jj%JKkKmJJkJJJ%KkjJjJ%kJKj%%jLk%LnKj%Jj%JjkJK%JkJkJ%%kJKjKjJJkKkJJ%l%JkM
61H3pMnQkJ%JnKJjJk%Ll%Kj%%J%jJKl%jJJ%%%%kJJjjKkJJj%J%j%%%%kK%jKJlJKljLmJMkJK
54H3l%%JjKjK%jjLjjj%Kk%Jj%%jJJjjJkKjjKjjJ%kK%%%%K%jLj%nMjnQlkNmJkKLnjOmjKJ%l
47G9J%Lkj%%LkJjJ%lL%lKJkJJk%KkLkJk%JjlNj%lJLjl%J%%%jJK%Kj%l%LjjKJjj%%kKjLk%k
40G9KJkKj%jJJkJJJ%kjL%lL%%kJKlKJkKkJ%jJ%kJjJ%%KoJKlLK%JlJjlL%Jj%jJ%Jj%%%JjKk
33H1JLnjM%ljLJlK%jJj%%kLKkJk%%Kj%%mJK%kOjkKm%JkL%KlKm%JKjkJ%JjJjKJmLjkMjmMjL
26H4l%%J%JkJJkkK%jMjJqJ1j1MJJnJ0nLk1J5KmL%%MmJjJlM%JlKjJkJkK%%LlJJjJ%jk%Kj%K
20H3kjkM%%%j%%jKjJk%Jj%NkkKkJkJjKj%J%%kKk%KJlJjKkLj%jjjJJjK%jJj%%kL%kJjKljLJ
13H2jj%KmLjkM%kjJMnLnPl%jJKk%J%jJkLmL%%jJjJkJJkKjK%mKJ%jkM%k%Jj%%J%%JjkJKjjJ
6H2%j%jJL%jjmJJKjlKJjJkMklL%j%%Jj%J%jK%KmKjMl%JjjKlKJ%%lK%J%jjLkJ%mM
0H3
##$OBSERVED MULTIPLETS=	(I, X, Y, Hs, Vs, An, H, C, N, (J))
$$ I: Multiplet Index
$$ X: Strt Coordinate
$$ Y: End Coordinate
$$ Hs: Horizontal Chemical Shift
$$ An: Normalised Integral Area
$$ H: Hydrogens
$$ C: Category
$$ N: Name
$$ (J): Coupling Constants
(1, 7.2562915676426111844, 7.2922917926440167236, 7.274291680143313954, 6, 6, s, 1&comma;2&comma;3&comma;4&comma;6&comma;7)
##$OBSERVED MULTIPLETS AREAS=	
(1, 3.0053032801878516445)
##$OBSERVED MULTIPLETS PEAKS=	(I, X, Y)
$$ I: Multiplet Peak Index
$$ X: Peak x Position
$$ Y: Peak Intensity
(1, 7.274291680143313954, 0.24283803999423980713)
##$PREDICTED PEAKS=	(X Y T A)
(7.2742664284550997422,  , 0.10000000000000000555, <1>)
(7.2742664284550997422,  , 0.10000000000000000555, <2>)
(7.2742664284550997422,  , 0.10000000000000000555, <3>)
(7.2742664284550997422,  , 0.10000000000000000555, <4>)
(7.2742664284550997422,  , 0.10000000000000000555, <6>)
(7.2743664284550995092,  , 0.10000000000000000555, <7>)
##$PREDICTEDCOUPLINGCONSTANTS=	J(A,B)	$$ (Hz)
7.5(1, 2)
1.5(1, 3)
0.1(1, 4)
7.5(1, 6)
1.5(1, 7)
0(1, 1)
7.5(2, 1)
7.5(2, 3)
1.5(2, 4)
1.5(2, 6)
0.5(2, 7)
1.5(3, 1)
7.5(3, 2)
7.5(3, 4)
0.1(3, 6)
1.5(3, 7)
0.1(4, 1)
1.5(4, 2)
7.5(4, 3)
1.5(4, 6)
7.5(4, 7)
7.5(6, 1)
1.5(6, 2)
0.1(6, 3)
1.5(6, 4)
7.5(6, 7)
1.5(7, 1)
0.5(7, 2)
1.5(7, 3)
7.5(7, 4)
7.5(7, 6)
##END=		$$ NMR SPECTRUM
##TITLE=	Predicted 1H NMR Spectrum
##JCAMP-DX=	6.0	$$ MestReNova 17.0.0-41178
##DATA TYPE=	NMR PEAK TABLE
##DATA CLASS=	PEAK TABLE
##BLOCK_ID=	4
##ORIGIN=	Mestrelab Research S.L.
##OWNER=	ctheodore
##CROSS REFERENCE=	NMR SPECTRUM: BLOCK_ID=3                                     
##.OBSERVE FREQUENCY=	500
##.OBSERVE NUCLEUS=	^1H
##NPOINTS=	1
##FIRSTX=	7.274291680143313954
##LASTX=	7.274291680143313954
##XFACTOR=	1
##YFACTOR=	1
##FIRSTY=	0.24283803999423980713
##XUNITS=	PPM
##YUNITS=	ARBITRARY UNITS
##PEAK TABLE=	(XYW..XYW)
7.274291680143313954,0.24283803999423980713,0.0015027422821065671097
##$MNOVA/PEAK_DATA_TABLE=	(T,F,A,ST,SP,APT,APC)
$$ Complementary to PEAK TABLE
$$ T: Type
$$ F: Flags
$$ A: Annotation
$$ ST: Shape Type
$$ SP: Shape Parameter
$$ APT: Attached Peaks Type
$$ APC: Attached Peaks Count
Compound,None,,0,0,0,0
##END=		$$ NMR PEAK TABLE
##END=		$$ LINK
