##TITLE=	Document 2
##JCAMP-DX=	6.0	$$ MestReNova 17.0.1-41952
##DATA TYPE=	LINK
##BLOCKS=	4    
##ORIGIN=	Mestrelab Research S.L.
##OWNER=	ctheodore
##$MNOVA/METADATA=	(DOCUMENT,BASE64)
eyJuYW1lIjoiRG9jdW1lbnQgMiIsInBhZ2VzIjpbeyJpdGVtcyI6WyIxIiwgICAgICAgICAgICAgICA
gICAgICAgICAgICAgICAgICAgICAgIjMiICAgICAgICAgICAgICAgICAgICAgICAgICAgICAgICAgIC
AgIF19XX0=
##TITLE=	
##JCAMP-CS=	3.7	$$ MestReNova 17.0.1-41952
##BLOCK_ID=	1
##ORIGIN=	Mestrelab Research S.L.
##OWNER=	ctheodore
##$MNOVA/METADATA=	(ITEM,BASE64)
eyJhbmdsZSI6MC4wLCJwb2ludHMiOlt7IngiOjUzMjEuMCwieSI6NTgzNS4wfSx7IngiOjU1MjQuNzE
1ODA1MTE3MzUyLCJ5Ijo1ODM1LjB9LHsieCI6NTUyNC43MTU4MDUxMTczNTIsInkiOjYwMDQuMTIxOD
E3NDg1NjU4fSx7IngiOjUzMjEuMCwieSI6NjAwNC4xMjE4MTc0ODU2NTh9LHsieCI6NTMyMS4wLCJ5I
jo1ODM1LjB9XSwieiI6MS4wfQ==
##ATOMLIST=	
$$ AN	AS	NH
	1	C	2
	2	C	2
##BONDLIST=	
$$ AN1	AN2	BT
	1	2	D
##MAXRASTER=	32768
##XY_RASTER=	
$$ AN	X	Y	Z
	1	-32768	18915	0
	2	32768	-18915	0
##END=		$$ JCAMP-CS
##TITLE=	Predicted 13C NMR Spectrum
##JCAMP-DX=	6.0	$$ MestReNova 17.0.1-41952
##DATA TYPE=	NMR PEAK ASSIGNMENTS
##DATA CLASS=	ASSIGNMENTS
##BLOCK_ID=	2
##ORIGIN=	Mestrelab Research S.L.
##OWNER=	ctheodore
##CROSS REFERENCE=	STRUCTURE: BLOCK_ID=1                                     
NMR SPECTRUM: BLOCK_ID=3                                     
##.OBSERVE FREQUENCY=	125
##.OBSERVE NUCLEUS=	^13C
##NPOINTS=	2
##XUNITS=	PPM
##YUNITS=	ARBITRARY UNITS
##PEAKASSIGNMENTS=	(XYWA)
(110.81419151419156321, 0.2331371307373046875, 0.0060877675547672538414, <1>)
(110.81419151419156321, 0.2331371307373046875, 0.0060877675547672538414, <2>)
##END=		$$ NMR PEAK ASSIGNMENTS
##TITLE=	Predicted 13C NMR Spectrum
##JCAMP-DX=	6.0	$$ MestReNova 17.0.1-41952
##DATA TYPE=	NMR SPECTRUM
##DATA CLASS=	XYDATA
##BLOCK_ID=	3
##ORIGIN=	Mestrelab Predictor
##OWNER=	ctheodore
##NUMDIM=	1
##$MNOVA/METADATA=	(ITEM,BASE64)
eyJhbmdsZSI6MC4wLCJheGVzIjp7IngiOnsibWF4IjoyMzAuMDI1MzAyNzgzMzA2MTYsIm1pbiI6LTk
uOTk5MjY4ODY0ODg3NjM4fSwieSI6eyJtYXgiOjAuMjU2NDUwODQ0OTI4NjIyMjUsIm1pbiI6LTAuMD
IzMzEzNzE2NTI0MzM1MzM3fX0sInBvaW50cyI6W3sieCI6NTMyMS4wLCJ5Ijo1ODM1LjB9LHsieCI6O
DcyMi4wLCJ5Ijo1ODM1LjB9LHsieCI6ODcyMi4wLCJ5Ijo4MjA4LjB9LHsieCI6NTMyMS4wLCJ5Ijo4
MjA4LjB9LHsieCI6NTMyMS4wLCJ5Ijo1ODM1LjB9XSwieiI6MC4wfQ==
##.OBSERVE FREQUENCY=	125
##.OBSERVE NUCLEUS=	^13C
##.SOLVENT NAME=	DMSO-d6
##.PULSE SEQUENCE=	
##.ACQUISITIONMODE=	SIMULTANEOUS (DQD)
##$ORIGINAL FORMAT=	Predictor
##$MNOVA/SCALES_VERSION=	9
##$PARAMETER FILE=	(parameters, ASCII, , 0)
$$ <?xml version="1.0" encoding="utf-8"?>
$$ <PredictorParameters>
$$     <Title>Predicted 13C NMR Spectrum</Title>
$$     <Origin>Mnova: NMR Prediction</Origin>
$$     <Name>Mestrelab Predictor</Name>
$$     <Version>1.7</Version>
$$     <Nucleus>13C</Nucleus>
$$     <Solvent>DMSO-d6</Solvent>
$$     <From>-10</From>
$$     <To>230</To>
$$     <Frequency>125</Frequency>
$$     <LineWidth>1.5</LineWidth>
$$     <Size>131072</Size>
$$     <DEPT>0</DEPT>
$$     <ProtonatedCarbons>0</ProtonatedCarbons>
$$     <ExcludeLabile>false</ExcludeLabile>
$$     <FastPrediction>0</FastPrediction>
$$     <ProtonDecoupled>1</ProtonDecoupled>
$$     <Reference/>
$$     <Options>
$$         <Settings>
$$             <Predictor Name="Mestrelab Predictor">
$$                 <Settings>
$$                     <Model>/Applications/MestReNova.app/Contents/Resources/data/13C.mbst</Model>
$$                 </Settings>
$$             </Predictor>
$$         </Settings>
$$     </Options>
$$     <MoleculeID>{4ce9582d-a098-4761-aa17-40814c44d1d8}</MoleculeID>
$$ </PredictorParameters>
$$ 
##XUNITS=	HZ
##YUNITS=	ARBITRARY UNITS
##FIRSTX=	28750
##LASTX=	-1249.7711181640625
##DELTAX=	-0.2288818359375
##XFACTOR=	1
##YFACTOR=	1.08562936468919564E-10
##FIRSTY=	1.5497789718210697174E-09
##MINY=	-2.3330177789659956034E-09
##MAXY=	0.2331371307373046875
##NPOINTS=	131072
##XYDATA=	(X++(Y..Y))
28750A4%jJ%%%%JkjJ%KjjJj%Kj%%j%KjjJjjJKjJ%JkjjKjK%%kJ%%%J%k%JJj%JjjJj%%%%lMJ
28734A5mJJ%MkjlKLnJL%j%JJkjJjJ%jjJkKJjjkLjjKjjKjJJjJj%J%%jJ%JjjjJjJjJLmKj%jJ
28718A3LjmMkJ%k%J%%%%%%k%Kj%KkJ%%Jj%%JjKj%j%jKkKkJ%J%%j%%%%jKlKJk%Kk%Jj%JjJJ
28703A4JlJJ%j%Jj%jKk%J%%j%J%%J%%j%%JkK%j%%J%jJJk%jKj%jKjj%KkJ%%%%JjJjjJ%%%%%
28687A3KkJ%kJ%Jj%%jJjJJ%kJjKk%J%jJJjJjJKlJKj%j%Jk%%%j%KjjL%mKJ%Ll%jKk%J%%j%%
28671A3JjJjJ%%%k%JJkJ%j%JJjJjJj%Jj%JjJjj%Kj%Jj%%%JkJkK%kJjJj%KJj%%%%kL%%%jJ%
28655A4kJJ%jJ%%jJkJJj%%jJj%K%j%jKkJj%J%%%%j%LlLmL%lK%J%jjKj%Jj%j%%%J%j%J%%%%
28639A3j%KkK%lK%%j%%JjjK%%jKk%%K%jJ%%kJ%%J%kJ%kNmK%%jJ%%Jk%%%%%Jj%J%jK%kJjK%
28624A5lJjLjjLk%jJjJ%J%j%j%%jJkMlKlLjNqNLoQnnlN%jMlKjJlKJ%JmJMl%%j%LjkKlLjJ%
28608A4lJJ%j%JjKjJ%kJ%%%J%j%jKjJj%K%j%jJ%kKkKjJ%j%J%Jk%%%Jj%Jj%%J%%%jJ%j%%Jj
28592A3J%j%JjKk%%Jk%JJ%%%%lNkjjkJK%jKk%Kj%%jKkjJ%%KkJj%KjjKkjJ%JKjj%%jK%jJjJ
28576A4%jJj%KjJk%J%%jj%K%kKj%JjJJkKkKj%Jk%J%%%jKj%jKjjjKkK%kJ%jJJk%%%jKJjKkJ
28560A4%%J%jjJj%JjLoMjMnMl%LmKJj%jjLlKkKj%Lk%%%%Jj%%j%%Jj%Jj%%%J%j%jKj%%JkJ%
28545A3jJj%%J%j%KlKkJKk%LkJjJj%j%J%jJ%%jKkjJK%%jj%JJj%jjK%jK%lK%J%%kJkJ%%%Kk
28529A2JkL%jjJJJk%%%%%%%JjJ%JkJ%%%%%jJ%%jJjJj%JlKjJ%Jj%%JjJ%%%%%jjJ%JJ%jJlKj
28513A3%%%jJjJ%JjjKj%JjJjJ%jj%%J%%jJ%%%j%J%jjJKkKj%jJJjjKkJjKJlJMnL%kJqJ3m%m
28498A1OkjlJJ%kMjkJJJk%Jj%jKkjJJj%%%Jj%JKlJ%Jj%%J%j%KkJjjJJj%%JkKjLkKjjj%%jJ
28482A3JjJ%%%j%JjjjJJ%%%%%Jj%KlJ%jJjKjjKj%JjJ%%%jJKnLkJKjKk%mMlLjkMkJjJJj%jJ
28466A4j%Jj%%JjJ%jJ%jKjj%%%J%%j%%JkJJ%j%j%KkJ%%Jj%KkjK%Jj%%kL%lJ%JjKlKjJ%%%%
28450A4j%Jj%%%J%jK%kJJjJlK%%%%j%%jJ%JkJJ%%%%jK%kJk%JkKj%Lk%%%kKjK%kJJj%%%%%j
28434A2JJjJj%jJJk%J%%%jJJj%JJkj%%J%%jJ%Jj%KjJJlJkJ%JjJjJjJ%kJ%j%%J%%%%%j%J%j
28419A2K%kLjj%%%%jJJj%j%Jj%JjKj%%%JjjKlK%jKkMlJjJ%%%%%Jj%kJJJkJ%jj%%Jj%JjJkK
28403A3jJ%JkJjJjJ%KkJkJ%jJjJkK%kKj%%JKkJjj%Jj%JkKkJj%%jK%Kj%jK%%kKJ%jjKjj%JJ
28387A5kjK%jKlJJk%MlJ%mPkKpNkKJpOlQj2RnK%jkLjJKlKlKlLKjjkjJLkJj%%Kk%%j%KJj%j
28371A3%%jJ%Jj%%J%Jk%jjLlJKlLjJkjJ%jK%jJj%K%%kJJ%%j%%%%%%%%%JjLkjJk%JJ%jJJjj
28356A3J%%jKj%j%K%k%J%lJJJKj%%jj%%Kjj%Jj%jJjJJJkjJKjkKj%JkJ%Jj%%%%JkJJ%jJj%%
28340A3%JJjJk%%%%kLjJk%J%J%jJ%kJJjJj%%%jKj%JkJkJKj%%jK%Jj%j%Jk%JKjKmJ%%JlK%%
28324A3mQljLnOnK%jJKlJ%%%j%JjJJk%Jjj%Kj%%Jj%%J%jJjJj%KkjJJ%j%KjjJ%%Jjj%%JjjL
28308A5jjj%J%%%%jJ%JjjJJkJJ%k%J%%%JjjJjJj%%JjJjKkKjJj%JkJ%%%%jKJk%jK%kmQmJjL
28292A5jj%KjJlJJjjJ%j%%%JJjJj%%jJj%%%%LlKj%%Kk%%Jj%%JjJjJJjjK%kjK%jjJjKj%Kk%
28277A3%jK%%%%%kJJjKjkKjMjk%%kLkJJlKKkj%%%%JKkj%Jj%KmjOj%mJKlmJ0nMlkLjlK%%%J
28261A3j%%K%%%jJJlJKjkJJ%%jjKkKjJkJ%%%%%%jjJJJjjJ%%KkkJJ%%%jJ%J%jJ%jjJ%%jKj%
28245A3%jJ%jJkKjJjLmKj%jJ%Jj%J%Jj%%%J%%j%Kk%j%%J%%jkKJJjJJj%j%%jJJjjJjKjk%%J
28230A2%JJjJkJ%j%J%jJjkJJ%J%jKj%Jj%%jJ%jKj%J%kKk%J%JjJk%J%%%JjkLjJ%jJj%jJ%%K
28214A5lJ%%jJjJjJJjjJjKkJjJkLjJj%JjKKlkJKnLJjKkKjjJ%%%%jJJ%jJkJJ%kJ%J%kJ%%kL
28198A5kJjJjJj%%%JjJjJ%jJ%jJjJj%J%jkK%Jk%JJjJjJkKj%kLkKkKJjjJj%J%%jjJJ%kLjKk
28182A4%%%%j%%jJjJ%jjLjJj%J%lJJkKLoMj%jJ%Jj%%jJ%%jJJj%J%%j%%Kjj%JJk%K%jjJ%j%
28166A3%%Jj%%JkKjjLkJJkJjkK%jJkJJ%JjJkJjJjJ%J%%jJjJjJj%Kj%k%%%%J%%JJk%%JjJ%%
28151A4%JmL%j%kJJKKrOkMnnNMkl%KJjJJ%%kJJjJjjJJ%jJ%j%%%%Jj%J%kJ%%JjK%%%k%%J%j
28135A3%Jj%JkJKmLJjjJj%%jjJjK%%%j%J%jJ%Jj%%JkjKK%j%jJ%jKjkJj%JjKkJ%%jJ%%jJjJ
28119A3%Lkj%Kj%j%%jLkJ%%%jKjk%JkKjJj%%%%J%jKJkJ%%JJk%kLk%%%JJjj%Jj%KjjJj%KkK
28103A5kKlJ%kK%%%j%JjJjK%jj%jJJ%%%jJj%K%jJj%%JjJ%%%JkK%%kJjJj%%jKJnMoNlK%%JJ
28087A4jKJkjJkJjK%J%%%j%KjjJ%kjJ%jKJj%jJ%J%%j%%%%Jj%JjkJ%%%Jj%J%jjLj%lLJjj%%
28072A3%j%J%%Jj%j%K%kK%j%%%%%jJ%KkK%jjJj%%J%Jk%%%%jJ%JjJjkJJKk%jKJj%jJj%Jj%J
28056A4%j%%j%KjJjJj%JjJj%%Jj%jK%jJ%%%jJ%kJJk%J%JkJ%%Jjj%%%JjjLjJ%jJjJJjjK%jk
28040A2KjJ%%%%jJ%%%%%kJJ%kJ%JkjKjKjjJj%j%LmMj%jkPqJOljMlJJmMj%kLj%%kJ%jJ%JkK
28024A4lKjLlJ%%%J%%%%%%jJ%kJKk%KjjJj%Jj%%%%jMlj%JJ%%JkJj%%%%JjjJ%%jKJjjJJj%k
28008A2Lj%%jJkK%j%j%%%Kj%jJJjkLj%j%%LjjJJj%jKjJ%k%%jJ%jLj%%jJjjJ%Jj%J%jK%%%J
27993A6jj%Jj%jJ%jjJJJj%Jk%Jj%%J%jJ%lJJJKlLjj%J%jjJ%Jj%KkjJjJ%%%%j%%%%j%Kjj%J
27977A3%%%J%%JjJkJ%%JjJlJJ%JklL%JjKkjKjJlJJ%JjJ%j%%JJk%%J%jjLmJ%jJ%J%jJ%Jj%j
27961A2K%j%KkJ%%%%jKjJ%%kjK%jKkJ%%%j%JjJ%j%J%j%%j%Kj%%J%kKjj%%JJj%%%jJJjjJ%j
27945A2JJjJjjJjJ%jMmJ%kJJJJj%JjjJ%j%K%j%%j%%jJ%%JkJ%JkJJ%%%KkjJjJ%J%jJkJ%kKl
27929A1J%%JjJjkJMl%%J%%%%JkJJ%jJ%j%jL%%%%%j%jKlKKlJlL%jJ%jKkk%%Mn%MnPnNllmJJ0
27914A7LklprJ6omN%QmjMm%kJj%KjMjlKkJKjjKkJjJ%%jjJ%KlJlMjjKlK%jKj%J%JjkKKk%mM
27898A4j%J%%%jK%lLjjKlKjjJ%%J%kK%jj%JjjKjJkK%%%JlJJj%J%KmLkJJjJk%Kk%kKJKkJJj
27882A4%%JkJ%jKj%%%%%jJjjK%%j%%%LklKJjKk%Kj%%%jJlKjJj%J%j%%%J%%J%jJkJJ%j%Jjk
27867A1K%%%%Jj%JjjKjkJ%%J%j%%KkKj%%%Jj%%JjJkK%%%Jj%jJ%%lLJmKnQlKlL%%%kKjJj%%
27851A4%Kjj%jKk%JjjLjj%KlJ%JkK%Jk%J%jJJjjKjJj%lKJjJJJkkLkK%%%%kJ%%%%%Jj%J%kJ
27835A4JkJ%JlKjKkKlKj%J%Jj%J%j%Jj%%jJ%JjJjjJj%%jKlJkKjJ%KjjJj%KJk%JjjLj%%Jk%
27819A3%JkJJ%jjLkJjKkJjjJjJjLk%%Kjj%%%%J%%%%%jJJjjJJjjJjJ%%%%jJ%%J%kJkJJ%j%%
27803A3Jk%KkJj%JjJ%%%J%jJjJJ%jlNoPkjKKkpQnLLnJjJJ%jJk%J%jJJj%%Kl%%%%JjJ%j%jJ
27788A3%%%jJ%Jj%%%JkJ%%JkJ%Jj%jKlKkK%%JjJjJj%%%%%%%JkJ%JjKj%jJj%KjjLkjJjjJ%%
27772A3%jJ%Jj%Kj%%j%%%JjJkMjkkLjJ%%%kJ%KjJkJjjJJjJ%Jk%%JjjJ%%j%%K%jKjjjK%Jj%
27756A4jKkJjKkJ%JkJjJ%JjjkKKjkJJj%jLj%%%%j%%%j%J%%%%J%%%%JkK%jJj%Jj%%jJJj%kK
27740A4jjJKJmL%mK%Kl%Lj%KJkkKkJJjjLjjJ%%j%J%j%Jj%%KlJjKk%JJjj%J%%jJKk%JkJjJ%
27724A4jjJ%j%%J%kKJlKJ%JkJ%JjJ%j%j%Kk%%%%J%JkJ%%%jjKkJJjkLkK%j%Jj%%J%JkK%kJj
27709A3%%JJkkJKj%KkjJKj%k%J%%j%Jj%J%%%%J%kKJlJKkjJjKjjJ%%jJ%%%%JjkJKjkKjJkL%
27693A4Jk%%JkK%%%%JjjJ%jKjJ%k%%KkJJJkjLmK%jKk%LlJLl%%KkjJlJ%LlKmJMnMjqJ0j0QN
27677A8lJjlL%kJjJ%jMlK%kkJ%Jk%JJjJ%%%%%%kK%%jKkjJJ%%jJ%%%kK%jJj%%J%%kjKjJ%J%
27662A4jJkJJ%kJ%%%%%%%J%kLkKJJoKJjJ%jJ%%%kLkj%%Jj%LlKkJJj%MmJ%J%JmKj%%%J%j%J
27646A4%jjKj%%%%JjJ%%%%%%jKjjjKkJjKkJJj%J%%j%jJjJJ%jJjJj%K%lK%JjJj%%%%JkKkKj
27630A4%%jJkKj%%%jKkJLk%%j%J%jkK%j%JJkJ%JkJjKJkJjLlKlkJOm%JjJkKJk%jKj%%JjJjK
27614A5kJ%%jJJ%%jj%Jj%Jj%%J%jJ%%%%JjJkjjJ%%J%%%K%jJlKjJj%J%jK%j%Jj%Jj%jJ%%%k
27598A2J%Jj%%JjJ%kJJjj%Kj%%JjKk%J%%%jJkkLJ%%lL%j%JjJ%j%jJ%j%JJkKkK%%jjKkKkK%
27583A4j%J%jJkJJlLj%%jK%%%%jjKjJ%j%%kJ%JJkJj%KkKj%%JkK%kJ%%Jj%JjkMl%JjKjJ%jJ
27567A4%lLjjKjJjJjj%JkJ%Jj%J%%%%JlLkjJ%J%JlLJk%JKl%kL%%%%%j%Kj%%jJJkkL%Jjj%%
27551A3%Jj%Jj%jjKJkK%JjlNmJLmK%%%j%K%%jjKj%%%Jjj%JjKj%%%jK%j%%%j%%JJj%Kk%%jL
27535A6mJ%Jj%jMlJjjJKkJj%%JjjJJjKj%%%j%%%JJjj%%%%%%JkKjkK%%J%kLkJ%Jj%%%jJJKl
27520A4%%%%J%%jJKl%jJ%%%J%jJk%JjLlJ%%kK%kJ%JjjKjJj%JjJ%kKjJ%%jJkKjJJ%%%kMm%%
27504A3MJn%MpN%kLkj%LkjJjJkKj%%%%JJjjJ%jjJjKlJJkJ%Jj%J%%JjJjjJkL%kJjJ%%JJlLj
27488A4J%%j%j%kJK%kLlKkJ%%%%kK%kJKkJ%%%kLkJJj%%%jKjKkJjjJJjjJ%JkJ%JKklLk%jJK
27472A4jKkjJj%%Kjj%%%%J%Jk%KjJjJ%jjJKk%Jj%JjjJ%%jJJjJjjLkjK%%j%LmjMj%kK%J%kL
27456A6lJJ%kJ%%j%J%%kLlK%jKmKJjK%k%%%LmL%jKkj%MmjNmJkJLomQJ1qqjJ0k%mJKjJmL%%
27441A4kLjj%KlK%%Jl%Mk%%%j%J%jJkK%jjJJjJj%%%%%jK%jjJ%JjLm%Lj%%KkjJjKl%KkKjJ%
27425A4j%%j%K%%%%%J%%jJjJ%jjKkJjJJ%kKkKkJ%jjLlLJ%mLlLjkKKj%%%%Jj%%j%%JjJk%J%
27409A4JkJj%jJJjJJjj%K%k%KjkJ%kJJjJ%jJ%%%%JkJ%lLKk%KkKkK%jj%%%j%Lk%jJJk%Kk%K
27394A4jJmL%J%k%jJJ%j%K%%kJKk%%jJjK%jJJlMmNJnK%lLmL%JjjjJK%kJj%%Jk%%%J%%%%%J
27378A4j%%%%%Ll%%Jj%%JkK%%%kK%jJ%kKkK%j%%J%%JjJjJjJ%jKjjJjJjJJjj%kLj%JkJ%jJ%
27362A4%jJjJjJjjJjJ%jJ%J%kKjkL%%%jj%Kj%J%j%J%kLl%K%jJjKlK%j%%%JjJk%LkJ%Jj%%%
27346A4jj%JKkJj%%%KlJ%kLlLjJjjK%%%%KjJkJj%%JjJkKjjJj%KkJj%JkJJkK%j%%%%%K%j%%
27330A4%jkMj%kJkMLkp%KJKlRo%J%%kJ%kKJk%%kJK%Kkk%Lk%KJj%%Kk%kJj%%JjJ%%j%%%%jK
27315A4kJJ%%%JjJ%jjLlJJkJkJJkKJk%JjJ%%%J%%j%%jJJj%JkKkKjjJjKkJ%%j%J%%%jJjjK%
27299A4%%JjjJ%%jJ%%%jJj%Kjj%%Kk%%jjJJ%%%%JJk%JjJJj%%%jKjJjJ%j%J%Jk%%Jk%%%J%%
27283A4%jjKJjjJ%jJjKjjjKj%%JJjJj%%jjJ%JjJkL%kJJjj%JJk%J%%JlLj%jjKlJjlOnOjjJj
27267A3JjJ%%JkJ%JjjK%jjJ%%Jj%j%%K%j%%J%jjKj%j%J%%kK%j%Jj%J%j%%J%%jKk%%JjJjKk
27252A3JjKjJ%j%Jj%%Jj%%j%J%jKJkjJkKj%JjJjJjJkLlJ%%j%%JkJ%%KmMKmKjJjjKj%J%jj%
27236A2%Jj%J%j%JJjJj%JlK%%Kk%%jJ%%j%J%jL%%j%%jJ%JkJ%%%JjJl%KjJjJ%%jK%jjJ%%jJ
27220A4%jKk%%K%%%lLljJK%%lJJ%JJ%%KljJjJKoLJLkjkPmlKKOpljMLpNKllKJjkKjKJkjJ%%
27204A4J%jK%JkJl%J%Kjj%jJjJ%J%jJJkj%JJJk%%jJj%%%JJ%j%jJkJ%jJ%%JkJJjjJJjjJJ%k
27188A2JjJkK%jK%%%jKJk%%%%%%Jj%jJjKj%J%Jk%KkjJJlJkLk%%KkJJJk%JJkJJjj%%Kjj%%K
27173A5k%KjkJ%jJ%J%jJJ%%%%kJ%Jj%JkJj%KlKjJk%J%%J%jJkJjJ%J%%%%%jKj%%Kj%kJ%jJk
27157A2K%%j%J%%JmKK%%j%KkmNJLpJOm%KlKjjJk%%KJjJkJj%Jj%%%%JjJjJkK%kJjJjJJkJ%j
27141A3J%%%jJJj%%jJ%Jj%KJkk%Kj%J%Jk%KjjKj%j%%j%JJkJ%%%JjKk%J%jKjkJjJ%%%%%JjJ
27125A5Jjj%JkJJjjJjJ%%jJJjJjkJJ%%jJ%%J%%j%%J%%J%j%kJJk%J%%%Jj%%%jJ%%jJjJ%J%j
27109A4%%%%%%KkJj%Kk%JjkJJkKj%JjJJjkJ%J%jJ%j%jKk%%Mk%%%jJ%%%kKk%L%jkKkJKjJmM
27094A5JJoKjkNjj%%%J%j%J%jJ%kJ%%%%J%lKKk%j%J%Jj%kK%J%%%%j%J%JjjK%jJ%jJ%kJjJj
27078A3KKm%J%%jJjjKkK%%%kKjJjK%%k%Kk%JJjj%%%%%Jj%%J%%%%JjJkKj%j%K%JjlLK%jk%J
27062A5j%JkK%j%K%%jjjJjJjJkKj%jKj%kL%%j%%J%%J%jjjJJJjj%%JKl%J%jK%kK%kjLk%%J%
27046A4jJj%Kk%JJj%%JJjkKjjJjJjKjJ%jJJkJ%JkKjJkKk%JkJJjkLkK%lKkjJJKkJj%J%jJJk
27030A3J%%J%%jJkJjJ%%Jjj%K%%%%j%%%Kj%%%jJjJ%Jk%J%jJj%%%kJJKk%Jj%%J%%jj%JkLkJ
27015A4jJjJj%%%%%JjjLjjjKkJj%J%%jJ%kKj%K%jkJLk%kKJJl%J%%Lk%kK%jJJjkK%%%%Jkj%
26999A2JkK%%%%jJ%J%Jj%%%%j%JjjKJj%JlJjKjLlJjjMjkJjJ%jLjkJjjKj%%%K%kJlJJJJkJK
26983A6lkJjLjj%%kLkJMlJK%Nj3MkKJ0j1KrMjJ0J3nnplJJ1Nj9mJ0PnnQlklN%Lo%jLJKnKMo
26969A3LLkkjJl%LjKmjLj%J%%jKjJ%KlKlL%%kJ%JkjLlJJjkJJ%jJkKK%lKk%JjJJk%J%%%%jj
26953A2J%%%%%%%JjjKj%J%%jKj%Jj%j%Kjj%%%%%%KkJ%JlK%%%%j%Kjj%KkJJ%jjKkJjJJ%kJ%
26937A4jKJk%K%kJj%%jKj%%Jj%JjJkKkKkKj%jJJk%%JkJjJKk%JjKjJk%Kj%%%j%JJkJJ%j%%j
26922A3%JjKj%%j%JK%kJ%k%JJKknN%nLJ%j%%%%%J%JkKlKkJJ%jJ%jJJ%jkJLkJ%j%%%%%j%J%
26906A4jjJj%%Kj%J%%Jj%JKk%kjL%kJjJjJjKkJ%%Jj%%KkJJk%Kj%JkKmLlK%%%k%L%kKjj%%%
26890A3JjJJ%kJ%%JkJ%Kl%JJjJkJj%JJkJkJ%J%%kKjJ%%%jLl%Jj%J%%JkJJk%Kj%jJ%J%kJ%%
26874A4%%jLk%%KkJ%jJkKj%KkjJ%jJjJ%%J%k%Kjj%JjK%%j%%%%JlJJj%KkK%%jj%%JLlkKkjN
26859A6mkLkL%jJ%J%%jjJKjjJ%kJ%JkJ%KjJkj%KkJ%%J%jJ%k%J%%JkKjJ%jJ%j%%kKkJ%%%jL
26843A5j%%kKJj%JjJkJkKjJj%%J%Jk%J%%jJj%J%kK%kJ%%JjJ%JkJ%%j%JjjK%%kLkKlL%jJkJ
26827A4%jKlKJk%%J%jj%LkJj%%J%jK%%%jJjJjJ%kJ%%%JKkjJ%jJjKk%%%jJ%JJkJjJ%Jk%JJk
26811A4%%Jj%%Jk%J%Jj%%jKjjJjJ%%JjkK%%%JjKk%jJjMjk%jKj%Kk%LkjMJn%%%jkL%%%%Jj%
26795A4%%%j%%JjLljJ%%%JJ%jjJJjjKj%J%kJ%%JjJjJ%jJJk%jJjJjjK%%%jJ%%j%JjJ%jjJKj
26780A4%%%j%%JjjJ%%jJjJkKJj%jJJk%JJkJJ%jJ%%jJlJKj%kKKjjJ%%j%Jj%%kMjj%JjJjKk%
26764A3J%kJKj%%j%%K%j%%JlJKj%Jj%%jJ%%%%Kl%LJl%JjKkj%J%%%%%%%KjjkKJjj%jJjK%%%
26748A4%jJJj%JjkMlKJj%j%jMoJKkJJ%njNmmRKoNjjLl%JJ%lJJ%jjMjjj%jJJj%jJ%Kk%jJJk
26732A2KjJ%j%J%kKJj%jJ%kKkKk%%J%%kLjkK%JjKjj%K%%lL%j%Jjj%JJjk%KjKj%jJjJ%%jJ%
26716A4jJjJlK%%%J%jJjJjjKkL%Jk%%%J%kJ%%%%j%%JJjJ%%%j%%%JjKkJ%j%J%jjJjJ%jJ%jK
26701A5j%JkKjjKkL%%%JmK%j%%%Jj%jKJj%%k%%J%JkJ%jJ%%%j%Jj%JjKkLk%jJ%jJ%jjKkJKj
26685A4jKjjKlJ%NmjK%nLJ%KkkJ%Kj%JjjJj%Jj%J%%jJj%J%%kKj%JJkJj%JjJJ%j%%%%%%%%J
26669A5jJlKJkjJJJ%%j%%%%%jJ%jJjJKk%Jk%%J%%Jjk%J%JjKjjJjJjJj%%%%JjJJ%j%kLkK%L
26653A8pK%JJjJj%Jjj%Kk%%J%j%JJkJkKjJJj%KkjjK%%jKk%%%%%kKj%%%JJjJ%jJ%jJjJj%Jj
26637A3Kj%jKjj%%Jj%%JjJj%Kj%jJ%kMjJjkMlJjJj%J%%Jj%jkJ%JjJJkJJlLJjJjJmMl%J%jJ
26622A4%j%K%jkL%%%%%Jjj%J%j%J%%kK%jjJ%Jj%Jj%j%KjjK%j%jJJjjK%mK%KkJ%J%%jJjJ%J
26606A6j%jJ%%%%%kJj%J%%kJJj%JJj%jJ%kKj%%%%jJJ%KmJjJ%%jOoMklKjK%%%jJj%jJ%jK%J
26590A5%%%%%j%%jJjJ%JkKj%%kJJj%%%Jj%Kk%JjK%jJ%jj%Kj%JlJ%Jj%JJkJ%%%jJ%jJJ%j%%
26574A4J%j%%jKj%jJJjjKj%JlKjJ%%%%%Jjj%JJJjMq%JJMlj%K%jjKJkJj%kLj%%J%j%j%KjjJ
26558A4%j%%%K%j%%j%J%%%Jj%%JjJj%jJJ%Jjj%jKkjJJJ%kJ%Kl%Jj%J%jJ%%%jJ%JjJkJjJlK
26543A3%Jj%%J%%%%%%kLjJj%J%j%jJjKkJLlKlJJJl%%Kj%%JkJ%J%kJ%%%JkKj%JjKj%Jj%%jJ
26527A5j%jK%j%%%%J%%jJjjJj%Jj%JlLKkJj%%jj%JJJj%k%MlJjJ%jjKj%jLjJjKkLl%jLkkjK
26511A3kKJjJKkMjjK%pM%lnK%JpMkJ6loMl%jKLlKjkKJj%Jjj%JjjJ%j%KJljJMl%jJ%kJ%jJ%
26496A3%KjjjJ%%JJkJJjjK%kJkKkJ%%%%%Jj%jJJj%%%%%JjJJjJ%jj%%jJJjkKjJkK%%kJK%%j
26480A3Kjj%%%%kLJkLj%jJjJkK%%j%%%jJ%JjJjJ%j%j%Kk%JJk%%J%%jJ%%%%%JkKkKjJlK%%K
26464A6jjJ%%kJJJl%%J%jK%%%j%%JjJjjJ%%JjJjKjjJ%jJjJj%J%jjJj%KJk%%Jj%JJkk%LJlK
26448A5l%KjKlK%%j%KjjJ%%%%%%jKkJ%%jJ%jJ%%jjLlJKjjJjJ%%%J%kJ%J%jJ%kKk%KkjKjJk
26432A2Kj%%%%JJ%j%%%jJ%JjJJjjJ%%j%JlJ%%K%j%j%%J%JJk%jJJ%kJkKjJKjj%Jk%JkKjjLk
26417A3JJj%%%%JkJj%JJj%%Kk%%%Jk%K%%%jJk%J%%JjJ%%jJ%JkJ%jJkJKmLJmLJj%jJjjJJjj
26401A3%%J%%%Jj%Jj%%JJl%JKj%%JjjJ%kJJ%jjJJ%j%jJJJkJJKJ%j%k%lKmLjKk%J%JjJJjkJ
26385A4jJ%%jJjJjJ%%jKJjjJjKkJ%jjK%j%Jj%JjjJjJk%Lk%KjKjj%J%kL%%%%%j%%%JjJkJjJ
26369A5j%%%J%JlJ%Jj%%Kj%JjjJjJkKjjJ%kKKjj%kLlLkKkK%jKj%KkJkKk%%%%jjJ%JJjJj%J
26353A5kJKk%JkKj%%%jJj%J%%JkKkJjJJj%%jKkJK%%%%%j%%j%%%JjJj%%%JkJ%%%%%%%J%jKk
26338A4%%%%jK%kJ%%%jK%jjJ%Jj%kJkKkMlQpjKkJKkKkKj%jKkJ%%KjkJKk%J%%jJJkK%kJjjJ
26322A4%jJ%jJjJJ%%j%%%J%jJ%k%%Kj%JJl%J%%%J%jKkJ%j%J%kJ%Jj%%j%%jKjKjJjj%KjJ%j
26306A4%JkJJ%Jj%j%J%j%KkjJJjKJlJjJkJ%jJjLkJjJJjJj%%%jKkK%jjKJjkJj%%J%%%JlJJ%
26290A5%%kKjJ%Jl%%KmKJKk%J%kJjJ%%J%kJ%J%Jj%%kK%JkJ%%Jk%%%J%Jj%%%%%%jLjjkMlJJ
26274A6%KjnMJmjJ2pklLJMmJkjjKJlKj%%Kj%%j%Jj%JjJ%Jj%k%Kj%KkJj%%%kLJj%%%%Jj%%j
26259A4Jk%%L%jmLJjj%K%j%KkJ%j%jJJ%jJjJjjJ%%lMjkJK%j%%JJk%%jJJjjjJ%Jj%Kk%jMkk
26243A2L%lMmKJjj%KjjJ%%jJj%jJLl%JJj%%%%Kjj%jJ%jK%lKjJ%kJK%jjK%%jJjKkKjk%LjjJ
26227A5JjJjJjJkJ%Kl%%J%%%%%JkKkJJkK%j%JjjJ%%%KkJkKj%jJ%%%jjJ%LjlLk%%KKkl%jKj
26211A3KjJkKjJkJ%%JkJJjJjJj%KkKk%Kk%J%%%%%jJ%%jJjJk%Kj%j%JjKjJJj%%j%%%%%J%%J
26196A6k%jJ%J%%JkJjJ%j%Jj%JkJjJ%jJ%%kK%Kk%jKJkJJj%jJ%%jJ%l%JKj%%%%jJJjJk%%J%
26180A4jJjJJj%%%JlMk%J%j%%J%%%J%jJj%jJ%j%JjKk%KjK%%k%j%JJk%KlKjKkJj%%jJJjjKJ
26164A6l%J%%%Jk%K%Jk%JJ%kjKKlJ%%%%%JlJ%JlJJJmjMJjMmkMj%jjJJJjk%%%Kk%%JjjJKk%
26148A3JJkK%j%jJKjJ%k%JjJj%JjjJj%J%JjJkLkkK%j%JkJJ%Jj%%Jj%J%%%%%%j%J%JjJjJj%
26133A5kJJjJ%jJjJJkJjJjJJJl%%JJk%KjJjkJ%JJj%%kJ%jKkJ%jjJj%LkJjJJk%%JJ%j%Jj%%
26117A4%JjJ%%%%Kj%jJjjKj%%jJjjMkJlJJkKJj%J%kJ%%Jj%jJjJj%%jJ%J%%%Jk%%%%%JjJj%
26101A4%Jk%Kj%%%%Kk%jjKkKjlO%lLjj%KlJ%J%%k%K%%%%Jk%%JjJjK%k%%j%J%%jJj%K%jJj%
26085A4j%JJj%JkJ%jK%JjKnL%J%jJk%KkKjJjJkJ%JkJjKkKkKlKJkjKj%JJjjJJjJjKjlJJj%J
26069A5%JkJJ%J%j%jJ%jJjJ%%%JkJJjj%J%%jjKj%JlKjJJjjJkJj%KJj%%lJJ%%JJjj%JJjKJk
26054A6%kJ%j%JkLjj%JkKkJkJ%JjLkjK%KkjKj%%lKLl%K%%kJ%%j%jlMKjj%jKMqKkQ%mqQ%JQ
26038B4kj2KqJ0mQnkLOp%Kjl%M%%%nM%JjkMljKj%Kj%%J%J%k%K%%jJ%jJ%%kJ%j%%jKkK%JkK
26022A6lJJJjj%JkK%JjkK%k%%J%%jKlK%Kj%%%j%%JJjJkJ%%JkJ%%Jl%%Kj%J%j%jL%lLj%%%J
26007A6kJj%KkJJ%kJ%jKjj%%JjJJkJj%%%%Jj%%%jJJ%j%%JjjK%%Jj%jKj%jMjlJKkJJjkJ%Jj
25991A5%jK%kJ%j%%JjJj%jJ%jKjJ%kK%kJJj%jJJkJJjKk%KlJ%JKKnJ%MljMlkKkKkKjjJj%%%
25975A4%%%J%kJJj%JJj%j%JjjKj%%%jJJj%%JjJ%kJ%K%j%KkKl%KkJj%KkJjJ%%k%J%JjK%jjJ
25959A5J%%j%%jjMl%JJj%jJ%%%j%%JkJjJ%JkJjJ%Jj%%%J%%%k%%J%%%jKk%JjK%Jk%%J%jJ%%
25943A5%%JJlJJ%JmK%jjKjJj%%%jJ%%JjJkKjJKjKljJKjj%jKjjJ%jjJJkJJkJJjKj%J%j%KlK
25928A6jKjJ%lJjjK%%J%kjK%j%%JjLjLm%LnK%%JmMJlK%Kl%%%jJJk%%JJj%Jj%%%%jKjjjK%%
25912A5kJJ%jjJJJjJkJ%%jjJJjK%jJj%%%JJj%jJ%jJj%JjJjJ%%%%kK%%%k%%%J%jKjJkJJJk%
25896A5%JjjJ%jJjJ%%jJj%%JlK%%JjJjjLk%%%%K%JkJkK%j%JjJk%%%%%%K%j%Jj%j%%J%Jj%%
25880A5kJ%%JjJ%jJ%%jkLlL%jJj%J%jJj%%%%jJjKj%%jJJkJ%JJkkJJJ%%jJ%kKjJJjjjJ%J%J
25864A6jJ%l%KkNnKKlLlMnJK%kjLjj%K%j%%%jjK%%kK%j%%%%j%J%jJJj%Kjj%L%lJJlJJjJkJ
25849A4jJJjJjj%J%%%%JjjKj%jKj%jKjKkJJj%J%%j%%Jj%Kk%%jJj%%J%%JJk%Kj%%kLkJjjMn
25833A3LJklLJjJlK%%j%JjK%%%%%j%%J%Jk%kJJJjJkKjjJ%%Jjj%%J%J%JjjkK%%%Jj%jLjJjj
25817A5K%jJjJjjKkjMlJJk%%J%kK%kK%kKj%%%%%j%KkJjKjj%Kj%jOn%mNoKN%%%%mNJpMJJkJ
25801A7mkKLlLjjJ%%j%%JjK%k%KJ%%j%JjjJj%Jj%%%Jj%%%J%jJj%J%jJjJKkjJjKjj%%%JkJ%
25786A5jJJjJJjjJkJJ%%JlK%%j%J%%k%%JlLjJk%J%Jj%JlK%Kj%jj%J%JkJjJ%%%%kLJlJ%JJl
25770A3Kj%%%kLkKjJ%jkLkK%%%%%JjjJ%%jK%j%%%j%%%%%jJJ%%JkKj%%%jKkJ%%%JjJjj%%JJ
25754A6j%%jJ%jKj%jJkK%%J%k%%%JjjJKjj%J%%jJJlkN%jJlJJkK%Kk%kK%j%jK%j%j%KlLj%%
25738A4JJ%kK%%j%jKjJkKj%jKkJ%%Jj%JkJ%jKjj%%K%j%%J%%%%%%j%J%jJ%jkKJj%%JjkJ%%%
25722A4%Jj%%J%jJJj%JjjKjJlK%%%j%j%JJjjJKJkjK%j%jJ%jJkJjJJj%JJj%kJ%kK%jJJ%%%%
25707A5Jj%%%J%jJjJj%JjJkKjjJjKjjK%JjkLkJj%%%J%kJjJjJ%%jJ%Jj%JJkJj%jJ%%J%j%%J
25691A6jjJK%lMkJlLl%%KoPk%%MKpj%%K%jK%jKkKj%jKkjJjJjJ%jK%j%%Jj%JkK%jj%J%JkJ%
25675A5%j%Jj%%JJjjKk%MnLkKk%%%J%j%JJj%%Jjj%KjjJ%%j%jKjJkJ%%jJ%JJjjJjJjJ%%j%%
25659A4%%jJ%kLmKKlKLklLj%%Kk%jJJJj%%jJ%%%j%JjkKjJ%Lk%jJ%j%J%%J%%jjJj%JjjKj%%
25643A4%JJl%JLkj%JjJ%%%j%J%jJ%%%%j%%%%jKJ%kjMl%KjKk%%jKkJj%%JJlK%j%JJj%jLk%%
25628A5JjKkj%j%JJ%%kK%%%%JkjJ%Jj%%%%J%JjJj%%%Jj%%jK%jjJk%J%%%%KjJkKjkL%%%k%%
25612A4%%Lk%jKkJ%%jJ%%jKkJ%JjKjjjjLkJ%%%JkKj%%%%j%KjjKlMkjKk%%J%LlJJljJKkkL%
25596A5J%kJjJj%%KkKj%JjjKjJ%%%%jJ%%%%%j%J%jJjJj%jJ%J%%jJjKk%jKj%JkJKmK%JlLjJ
25580A6%jJ%%j%%J%%j%Jj%J%j%%KmL%%jkJLkJ%JJn%OoK%Lkj0R%J0j6LoQj1OJMNmJLkjJ%jJ
25565A7kJ%j%jMljJJkK%JjkjK%jJ%%k%JjKjj%J%%J%%%jj%Jj%K%jJJkK%Jj%%%j%JkKjjJJkJ
25550A5jJ%jLjjJkJ%%Kj%k%%JjKkKjlKJ%Jj%j%J%j%J%kKLklJJjK%jJ%%Jk%jK%%%%j%J%%kK
25534A6kJ%k%JJ%%JjJlLjJ%%j%j%K%%%jJk%JJ%kKkJjJJ%jKj%j%jJJj%%JJkJj%Jj%KkKjJlJ
25518A5Lk%j%%%%jJ%%jKkJ%jJ%%j%KkjKJLmlPpLkOn%KlK%jJj%%Jj%%%J%j%JjJ%%%JkJJJkJ
25502A6j%jJ%%%j%Kj%JkJ%j%J%J%%k%jL%%kJ%%jKj%%j%JjJKkjJ%%%%%J%%jJ%%j%%kKj%J%j
25486A4Jj%%K%jjjK%j%Jj%%KmNkjJjJJ%jJkLjjJ%%%%jJ%jJjJ%j%KkJj%%%%LlJj%%JkJJ%%j
25471A5jKjj%J%%jJ%jJJjjJjJKjjjJ%%%%%JkJJ%k%Jj%%%%%Jj%%jJ%JjjKjJ%Jj%%Jj%Jj%jJ
25455A5kjL%JkJjJKlkPlLk%KmkNk%%j%jK%%JlKj%jjJJjJlLkJjKJjjJ%%JjJ%jjJKk%%JjKjj
25439A5%j%%Jj%JKjKlJk%Kjj%%%JjKkJj%%jK%%jJJjjJjJkJJJk%JkJjJ%%%JjJjJj%%JJk%jL
25423A6jJJlJJlLjJj%jKj%jJJj%JjJkJJ%jJjJ%%jJkLj%kJ%KkKkJ%kJjKj%J%jjKjjjL%%jjK
25407A6jJJj%J%Jjk%%jLj%jJ%%%jJjJ%Jj%%Jjj%%j%J%J%j%jJjJ%%KjkLlLj%jJjKlLJlLl%J
25392A6%jj%KkJjJ%%%J%jJ%j%Kk%%Jj%Jj%%jKkjK%JkJ%jJ%%JjjJJj%%%JjKkkJMkjJ%%%j%J
25376A6%kJkKJ%j%Jj%%JkJ%%%j%JJjJJkJjJ%%j%JJmK%%%%jJJj%%%Jj%jjLkJjJJ%Jj%%%jjJ
25360A5%%%%%%J%%k%K%kJ%JjjJ%%%Kkj%%JjJ%%J%jJj%J%j%%JjLnK%Jjj%Kj%%%Jk%JJk%J%j
25344A4KjjLmL%kJ%%j%J%j%J%kJ%LlJkLJmJjJJLnLKn%LMnlKkKKJmKj%%JjJ%kJjK%%jKj%Jj
25328A5J%kJ%%j%K%%jJ%%%%%%J%j%%jJjjKjjJKk%JjLmL%kjKkJj%%JJj%kK%%jJj%jKjK%jJJ
25313A7jjkKJkK%JkJjJkJJ%%j%Kk%jjJJ%j%%JjKkjJKjjJ%%%%%%j%J%%%Jj%%%KkJ%%JjkK%j
25297A5J%j%%JkK%kJ%J%%%%jjJ%%jLk%J%LkJlKkKj%jJkKkJjJ%JkJ%%JjJkJKjJkJ%%Jj%Jkj
25281A4JJk%JJkJJkK%jjkKjNmKKJmPlmJjLk%kK%%jJ%JjK%lKk%j%JjKkLjjj%K%J%%k%JjJ%%
25265A6jJ%Jk%J%%jKjkjJLj%%%lKJ%%%jjK%jjKJjjJJjjjJj%J%kLjjJ%jJj%JjJkKjJjj%K%j
25249A4J%Jk%K%%j%%lKlK%JJ%jJj%%K%j%Jk%JjJ%%Jj%J%JlJ%Jj%J%%kKj%J%%%%j%J%%Jj%J
25234A7kJJJlJ%kJLlJjKjk%J%%%JjjJ%JjJj%%%J%%Jjj%JjJJjkJ%%%jKk%jK%j%J%%lMmM%kJ
25218A5LJklKJ%mJ%LmMljJKjjJ%jJ%JJlJ%J%%%JjKkjJjKkjJK%jJkJ%%j%JjJlLkK%J%jjJJ%
25202A7jJj%%%Jj%Kjj%J%kJjJJkJ%%%%%%%KlJJjj%J%jJjJjJj%J%JkJjjK%%j%%L%k%%J%k%J
25186A6jjK%jj%%KkKlKj%JJjJjJJkK%jjJkJjK%jJ%jJkJJ%jJjjJ%Jj%JJjLklKKjj%j%%%Kk%
25171A5jjJ%Kj%%Jj%JkJ%%%K%j%Jj%kKJk%j%JJjJ%kJJJ%kKJlKlMjLoOkl%JJ%lJjKjJJ%kJj
25155A5JJkJ%kJ%%%j%%%%%JjJJj%%JJj%j%JkJ%%%jJjJ%jjK%J%k%%%jJJ%jK%JjjJjJ%%%%%j
25139A5jKkK%%jj%J%%%JjJj%%LlJKj%j%%%j%JkKkKj%JLl%j%J%jJjJJ%%%kJ%Jj%%j%J%Jl%J
25123A5KlJJl%KjjJjK%%j%jKJmLjJj%JKjj%%JkK%JnLLkJ%%%lLjk%KJkjLKmJkJ%%JlKJKJoJ
25107A4J%MnJkLmOjKpkPnJ2j1jLMqjRj3R%kK4J3k2Ork8L2j2oNNj6K0j3%J2lmKkkkkMJLjmj
25095A3Ok%kjJJkMlKjJ%jkLklKLjjJkJkKJk%JLlkL%kNjklMj%JkjJJjjLkJjj%Lj%jJ%%j%j%
25079A4%%%JJ%kKJjjKlJJJlJKl%%%jKjKk%%jkNKkJkJj%%%%%JjJ%%jJJjjj%K%%kK%jKkJ%%J
25063A7lKj%%JjJ%jJj%KkJJk%%jK%%k%K%%jJkJJ%%%Kk%j%JkK%%jJj%%JjjKk%Jk%L%jjJKjj
25047A5%JjjJJ%%jjLkJKjJlJJl%JMjk%nKL%%%%J%j%jJj%%K%kKj%j%J%jJ%kLkJj%J%%JkJJ%
25031A7jJ%%kJ%j%%Kj%j%JJkLjkjKkJJJ%j%J%jjKk%KkJj%Kj%jJ%%jJ%JjjJjjKj%JjJ%J%%j
25016A6%jJ%%%JlJ%kJMk%KjkK%jJj%%JlL%%j%Jj%%j%%jJ%Jjj%Kj%J%j%jKjJ%%j%JJkJJk%j
25000A4KJj%kJ%jJjK%%%J%Jk%J%kJjKjJjJjjJJjJj%jKJkJj%jJ%Jj%KjmLKkJ%j%JjJjJk%jJ
24984A5MnMkJjLljLlKlLJnKJjJ%JjJlKJ%lJJj%JJ%j%JjjKj%%%KjJjj%%%%jJ%j%JkJjMkJjj
24968A5J%jJK%k%%j%%KjjJj%%jKjJj%%%JJjJkJJjjJjJk%K%%JkKk%J%%%%%j%jJLjKpMKmKkL
24952A7l%KjJJjJj%%J%%j%%JjJJk%%%Kk%%%%%J%k%JjKkJ%%jJjJjJJjJkj%LkJjJKkjKjj%J%
24937A6jJJ%j%%%Jj%Kl%JjJ%%JmL%%%Jj%jJJjj%%JkK%%J%J%mLJk%kMjjkjLjJ%kJ%%%J%j%K
24921A7JkJ%%j%jKjkKjJ%kLj%JjJ%%%%%j%J%jjKjjJjJjJ%%%JjKjjjK%kJKjj%JkKkJjKkKjJ
24905A7j%%JjJjJkKjJkJjJ%%%kK%%JkKjj%Kk%%JJjjJJ%%jkMjK%l%J%jJ%jJJkjJ%Jj%%%Jjj
24889A5JkJJ%kJ%KkJjJkJJ%%jJkJJ%jKkJk%JK%jkJ%%JkKJk%K%j%jJk%JJkJ%JkLk%Jjj%LkK
24873A7jjJjJjJ%%JjjJj%J%kJ%LklK%KLl%rNPlpR%kKljK%l%K%kMl%%%%%Kj%%j%J%%jKj%%%
24858A6jJJ%jJjkJ%%Jj%JjKjjJjjJJ%KkJk%JJj%J%kJ%jKkJj%jJJJjj%Jj%J%kLj%%%KjjJkJ
24842A6kLj%Jj%KmK%JjJ%k%JJjJj%%kLjJjjjK%jKj%%%j%J%%%%%%jK%jjJJj%jJ%J%jJj%%%K
24826A8j%j%jJjKjJj%%%%kL%J%k%Jj%%%%JkK%kK%jJjJkJ%%JkJ%%%%%jJ%%jKj%JjjJJj%%%J
24810A7jJlJK%j%JjJ%kjLklM%Jk%J%%j%KjkLjkJ%J%jJ%jJj%J%%jJj%%%%J%j%J%%%jJjJJj%
24794A6Jj%KlK%%jj%J%JjJj%j%%%J%Jk%JJj%%jJjLkJkJj%K%j%%%%j%J%j%%jLj%Jj%%%%KkJ
24779A7%%lKlNj%jjJ%kK%%j%%Jj%%%%%J%jJJ%%kLmLjJjK%%%j%%JJl%JkK%jJjJkJJ%kLjmLK
24763A8kjJJjjJj%J%JkjJ%%%%%%%jLkKkJkJ%Kj%Jj%JkJ%%j%%jJJkJKkkNmKjJLnNKr%Pl%Kj
24747A7jjjKjJ%jJk%%%JJjJjJkLjjJJj%Jj%J%jJ%%%KjjkJ%%%Jj%j%jK%jKj%%%j%LjjJ%kK%
24731A7jJ%%%%jJj%%%%JkJ%j%J%%%%jKjJJjjJkKj%JJkJ%%j%%J%JJmK%%jlKKj%%J%jJ%%j%J
24715A7%kK%jJ%%%%%%%%jJ%%j%J%j%j%J%kK%jKkJ%%%Jk%J%%j%J%j%KjJk%%%%JjKj%%jJ%%%
24700A6%kJJJj%%%lLkJjJ%JkKkK%JlJK%j%%j%J%KkjMkJJnMojLjK%JMkj%jJkJKlLjJk%%JjJ
24684A7k%jKJ%kK%kJJj%%jJ%JjJ%j%J%jJjJjJ%J%j%%jMkJj%lK%j%%Kk%Jj%Jj%%%%JjKk%Jk
24668A5Kj%%%%Jj%J%j%jKk%J%Jj%jjJ%kMj%jKmMJ%j%%kJ%JJjjJjj%J%Jjjj%J%KkKj%JJlJ%
24652A6Kk%J%jJ%jKj%jjJKlJ%%%%JjKkj%Lj%%kKj%%Jj%%j%JJ%j%%J%jjKj%%%kKJjj%KJkJj
24637A6%%jJ%jj%JLrQLlmOpQj5J3jkj0J3JNnpL%JJKkJkkMkjK%jk%%J%%%J%%%Kk%%K%j%JjJ
24622A8kKljL%jjJ%%jjJJjjJ%j%LkLlJJjjJ%JkJ%%%kL%k%K%kJJ%jJ%%%JjjJ%kJjJ%%jJJj%
24606A6jJJjjJ%%jK%J%kJlMjjJ%lJ%JjJJ%%%jKj%jJjJjK%k%JjjKJk%%%j%%J%jJ%%Jk%J%%%
24590A6%JkJ%J%lJLlKljL%%KkJj%jK%JkJ%JjjJ%jJj%%J%jkK%J%%%j%%jKj%JJkjK%%JjKjlK
24574A7%kJJm%LK%lKkJjKJk%%Kl%%JJkJ%%%jJ%%Jj%J%j%%J%j%KkJ%%%%%%%%jKjj%JjJj%Kk
24558A6j%Kj%JJk%%j%KkJJJkj%%J%%JkJ%J%%%KlJj%JJkJjJjJ%%%JkKk%%JKk%JJmLKkjjkLk
24543A5%%KJlKlKJ%%j%%%J%%J%k%%Kk%Jj%J%j%J%j%%JjJjKj%jJ%j%KlKjJj%jMk%kJJj%J%%
24527A7kKkJJj%%%%%J%%jJ%k%J%KkjKjj%JJj%%Jk%Jj%LlJjJJkK%K%lKklMjLmLmK%%J%Jj%%
24511A7%kLl%KjKkJJjJ%%jJ%%kJJjjJ%%j%J%j%KkjLkKjjJ%%jJ%jK%%mL%j%K%j%%JjjJ%j%J
24495A7%%%Jj%j%KlJJKjlK%kK%%JkJ%%jJ%%kK%kJ%KjkK%%jJ%%KlKjjJ%%jjKkJ%%%%kKj%J%
24480A6jJjJjK%jj%J%%kK%%%%%jJJJj%jJj%%J%j%JkJKk%%%%jKjJJlJKj%JjjJjJjjJKj%kJJ
24464A7j%Jj%j%J%jJJkJJkJ%%j%%J%JjJjjLjKnKLkjOqMlLkL%jjJjJjj%J%jj%%jLkKjJ%%%j
24448A6jK%jJj%%jJJ%%jJ%%%jJ%jKj%%%J%JkJk%JJj%Jj%%%jJk%J%Jj%JjJ%%%JjJj%%%jKJ%
24432A9j%%%%j%Kjj%kLj%JJjkJ%J%mL%j%jK%jjJ%%%Jj%J%%%%jLk%J%jJj%Jk%KjjJj%J%kKl
24416A4JJ%%JJk%jJJjJjKkkK%kNlKjj%%J%jJj%KjkL%j%%%Jk%%Jj%jJkMj%kJjjKjKjj%JJjK
24401A8%j%jLl%MqOmQqMNj2MKLlJnNkJl%K%jMjkJjKkK%kJ%%jJ%%jjKjJ%%%kLj%%%j%jK%j%
24385A6%%KlK%%Jjj%JlKK%kjKj%jJJ%jJjj%J%%%jJJkKjkLkJkK%Jk%JJ%jJ%%jK%jjJJj%Jj%
24369A7%%j%Ml%k%KjJJj%Jj%%j%J%j%J%Jj%jKjJ%%j%%%%%%Jj%j%%JkKkJ%JjJj%Kj%%%Jk%j
24353A5JkLkKk%J%J%j%%%JJj%jKkJJj%%jJJjjjJJ%j%%J%%%%%%%J%j%j%KKljJjjJKlNnKkKk
24338A5K%J%lLjj%JJjjJj%%J%%%j%%J%%%%jJ%%KjjJjjJ%j%LlJ%jJjjKJjJ%j%j%Jj%%JJj%j
24322A6JjJ%jJJkJjJjJ%%%%j%J%jJ%%%jJ%%JkKj%%j%KkK%j%j%J%Kl%%MkmjMkK%%j%J%%%jK
24306A8j%%JjjKkjJJjjK%jJJkKkjJJk%K%%j%JjJkLj%jKj%%%jJjKlLk%j%JjJjJ%jJ%%%JJjJ
24290A8j%%Jj%%%jJ%JjjjK%j%%%%kJK%jJj%%kJK%kK%JklKNnRpkLmLJ%KlK%k%JkJjJ%J%%jJ
24274A8jJ%j%Jk%JJKlKkJj%JjjjKjJ%J%%%%jjJ%j%%%%%%JJlJJjKlJ%J%jJ%jKjjJkKjJjJKl
24259A6JJJkJjj%Kjj%Kj%%j%%JJjjJ%J%j%kLjjLkMnLjkJ%Jj%%j%%Jj%%%J%JkJjJ%%%Kk%%j
24243A6JJ%jKjj%%%%kJ%JjJ%JkKjjJjJkLk%JjKj%%KjjJjJ%jJ%k%JjJjJ%jJJ%lJ%JjJ%kKkK
24227A7j%JjJ%%j%%J%%Jj%Jk%%jK%JLk%kKj%jJkJkJ%JjKlKjJ%%%%%jKJk%j%%J%JjjJ%jJJj
24211A7JjJj%jJJj%%%jjJJ%KkJmJKjKkJ%%jJJk%JJkJJk%%%JjJJl%KjjKkJJj%JjJ%%%JkKk%
24195A6J%%Jj%jJjK%Jk%JJkK%k%J%JjjJJ%j%j%Jj%J%jkJJj%jJ%%%J%Jj%%%JjKkKjj%%Jj%%
24180A7jJkJ%%%Kk%JjjKj%j%JJ%jJJj%jJjJ%jKj%%%%KJmJJ%j%JjJjLljKJ%j%JkLlKlNkJkj0
24164HK1l0J6lJ6kOj1mJ2j1lJLMj0OLnJjKlLkLnL%jJ%j%J%Kk%%%%k%K%%jjJ%jJJj%JjJ%jJ
24150A8%jJlMkkK%jKJk%Kjj%%j%JkJJjJlKJ%%JjJ%%kK%%%jJj%J%jjJ%Jj%J%kJJj%JkJ%kKj
24134A6Kj%%%jJ%%jKj%%%Jj%JkJ%%%%%%%%J%Jj%j%%%j%%J%JjJ%j%J%jjKkKj%JjjJkKjJ%j%
24118A6K%jJj%Jj%Jjj%%Jj%JJ%JjjJ%j%%%j%J%j%KjjKJ%k%Kk%JJJk%%jJk%JK%%lKKk%%%%%
24102A8%j%J%%%%j%%JjjJ%%jJJjJ%kKlK%%%%Jj%JjJ%%jKj%%j%JjJjKj%jKlMjJkkJjKjJ%kJ
24087A7%%%j%%JjJJj%jJjJ%%%%KkJ%%jjLj%JjjJjJjJj%JjKjjJjJJmLJjJmJJjJ%jJJj%JjJk
24071A6KjJkKJkjKJjkKj%%J%jjLkJ%jJ%jJjJJj%%j%K%jjKj%KjJ%jkJ%J%kJJjjJjK%%%kJj%
24055A7%Jj%JjJj%%KjjJ%kL%jk%%JjJ%Jjj%%%Lj%m%jLkKkKKJm%KkMkJj%%%kK%Jj%%Jj%J%%
24039A8jJ%j%Jj%%Kj%%%jJ%%jKjJl%Kj%%Jk%jLkLk%kK%Jk%K%%j%K%k%%jJ%%J%Jj%Jj%%J%k
24023A7jJ%%J%kJ%%%J%jjJJlK%JlLkJJ%jnMJ%Jjj%KJlJJj%JjjKlKJj%%%%%%%j%%Kj%JjJ%j
24008A7%%%KkJ%jJjJ%%k%JKkJ%Jk%K%jJj%%Jkj%J%%%%kK%jJJkJ%jjJJkK%jJjJ%%j%JJj%jK
23992A8jJkKJjJjj%%JjJLnKjMjnMljLkJjKk%%%JjKjj%%%J%%%%jJ%%%JJkj%LlJ%jJ%%Jj%Jj
23976A7JkJJ%kJJJj%kK%lKJjj%JjJJ%Jk%%%%JjJjJ%j%jJ%%%%%KkJ%kJJjJkJJk%%%JjKjj%%
23960A6JjKk%KlKJ%jkLJ%jjJJjjJ%%jKj%JkJ%%%Kl%%Kk%jLl%J%J%jJkKj%JjJJj%jKkJjJjJ
23944A8jJk%jLj%LlJjJJj%%JkJ%jJjJJjkK%j%jK%kjMj%%%%kJK%jkJKkLkJlJkKKkJkKmMj0P
23929A5LrN%LnNjL%jJj%%jJJlJJj%%JJlJjJJ%j%%%%jK%jjJ%J%%jKkJjJkKjJ%kJJ%%kKj%%k
23913A5LjJ%Jj%%%%jJjKk%%J%%%%JkJj%jKkJjjK%%%jKk%JjJ%%Jk%Kk%KkKkKjKmOlLlkKj%%
23897A7KkJjKkJj%%%%jK%j%J%%Jjj%J%kJJ%kJJjjJ%J%kJ%%%jJJ%%k%Lj%jK%jJj%%j%jLj%%
23881A8J%%kJ%jJJkKkJj%JjKk%JjJ%Jj%j%%JjjJKJkjKkjK%kJjK%k%KkK%%JlMkkK%%%%%%%%
23866A8JjkJ%jJJjJjLkKkJj%%KkJk%%KjJkLjJ%jjJkKk%%%%JmOkj%%%JkKj%JjJJ%jJkJ%%Jl
23850A6KjJk%K%%%%%jJjJJk%JjJ%jJj%Jj%J%j%%%JjKJlJJkKkJJjkKkJ%J%%jJ%%j%JjJjJ%%
23834A8JlJ%J%%jJk%J%%%%%j%JJ%%jJ%%J%jJ%kjKjkJLlKkLjJjKk%jJ%jjKkJj%J%jK%JkKlJ
23818A7jj%Lk%JJj%Jjj%J%%JkKjmNj%KjJj%Qj2KjJlPlMn%JKk%kLjkLjJk%J%j%JJ%kKjJj%J
23803A8kJ%%JJ%jJjJ%jKj%%%jJj%jKjjLk%JjjJJl%K%%JjjJjJjjLj%%j%K%kJjJjJ%%%JkJ%j
23787A7%%J%kJ%Jj%Kk%JJkK%j%J%lL%%JkkK%%jJJk%%J%%j%Jj%J%j%%JjJJjkK%%%%Jj%%%%%
23771A8%%jLjj%%Jk%Kl%KkK%jkKjKkKJk%Jj%%J%j%KkJ%Kl%JKk%jJj%%%JjJJjj%%%%%Jj%%%
23755A7%JjJj%%JJkLk%jJ%jJ%jJlL%%j%J%%j%J%jJ%Jk%Jj%Jj%jK%JjJkKlK%J%j%j%J%KjjJ
23740A9jJ%kJKkJJkKlKkjJJkK%%j%%%%%Kj%%%%jJjJ%kLkJ%%Jj%%JjjJ%Jl%K%jjJKjJjkKJ%
23724A9%jJJm%%%KjjJ%J%JJkJJj%%jJ%j%JjjLl%JKl%%Kk%Jj%JkKJj%j%Jj%%%%KkLmLkJj%%
23708A7%K%j%j%KlJ%JkJ%%%jKj%JjkKjKlKkLj%JJ%kJjMjj%%%lKjkJkNJlPolPoLJmQKrjlJN
23692A9lM%l%LlMJkjJkJj%JJk%JjKlJJ%Jjj%jJJj%jkKJ%jJ%%jJJ%kJkKJ%%kJ%%jKlJ%%J%j
23676A7JKjjJj%%kKjJ%%J%j%KkjK%%%jJJJj%jJj%jJ%J%jjJ%%j%J%%jj%%jJJjJjJJ%jLjjKk
23661A9%%j%%%J%%Jj%j%%%Jjj%J%J%%%j%%J%%%%jJ%%Jj%%%kLkKk%j%JKk%%%jJjJjJjJ%jJJ
23645A9j%KkJk%KjKkj%JkKjJjJ%%jJjKkJ%j%K%JlNmkKJ%KlkKJ%jKj%j%Kj%kJ%%%%jJ%%J%j
23629A8jJJjJkJJ%j%JkJJj%J%%kJJjJj%%%%%%J%%jjKj%JkJ%JlK%jJJjjJj%J%%Jj%J%KmLlJ
23613A8jJJjj%JJ%kJjJ%%Jj%jKj%KkJ%lKjKkkKMkmLJjj%%%%%%%jJ%jJJ%%jKlKjJ%%%%%%%J
23597A9%%j%J%J%j%J%kLjjJJkJjjJjJj%%J%Jj%j%%J%%j%%J%jJ%%%%kJ%%%JjJ%%j%%J%%j%%
23582A8%jK%jLjjJjKjkJjJlKKlJJ%Mm%jMnMjJk%KkkMmKjJjJkKkJkKjJjJjKj%j%KjJjJj%J%
23566A9jJkJj%J%%KlLjjjJ%K%%kLkj%J%jJjKj%Jj%jJ%%j%%%jKjJjj%%%%J%%%jKjjJ%Jj%%J
23550A9%jJ%%jJKmKkNm%JjjJ%%%jKj%%%%%%%%%Kjj%jKkKjKkKlLkJJjjJJj%%%JkJ%j%%Jj%j
23534A7LkJ%jJ%jJ%KlJjJjJ%%jJ%%JkJjJ%%jJjJjJ%j%%Kk%%Jj%Jj%JkKj%JkJj%%j%KJjlJO
23518B2klLlMmKlMlKj%jLkJj%%K%k%Kj%%%jJj%%kLkJj%%JJjJjJ%%Jj%j%%jJjJ%K%jjjKj%J
23503A9kJJ%%%j%%%jJj%JjJ%Jj%%%jKjJ%jk%JJ%jKk%J%jKjjK%jJjjJjJkL%kKlJJkjM%jJjj
23487A7JjJ%%J%%%j%J%%kKJj%%KlJ%JjJjJ%jjj%KjJj%JjJ%JjJ%kJ%J%%kJjJ%JlLjJjJ%j%J
23471B0jJjJjJkJ%%%JjJk%JjJ%jJjJjJ%jJ%l%JLl%kLkJKKlkOKllJLJnnQnL%%kkKJ%%%J%kj
23455A6MkJj%JjKk%jMkkK%Jjj%J%kJJjJ%%%%jK%j%jJj%Jj%J%kJjK%%kLk%%%jJj%KkKj%%J%
23439A9j%J%Jj%JkjJJj%%jJ%%%J%%kLkJ%jJj%%jJ%JjjjK%kK%J%j%%JJ%j%%%%jJJ%%jj%jJ%
23424A8jLkjJ%%jJ%Jj%%%%%LlJ%jJ%Jjj%J%%Kl%KkjKKlKj%%jJ%%JkJJjjJj%J%%kK%Jj%KjJ
23408B1k%J%%%jJkJj%jJjJ%%KjjjKjj%%LnPnOm%%j%Jj%jJK%lKJj%%%%%Jk%J%J%%JkJkJJj%
23392A9JkJ%%%%%KmKJj%jKjjJJjjJjjK%kKJj%j%%%Kk%J%kJ%J%jJJjjJ%JjkJ%JkK%jJ%j%Kk
23376A8%%%%jJJ%jJ%jJjJkJ%%%JjJj%JjKj%Jj%KkKj%%k%JjJ%J%Jk%JJjjKk%%%Jjj%%%%Jj%
23361A8%%%jJJ%jKk%%JjjJ%j%JJj%%J%%kJ%JjjJJkJJ%%jJjK%kJJJjj%jJ%J%j%%KlK%jKjjK
23345B1k%j%%%MmjK%Jjk%K%Ll%kKj%%%%%J%jKj%JjjJkJkJMk%jK%jjK%jJJk%jJJjJ%kJKj%%
23329B0%%jJ%lJLkJ%jJ%jJjj%JKljKJj%J%%%KkjKjkKj%%jKk%J%%%%%jK%j%%%JJk%JJjJk%j
23313A8J%Lk%%jJj%JjJj%jJ%j%%%JkK%%%%JjKlK%j%%JJjjj%J%jJjKk%Kj%JJjj%Kj%J%jjJ%
23297B0JlJ%%%%jK%j%JkKjjK%kjJ%JJj%%jJJj%%J%j%J%%%J%%lJKkLk%jjLjk%KJjmM%jJj%J
23282B0jKj%jJ%k%Kj%jJKj%%j%J%%%jJjJ%%j%%%%%j%Kj%j%J%jJkLjJ%JJklJLj%%kKkKj%jL
23266B1%j%%jJjJjj%KjJkJJkjJ%%%Jj%LmLj%JJkJ%%jJjjJ%%%J%%kjJ%L%jjjKjjJJ%kJJjjJ
23250A9%Kj%%jjKj%Jk%J%%JjJj%Jj%JlMl%%JlL%%JjkKJkKJlLkJKl%LkkJJkKjK%jjjLjlNkj
23234A9Kk%JJjjJ%mNl%KjJK%nMllLPlj0KOOkpJ%J1opJ4j8mKJ1j3jJ2kJ6qjloO%jlNojMjkL
23220A9lPk%k%Kj%jJkJ%%JmKKkKj%%j%KkKlJJ%%KkKmL%lK%%KlL%jlKJk%JKkJ%j%Jj%%J%%j
23204A9J%jJj%jKkJJj%j%KkJ%kK%jK%%jJ%%jjJkJLJkjLmLjJkJjjKj%%%JjJjJj%%JkJjKjJj
23189A9jjJ%Jj%%J%jJ%JjjJ%%JjJ%jJj%J%kMlLnK%Jj%J%%%%%j%Jj%%j%%%jJjJK%kKj%K%j%
23173B0%jJj%JjJ%l%KkKkJJ%jJkKJJkJmK%Ml%%%%KjJl%JKj%%jKj%%jjK%%kLjkKJkjKJj%%%
23157B0JkJ%JkJ%%%j%Jj%%JjJlNnJK%%%%%%%%%jjJ%j%jL%kKj%J%%j%%J%%lJ%JJj%J%Jj%jJ
23141B0%%j%%%jJjJ%%JkKjkKlLkMlJjJ%%%jJJkJ%jKj%%j%KjjJ%KkJ%kJjJJkKj%%JjJj%J%%
23125B0%%%JkK%%k%JjkKjJKjj%%JkJJ%Jj%JkJ%J%jjJ%jLjjjJ%kJJ%jJjKjJ%kJKk%%KjkLkJ
23110B1JJpLKJJpQlkj%j%%LlLkK%%kJ%JjJJk%Jj%%JjJ%KmKkJ%%jJjKkKkL%k%%%JjjKlK%jK
23094B0%jJ%kJ%%j%%JjJ%K%j%Kl%jKjjJ%%%jJ%%jJJj%%%jJ%%j%%J%%%%%%jjK%JjJkj%lOJk
23078A9j%JjJ%JJkJJk%J%%%jJ%%%jJ%%%Jk%jLkJjJjJ%%kJ%Jj%%Jj%%%%jJKjJj%Jj%%jJjJj
23062A9JjKkJJj%j%JjJ%%Jj%%%%kLkKjJkJ%j%J%jJ%kJ%jJJj%J%%%JkJjjKkJK%lJ%kKjKkJJ
23046B0%kJJ%%%%%jJJkJJjJ%JmKkL%kJKk%%%%%%%%%j%KkJj%J%%kJMl%jjJ%%%%jJ%JjJKk%j
23031A9Kj%JjKjjJkKjjJ%%JJk%%%%JjJj%Kjj%%j%%JjJ%%JJlKKklLJkJj%J%j%J%lLjJ%jK%j
23015B1jJ%jJ%jj%Kj%jKk%%JjJ%J%jJk%JJ%j%jJ%kJKkLkjjK%%%j%%JJJjjkKJ%jK%j%jJjjJ
22999B0%jJkK%jJ%%%%%%J%kJkL%j%j%%%K%kJJNm%Kj%ljMmJJjJJjk%jLkKj%%jJkKJj%%kKjj
22983A8JjLjk%J%jJjKj%%%%%%%J%jj%JlJ%J%KjjJJ%kK%j%JJk%J%%Jjj%%%KjJj%jJ%%j%Kj%
22968B0jKj%Kl%JJj%%JkJ%jKkJ%j%Lj%kKJkjLjjJk%JkK%JjJjj%Kj%%jJjjLkjJJ%JlK%%j%%
22952A9%J%%%jLlKjJk%JkK%j%JKlJJ%j%jJJ%j%Jj%%%%%%j%Jj%J%jJJjJ%%jjLkJ%Jj%jJjKk
22936B0%jJj%%jK%%j%KlJkjM%lM%jKlJ%kKjJ%Jj%jJjLj%jjKjJkj%JJ%JJk%%%%%Jk%LkKjjj
22920A9J%%kJ%JjJjJkL%jJ%%jJjJ%jjKk%JJj%Jj%%j%Kjk%KjJjKjJkK%jJ%J%jJj%jKj%%J%j
22904B1%jJKj%jjjLlJ%%JkKkJkJjJJjJjjKjJ%kJKj%LlJ%jjKj%%kJJjKj%%%%%%jJJj%j%Jj%
22889A9%JkJKjjJJjJjJ%J%kJ%kjKJjj%JJ%Jk%Jj%kJJ%J%j%JjJ%%kJjKjK%%lLjnRqlNMnLJK
22873B4mlOk%kKj%J%Jj%jJjjJJ%jJkKjjJJk%%LkKjkKjJj%%Jj%KkJjjJkK%%%j%JkLJj%j%jJ
22857B0%%%Jj%%%%%jJjK%kJ%jJj%JjKj%%jjK%kKj%%KkKj%JJk%%K%jj%OolLJ%j%jKj%j%%Jj
22841A9JJ%j%jKjKkJ%%%Jk%%Kk%JjjKj%J%%%j%JJj%%%%jKj%JjJkKJlKkKkjJ%JJk%JjJK%%k
22825B1%%%%JjJ%jJkK%kJ%%%jJj%%Kj%jJjJ%J%jJjj%%%jKjJjjKjJk%JJ%JJk%%jJKkjJ%j%J
22810B1j%KjJ%jkKjJjJjj%%JJjjJJjJjJj%%%Kk%JJk%jjLKlJJjJj%%%%jJ%%%jJj%%%jJjJ%j
22794A9jK%jKjJJkJjjJJ%%kMkj%%JjJj%J%J%Jj%Jk%%%KjkJJk%jLk%%Jj%%KjjJj%jjKkjK%J
22778B0jjLj%%JjJ%%jj%Kj%jJJk%KJ%j%KlK%lJjK%%%%JjKjJj%%%j%kK%%jKjjjKmM%%j%jKk
22762A9%jKKmLjjMj%J%lOj0NJj%mJ3nnJoKJ3lj2L%J%MKnJ%%%%Jj%Kk%%%jjLkJ%jJjj%L%%k
22747B0%j%%KkKJ%jjKk%JlK%%%jKk%J%j%%K%jJjJ%%Jj%%JkJj%Jj%%JJlJjKjj%KJkJ%%j%J%
22732B1%kJ%j%KJ%kJkKjmNJlMjnJLjKlKJjj%J%kJ%j%K%%j%%JjJj%%JjJjJ%J%k%JjJ%%%%%%
22716B1%%JjJj%Jj%%%jK%%jj%%JjJj%Jj%JjJ%%%J%j%%J%jJ%kK%j%jKjjJjJJlJJ%JlJJJkLj
22700B2jJKkKkKnJL%JoLkKJjJjJj%kLj%%j%%%JjKkJ%jK%jJjkLk%JjJ%%%%J%lK%%%%%%J%kj
22684A9JKkjJJ%%jJj%%JJjj%%%%%%%JjJlJKjjKjJkJ%Kj%%j%JjJj%%J%KlJkLk%%Kjk%K%j%l
22668A7LJj%jJjKkJJjJj%%jJ%%JJjj%%jJJ%jJj%J%jJjJ%j%%JjJJ%k%J%Jj%%jJJjJJjlKjLk
22653B1%jKjJkJ%jK%kjJK%jj%JjJkLk%LkJjJjKk%Jk%Kj%jK%jKl%KjjjJlM%JKjnOl%Kl%j%J
22637B0%JjKjjJj%JkLkJ%jJ%%J%%kJ%J%%%j%%Jj%Jk%%J%j%JKmJ%jJJ%kJjLkjKkJJ%jJjK%%
22621B2j%%%%jJJkKj%%J%kK%%jkK%jjJJJkJ%%%jJJkKjj%Kj%kJkJM%kJkK%jJlL%%%jjJ%jJ%
22605B1%%jKjJkKk%%K%%%Jj%%%jJ%%%%jJ%jKj%jjJ%JkJJ%jJ%%k%%Jj%%J%jKjjjJ%KjjJ%jJ
22589B1%j%J%jJ%%JkJJjj%%KjJjJ%%kJ%kK%%kJ%JlQpJJjjKkM%jkJ%JlJKjJk%J%j%j%JKk%%
22574B0KkKj%%%%JjKkJ%%jJ%j%%j%JJkKkjKjK%Kl%%%J%%%kKj%J%%j%J%%jJ%jJjJjLl%%Kj%
22558B2%%%jJj%j%Kjj%Jj%KjJjjLj%j%JmL%%%jJJk%%jLjJj%j%JjJJjJk%KkJJkKkJ%%jJJJj
22542B2Jjj%jjKj%JjJkK%KkKjkK%jJjLk%kJ%jKkKkK%%%jJJ%%kJJj%k%L%jjJJjj%%%%%jJjJ
22526B1%JlK%KmKkLk%jkjLOnoLQnjMkKlMl%JKlJ%kKJk%%jKj%J%JkJjjJJj%%%J%%j%jLkjJJ
22510B2jjK%jjJKkKlKnLKlJ%Jk%J%%j%%JJjJ%%%jJ%JjJJkJ%JjJlLj%%%%%%%%k%JLklK%KlK
22495B2JkkjKJjjLJj%j%jJ%%jJ%J%%k%K%%kJ%Jjj%%jKjjLlKjJJlK%%j%%KkKj%%jJ%jJ%%j%
22479B0JkLjJ%%j%JJkJjKkJJkKjjJ%%%%jJj%JJ%jKlKkJ%JjjJ%%jLk%%jKJkJkjJLkKjlK%Jk
22463B1JkJ%JkLjkKjJ%jKkJjJJkJJ%j%jJjKkJ%jJjJkJKj%%jKk%%%J%j%%Kj%%K%jkKjj%%J%
22447B2%j%%%JJk%JJjkKj%%Jj%JJ%kKkJ%jJ%J%%kJ%JjJ%Jj%%jjJ%j%jKkKkKJmK%jJKj%%j%
22431B1%Jj%JJjJj%%%jKj%jJJ%j%J%j%%JJk%jJ%lKJjjJJkJJJj%jJjKjJJjjJkJkK%j%KjjjM
22416B4kjJ%jJ%K%%j%%jJ%Kl%j%KlMj%%jjJkJK%j%%jJjJ%%kkLJ1j1LmkLjLjKkJkJkJjJJjJ
22400B2Jjj%KkJ%J%%%jKlKkjJ%J%jKjjKk%JjLljKJj%J%kjL%jkL%k%J%%jJJ%%k%KjJkKkJjK
22385B3kKjJkJJ%lK%%%Jj%KkjJj%%%J%j%Jj%JjJJjJmjMlLJ%kJJ%%j%JkJ%jJ%jJjKjj%%jJJ
22369B2%%%%KkJjJ%jJJ%%jJjJjJkKj%%Jj%%%jK%%kJj%%%%%Jj%%JJk%jJjKkKlJ%J%kJJJk%K
22353B3k%J%j%%Jj%J%jJ%%JkK%JjJ%mjjNlJ%jjL%KkJ%j%jJ%kKk%KjKj%jJkJJkJJ%kLkJ%%j
22337B1%jKj%JkK%j%JjJ%J%j%%%JjkLj%Jj%JkJjJ%J%%j%%JJj%j%JjJj%KjJk%%%Jj%jJjLlJ
22321B2%JjKj%%jKj%K%jkjJKm%JJj%KjJk%K%k%%%Kj%J%%%j%JjJkKj%%j%JjJ%%%J%%j%%J%j
22306B2%j%K%j%%Kjk%KkJJ%%%jJ%%jJ%jj%J%J%%kJ%Jj%JkjKJjkK%jKKmJJjjNj%KlkkJJKll
22290A8J3pjNJmoKJLQnoJ0lj3PoQ%mKjM%k%JjjjKj%Kkk%JKkKlL%%kKjj%Jk%%JjJj%JJjJ%k
22275B1K%jjJmM%%jKkJJ%Jk%%%%jKJk%Kkj%K%kJ%%%lLKk%Jj%%%%jJjJJjkK%jJKkjK%j%%KK
22259B6lKj%kKkjKjKj%%jjJjKk%JjKjjJj%J%JlJ%J%%%Jj%%%%%jJJjjKkK%%j%%%j%K%%%jJk
22243B1J%KjkJ%%%j%%%JjJkLj%Jj%%jKjJjJj%J%jJjJ%%j%JJjJkJk%LjjKjJkKJjjKqNj%J%J
22227B3%jkL%j%%%J%jJ%%%J%jj%Jj%JlKJkJJj%Kj%jJ%jKj%%j%LjjJ%%kKjJjlLkJ%%%%jJjJ
22212B2j%K%j%%Jj%%Jj%%%J%jJj%%J%%jJ%j%%%J%%j%jK%%%kKkKlNmLm%MkjJJj%J%%%kJJJk
22196B2J%%%%%j%%K%j%jJ%jJJlJ%kK%%%%JjjLj%jJ%j%J%%kKj%%J%jj%jK%%%%jJj%%%%K%kJ
22180B2jKjjJJ%j%KjjKjJjJlK%JjJl%JKkLmLjJlKJ%mkQkkMJlLoMm%K%%%kKkJ%Jj%%JjK%lK
22164B3jjK%JkjK%jKkJkJJ%jLlJj%J%j%jLjkJJ%kjLJj%kJ%Kjj%J%%jKjj%%JjJJj%%jJ%kJ%
22148B2J%jJ%%J%%kJ%j%%K%%k%%JjJ%jjMjlJLkkK%j%%jJjJjJj%jJJjjLj%Jj%J%KJmJ%Jj%J
22133B4kJJ%jjJJjj%J%j%J%j%JjjKkLjj%KkJj%J%%%jJ%%j%Jj%%%%%JKkj%%J%%JjjJ%%jKjj
22117B2JJ%%jK%jjJj%%jj%jMk%MqMJJkKk%%KjkKjjJ%%J%J%lJJ%%%%%%%j%%%%JkJJ%%Jj%j%
22101B2Jj%%%Jj%J%JkKjj%KjkK%%j%%%JJk%%j%JJj%%JjJ%%%%%jJ%%JkJjJJj%JjjJJjjK%%j
22085B3jKkJ%Lk%j%%J%JjjKjJ%%Jjj%%JjjJ%%%%jJj%%J%JkJkJj%J%%%Jj%JjJ%j%%J%KmLk%
22069B3KjlLjJKm%KJk%%Jj%%%kJJ%j%jJjJJkJK%%%j%%J%JlLjjJkJjJKjJjjKj%j%KkL%jKll
22054B1JmOLmjJ%LlkK%j%K%j%jKJlLlJjJjJjKjjK%%j%%%j%JJjJjJj%%Kj%jjK%jJlLkLjjjj
22038B1JKkKj%j%%jJJ%jjLk%J%JkK%%jjK%j%Jj%JJj%%%%JjJkJkLmK%%%%jJK%kJkKjj%KmL%
22022B3%%JjjJj%J%%%jJKkJk%%%J%%%%Jj%%j%J%%%%Kj%j%JjJ%Jjj%%j%%KkJj%J%Jj%%kK%j
22006B2J%JjJ%%jJj%%%J%%%%kK%%jJ%jJjJjJjKjjKk%J%%j%jjKLmLkKkK%%mKJj%%kK%%jKk%
21990B2J%JjJj%JJj%kK%JkKkJjJjKlJ%JjJ%%j%%Jj%%%%K%kKj%lK%%Jj%j%%%JJjJjJ%jJ%jJ
21975B4j%JjJ%jKj%Jj%%j%JjJJ%jjJjJjJ%jJ%%jJ%J%kLkk%%Kj%JjJ%jJ%j%JjJ%%jJ%%j%jJ
21959B3jK%jjJJ%jK%j%%%j%Jj%%%Jj%JjJj%%%j%Kl%JJJj%%KkJj%%JjKk%%%JjjJ%Kj%kLlLj
21943B4%kJ%%%J%%j%%JjJ%jjJj%J%%jNj0KNqOrJ1LrO%kJJj%J%%kJ%%jLjJlKlLjKj%jKjjJj
21928B3JJjjKjJjJ%j%%JjJJjj%%Jk%%JjJJkjKJk%%%%%%Jj%J%jKkJjJ%jJjjJ%%J%%JJj%jJj
21912B4Jj%J%jjJ%kL%k%kK%jLjjJKmLlJKjjJjJjJ%%%Jj%jJkK%Jj%kK%%%JjJkJ%jJ%%%%jjK
21896B4jjLk%JjJjJj%%K%k%Kj%jJj%J%Jk%KlKJj%%%JkJ%%JjkK%J%k%%KjJjJj%jJjJjJ%J%k
21880B3%Kj%kK%LkLkl%%%K%kJJ%jJj%J%%kJKkjKj%%jJKkJjjKj%%Jj%J%%%%%%jJJlLj%j%J%
21865B5jjLjj%%J%J%k%%%%JjJ%kLkJ%%%%%j%%JjJkJjjLj%J%jj%JjJjJ%jJjJjJkLj%kLjjK%
21849B5kJjJKlJ%%%jJJ%%%jLkjJjJ%%jJ%%JjKkj%Jj%JKjj%jJ%%JjJj%%jJj%j%KJjkMk%jJ%
21833B5j%Jj%Jj%jK%JkkKJj%J%jJkKjjJjjNm%j%%LlLjJLlJ%l%%J%K%ljJjMKllKmKqJ3qPkl
21817B1%KjKJkJkJJKlkMkKjj%%JJlLk%KkKlK%JjJkKjlMjJ%%%JjJjkKjKjk%KjJjKjjJjJjjJ
21802B4%%%J%j%J%jjK%JkJ%jkMlL%jJjjLk%%JjJj%J%k%%J%j%%%JjjKlK%jJ%JjJ%JjKl%%j%
21786B3JjJjJJjJj%KjjjJkK%%jJj%%%%JjJj%jJJjJjJJj%jLkj%JjJj%%LlKj%JjJkJ%%%%Kjj
21770B4Jj%%%JjJj%J%j%Jj%J%j%Kk%JkLk%J%%lLj%jKlLmN%lJkLj%JkJJ%%%j%JJ%k%jKjJk%
21754B3LkJj%%JJj%%%j%Jj%Jk%%J%%%%%KkJ%j%MjjkKj%%lLjJ%J%j%%%%jJj%%%J%Jj%jJ%%%
21738B5jJ%j%jKjjK%j%JjJ%JlJkKjJ%%%LmLk%jK%JkjJkJKjjKj%kK%J%%Jk%%%JkK%JlJ%jK%
21723B5jJ%%j%J%%j%KjkK%%Jj%JkJ%j%jJKj%Jjj%J%jJjJJj%Jk%JJjjKjj%JJj%%Ll%%%jJjJ
21707B5jJJkkJKkLlJJ%%nQnKJmKKnPoJKK%jjjKjk%KjJj%JjJkK%J%kJj%JjKkJjjJJk%J%jJj
21691B3JJ%%lJJJj%J%JJj%kJJJkj%j%Jj%KjjJ%J%j%%J%%Jj%jK%jJ%%%%jjJjJ%%%%%%kLjkK
21675B5%jjLjJlLJklMlKjMk%j%%Jj%%j%J%%jJjJ%%%%%%j%%J%Jj%JjjJJjjJj%J%%%%jJ%jjL
21659B6%kJk%%%jKJjj%J%Jj%JjjJKlJ%J%jK%%%j%JkJ%JjJk%J%%%Jj%%KjjjKjj%%J%Jk%Llk
21644B2MkjKjLlKkjJKj%%%%%jLkJJjj%jK%j%j%JJ%%%%j%J%%jJ%j%jKj%%Jk%JjJ%kKjLmJKj
21628B5%J%jKjj%%%jJjJ%j%Kj%%%JjjJjKJjJjjJJkKkJ%%j%%%%Jj%JkJ%%JjLkKllOjkjKkJ%
21612B5jJjJj%J%%JkJJ%jJ%jJj%%%%Kj%jjJKjjJlK%J%j%j%%J%j%Jj%%jKJk%KkJJj%JkLjjj
21596B4JJkJ%%J%%%%%%jJ%%%jJjJJ%%kJkKjJJ%lMn%MlK%j%JkLkjNljOpkJjKK%jkLk%%J%Kj
21581B6kKJjJ%kJjJj%%jLk%%J%%jKkjJJjKj%j%%Jk%%Kj%KjlJLj%jjKkKjKjj%JjJjJj%Jj%j
21565B4%%J%JjjKkKjJkKj%j%J%J%j%%J%%j%%KlJ%JkKmKjJLkjJjJJlJjJJlLJjjJJjjJ%%JjJ
21549B6%jJ%jJ%%%%JjjJ%jKjj%%%%KkJjJjJjJ%%kKk%KJj%kJ%jJJj%jJjJJk%J%%%J%Jj%jLl
21533B5JK%k%%%%J%jJlJKkJ%%kJjJjK%j%%kKJj%Ljl%K%j%JJk%j%%J%%%%J%%jK%kjJ%JJjj%
21517B5Jj%%%J%jJ%j%J%j%jK%jjJlKK%j%JjjKjjLkjKjK%j%%%%%%j%Kj%%jJJ%%k%JjJ%JjjK
21502B7k%J%%%j%%%jKjJ%jkLlMlLlJLmK%j%%%%J%%jjJ%%jJJjJjjK%%%Jj%kJJj%%Jj%%%JkJ
21486B5J%jJ%%jJJ%j%jJKjkJj%JkKjJj%jJJkK%jjLjJ%%j%j%JJkjJj%JKk%J%%jJjJjJj%JJ%
21470B7%kJ%kjOp%JOpMKOqK%l%J%JjKjJkKjJkJ%%jJ%%kK%Jk%jJ%J%%jJ%jJjJk%%J%%JjjKk
21454B5KjJjJ%Kjl%Kj%%%%%%%j%%J%%%jJ%%Kk%%%jKj%%%jJJ%%%%jJjJjJ%kjJjKkKjjKjJ%J
21438B7JklLJj%%%jJ%j%JJk%jJJjJJk%J%%J%%jjKjJjJ%%jJ%jJj%J%j%j%Jj%%JjK%jJjjJ%k
21423B4JlL%jJ%J%j%KjjJ%%Jjj%KjJjjK%JkJ%jJ%j%%%Kj%k%JjLjmMJklMJJljKjlM%kKJklK
21407B5%JjJjJ%j%JjjK%%jLj%JjjKjJj%Jj%jJJk%%Jj%%%J%j%%kJ%KjkLkJ%%jJj%KkkK%JjK
21391B7j%jJ%%%J%lK%Jj%%J%%jJjjKj%jJJj%J%kjLkLjlMl%Kj%Jk%KjJjkLm%Lj%KkJ%%kLkJ
21375B6J%%j%jJKlL%lJJj%J%k%%LkK%j%j%%jMmNn%LlLjJmLJl%KJmK%LklLkLmL%JnNlPpjKj
21359B5jKKJ%jjjlKMkjNoKJLpoJ5kj3J8oj2J6j0mqJ4NJ0j3rJ5j9j2K2L1m4K7j9lJ2Lk0J4J
21348B7Mj2K1j4RrjmP%Mkjk%Jj%%MpJOJpJ%Kp%OKj%lKk%K%KjjlNKlk%KJmLLk%mMkkJ%%JnN
21333B7%lJKjjLkj%JJJk%K%%lLk%JkKkK%%%jJ%j%%%KkJ%%jjKj%jJL%jkKJj%kLljKJjJkK%k
21317B6%%jJJjJ%JkjLlKjJJkJkKjJ%%JjjJJkJk%kLj%%KJkKmLljLj%jJJjKj%%%%jJjJj%%%J
21301B6Jk%J%%jK%lLjj%KjjJJkJ%J%%%JjjLk%jJJjJmLLoLJjkLjj%JkJJJj%%JjjJ%%KkjJ%j
21286B6J%%%%KlJ%JJjkJ%jKkJ%Jj%j%J%%jJj%JlL%kK%jJJkJ%jJkKjJjJ%kJJj%Jj%%J%kMj%
21270B8jj%jMl%J%kJ%JkKjJjK%%jj%%%J%JkJ%K%%k%%%j%Jk%J%j%JkKJj%JjKj%KlKJjJjkLj
21254B8%%jJjj%J%%jKkjK%Jk%J%jJ%%%JjlLKkJ%%jKk%%%J%k%JJj%%JkKjKkJ%%j%J%%%j%%J
21238B8%jkJK%kJj%Jk%jJjKJkKNokOqMJkLklMkJ%JjKj%kJJ%%JjkJJjJjJlJjLjJj%%JkJ%%K
21223B8jj%J%jJKkJjJ%%JjjKkJJjJjJjJk%Kjj%%jJ%JjKkK%%jKjkK%%j%JjJ%%jJjJj%Jj%j%
21207B7J%%%Jjj%Kk%jJjLKm%JkJjJ%%%jJj%J%%%Jj%jJ%JjjKjJjjJjJ%JkKj%jKkKj%jjJ%%%
21191B6%J%%jJjLj%j%JJlJJjJkKjjjJJJkKj%%%Jj%JjKjj%KjJj%jKk%J%j%J%%JkJ%j%JjJj%
21175B7JjJmNlK%JlMjjjJ%k%%JJ%%%%%j%%J%j%JkJj%JjJJ%j%%%JjJjjJJkKkKj%%%jLJkKjK
21159C1lKk%%%J%jJ%%%j%%JjJ%jJj%j%%JkK%JJl%%%%%JjJj%JjJjJjKjj%%%%K%k%Jl%K%J%%
21144B8%%%%jJ%jJJ%jj%KjkLlK%%%jJJ%j%JjJ%kKj%jJj%JjJjJ%jjJ%JKjjKjkJkJK%%%jJjJ
21128B9jjJ%KkJ%j%J%j%JkJ%JlKjMkkLlJjL%%%j%%jKj%kKk%JJmkOj%Mj2J1jlJLjkKk%%KlK
21112B9%JjjKj%%jJ%%jjJ%%kKj%%jK%%%%%jJ%%JjjjJjK%j%%JjjJKjKj%%j%%JjjJJkJjKkJJ
21097B9%kJJj%%%JkKjKk%Kj%%%j%%%JjJkJj%%%jLjJkJJkjMjj%j%Jk%K%j%jJJJj%%jJ%%Kk%
21081B8%%jJj%jKjkJJJjJJkjJJjKjJkJ%JkK%j%j%jjLkMkKkJ%%%Jk%JjJjJj%JkJjJj%%%J%%
21065B8JjjJJj%J%jjKj%JjJ%kKJkLmK%%%J%nLJJj%mPoK%%%%j%KjKJj%j%kKjKk%%%%j%JjJ%
21049B8jJ%j%%%J%j%J%JjJkKj%Jj%%JJkJk%%JKkjK%jKj%j%Jj%%%K%kJj%jKkKkKJkJjjKjJJ
21033C0j%Jj%%JkKjj%%j%%%JKj%jkJ%KjJjJkJj%J%KlJ%%JjJ%jJjJjKj%j%jJ%JjJjKkKj%%%
21018B9%KkKlJJj%JkJJJkjJjJJkKkJ%%%j%J%%%%%%j%J%jKj%kJK%k%%%Jj%J%j%%Jj%jKJkkK
21002B8%kJjLjJjJjMkjLmJj%%%Jj%JjJjJJj%%%jJJ%j%%kKkJ%JkJ%%%%%jJ%JkJ%%%%%JjJj%
20986B8jKkLjlLjJjjJJj%%%J%Jj%%%%kJJj%Jj%%%%JjJ%Kjj%JkJjJ%jK%k%%J%jJ%%%JjjJ%j
20970B8J%jKJlJ%%j%jK%j%%jJJ%JjjKkJkKjJ%%jJJj%%j%J%jJ%%JjJjJkJJj%J%%%kLk%Kj%%
20955C0jJkJJJ%j%Jk%Jj%%JkJJ%j%%jjLk%%J%jKj%%jJJkJJlKjJ%%jJ%kJJ%%j%%%%jMJkk%K
20939C0j%JKmJJj%Jj%j%jJJjJJk%%KlK%%%j%J%%%JjjJJjjKJkjK%%jjKjjJlMkJJk%%J%%%%J
20923C0kKjJJkjJ%%j%J%jJ%j%%jKj%%%%Kj%%jjLj%%j%%Lk%%%J%kJ%kJLkk%LkJ%jKjj%%%Jk
20907B7J%jLkjL%kJjK%%%j%%jJ%JjJ%%%%jJJj%j%J%j%jJjJ%%Kj%jJkjJJjJ%JkjK%jJJkKj%
20891B9%%Jj%%%jL%JkjjJKmKJ%%JlJJJjkJLljKkjJMlmJRL%j2KnJ1n%j%PnKlLkj%%%Kj%jKk
20876B9%KlKk%%%%KJj%Jj%%kLkKj%jjK%%jKkj%J%%jJ%JlJJjJjJ%%%%JjJkKj%jJ%Jj%%%jJJ
20860C0jJ%JkKlKkJJj%jKkJ%Jj%Jk%K%j%JjJ%kMlJJ%jjJjJkKjKkJjJ%jKjjKjjjK%jjj%KJj
20844B9J%j%%%%%%%j%%KkJ%jK%Jjj%JlK%J%%J%%lKJjkJjJ%%J%jJ%kJJj%J%Jjj%KkJJ%j%%J
20829C1j%JjkK%%jJJjj%JkKjJj%Lk%jjKj%%%KlKJjjJj%J%Jjj%%jJjJJjJ%kLk%KjJkjJ%J%%
20813C0jJjJjJkK%jjK%k%KjJjKlJ%Jj%kL%Jj%jKkK%jJ%j%Jj%jJkJ%Kjj%J%%jJ%jJ%%%kL%j
20797C0kJJj%J%%Jk%JlKMjjkJ%jjJJj%%JjJjKj%%Jk%KkK%jJjjKkJjjJJjJj%J%%JkKkJJ%kJ
20781C0jJJj%JjJkJjJ%j%KjJj%%%%%jJ%%jJ%%%kJJ%Jk%JJjjKjlKJ%%j%kK%%KjmMj%JkK%jJ
20765C0%oRKlnM%mJ%KJJmLj%jK%kJjKk%jK%%JjJJlLkJjJ%j%J%%j%%JkK%%%%j%%JjJkJjMmJ
20750C0JjJ%jJJjJjj%K%%jJj%k%K%kK%jjJJjjK%JkKjkJ%J%%%%%kJKlL%kJjjJJK%l%Kk%jJ%
20734C0%JkJ%%%%%J%jJ%JjJj%jJlK%%%%jKjjJJj%J%j%%J%jjJ%%J%jJkKjjKk%KjKkJ%Jj%%j
20718C0KkJ%%%jJJlKjJjJjJjJJjkJJ%kKj%%Jj%Jj%%JkJ%JjKJkJkJLl%%K%jKkkJjJjJj%%Kj
20702C1j%J%%%%JlK%%jJKjk%LkJj%JlJJ%jJ%%j%%JjJjKk%J%%%%JkLk%%%JjjJJjJj%%jjJJk
20686B9JjK%%JjjJ%%%jJJjJkKjKlK%jkKjJ%%jKlJ%J%jKmJLkJjJkKkJJjJ%%jKjj%J%j%Jj%%
20671C0JjjJ%%%Kj%%lKJ%%jJ%%%J%jjJjJJ%%jJ%jK%kKjk%LjkK%%%kJJjj%%Jj%jKjKkJJjJk
20655C0J%%%%J%k%KkKkJJjlL%lJMlKJKoNqLLOqpPQj0L%Kk%jLkJj%jKj%lLJ%kKk%%JJk%K%%
20639C2jJkJ%%jLjjj%jJJJkJJ%jKkKkL%ljKKk%kKj%J%jJ%jJj%JjJ%j%Jj%J%j%%%JjKj%kJJ
20624C2%jJ%%jJjj%%%J%jJjKjj%KkJ%Jjj%KjjJJjJj%%JjJ%kJjJ%%jJ%JjjK%JkjJ%j%J%%%J
20608C2l%KjJ%j%J%JkJ%kJKlKJj%J%jjJJ%%jJ%j%jJ%%%%J%j%%%j%%%%%%KjJj%J%jJ%JjJjj
20592C1%J%%mMj%jJ%KljNlMlkLlKjJ%j%JjJj%jjL%jjJ%kKKjj%%%%J%%%jJjJjJ%jJ%%j%j%%
20576C0J%%JjKjkJJKk%JJlK%k%J%%%jJ%jJ%JjjJ%j%J%kLj%JkJJj%%%J%jKjjJJ%jjKjJjJk%
20560C2JjK%%kjMmKkKkJk%%JJJkKj%j%%K%j%jJj%K%JlKj%Jj%%%j%J%%%J%k%Jj%%%%kKkM%k
20545C1KkJj%Kj%Jk%%JjjLj%Jk%%%JJlKjJ%jJjjJ%%JjJj%jJ%JkLkj%KjjJJ%%j%Ljj%kKjJ%
20529C2%kJK%%kKjjKj%%%J%kJ%%%JJlJjJjLj%j%%%JJj%%JkLkkJ%Jj%KjjJJJkkJjJ%%K%lJ%
20513C2%JJkJj%%J%%j%%%jJ%JjJ%j%jKj%jJJj%%%JjJ%j%%J%k%Jj%jKj%JkMkJk%%JjKjjJ%j
20497C1jKjkLjJ%jKj%%%J%jJJkJj%J%J%kKjj%JKk%%Jj%%Jk%%KkLjkkMkjJJj%%%%JjJjJjjJ
20481C2jJ%jJ%jjJ%%JJJlKj%jJ%%%jJ%Jk%Jj%%J%kJJ%kJKmNkKjLmJjKkJJj%j%J%j%Jj%JjJ
20466C3%jJkK%kJkKJ%kJJjj%KjLmM%l%JJjjJ%j%%K%jJJkJJl%Kj%J%%%j%j%Kj%jJjJ%k%JJk
20450C1%K%%%jJ%kK%jJjJ%%%jJjj%K%%%jJkLjKmK%KlJJ%kJ%j%jJ%J%%Jk%J%KjkJJjkJL%k%
20434C3JjjJJ%j%%j%%jLkLk%J%jKk%%JkkJLlLjjjJ%%jMjjjKkJ%Kj%kJjJkK%Jk%%Kj%%j%Kk
20418C2JJjJ%JjjkJKjJmnORnK%j1J3kloJ2kqLKjMkpOpL%%KJklNkJKmLkJjJJmKJlKkL%KmJ%
20403C2JjKjKk%jKjjJ%%JjJ%JkKJm%LjJkKmJK%%%%%Jjj%%j%JkKjJ%jKk%KkJjLjjJkKj%%Jl
20387C1LkJ%jjKjJj%JLkkMl%kjM%%jJlKjJJj%jJjKjjJ%%JjJ%%JkJkJ%J%%%jJjJ%%%%JjkJ%
20372C3jKjJ%kJ%jMkjLlJJjJj%jJJj%%jJ%jj%%JjLmK%%kLj%Kjj%%KjjJ%%%%j%Kj%Jk%Kj%j
20356C3jKjKjlMJk%mM%jKj%JJj%kKjj%jLlJJjjKjKk%jJjJ%%%jJJkJ%%%JjJjjJ%JkJ%JkKkJ
20340C3jJKljKJk%%J%%%%%%%j%%KjJ%%kjJ%J%jK%kJ%jJ%K%k%KlK%j%%jKkK%jKjkK%JjjLjl
20324C2K%JjJ%jjJJjJjJjjJJj%%J%jjJJKk%j%%%%jJJj%J%kJ%KkJj%JjjLlJjJK%%kkL%j%Kk
20308C4Jj%kKjKjJ%jjJjKj%%%%Jj%JkKkKk%JJ%%%jkKjJj%%JJJkJ%JmLjLoJJ0j5LLKlKJ%%J
20293C6kKlKLlJ%jjK%mK%%%%%%kKJ%jJj%j%JjJjJ%jKj%%%jjK%j%Kk%%JjJjKjj%JkK%%%jJ%
20277C4kKjJ%J%%jJj%%JjJjJk%JkKJkJ%J%kKj%J%%kK%%jKlJ%%J%Kl%%j%%K%j%jKj%%LkjJk
20261C3%%Jj%%J%j%JKj%%Jj%Jj%J%l%LkJjJ%kKJ%jjJj%kMjl%KJkKkKk%JJj%jJ%jJJkLjj%%
20246C4JjJkLj%%jJ%%jJjLlJ%%%jJJkKkJJj%J%jkj%LkLjjJjj%jLkJjK%jJ%kLjkJ%jK%%j%%
20230C4%jK%j%Jj%JjJj%%%%Jj%%%%Jj%JjjLkLlJ%%%jjK%jjJ%%JjJJjjJjJj%%KjjJjK%kJ%%
20214C5%jJj%Jj%%%%J%JkJ%jKj%JkjK%%jL%l%JjJJJj%%%JkK%jj%jjJJ%JkKj%%JkJkK%j%J%
20198C5%%jJ%J%jJ%jJ%%j%jJJ%%lJJKk%JjKj%%%jjKlLjj%%Jj%K%%jjKkjKkLj%jJ%%JjJlLj
20182C5%%JkKlJjMjkMlJKn%LpLKJJ%LnJJlL%JlLj%kKJ%mLjKk%J%jJmKjK%Jk%%%%jKJjKjj%
20167C5JJj%%JkJjjJ%jJj%J%%%JkJJk%%%%J%j%JjKj%J%%jjJj%JjJJJJjjk%JJkJ%Jj%%%J%%
20151C6jJJjjJJ%JmLJl%JjJ%%%jJjJjJj%%j%J%%J%%jjKjjJjKkJ%%%jKk%JjJKj%j%JjJjJJm
20135C3K%LkJj%jJjJ%J%%kKjjJ%%%jJ%%%%jJj%KlJjJjJJjJjJ%j%Jjj%JJj%Kj%kLlKLljkLJ
20119C7jj%JkJ%J%jJjjK%%jJJjj%jKjJjkJJJjKjJj%%Jj%jKk%kK%%%%%Jj%%J%JlJJ%kJJ%%%
20104C6%JkJkJj%J%j%KjjKJjjLk%%j%K%Jjj%jKj%jJJjj%J%%%%jJjJ%jJ%mNj%jjJ%jKj%j%J
20088C5jJj%JjJ%%%%J%j%JkJ%JKmK%%%kJJ%jK%jkKkLk%%%%jKjlLKjjKJl%jJKjkJKlJ%%%J%
20072C6JjkJjK%j%%JjJ%%jKkJjJ%%%jJKkJlKJ%%kkKKkKkJ%jpJ0MmKl%kJkJLkLlJkK%JjjJj
20056C6%Lj%kJj%Jj%J%J%%%kjKjjKjJjJj%jJ%%J%%j%JjLl%J%%j%%J%%%jJ%%jJjJkJ%%jJJk
20041C5JJkJjJ%j%%%%%%J%jjJ%Jj%KkJJ%kLj%%lKkK%jMlJ%j%jK%jJj%j%%Kj%%%jK%JkJJjj
20025C6Kj%kJJj%%%Jj%%%%%J%j%%J%%JjJjKjj%J%j%%j%%JJkJkJJ%l%KjJJ%%j%j%%JjLkJ%%
20009C7jJ%%kK%k%J%%J%JjjKkLkjj%JlK%KKjJjj%JlJJjJ%j%%kMk%J%jJjJ%KjjlMj%%j%JK%
19993C9%%%j%jJ%j%%%jJJj%JlMkJJlKjKlJ%%j%J%%jJj%%J%jJj%J%%%%Jk%%Kj%JjJjJj%Jk%
19977C6J%%%%j%%KlKJJkj%LmKKkkJJkKJ%%%jJ%lLjjJ%%JkJJjkKJ%lLkJjJ%JjJjJjJ%jjKk%
19962C6%J%%%%Kj%%JJm%KKkJkJ%%%%JjjJjJkKj%jKj%%kJ%jJJ%lJJjKj%j%K%j%KJjjjKjjjN
19946D0%kNpOkpJlJ1nKmjPo%Lj%jL%kJKmKkkLjKjj%K%j%%%kLlJ%J%%%j%Jj%%kKKkJjK%jjK
19930C8lKJ%jj%LkKj%%j%JkKjKkJ%%%j%Jj%%JJj%%%%jJjJ%Jk%%JkKjKjj%JjKj%%%jKjKjJj
19914C9jkJ%J%jKjJjjK%J%k%%JjKj%j%kK%jJJj%Jj%%%Jj%JjJ%%JjJjj%KkJJj%%JJk%kKk%J
19899C8%JlLj%%%JjKkKkjJJj%jJ%%jJlK%JjJjK%j%%%jKJk%%%jLlKlLkJkKKlJJjJLl%%kJj%
19883C7%%JkK%%JkJ%jJ%%%%jjK%JkKkKkKj%jJ%Kk%%%%jJ%%%%Jj%%%JJjjjKjK%jj%j%%JJkL
19867D0jj%jJ%J%%j%K%kJJl%KjJ%%%%kJJj%%JjjJjJKjJk%KkjL%%kjjKJ%J%jJ%jJj%%%%%%j
19851C8%JjjLkJjJJ%JjjJjjJ%%jJj%JjJjjJ%jJ%JjJJlJJ%%kK%lJJ%j%J%j%JjjJKJj%j%%%j
19836C7JjJlMkJJ%jjK%j%%JjJjjJKjJnN%%%mMljKM%ojkOmNlK%lMj%jjKjJJ%j%%%jJ%JkJ%%
19820C9jjJkKJj%%%J%j%%J%JjJjJk%%JJkJ%%jJjJj%%J%%j%%jK%kJJj%%J%jJ%%kKj%JkK%%%
19804C9%JkJJ%k%%JJj%%Jj%jKj%JKmjO%mlKJJk%JjJ%J%kJ%JjJjj%J%%%Jj%jJ%%%LmJjJ%%J
19788D0j%%jKjjJJj%%jJ%%%%KjjkK%KlJ%JkJ%%%Jj%%kLjJj%%%%J%j%j%%K%%Jl%J%%%%JkJ%
19772C9%JJ%j%Jj%j%KjlLmJ%KKkJmJJ%%jLj%jK%jjK%%%jJjJ%%%%jJjjJ%%jJJj%%J%jK%%%j
19757D0JkJ%%%jJjJJ%lLjKkjKjJjJkJjKkKjJjJjJkJJk%JjKjlK%%jJ%%JkJ%Jj%J%%kJ%J%j%
19741C9JkJJk%jKKKnKjJJ%%k%%jJJjjjKJjjKk%J%KlJjKl%%Kj%JJj%jJ%JjJkJ%J%%Jk%%%jJ
19725C9jK%kKj%JjJj%%Jj%%kKjJJkKJkjJJjKjJ%jJ%j%%%Jk%JJ%%kJjLlJKkJjjKl%lPPj4JJ
19709C7%OlkkL%kNJlkKkK%jKkJjJj%%JjJ%jJ%kKJ%kJJ%kMl%%jJKkJ%jJjJJkjKJjj%%jjLj%
19694D0%j%jK%j%%%JkKjJj%jLkJkK%jJ%jKk%Kj%%%jKkKkJ%jJjJJk%JJJk%jkMlJLjJlKjjKj
19678D0%%J%kJ%%jJJKlJ%J%jjJ%Jjj%%%J%%%%j%%%%%%%jJ%%%%J%JjjjKjK%lK%k%JJ%j%%J%
19662D1%Jk%%%j%JJjjJ%jK%%%j%Jj%jK%j%%KkJ%%%jKj%%jjMnL%JkjKjjKj%JJkJ%%%%%%Jj%
19646D1j%KjJjjJ%j%%J%%kLjjJjJ%jLkkJ%KkJ%%j%%%%%JkLj%lKJ%JkKjJ%jJ%%JkLlJ%Jj%j
19630D1%jJlL%j%%Jj%J%%%j%JjK%kJ%%%%%%jLkKkj%jKJ%jJkJ%%j%%J%jKkKk%JjJJj%jJjJ%
19615D1Kk%%%jJ%jJJjkLjKjkK%%jJ%jKj%j%K%kjKJj%%j%%%Jj%J%kK%%jJjJ%jJ%jJ%jKkKk%
19599D1jJ%%%%JjMlJjJjkKJkJjkMkJjLlKMn%lNj%jJkKj%%Jj%%%jKkJ%%Kk%%Jj%%%%%Jj%J%
19583D3j%jJ%%JjJ%%jjJJkKkJ%%j%JJkJ%kJ%Kj%JjkLk%JkJjK%j%K%kKkKjJjJk%J%lLjJ%j%
19567D1Kk%j%JJ%%jKkJJm%Mk%%KmLJk%jKjKkJ%Jj%jJ%J%%j%%%j%JJkKkKlK%jJ%%%jJj%jKk
19551D0KJ%jJjJjJ%jKjjLk%%%jJj%JJkJkKkKkJkKjKjjJKjk%L%kJ%j%%Kk%jKj%kJ%KkJ%jJ%
19536D2%jKJljLjKlJjJ%k%jK%%%%jJ%%%%J%jJjJkJ%%jJJJk%K%jJJl%%JJj%JJlKjjJ%%%j%%
19520D1KJjjKjkJJkJ%Jj%jJ%%jJj%JjKj%Jj%j%%%%LkJjJjJjKjkjJJj%JJJmK%%j%J%lJLlMk
19504D2%lL%J%jJjJ%jJj%KjJjjJ%jJ%%j%jJJj%J%jJ%Jk%K%j%J%jjKkJjLlJKmJ%KjjkKkL%K
19488D5%kJjj%%J%Jk%j%%J%JkKJk%JJk%%K%jjJKmNnJKKllPmOj0RqQmj%j1K3%k1J5K0k3j0J5
19474E1k2J0JMoJmRk%Mjj%kmN%J%jKljJjM%jjKmJKKjkLlKk%lMkKj%%J%kJjJjj%KjjK%jL%j
19459D4jJ%%jjJJJjJjJkJ%Jk%KkJkKKlkL%lJJJjj%j%%J%%%JJl%J%%JkKjjLlL%mKLk%%jKkJ
19443D3Jj%%%%%%%jJ%jJ%%JjJ%kJ%J%k%J%%%%%JjJ%Jj%J%jjJJjj%%JJ%%jj%%J%jjK%jj%J%
19427D3jK%%jjKjjJ%%JkJJkK%%%Jj%jJjKjKk%%J%kJ%kKk%MmMjn%JLj%KJkj%%JjKj%%%jjK%
19412D4kK%j%%%J%%k%K%j%J%jJJ%k%%J%%%%J%jj%%%%%kKk%J%J%jJJkJJ%%JkKjjK%%jjKj%J
19396D5%j%j%jJJJJk%%jKjJjK%jJ%%jjjJKmK%%Kl%Kj%J%Jjj%JkJJjj%KjJjJ%kJ%%Jj%%jJJ
19380D5%kLlJjJ%%J%%j%jJ%jJj%J%%%JjjJ%jJjJjJ%%JJj%j%%%JJkJj%%jJ%%%JjkJKjJ%%jj
19364D3%JJjjK%Jk%%j%LkKkJ%lJLlMjJ%klJjOl%%JjJjK%jkK%jL%kjJ%Jjj%J%KljJJ%jJj%j
19348D4J%Kk%%%j%J%JlJKjj%%jJkKKj%%jj%J%%JkK%JkJjJjKk%J%jKkjJJjKjJjk%KjJ%%%kK
19333D5j%%J%JJ%kKjkKkKk%k%LkJJlJJjJjJJj%JJk%%Jj%J%kKkKJkJ%jjJJ%jJJj%%%JkjLlJ
19317D4JjJ%%JkjJKk%%J%%J%%kJ%%jJ%jJJjjJ%Jj%%JjJjjKjLlK%k%Jj%%%%%jJj%%%jK%J%%
19301D6%%%KnJ%K%kjK%J%Jjj%%%%jK%%jJj%J%JjJkjKJkKj%%JkKjJ%jjJJ%j%Jj%%LmK%j%%j
19285D5%JKj%kJjjJJ%j%Jj%%J%%%JjJj%j%jKjJJ%jkLjkLk%%Jj%%jLk%%%J%jJJkjJ%jJJ%%l
19269D3J%%JkLjJ%kKJj%%%jJ%%jJ%j%%KlJJ%%%jKkKkJjJ%JjkKkJJjJjJJj%%%%jKlK%%JJjJ
19254D8jjJjjLlJjJ%JlNmJ%Jj%jJjLlJJj%%%%%Kk%%Kkj%JkKjKmLJjpQkmMLkMoMnQmkKJlLk
19238D6JlKkLlMkKk%J%Jj%%jjLl%Kj%J%Jj%%%j%JjKkK%j%Jj%jJJ%jKkjJjjJjJ%jJ%JjJjJk
19222D5J%%%J%jKjj%JjJjJ%Jj%jJ%%%Jk%JJkJjJ%%jJJj%jKlLkJkJ%%%%%Jj%JkLk%K%%kJ%J
19206D8%%Jk%%%jK%%jj%J%%%JkJ%Jk%KjJjJ%%kK%jj%%L%Jkk%K%%%%j%%j%Jj%K%kJj%j%%JJ
19191D7k%K%jjKj%J%j%%J%J%JjjKkjK%%%kL%oOkLmKOqNnJ%%JkKjJ%%j%Jj%%J%jJj%JjjJ%%
19175D7%JjJ%j%J%%J%%%kJjK%jjJ%J%%kj%LkJ%j%jjJJ%%J%%j%%JJjJjjjK%%j%Jj%%%%%j%J
19159D7%J%jJjJJ%Kl%jKjJj%%j%%JKlJlKjJ%JjJk%Jj%JJk%JjJjKj%%%%%JjKjjKjjj%Jj%J%
19143D7jJ%%%JjJ%%%%%%%%jK%jKj%k%%KkJJj%%%kJJJjJJjJkJJkJJj%%kLkjJ%JjjJJJlJ%j%
19127D7%MljLkjJ%JnPnLkJoJ1ljkJ%%jLlJ%J%j%%jKjj%Kj%%JlKjjKjJ%jKjJj%Jj%J%jKk%j
19112D7J%%Jj%%jKjJj%%%jKjJ%jjJjJjK%jJj%Jj%%J%J%kJ%kLkJ%%j%KjkK%jJjJj%J%lMl%L
19096E0lKKk%jJj%JkK%%%j%K%%jjJjjKJjjjJJj%KlJjjJKJk%JJjjJjJjJJj%%%Kk%%%j%KjjJ
19080D9JjkK%j%KjjJ%JjjJ%%%jJjKjJj%JjJjJjJlKj%%JjKjjJ%%j%J%%jKJkJkKj%jjL%jmLl
19064D5N%%jJKkJlKJkKkJJj%jJjjJjJjLk%%jJj%Jj%%%J%j%JjJJj%%J%%j%%jJ%JlL%KjkKlJ
19049D9%JjKjJlKkK%%jJkKj%%KjJk%%Kjj%%Jj%jjKJjjjJKJkJ%jKj%J%KnLJoNJ%%kJk%%%Kj
19033E0%Jj%%%J%j%%%%%J%k%%J%%%%j%JjJjKk%%JjJjJJj%Jj%jKjk%LkjJKj%kL%Jj%%%%%kK
19017E1lLJljJ%JJ%jJmJ%LjJ%jjJJ%j%%%jJ%lMkKJljjJjpJ0j2QnJ4j3LjNKlmP%k%JJ%JkJJ
19002E2k%Kk%%lNk%%JjkJjKJlLjj%J%%kLj%j%Jjj%JJj%jL%jJ%j%Jj%J%%jJ%%%%jJj%jKkJj
18986D9Kj%J%%%kJ%%%%J%jJ%j%%%KkK%k%%%Jj%%%KmLj%JJKljJ%JJkKl%%KjJjJ%jJ%jJkKj%
18971E1%%%KlKlJjKjKkJjJkKjJjJ%%JjjJj%j%%L%kkL%jjJJjjJJ%%%%%jK%%%%%kJjJjJjK%j
18955E1%%jJJ%j%%JjJ%lKJKkJk%jKlJ%LmkMJ%Kl%JKk%%%Jj%j%J%jKjj%J%%Jj%JjJk%K%%%%
18939E3j%Jj%J%jj%%Jk%J%j%Kjj%JjJjK%jJj%%J%jKjJj%%%%%%%%j%%JJj%%jKkKjj%Jj%Jj%
18923E1Jj%Jj%JjJ%%%%%Jj%KlKkKlKJk%%%JjKjjJj%JjJjJ%%%J%JjkKkLk%%%kJJJk%%%J%%%
18907E2jJjjJJ%%%%j%%jJ%JjJJj%JjJ%jJ%%%jJjj%JJk%Jj%JjJJkkKJj%JJj%%%%JJkj%JJlK
18892E2%%%%jLL%Jo%jJLmLJl%JkKjKk%%%%J%jJjJJ%%jjjKjJjJ%j%%%%%%J%jK%jJ%%l%%Kj%
18876E2jK%jjK%%%Jjj%J%kJ%%jKj%%jJ%J%jJkKJkJJkJ%jJjJ%%%kKJ%%%jJlK%%jJ%j%J%JJJ
18860E6ljJkLjjJ%%%jKj%%Jj%j%jJ%JjKj%%JKlJkJ%Jj%Kjk%%JjJ%Jk%JJj%jKlJJ%jLmKJjJ
18844E4%jKkJjJ%jJ%%kJ%%%%%%%KkKj%JjJ%kJKjJl%JJ%%jjK%jkLkj%K%j%JKm%kRoJLl%%jJ
18828E4Jj%%JjlMjjJj%JkK%JjkK%jKj%Jk%Kj%%%%k%%JJjKkjK%jJ%jJkKjkLlJKkJJkjKJj%j
18813E2J%jJ%kJKj%%JkKj%Kj%%j%%%Jj%%J%%jJ%JkJJkJ%%j%jK%lMj%k%L%j%JlLjjJJj%%%j
18797E3J%j%JJ%j%J%JlJKk%JJjkKj%JjJ%j%%jJ%JkJJJk%%JjkLJlJ%JkjK%%%jJ%jJJjj%%Jk
18781E2KJk%%Kj%Jk%J%%%j%J%kL%k%JjJ%jJKnKMMnkMj5ORqJLL%kLklL%%kjLkK%j%%%%Kl%K
18765E6%jkK%%%Jj%J%jjJj%%jJJJj%jJJjJjjJKjkJjKj%%jJJj%jJJjjJ%%%%%%%J%%j%%%jJj
18750E4JJ%%kJKk%JJjkK%%Jk%jK%JkJj%jKkJKj%j%JkK%%J%jJj%%jJ%j%J%%Jj%J%k%KjjjJj
18734E4%J%%jJjJkJLjkKjJkJJ%jjjK%kJ%%jJJj%KkJjKj%jKj%%%%%%%%jJJjJ%jJj%%J%jJ%j
18718E5LjkKlK%Jk%Jj%JJ%lJ%%mM%%jjNljKjJjJjK%Jj%kJ%%%%%JkJ%%%%%%%%%%J%kKj%jK%
18702E7%kJjJ%%J%k%%JlMjKjjJj%jJ%%%jJj%J%j%%%JjJJ%%j%JkLkjKkJ%%JjjJkLjJkJJ%kK
18687E7jJ%jjLj%Kjj%%%%%j%%%%JjJj%KkJ%jJ%jJjJ%%jJJj%j%KjjJ%j%%%jKjJj%%%%Jj%jK
18671E7%jLl%J%kJJ%jJ%jjK%%jJjJ%j%%%Jjj%KkLlKKk%%jJJj%%%j%LjjJl%%JLjkjKJJjMqj
18655E3PoLjMlj%KjjJ%%%jK%%lK%%jJ%kJjKjj%JJjJj%%%JjJjJJjjJ%%JjJjLk%%KlJk%JJJ%
18639E9jk%J%JjJ%k%LkJkJ%%jKjJjJjJj%Jj%%%%KjjJj%jJJjJj%JkLkJJ%j%kJkJK%%jJ%kJ%
18623E7JjJ%%j%%%%J%%%%%%%J%j%%JjJ%jJ%jJjjKj%%%kKJj%%JkJ%J%jKjmL%Kj%jJ%j%Jj%J
18608E9JjJjJj%jJjJ%J%lKKlJjJJkJ%%%jJ%kJJjj%J%%jKkKj%OpjKJmKK%J%kJkJjK%%jJjJj
18592E8%JJj%j%KJjJkJ%lLj%Jk%J%jJJ%kKj%%JJjj%%jKJkKkjjJKk%J%%Jk%%J%kK%JkK%Jj%
18576F0j%J%kKjj%%K%%kJj%J%Jj%jKjkKjJ%JjjJLjk%lOJllJ%%KJk%jK%j%Jj%JkKj%KlJ%J%
18560F0JjJk%J%%k%J%J%kKj%jLlJKjkKjKkJjjKk%Mjj%%k%%JJjJjJ%jjJ%j%KKjjkLj%jJlKL
18544F2mJLjjmNJjmNoOlJ%kMlJj%Nj1QJ1j4qJ1PLj5J1JmkkKnLkL%%ljNmJkJL%jKk%%%K%kJ
18530F1lKLl%jKj%J%j%JJkJ%jj%%J%%jjjLj%kJK%j%%Kj%Jj%%%%KJk%jJj%%%%%jJkKJj%%%%
18514F0jJ%%%%j%Kj%Kj%%kKj%%Mkm%Pn%K%JkjJ%j%%Jl%K%JjjKjJJk%%JjJK%k%jJj%J%jjJj
18498E9%JJk%%J%%%%%kJKj%%J%%jJkKj%JjJ%kJ%%%%%%JkJKjjJ%%JjJj%JjJJk%%Jj%jJJjKj
18483F2J%jkK%%Jk%JKoKJJJJmjKJ%Jkj%KkK%%kJ%%%Jj%%KjJkJ%kJ%%JkJjJ%JkJkJLkJjjJ%
18467F1jJJ%jJ%%jJKl%%J%JkJ%%jJjj%J%%J%%jJ%%jJ%%%%j%%%J%%%%JkJjKkjKk%JJj%J%jj
18451F0LlJ%kOkkkLjKk%J%%JkJJkJ%j%Jj%%jJJ%%%KkJjJJjjJjJj%jJjKjjLjj%%J%kJJjjJJ
18435F3kLkk%KjkMjj%JjJ%%%%%%%Jj%J%%%kJ%%JjjKkjLj%jK%kKjJ%lJjJKkKjJ%%jjQj1%MO
18420F8nkLkMjlJ%%%Jj%kJj%J%JJjJjJJl%Lj%j%Jj%%jJ%j%J%jJjJJkJjKjkLlKKjjjJjjK%j
18404F2J%jJjJ%%jJ%%%Jk%J%jj%LlJ%JjKj%%J%j%J%j%JjjJj%%J%%%KklNj%JlkK%JjJ%%JjJ
18388F4%j%%%j%J%%%%kK%jJkJJ%j%JJjJlLjjJ%%%%J%%jKj%%kJj%%Lj%%jJ%%jKjJjJj%%%%J
18372F5jJ%%j%J%%%%%%j%JJkJ%%jjJJj%jLlKJkkKj%J%mMLpJKLmLjjJJ%j%%KjJk%JJ%lKKkJ
18356F6Jj%%jKjjj%JJk%%KjJj%jJ%jJj%%%J%JjJk%jJKk%J%jjJJJlK%j%K%jjLlJ%%jJ%j%Jj
18341F4J%kKkJKkJjJJjjJjJjJJjjJ%KkJjJjjLl%%K%jKmJ%%%KkJjJjjJJJkJ%JkJJj%jJJjJj
18325F5Jj%Jj%%jKjj%JJj%jJjJJkJ%%Jjk%KkL%j%%Jj%%J%lLjJ%Jj%kLj%jJjKjkK%%jjJjjJ
18309F4K%j%JjJjJ%%JkKmKjNqQMrMknJ0j1J2mnN%mJkM%kjJjKkJjJ%JJkjJJkJ%JkJKk%jJ%J
18294F6J%j%%j%%KjJ%kJj%JJ%jkJ%jLjJj%%%jJJkJ%%%jKjJ%jKj%%%%%jJJkKkJ%%%jJ%%%%J
18278F8kj%KkK%J%k%JJJlKkKjjLkjLk%%kKJ%j%kLlJJkJ%jJ%%%J%%j%jKJkJJj%%%%Jj%%%%%
18262F7J%j%jJ%%%jjJjJKk%J%j%K%kJjJJkJ%jJk%JjK%%JjkLkK%j%%%%JjJj%%J%kJ%jK%jjJ
18247F7%%KjmLJ%%%kjLjKjk%K%%kJJJ%kJ%kJjJ%jJ%kJkLk%KkK%jJjJJkKj%J%%%%%%%%JjKk
18231F8%%j%JjJjJ%j%Jj%Jj%JjJ%jJj%Jj%K%%jjJJjKl%%%jJJ%j%JjK%jjK%jjKk%jKjJ%JjK
18215G0k%%jJjJJkJ%%%jJJj%%%%%Jj%%%%j%KjJ%%%kKkJJj%jjK%%j%%Kj%JkKkJ%kLj%jKjJ%
18199F9kKkJJ%jjJJj%jKjjJJJkJjJjjMl%%%%JjKj%%%jJlKJJj%kLnNl%kNnKQqMjjkLJmLj%J
18183G0jJJkJkKkJ%J%JkjKkKkK%k%JJ%kKjJjJjj%JkJ%K%kK%JJjj%%%JmL%jJ%%%%Jj%j%jKj
18168F9J%J%kjJJj%%%jJ%jKj%JjJj%%jLkKJkJjJj%jJ%jj%%JLnLKmKkK%jJJjj%%J%jJ%%Jj%
18152G0%jJJj%%%jjJ%j%J%jJ%JjKjJjJ%Jk%%%jJ%%JjJ%j%jJlL%JJl%J%%%jLkJjJjJ%%%jJ%
18136G1%%J%%kJjJJj%jKj%%%j%JjKkJJj%K%jjJkKjL%kmK%KJlKJkJlLJk%%%jJjKjj%%%J%%l
18120F8JKj%JjjJKj%%%%%j%%J%J%%kJJJlKjj%JJjjJj%%%J%%%jJj%JJj%jKkJjJJjjNljjJJj
18104G1jKj%J%%j%JjJJ%jkJ%J%KjlJ%%kLJjmMjKkkJJJ%%JjjJjJ%jJ%%jJ%j%%J%kKkJJ%j%%
18089G1Jk%%JJj%%%%JkK%%%Jl%LkjjKKj%%Jj%jJJjjK%j%JjjKjLljK%%%JkkMj%%%k%J%JkKJ
18073G4nKjMjlOpLJJn%kLQjJ0j8MNnjJ%JllNKmJkL%Jk%Jj%%jjK%%lLjLm%JKkKjjJj%JJj%%
18058G2%j%Jj%KjjKjJlJ%Kj%LmKJ%j%Jj%jK%Jjj%%%%%%%%%JljNl%KjJj%JjJ%%kK%kJ%jJJ%
18042G4%KmK%JmNlKk%%jLj%%jJjJjKkJ%%%Jj%%%%%%%%%KlJ%%%jKj%jJ%%jKkJ%j%JjJjJk%K
18026G4Jkj%JJJkKjJj%%J%kK%j%%%%%%%%jKjK%kjJJkJJ%j%j%J%%%Jk%J%L%mJjLjj%kKLlkK
18010G4KokPkjK%J%JjjJJj%%%%%jJjJ%%%j%%JkJJ%jjJ%j%J%%%%JjJJj%kKj%%MmJjKjKk%kJ
17994G4JJj%%%%%%%%%Jk%KkKj%Jj%%%Kk%j%%%JjJjjKjjKKjj%JjJlK%%%%%%%LmLkJjjJ%%%%
17979G5jJ%%%Jj%J%k%J%jKkKjJj%%J%jJJ%%j%Jj%%jKjjJjJ%jJj%K%jJkKmM%kJJj%%jKjJ%%
17963G7%%%%JjjKk%%%%%%%JjjJJ%%jjJjJj%LmJJ%%kNlL%mNkkl%OpOlOrNKjkJjj%JJkJ%J%%
17947G7JkJ%%%jJ%j%%JJj%j%JkKjKj%jJjKjJjjJ%JjJjJk%%LjjJJkKk%%jJJk%K%j%%Jj%Jjj
17931G6KjkK%jJkK%%%j%%%J%jJ%jJj%JJkK%%Jkj%KkK%jJKkjJ%jjK%j%JjJjKjj%J%kKJjjJ%
17915G8kjMlJKj%%%j%J%j%%jJ%%JJj%jJ%%lKJjkKjK%%%%%J%JkKj%j%%%%jKj%jJ%jJJjKlKj
17900G8J%%%Jk%J%%JkJj%J%j%%%JjkjLkNnLkLjj%MljJjjJJ%%kJJjJ%jJjjJJj%%%J%jKjj%%
17884G8Jj%Kk%jJJj%Kj%%J%%jJLmKkjJj%%%%%Jj%J%%j%%%jLjJjj%jJJj%%JJ%kLkKk%%%J%J
17868H1j%j%JkKJj%j%%Jj%Kk%jjKj%KkJ%JkKjJjJj%Jj%%J%jJ%jJkJJkK%k%J%JkJJj%JjJ%j
17852G9%%%%%Jj%Lk%LnLjJkJ%%jJjJJk%J%J%jK%jJjJ%lKjJJk%%%%KkjJ%%J%l%LjJj%%MnLk
17836H0MmkPkJLlnkLjJkLlLJlL%k%KkjLlKkKJ%jjJKljLjkLk%%JJk%%JJlK%%%J%%kJJjJ%jK
17821H3kjJJ%kL%kJ%%jjJ%%KJlJjKjjJ%%kJ%%Jj%%JkKjjJj%JjjJjKjJ%%JjJJ%JjlKJ%j%jL
17805H4kkMjj%KlKj%JkK%%JJk%JkJjKkJjJ%jJkJjjLkKj%J%%%%J%jjJ%%kK%%jJlLkLj%jJ%J
17789H4lKJj%%jJj%J%%jJ%jJ%Jjj%%kJKj%%jKjJj%%j%%%Kj%J%%jL%jkjK%M%llJ%Kk%J%kJ%
17773H2J%jJ%jJ%KjJjjJjKj%j%%JJk%J%J%%%j%J%kLk%jJ%j%J%%%lMkJKl%jK%%Jj%Jj%%%Jj
17757H4%jJj%%%%%%%%JjjJj%KkKjJJJk%J%%j%jJJ%jJ%j%%JmNj%lMk%%%JjJ%lJJ%%J%%jJKl
17742H4JjJjJ%%kJK%jlK%Jj%JkJ%%%%Jj%JjJ%%jKlK%j%JjJkJLkjJ%%%%%%%%jJ%j%KkJ%%Jk
17726H4J%%jjK%%%J%jJJ%jJ%j%JkJj%jKj%%JjkPj%nMk%nNKn%%LkJJ%jJ%jJ%jJ%JkJj%%J%J
17710H7k%j%%J%Jj%J%jKjj%JjKjKk%jJKjkKjJKk%%jJjjJ%kJkKjJJ%j%%JkKjJJjjKlJJ%%jJ
17694H6%%%%%%%jJjJ%j%%%J%Jjj%J%%LmK%jjLk%%jKj%%Kj%%j%%JjJJ%JkJkJ%KkKkJ%%%%J%
17679H9j%j%J%j%%%jJ%Jj%%KmKjLlKlJK%j%JJkJ%%jjK%jKkJjJKj%jJjkJKkJ%%%%%%JjJjjK
17663H9%%kKkJJj%j%K%%%k%jKlKKJjj%jLk%jJk%%Kj%%JJjjJ%jJ%%KlKjKkjJJ%J%%kK%j%%%
17647H9%jJLl%K%jk%%MkjjjJkK%jK%j%j%KjJJ%kJjKkJJ%%jJJkKjjJk%LkjKjjJ%%%jjJ%%K%
17631I0jjJJ%jJ%kKKm%Jj%%J%%jJ%%jJ%J%kJ%jKlJJ%jJJ%%kKk%JJjJkJJJjKk%%%JJjJ%k%j
17615H9Kj%jJjJjJ%%jJJj%KJmKjmJKLlKkJkL%KlJJlJkQpNoJOrNmjNjlKNjmoLJ2j2K3Kk2J6
17601A05k6pjJ5j3J3J5l2K1%j5K3mnJlMqOJMoNJl%%%%kJKkK%j%Jj%kMnLkMjJ%%kjJ%KlK%J
17587I3kJkNk%%m%L%j%J%%%kKj%J%Jj%%%%j%%Jj%%jK%%%Kk%%%%J%%%k%J%%jJ%jJjJ%%mKKJ
17571I3lKKmKKl%Lk%JjjKj%Jj%JkJ%%j%KkJJ%%jjJJj%Jjj%jJKkjJ%JjJjK%jkLJkKj%%kJ%J
17556I3jKj%jJ%%%JjJ%%j%jJ%%jJJj%Kjk%%%Kj%kLj%%JjJj%jKjJJj%JmLKmJJ%kjLJlKJl%%
17540I2Jk%JLkKlJJKk%%JlK%%J%jj%jK%JjjjJ%jKjJ%jJJjKkJ%%jJ%%%Klj%%jK%%%jjK%%J%
17524I5lJ%J%J%j%Jj%J%j%JjJ%Jj%%%kKJlJJj%jJ%%kK%Jj%j%J%%jK%%KjjJj%Jj%Jj%%%%%j
17508I4%%J%jJ%jJ%j%kLjJ%Jj%jLkJ%%jJjJjJ%%j%JJkJJ%%jkLkjJJ%%Jk%%JjJjJjjK%%%%%
17492I6j%JjKlKjKj%%%%%%jJj%kL%%%J%jjMnMkK%k%KpNLljJ%LJpM%j%jKj%jKkJ%jJj%KjKj
17477I7%JjjJjJjJ%%jKj%%%%%j%%%jJj%JjJJkLmKJKl%Kjj%J%j%Jj%JJk%%%%J%%%%Jjj%J%%
17461I7j%%j%%KjjJJ%j%JJkJJjJjJ%JjJjKnMkKJkjKkjJJ%%JjJ%%j%jJjJJJlK%jKkJ%jkKJj
17445I8%%%jJ%%Jj%%%Jk%JjjL%jjJKjkKJj%%%Jj%%%%Kj%lJJ%%j%%%%JkJ%J%jJJ%jjJ%%JjJ
17429A00%jJjJ%kJJj%JjJjJlJJ%kMmNj%mMk%Jk%J%jJ%j%JjJ%Kk%%kK%%JjJjJ%j%jJ%%%%J%
17414A00%JjJ%%%kJ%%%j%%JlLjJ%kLk%%jJJjKj%%%%%%%Jj%jJj%K%kKjJjJ%%%%jLjj%Jk%%L
17398A03lJJjjLkjjJ%LlKj%kK%%%%%J%%%JkJ%%j%JJj%%%JkJ%%kKJJlJJ%%k%JjJ%Jj%%%jKk
17383A01%JjJjKjkJ%Kk%jJ%%%Jj%%JjjK%J%JlJJlLjkL%j%jKk%%%%KJj%k%jKjJJk%J%%k%Ol
17367A03Lj0N%lJKpQLlkJLjjKl%kMjKk%%J%lKj%%LJmK%j%J%%JjJj%Kj%Jj%%jJ%%j%%jJKkL
17352A06nKKkJjJkJ%J%%%j%Jj%%%%%%Kk%kK%jJ%j%%JjKkKjjJjJ%jKj%%Jj%jLkJ%%KnLJlJK
17336A05JmL%jJk%%J%jKkJjJJ%kJ%%JjjKjJkJ%%jKkJkKkKjJ%%%%J%%%jKkKj%%%JjjJjJjJj
17321A04%%jJ%%%%%%jJkLjJ%%jJ%jLjJJkJlL%jjJkK%JjJjkJ%%%%JJjkKjJMoJLlNnL%kj%Jk
17305A04K%j%Jj%%J%%j%JjJj%J%kJ%Jj%JJjjJ%%%%%Jj%jK%j%%J%%%jJj%JjJKk%%%JjjJjKk
17289A06%%%%J%%jJ%j%Jj%%KJk%J%j%J%j%jKj%%j%LkKJkJjlLjJjLl%MnJJlK%JkJ%%%%Kj%j
17274A07K%jJjKkjJ%JJk%KkjJjLjjJ%%j%Kj%%kJJkKj%%JjJjjJJ%Kkj%JjJ%%%jKkJjJj%Kjk
17258A07JJ%%%KjkKkJ%%jJkLkJ%jjJJJk%J%%jJlM%lMjmJL%lK%LkjKl%Lk%%kKKjKl%%%j%JJ
17243A10%%jJ%%jJkJ%%Jj%jJ%jJ%%%%K%jJ%jJjKjkLJkkJJ%JjJlLkJj%KjjKjJj%jJjJj%J%%
17227A11kKj%JjKj%Jj%%Jj%jJJjJj%j%J%Jjj%lKMljKjjJ%Jj%JkKJjJjJjjKjKj%j%%J%%%Kk
17212A12%%jKkJj%%Jj%J%jJ%kK%JkJ%%%%%JjJj%jJjJ%Jj%JkJ%JkJjJ%%JkJ%%%%JjJJk%%Jj
17196A12Jj%%jJ%JJlJ%%J%%Kl%%NnKLnNn%KmLJk%%KkKj%j%JJ%jKk%jJ%%%JkJ%jKj%%KjjJ%
17180A14j%jJjJjK%%jJjJ%%%%j%JJkJ%%jJ%jJjJJj%JkKj%%%%J%%%Jjj%KkjJ%%J%j%%K%jJj
17165A15%JjJjK%kKlK%JKjk%k%LJmJjJj%JjLjjKlK%jJJjJj%%%%jJJkJ%kJJjJjKkJ%%jJjKj
17149A16%%KkJjJj%%Kj%Jj%%%j%Jj%Jj%JjkL%kKkJjJ%%%JkKjj%Jj%JkKJlJKlLlLk%JjKjJJ
17134A18KrMLoJRj5MQ%jJjNpOknjJjJK%JlMnMk%JkK%jJJjJjJ%j%%J%kKjJ%k%JJ%%%kKjJjj
17118A16K%jLlJjJkK%j%%%jJK%j%JkjLj%%%jKkLkJjJjjJ%%jKJkjJJ%jjLkKj%j%%JjJ%%JlK
17103A19jJkJJjKkKj%kJ%%%JkJJ%j%K%j%%JkJ%J%jKk%KlJJj%JjjJJj%%%jJjJ%JjK%jjKk%%
17087A19KlJJj%%%JkKj%JjJJkJjjJjKj%%J%kKjJj%J%jJ%J%kJJjKkJj%J%jjJJ%%klMkKJMpM
17072A22jJ%%jJkKjLjkK%j%%%Kl%JjkKJjjKKmJJ%%jLjj%%jJkJJ%j%KkJ%%%Kk%JkLkjK%%jJ
17056A23%jJjj%J%J%%Jj%jJkK%kJLmJ%J%jJ%%%Kk%%JkJj%%JJJlKj%JjJj%MkkJJjjJ%j%j%K
17041A24jJkK%%Jj%%kJJj%%jKj%jKkJ%J%jJj%JkJJ%%j%J%%%jJ%%KkjLk%Kk%jJjJ%%Kk%%Jj
17025A24jJKjjJ%Jj%JkjK%%JkK%k%%jKj%jJKkK%kjKj%JlK%kKNmKjKljJ%J%jLl%%%JjKjj%J
17010A26kJJJkKjjJKJk%kKjj%J%JjJ%j%%%JjJJl%J%%jJjJ%%Kj%%%j%J%%jJ%%jJJj%JjJk%J
16994A27j%J%JjJj%%%%%%%%J%jKkKkKjJ%j%jJjKj%Kk%j%Kj%JjJ%%j%%jJJj%JjJ%j%%%KjjJ
16978A29kjLkKjJj%%JjKlJ%%j%%%J%jJ%%%Jjjj%jMlLjkLjJ%j%%JlK%%%J%Jk%Kk%Ljj%%JJl
16963A28K%%%kK%jJ%j%Kk%%J%jJjKjJ%jJkkLJjjkNlJJlL%jJkKj%J%jJk%%J%%j%%Kj%kMjjJ
16947A31Jk%jJ%%%KkJ%JkKjJlJJjJJ%%lJ%KkKkJ%JkJJjjJ%%%jK%j%%jKj%J%j%%KkJJjj%J%
16932A32%%j%%JjKjJkJj%K%l%LkJMmJ%Jk%Kj%%jJJjjLk%%%%%%Kj%j%%%%KkjJ%%%jJ%%%jJ%
16916A33KkJkJ%JjLl%%Jj%%Kl%JJj%%J%j%Jj%KjjJj%%JkJJjJj%J%%j%JlKjKJjjJkK%jKjj%
16901A33JJ%Kjl%KJlL%lNoLMoMlKm%%LkLkJjJ%%%%%jJj%J%%%j%jKlJJ%KkK%%%%J%lJJjJ%%
16885A36%j%KjJJjjJ%jlLJkJ%jJ%%%%J%jJjJj%JjJ%j%%Jj%JjjJJj%%%J%%Jk%J%JjjJjKjK%
16869A39jKkjKlKJlKkK%kJJ%kJ%JjLjj%%jjKkL%j%jJJlL%j%%%%jJj%J%jK%jJj%%%JjJJkJj
16854A38%JjJj%jKjjJJ%jJkJkKJJkKj%jJKjlKkKk%J%jJJj%%J%jJKl%%Lk%%%%jJjNn%LmLjj
16838A38LjmMJmMjJj%Jj%KkJkK%%%%jJ%jJkKkJJj%%Jj%JjJJjjJ%%%j%%JJj%j%%JJjJJlj%K
16823A41%%%J%jJjJj%J%j%J%%%%jJ%jjK%j%%KjjJJj%%%Jj%Jj%%KkKkKl%LjJlJKJmKmOk%jJ
16807A43%jJJkJJjjJ%jJJkJ%Jjj%K%%Jj%%jJjjLj%J%JjkK%j%kKjJjJjJ%%%K%mLjLkj%%%Jk
16792A43K%%%%%kjL%kjK%kLjjJjLjkJ%JjjJ%jJJ%JlK%jjK%%jjKk%OkKllJ0okjKkJ%%%JJ%%
16776A47%kLk%%JkJjKj%JJk%%JjKk%J%%JjJk%KjJjJ%%jJjJ%%%%k%K%jJjJjJjJ%jKk%%jJ%%
16761A47KlJ%%J%J%lMk%%%K%j%%j%JjjJJJjkJK%jJ%j%K%j%k%Mmj%LjjJk%KjKk%jJ%kJJ%%%
16745A48J%jKjJk%jKJjJ%j%Jj%JJk%%J%jJkKj%JjjK%%KjjJjkK%%JkJ%%%%%%kJJjJJjJj%%J
16730A51%j%JlLJ%j%j%J%%%Jj%%kJJj%J%j%JJkKklQmkPlkJ%kJKk%jK%kKj%JJk%%%Kk%%KkJ
16714A52kJKjJ%j%%%J%%jjJJ%%J%%j%JkJ%Km%JJ%%jLjj%%J%%j%%j%JJj%%%Jj%JjJ%jj%J%%
16698A53J%jJ%J%Jjj%%%J%j%Jjj%J%%JmJkJL%jJ%kKk%KKjj%%jKj%jKjJjKkKkJjKkKjKk%J%
16683A56%%%JkJkK%jjJ%jJ%%J%kJKlKjJ%%jJ%%JjjK%kK%%j%%%lMjJJl%%jMlJkL%kK%mM%%k
16667A55MkKmLjJkJpPjmJ4j7J7j0QqkJ5j1Pk%rLKKqJLJKj%oLJMlJmKJ%Kj%KkkK%j%%jkL%%
16653A58%%%JjK%%jLkjKj%jJJjkJKljJLjkKjJjJjJkKjJ%kLkjJ%KJj%%jJ%jKjj%Jj%%%jJ%J
16638A61jJj%%Jk%%%%JjJjKkLj%j%%KkJ%j%%%J%%%jKj%%%jKjKk%%jJ%JkJ%jKjjK%kJj%J%%
16622A61JkKjJJkJ%Jk%JlL%Kj%kKj%%JjJj%%J%%%%%jJJj%K%kJJjj%%JjJ%Jj%%kK%Jj%%jJj
16606A63J%Jj%%%%kJMkK%mLjJk%jJkK%jLj%k%%KkKj%jJjJJ%jK%kJ%Jj%jJ%JjJ%J%j%%jKkJ
16591A66jKkLmJJKk%kK%%%%%%kK%kK%jjJJ%J%jKJj%jKkkLk%JJj%Jj%%%jJ%%%%%KlJjJJj%J
16575A68kJLjlK%kK%%j%%%%JJJk%%Jj%jJ%jJ%jJjjJ%%%%J%jJjJ%jK%%j%J%jJ%jJj%%kKKjJ
16560A70%jjKkJJjj%J%Jj%%%%%%Jj%jJJjK%%Kk%j%JjJj%%j%J%%j%JJJjkJJkKLlJjlK%MpPl
16544A71JJlJjJ%kL%%%kJjJjKj%JJjKkJk%%J%%j%Kj%%jLl%JjJjK%j%jJ%jjLjJ%J%j%%%%jK
16529A74%j%Kk%jJLl%JJj%jJkLk%%%%JjjJjKjjJ%jJ%JkJJ%%JkJ%jJ%jKK%mNmJ%Jj%%%jJ%%
16513A75J%%jJjJJj%%%%j%%JjjJ%%%%%jKj%jJ%jKjJj%jJ%%Jj%%KJkJ%%J%jJ%j%J%%%Jj%kK
16497A78JkJ%%j%jJjKjKkJkKkJ%Jj%jL%%kK%jJJjjJ%%lKJjkKjKk%JjJJjJk%LjJjJ%k%JjJ%
16482A79%JjjKJk%Jk%J%%%jKjJ%j%J%%J%kJj%J%jJ%%%Jk%KJjj%%JkjL%JlJJj%%KkJ%jJ%%%
16466A81j%K%jJ%kJ%Jk%KjjKjjJJjj%JJjkJJJkJ%j%jMkjKjK%j%%%J%jjJ%jK%%%%J%jJjj%J
16451A83jJJj%j%Kj%%%%J%JkJjJj%J%%%jKjJjKkK%JlJ%%kJjJ%%%%%J%%J%%%jJj%%JkLjkjJ
16435A84JjJJJkkJ%JJ%jKk%j%kMKJlKmMJKknPpkPk%%JJj%JlKjjJkJ%%JkK%j%K%%k%KlK%%%
16420A87JjKkJJj%JlK%Jj%Kj%J%k%JjJmL%%%kK%J%%kK%%%Jj%jKk%J%JjJjJjJ%Jj%jJ%%KkJ
16404A91j%jJjK%%j%j%JJkjJJk%KKlJkLlKjKkKjKjjJ%kK%Jjj%%JjJ%Jk%J%%KkKk%jJ%%J%j
16389A91J%JjjK%%jJ%jJJ%kKkJ%jKkJ%%Jj%j%%JjJJ%JjjJkJ%%JJk%%%%%J%%jLkJ%jJkJKjj
16373A94Jjj%Kk%%%LmKLm%JJJj%%%%%Jjj%JjKlK%%JjJ%jJ%jLljMk%J%kJ%Jj%%JkKjJj%J%%
16357A97jJjjJkJ%K%l%JJK%%j%%JjJ%jJj%%JJjj%%%%%KjJkKj%%KjJkKjkKJj%%Jk%J%%JlJ%
16342A98jL%JkkLj%jKj%%J%%jKJjj%%Jk%JJj%Jj%JjJ%j%J%%jK%j%jKjjJ%Jj%%Jj%Kk%KlK%
16326B02%j%%J%%lKJj%%Jj%JjJJ%j%%%J%kJJ%j%jJ%%%JkJJJk%KjJ%%KlK%%JjjLnN%l%No%K
16311B05jjjK%jJlMj%K%k%%%J%%Jk%J%JjJjkK%JJ%j%JlJ%%J%%%%Jk%Kj%JkJj%jK%jJ%j%J%
16295B06J%%kJJKk%%%j%JJj%J%%j%%JjkJJJjjJJjjJJ%JjJ%jJj%%J%J%%j%J%lK%j%KJkJkJJ
16280B10jJ%kJJ%JkKj%%Jj%%Jk%%%JJj%JkJ%%jJ%%jJ%Jj%%KkK%%%%%KlJkJLjjJj%JjJjJ%j
16264B12KlJJjJ%j%JjKjj%jK%jJ%j%JkJJj%%%%j%JKmKjK%%JkJjMk%KJmKKl%lNjjjJjjK%jJ
16248B14%jJ%Jj%%%JkJJ%lLkK%%%%jJJjjJJj%%JjjK%kKjJj%%Kk%Lj%k%%J%JjKkJJkjJJ%jJ
16233B17jjjLkJ%Jj%%J%JjJjKj%%%jLkJ%%%%%Jj%%j%jMkl%LjK%kKj%%J%Jk%J%jJ%Jj%Jj%j
16217B19JJjJJ%jJj%jJ%j%J%%%j%Kj%KlJ%JJjjJJjjK%%j%j%KkJ%jJJ%%j%KjjKkjJ%%jK%jJ
16202B23jJKjlK%JjKkKkJJKm%%%Lj%kjNK%j0kMkPpJ0J%onJMJjkPnjJMmjK%%jJKkJjJkKjJj
16187B25LjkJJj%Kj%%j%%%%%J%%%J%jJ%j%jKlMmLkKjJjJjjK%%kKkKkJ%J%JkKj%%%JJjKk%%
16171B29%%%jJ%%jK%j%J%%%jKjkK%JkKlKjK%%JkjK%%jJ%%%j%%%Jj%JJjJ%%%k%KkJjJ%%JjK
16156B33jJ%Jj%%jJ%%%%kK%JkKjJkJJjJkLkJjjJj%J%%jJJ%j%J%JjJjJkJJjJj%J%%jjKj%jK
16140B35%%%j%JjjJJjjJJ%jJ%KmK%J%KmK%JjJkLkJlKJ%jJjJj%jJ%J%%Jj%J%%Jj%Jj%jJJJk
16124B38%JjjJJ%j%j%KmKL%k%jK%Jj%%%%%KkJ%%%%Jj%kKjJJkJjJjJjJ%%Kj%%%%%j%%%JkJJ
16109B41%JjJ%kJ%J%%jJjLkJjJJkJJjJjJjj%Kj%%Kk%%Jk%%KjKk%%%%Kj%%%%kK%j%%JjJjKk
16093B43K%JkJJ%JkkKJ%lKJjJJjJj%Jj%JjJ%JkKk%%j%JjKjKj%Jk%J%j%K%jJjJ%kK%%j%MnL
16078B49%kMoPmkKJjjJ%KjKl%Kj%%jLj%jJJjjLk%Kjj%jJj%J%%J%%%j%jKjJ%%%jjKJjjJKjj
16062B51KlKjJjLl%%Lj%%KlJj%%JkK%j%J%j%J%j%%J%JJkJ%%%jJ%j%Jj%JjKjjLkJJlKjK%lL
16047B56jJj%%%%%Kjj%%%J%JjkK%%KjJj%%%JjjJJ%kKj%%%%jK%jJ%%j%%JJj%Jm%KJKlKJkJj
16031B58%JjJj%JJ%jjJjJ%%%jJ%JjJj%%JkKKk%Jj%%%JjjJJ%%%Jk%%%%jLj%MmjjLJJlKlJJk
16015B60JKkJJ%j%J%%jJj%jJ%jLkJ%J%%%j%J%j%JjJJ%jKlKJk%JjJJj%kJ%jJ%%%J%Jj%KlK%
16000B66j%%Jj%KkJjJ%JjJj%Jjj%JKkJjK%%%JkJjJjK%Jk%K%%jkkNKmMlj%J%jJ%%J%%kJK%%
15984B71%JkJ%Jj%%jJ%%jJ%%%jKj%%J%%jJ%kKj%%jKJ%kK%kLmJL%jj%J%%jKJkJJk%%Kjj%Jj
15969B73%Kk%J%JkJ%jKj%%%KljMkJl%KKlKkJJ%JjkkRJj0%lJ4pKnJ%%LJjJ%JjJ%kKkJJJj%J
15954B79k%JJJ%JlJkJ%jLjlKjJJ%kJJJjJ%jKkJj%JkKkJ%JjJ%%Kk%%jKjK%j%%%JjJ%%J%j%%
15938B82%KkkK%j%JjjJKjJjJ%%%jjJK%k%JjjLkKJjjKJkjKj%J%jJJ%jJjjjK%JjJ%%JjjjKkK
15923B86j%%%KjJjJkJ%K%jjJ%j%K%%JJk%JJ%j%j%j%KjJ%%%jKjJkKjJj%%JjJ%%jj%K%%J%kJ
15907B90%%%J%%%KjjJ%JjJJjjjK%JmkNKoOoKjK%jJkJ%KjJj%%jJ%J%Kk%%J%JkLkJjjKk%J%%
15891B94J%%%%jK%%jJJkJ%jJj%%kL%kKjJ%JjJJk%J%%jJjKjJ%Jj%jj%J%jJJ%%kL%j%J%JkJ%
15876B99%jJ%%%J%Jjj%KkJ%jKk%LjjJ%jLkJkJJk%%J%jKJk%jJJj%J%%jjJ%JjJjJjKjjJJj%%
15860C02J%JjJj%JkLjJkJjK%%%j%%%KjjJ%%JjKkKkKj%jJ%%%jK%jJJkJjJJ%%jJKk%JkJ%JmJ
15845C06J%jLjNnlL%JKk%%jLkjK%%j%%J%JjJj%JjJ%%%%%j%JJ%kKjJkLjJ%jKjlL%%%%JjjK%
15829C14j%%%JlMkkJJJ%j%Jj%JJjJ%%j%J%%%J%%j%jKj%J%jJJ%kK%%jJJjjJ%Jj%KJk%%j%Jk
15814C16LlJKl%L%jJJjjKjJkK%%%%%jJ%Jjj%J%KmJKjJ%%kK%%%%Jj%%%%J%j%%JjJ%%kJJjJJ
15798C23mL%JjJ%%jLk%%LlJJjKjjJj%J%%jjK%JkJJjjJjJjJ%J%%JjJJj%KlJj%MlKLJqK%lNj
15782C28JjJj%J%%j%%jK%JjjJK%jJ%%jMjjkKkKjJJkJJ%k%Kjj%Kj%%J%%kK%jJjK%jjJ%jJ%%
15767C33jKkJ%J%JjjKj%%%%jJ%jJjKj%JJ%j%JkKkJKj%jJ%%JkLlKJjKjkKkKjK%j%%j%JKj%j
15751C38K%jkLk%Kj%JJkKjj%JJkJ%%jKjKk%K%%jJKk%JkJj%JjKjkJJ%%%J%%%JjKkJ%jKkLjk
15736C43JLnKKJlJLm%Jk%K%Jj%jLljLlLMoLKmjPj%nM%j1J0LoPJ5k7LJRKj8NO%JJLjnLlOj%
15721C52%mJjLJjj%jJKlj%JKlLlKK%jJ%j%JjKjjKkKJkJk%K%KjJmLJjjJ%jKkjKjK%%j%JJjJ
15706C56%jj%JJkJJjJJj%jLk%%Kj%J%Jj%%%Jj%jJJjjJ%jKkL%jKkj%KJJjjjJjJKlKJjjJJ%l
15690C59Lj%j%%J%%KjjKkJ%Jj%JJkJJj%jKkK%%J%lJjK%J%kJJ%%J%kJJ%jKj%JjJ%jJJjKJl%
15675C67%JJjJj%%%%J%%jJlLj%JJkJJjJ%J%K%k%%LklK%%%JKjlJ%K%%jJ%k%KjLl%JJj%%%Jj
15659C73JjjJJJj%Kk%%JjJ%jK%%j%JkKJj%%%%jL%%j%%%j%%%JJ%%j%JjJ%J%%%%jKj%JkLj%%
15644C80%JkKj%%%J%jJ%%Jj%%JjLljKJjjKLmJJjJ%jJjjKJj%jjJJ%%J%Jj%%JlKK%jjJJjjJj
15628C85J%J%%KjkK%jJ%JKkjJ%j%%Kj%kLj%%%%JjJJjJjJjjKJ%%jKjjJjJ%kLjkLj%JkL%j%%
15612C93%jKkjKJjjL%%mKNklOmjLkKjjJjKKmKjJjJ%J%%jjK%%%jJJJ%%jjJJ%J%k%%%%%JJjJ
15597D01j%%%%JjJJjJJj%%%LljJKj%jJ%%JjJJkKjKjJ%jJj%JjKjJk%J%jKjJ%j%JJj%JJ%%%j
15581D08Lkj%KkKkJj%jLkJJk%Kk%JJJk%J%jJ%J%%JJk%KkJJkKj%Jj%JjJ%%%%kK%KjJ%%kKJj
15566D15%JkJ%j%KmK%J%JjJJjJJ%%%JkjK%j%%jK%jK%%%jK%J%kK%jJ%%Jjj%JjKjKjkK%JJk%
15550D22k%jKJkJMkJ%j%JJ%%%Jk%JJ%%jKj%%%JkKJk%%J%J%jJ%%%kKj%%JjJJ%j%%%Jj%jJKk
15535D28J%Jj%J%jK%%%%KjjK%%jJjJ%%%%jJ%%%Kk%J%%%J%%%%JJkJ%J%%k%%JjJKlLKkjJ%JJ
15519D40jk%Kj%J%%%kNlJJjJ%%%%KjjKkjJ%JjJJj%Jj%%%JJjJjJJ%%jjLk%%J%KlLk%Lk%%%K
15503D48j%jJ%%J%jJKlJJj%%%J%jJ%KjK%jJlJKjj%JkL%kKkKlLKmmQnJNoLlLmRkJjKnMm%Lj
15488D54%%Kj%JJk%JJKj%%JJl%%JKjjjJjJjKJjjJ%Jj%Lk%%jJ%jK%%j%K%%%j%jKJjJj%%J%%
15472D63%J%J%jJ%jK%jKlJJkKJJJjkJJ%%jKkJ%%JJj%%J%%%%jKnLKjj%%JjK%%%j%J%J%%J%%
15457D73jKjJ%%%%kLjJ%%%%%%jJ%%JjjJKkJJj%jLj%jJJk%J%JKkJKkJJjjKkKk%jJJJJkJ%jK
15441D82%%jJjKjKkK%j%%JJj%Kjj%%%%K%%Kk%%%%J%%Lll%LJ%jKkJJjK%kKj%J%JJ%JkJjJJk
15426D91%j%JLj%%j%K%j%Jj%JjK%%%Jk%JKkJkMkJJk%KJJkjJJjKkJJ%jJ%%J%jjJJj%jKJlLk
15410E00%Kj%%%JJ%j%JjJJjJJkKjJ%kK%kLJkJLl%%Kjj%JKkJjJjJJkKj%KjJjJjJJ%j%jJKjj
15395E10%K%%J%jJ%Jj%%j%%J%%JkJjLkKJjj%KjJJj%jJ%Lk%%Jj%JjJ%J%%J%JJ%l%JJ%%jJJ%
15379E22%%j%KjjJJj%kNkKmL%lkJ2nkNqNlKKlK%kNkjJ%%%jL%kJJjJJjJj%MnK%%%JjKj%jLj
15364E32%jK%kJ%Kjj%JJjJJnN%%%Jj%%Kj%J%jJ%J%j%jK%jJjJ%%J%JJj%%J%%J%JkJJ%kJ%%J
15348E43%%%JjJjJjJjLj%%KkJkL%%%%jKJkJ%Jj%JJk%JKkK%%%%j%JLkjK%%JlMkJ%%%Jj%Jj%
15332E54Jj%J%J%jjK%JjJ%%%J%jJJ%%j%JJ%%%jKjJ%%%%%jJjKjjKkJK%%J%jJ%jJ%%JkJK%%%
15317E66%KkJ%%kLk%LmOmJJjJJJj%J%Jj%Jj%J%%JjJjkMJkJJ%%%%%JjjJJjJjJ%%%%%J%%%Kj
15301E78J%%jkNk%Ll%J%Kj%KkJJlKJ%%jJJj%JjK%%j%JLlKkKjJjKj%%%%J%%%%JjJKjjKJlL%
15286E92kJJJj%%lLjKjK%%kKJ%%J%j%J%%%%J%jjLkJ%JJj%%KjJ%JjjKJj%jJJj%K%%jJk%KjK
15270F04%KjJ%jjJ%JJjKkKj%%JJkJJkJJJkK%Kkj%JLjj%Kj%JjKkJjPpNlLjpOMKmpJ7j5MjLj
15255F17KKnNJl%%mNjjKjKJkKk%%K%kNk%j%J%jK%%%Jjj%JjJ%K%jJ%KjJ%j%%K%jLk%%JkL%j
15240F30JjJ%Jj%J%%%JjJjJjK%%kKjLkK%%%%%JJjjK%%J%%%%%%%%%JJJmLJJnOmKJJ%%jKj%K
15224F46lK%jJJK%%%%%%%KjjjjKJ%%Kj%%%J%%Kk%J%%K%kJKj%%%jJJjLmK%J%%jK%%J%%jJ%J
15208F59%jJJjJ%%J%JjLjJj%j%J%%%%%%jJ%JJjJKkJjK%%%Kj%k%OmKjj%LJJlJK%%jJ%kLkJJ
15193F74jJJjK%kJJJJ%J%kKkKJjJJj%jLkJJj%%%JJj%%K%%%KjjJK%jJJkKj%%%JJkJ%KjkLJk
15177F89K%%j%JJJ%JkJjJJ%JJ%k%KJk%K%%%%Jk%KJJlLJjkL%j%JJ%%%J%%J%%jJ%Kj%JjJjJ%
15162G06%KjJkK%%%JJ%%%%%jL%%%JjJ%%%KkJKj%JKjjjK%J%%kJLk%LjJ%jJj%J%%jKjJ%%J%J
15146G24%%J%KkJkKjJJJj%%%jMlLJlJ%jLjlLlLNlJlM%kK%J%JKlKj%%%JJjJjKj%K%%%%%Jj%
15131G40K%J%j%%JjJjKjJ%%Lk%JjKjJK%%%jJJjJ%jJJJj%%JJj%J%J%%j%%%KKlK%JjK%J%%Jk
15115G58J%%JKjjK%JjKjJJjK%JlJJKkjJ%Kj%J%%KjJjKjJ%KkJJ%%kKjjL%%JkKJj%J%KkK%%J
15099G79%jJJ%%JJkJJ%%JJ%JkL%%jKj%jJjJJJjJ%%KjJj%JjK%Jj%J%jKJjKj%Kj%JKj%jJJ%%
15084G98J%%%KkJKKkJjMjpOlMjJlJLjjK%J%%J%JJ%jKjKjJlLjKj%KjJjJ%jK%jKJ%%%JJ%%%%
15068H19%J%jKJkjJLjj%KJ%kJKj%JKj%%JJjJJJ%j%JJj%J%jK%%jJJkKjJK%%J%Jk%KjJjLkLJ
15053H41jkKkKKjKkJJJKj%%%%JjJK%%%jK%%%jK%Kk%K%jLk%jL%%jJJJ%J%jKjKjJJ%%jJL%%J
15037H64%%jKkK%jLmKJjJK%%%J%KjkJJkJK%jKjJ%jNk%KjKj%JJ%jJ%jKK%%J%LpPjjMoKkQnO
15022H90l%kJJ%JjK%jLmLkKJJkJJJ%%%%J%%J%jK%JKjJj%JKj%%KkK%%%JjLj%%Ml%JJJkKJkL
15006I10kJ%JJJjJJ%j%K%J%jK%KkJ%JJ%%JkJJJ%jJ%J%jK%jK%%KJjJ%JjKj%Kj%jJKkJKjJj%
14991I31JJ%JJjK%KjJJjJjJK%%JJ%kKKj%%JjJ%%%JJkK%%%LjJJ%%%%J%JjK%J%K%%%%Jj%KJj
14975I59%Kj%%%KJjJJ%%%%L%jKkKjJ%JJJjjKJ%j%JJjJKj%JMmJLjoPJLlKlKkKK%JkK%%JJJ%
14959I87jJ%J%JJ%jJJJk%KK%%Jj%JJ%%%%%KjK%J%JJjJKj%JJjj%LKjkLjKjJjLkJK%%JjJjKJ
14944A015%%K%j%JJ%Kj%J%jJ%KJ%%jKJ%jLj%J%KjK%JKl%%JKkKJjjK%JKJ%jJ%J%%LkJJJjJ%
14929A043JJ%%%LjjJ%jKJ%%%J%J%JJ%J%J%J%JjKjK%J%%jK%KjK%%%J%%JJ%JKjjJJjKjLjJJj
14913A073JJ%%%K%%J%K%%%jLLl%JkNjJmN%%%JJJKjmJ0jmLJk%%JkM%jJ%Jj%JKKjJjJJ%KjJJ
14898A106kLjJJ%%JjJJjL%%J%jJK%JjKjK%JJKkjL%%J%JjJJ%KjJKkJJ%JjL%%%JJ%jLj%jLJ%
14883A138%%JjJ%JKj%K%%L%JjJ%%%LKlJ%JJkK%jLjJ%JJjKK%%J%JK%Jj%JJJjJJJ%Jj%JJ%Jj
14867A170JJK%JJ%%%KJ%jJKjJKj%JJ%JjJJJJJKmJL%jK%%%JJ%K%JjK%JJj%KjK%%J%JKjK%jL
14852A209jKjKjJj%KKKJj%%JJJLmKJMmMlJnOJ%JjKJkLKkJJ%J%%%L%J%J%%K%J%KjK%Jj%KJ%
14837A246JJJjJJ%JjJJ%%JK%Kj%JjJJKKjjKKjKjJ%LjLkJ%K%JjJJ%%%K%JJJjLjK%%JjK%KjJ
14821A285jKJkLJ%%JJJ%%LjMlKJ%%J%JjL%%K%%J%KJjJK%%J%KjJJJJJLl%%JLlL%J%J%JJK%k
14806A325KLjJ%JjK%J%KJk%LjJJLj%J%LjKJ%Kj%K%%LjKj%JKkJKJLk%KjLkJJJLjjJLkJLnPk
14791A370K%OpMMNrKLj1J2p%Rj2MJPkNmJLJ%JJJjL%jJLkLKkJ%K%KlLK%jKJJ%JJKjKjKJJJk
14776A413LjjLjK%K%jJLJ%%jJKJ%J%JK%kLJJJ%JJj%MjK%JJ%%JLjjLJ%%KJ%JJJ%J%%JJJJ%L
14761A463J%kLKKlkPjlL%%L%LjJJJkJL%%%JK%JJKjJ%KJ%jMj%NlKjL%jKLJjJJ%J%K%JJJjK%
14745A511Lk%K%L%jK%JK%JJJJ%JJJjK%KK%%KjJLjLJ%%JKkKjLJjJM%%%L%JjKjJJKJ%%KKkjM
14730A565J%%NnMkM%JJK%J%JJjLjJLJ%%Lk%KJJJJ%MkKJjL%jKJJJ%JKjL%JJJJ%JJJ%KJKJ%K
14715A623kLlLLjJJ%JJ%KJjLKjJJLjJ%JJKJ%JK%%JJK%KJJ%JJKJjJ%JKJ%KjL%%KJJjM%JjkM
14699A679JLKkKJKjJJKjMjK%J%jLKjKK%JKjL%JJKjJ%JL%J%JJJJLjJJKJJjKLk%KKJ%jKK%KL
14684A744%%LjKjKJJJ%JL%K%jL%JK%K%JK%%K%JL%jLK%JKJ%JLkKjLj%LK%JkNljN%JNMj%JjJ
14669A807kNjMjKJ%%K%KJK%JKJK%%JKKkM%KjKJJJ%KKJ%%K%LJKjJKjKKK%%L%LkL%MkLJjJL%
14653A877JJKJJJjKJJKJK%%LJ%KKkMJ%KJJJ%K%KJJ%JKJK%KJJJKKK%j%LKjMl%NkM%KJJ%J%J
14638A948JLjM%JK%JKKJJ%KJJL%L%%K%LKJJJ%%KJJKJJJKJ%JKJL%KL%K%%JLjJLJjJJLJJK%K
14623B029J%KKJJK%JKKJJJLjK%JKKJ%KJK%JJJK%L%JKK%LJJLJmKJNKlNK%%J%LKKJJJKJJJJK
14607B112JJKK%%LJ%JKK%KKjLKJ%MJ%JKJ%LJK%JJKJJKK%NlM%%M%KJK%JMjMkKKJJKJK%KJKK
14592B200K%L%JLJJJ%%M%LJJJKLJ%JLKK%%L%K%M%JjKLK%LM%KJ%KJKJKJ%LJJKJNkKJKJKKK%
14577B294JJKJJLKKJ%KKJKKJ%%LKJ%LKJ%L%KKKL%JL%JKKKJKJK%KKKJ%L%LJJKJKK%L%LK%L%
14561B392KLkNJK%KKK%KJMJJK%LlNJ%NJL%JKjPlPJlJKML%kOjLKL%KJKKJKKKLKJlLKKJL%LJ
14546B499LLKjK%LKJJKJKKKKJKJKLKKjLK%MKkNJKLkLKL%KKKKJKKJLKKJJLjKMJLJ%LJLjKM%
14531B612KLJKJKKLjM%LKJLJK%LKJJMLJJJJLKMKjL%N%JMK%LJKLjLM%KKLKJJLJJJLL%MKJKK
14515B735KLJKKJL%M%M%KKLJKLJ%MJN%%MKKJ%MJLJKLKJLJL%MJKKKLK%LKLKJMK%KKKKKLKJL
14500B866JLKJLKJKN%LJMjLLJ%O%JOkKLMlOJKMLkKMKKKLKJKKLKKJLKL%MKKK%NLK%NjMJMKL
14485C007%LKKKMKKJKKLKKKLKLJJLKLKKKKKKLKKKLKLJLMLKKKKKJKLJLLKM%LKMJLJLKKKLKL
14469C156JLKLJLMJKMLMjNjNMJJKLLLJLJLKLKKKLLKKKLKKKNJLLJLLJMJLKKNKJNKKJLLKJLM
14454C318LJLLKLKKM%LOJKKNK%MN%KMKJLKMLLKM%MKMLKKKMJMLKLJMKKLMKKLLMLJMJNJMJMK
14439C493LL%NLkOKJLJ0l%OjRJKPKKLLJM%NJKMNJMKLLKLMLLKLL%MLLKMKMKMLLKMLMKMJKLM
14424C679LKMN%KKNNJMLMLKLMJMKLLLLLLLMLLLLKLMLLLMMKLKLMMLKKNLKMLLLMKLKOJMMKMK
14408C883MLJPL%NLMLOJMKMLJMNLMJLMLLNKLMMLLKNLLKMLLLMLOKMMLKNLNJNKNJMLLMMLNJN
14393D106LKOMKLMMLNKNLMLMLNKMLMLNLLLMMMJMNLKMNLLNLMLNMLMLOKLLMOKMMKOLLO%Q%MN
14378D348MKLNNMNKNMMMKOJNKPLLLNMMLOKMLNKOMMLMNMNLMNMKOMLNLMNLNLMNLMLMNOLLNNN
14362D614KMNNLMNMLOLNMKONLMMNNMNMNLMMOLMNNMMNLLNOMNLMMOMNLLONLNMONLMNOLOJPML
14347D900OLNMNONLONLNNNLOMNMOMOLNLNNOLOLMMONOMNLQKPNNLONMNOLQKPNKMNPNPLMNNOM
14332E218NNOMMNOOOLONNLQMONNMNLPPLOONLNPONLRMOMOJOONOPMMMRLnK1JOnJ1J5%MKJ7%J1
14317E552lJ1JQ%QRLKJ0OLNQMOOONNORLMRMLPOOPNOONMOOOPPOLOONPONOOMPORKRLOPONQOM
14302E915OQNNNQPNPNPNPOOPOOONPNPPOPNPNONPPOPMPRLRNQNQOPMQPPNPQKRRKJ0OOOQOPPP
14287F333PNPOQOQOPOQNOQPPOOPOPROQOOROQPOPPOQORNPQOQPPPPPQOPQQNJ0PNPRPQPORPPQ
14272F794OPROROQOPRPQOQPQPJ0OPQQPQPRPQPRQJ0OQQOJ0QPROQQPPRRQQQRNJ1LJ5NPPJ0J0
14258G259OQJ0RPRRPPJ1PPRRQPQRQRPJ3QOQRRQRQRRPRRRQRRRJ0PRQRJ0RQRQPJ0QQJ3OJ1OJ2
14245G763QQRRJ2PJ1RRPJ0J0J1PRJ1RPJ1RJ0RPJ2QJ0RJ0RJ1QRJ0J0QJ2PJ1QJ0J1RJ0J0RJ0
14234H193J0J0J1QJ0RJ2QRJ1J2NJ4PJ4QQJ4RRJ2J1RJ0J0J1J1PJ3RJ0J1J1RJ1J0J2J1J0J1Q
14225H608J1J3QJ1J0J1J0J2RJ2J0J0J2RJ3J0J1J2RJ1J2J1J1J1J2RJ2J1J1J1J1J1J2J2J0J2
14217I001RJ3J2J0J3J1J3RJ2J1J2J2J1J1J1J3RJ2J2J2J2J1J4RJ2J3J1J2J2J1J3J2RJ5J3J1
14208I419J2J2J2J2J3J1J4J0J5J1J3J1J2J3J1J3J3J1J6J2J0J4J3J2J3PK0J1J5RJ3J0J6J2J6
14200I857RJ6PJ7J3J3J4J2J2J4J5J3J2J4J2J4J3J3J4J4J4J1J3J7J0J5J4J3J4J4J3J5J2J4J5
14192A0322J2J5J5J2J5J4J6J3J3J2J4J5J6J2J6J3J5J4J3J6J5J5J3J4J8J3J3J7J3J6J2J5J7
14185A0794J4J5J5J6J3J4J5J6J5J4J6J4J6J5J4J6J5J6J5J6J7J4J5J7J5J5J5J6J6J6J5J5J5
14177A1295J6J6J8J4J7J5J7J6J3K0J3J9J3J8J6J7J9J5J6J5J8K0J2J9J4J8J5J9J5J7J8J7J6
14170A1836J7J7J6J7J8J7J9J7J6J8J8J6J8J7K0J6J8J6J9J7J9J6K0J8J5J9K0J5J9J8J8J8J7
14162A2415K0J8J9J6K1J8J8J7K0J9J8J7J9J9K0J9J7J9J8K3J7J8J9K2J8K0J8K1J9J9K0J9K0
14155A3040J9K0J9K0J9K2J9K0J9K0K0K0K1K2J9K1J8K3J9K1K0K1K1K0K1K1K1K1K2K0K0K2K2
14147A3713K1K0K2K1K2J9K3K4J9K3K0K3K0K3J8K4J8K7K2K2K2K5K1K0K3K3K3K2K2K4K2K3K3
14140A4437K3K2K4K3K4K2K3K4K4K2K2K4K4K3K4K3K5K5K2K4K3K5K2K5K5K5K4K4K5K4K5K5K5
14132A5221K6K4K4K5K5K5K6K5K7K3K6K6K4K7K5K5K7K4K5K9K6K4K7K6K8K4K7K6K6K8K7K7K7
14124A6072K5K7K8K7K7K8K5K7K8K8K5K9K9K8K6K9K8K7K9K8L0K7K8K8L1K8K8K9K9K8L1K7L1
14117A6995K8L0K9K9K9L1K8K8L1L2K8L2K9L0L3K6L5K7L2L1L2L0L1L0L1L2L0L3L0L2L3K9L3
14109A7999L2L1L3L1L2L4L2L3L2L2L2L5L2L2L5L1L4L2L4L2L5L4L4L4L3L5L5L3L5L3L5L5L5
14102A9096L5L4L4L7L5L6L3L7L4L7L6L6L4L8L8L4L7L6L4L9L5L8L7L7L7L8L6L8L8L8L7L8L8
14094B0295L9L8L9L7M0L9L7M0L8M1L7L8M1M1L9M0M0M0M1M0M0L9M3L8M1M3M0L9M4M3L9M1M5
14087B1615L9M1M3M2M1M7M0M6M3M0M3M4M3M0M7L8M8M7M3M2M7M3M5M6M4M8M4M7M2M7M6M6M6
14079B3063M6M9M5M6M5M8M7M9M5M8M8M7M8M7M9M8M8N0M8N0M8M9N1N0M9M9N0N1N0N0N3M9N3
14072B4666M9N1N2N0N3N1N2N2N4N3N1N3N2N4N4N4N3N5N5N3N2N7N2N5N6N6N4N7N5N6N6N9N4
14064B6436N6N7N7O0N6N5O1N7N8N9N8N9N9O0N8O1N8O0O0O1N9O4O0O0O0O4O0O2O3O2O4O2O3
14056B8409O2O3O5O0O6O7O4O7O1O7O5O4O5O6O7O6O6O8O7O6O8O9O8O8O8P0O8P0O8P0O9P1P0
14049C0608P2P0P1P2P3P0P4P1P3P3P3P2P4P5P5P3P5P5P4P7P4P6P7P7P7P6P8P8P9P7P8P9P8
14041C3074Q2P8Q0Q0Q0Q0Q1Q3Q2Q2Q2Q4Q3Q2Q5Q2Q5Q4Q5Q3Q8Q4Q7Q5Q6Q8Q7Q7R0Q6R0Q8Q8
14034C5851R0R2R0R0R0R2R2R3R2R2R4R2R4R5R2R6R6R5R7R5R7R7R6R8J00R8J00J00R3J06R8
14027C8793J02R9J02J04J03J02J05J01J04J06J03J08J03J06J07J08J07J07J10J08J09J08J11
14021D1216J10J11J11J13J12J12J14J11J14J17J14J14J17J17J17J16J19J17J21J19J19J21
14016D3752J19J23J21J22J24J21J24J25J26J25J25J26J28J28J26J29J30J29J31J30J31J34
14011D6529J30J34J34J35J35J34J36J35J39J38J38J39J37J42J40J41J43J41J44J44J45J43
14006D9576J48J46J47J47J49J48J51J50J50J53J52J53J53J54J56J54J58J58J58J59J58J60
14001E2938J60J62J63J62J64J65J63J68J67J67J68J69J70J71J70J75J73J73J74J76J78J78
13996E6654J75J79J82J78J83J82J83J84J84J86J87J87J88J89J91J94J90J93J95J95J95J96
13991F0770J99J97J99K02K01K04K03K04K06K08K06K11K08K11K13K12K15K15K16K17K18K18
13986F5353K21K21K25K23K26K26K28K28K29K31K32K34K33K36K35K41K41K39K42K43K46K43
13981G0476K49K48K49K51K51K56K54K57K58K60K59K62K61K68K64K69K69K70K71K74K74K78
13976G6228K78K80K80K83K83K86K89K89K89K91K96K94K97K99L00L02L05L04L08L09L10L13
13971H2713L12L16L20L19L18L26L25L26L29L32L34L30L43L31L44L44L44L47L53L44L53L54
13966I0057L59L63L59L61L67L69L69L73L74L78L77L83L83L87L87L92L92L95L98M02M02M04
13961I8431M10M10M12M17M19M21M24M24M29M31M37M35M41M42M46M48M53M54M56M61M64M65
13956A08030M70M71M76M78M81M87M86M92M93M99N02N03N08N12N12N21N20N25N29N30N39N38
13951A19102N43N47N50N55N58N61N68N68N76N76N83N87N90N93N99O03O07O11O16O20O26O28
13946A31967O34O39O42O46O53O58O62O66O71O77O82O85O92O98P01P06P13P18P22P29P34P39
13941A47034P46P51P55P66P67P75P81P86P92P96Q07Q12Q17Q25Q28Q39Q43Q50Q60Q62Q70Q79
13936A64841Q86Q90R00R08R12R22R30R37R45R51R60R68R76R83R94J001J010J017J026J035
13931A83992J043J053J060J073J080J089J097J110J118J126J138J148J158J168J178J190J200
13927B03021J208J222J232J243J254J266J277J290J300J312J324J338J349J362J375J389J398
13923B25160J416J426J441J455J467J482J497J510J524J543J554J569J587J602J618J631J650
13920B51132J666J683J697J717J733J752J767J788J805J824J840J861J883J899J919J941J963
13916B81870J980K001K023K047K065K089K112K134K159K181K205K227K255K277K307K329K354
13912C18615K381K410K435K464K492K518K550K578K608K637K672K699K732K765K796K831K865
13908C63048K896K931K969L003L044L077L114L154L193L233L272L315L356L399L440L486L528
13904D17458L576L622L667L716L764L814L864L914L967M021M074M128M185M242M301M358M420
13900D85091M479M543M607M669M737M802M873M943N011N087N159N237N310N389N470N552N632
13896E70591N720N805N892N984O073O169O263O363O464O559O670O773O882O991P106P220P339
13892F80864P458P582P709P838P968Q104Q239Q383Q526Q672Q825Q977R136R296R463R634R806
13888H26480R983J0166J0353J0542J0739J0940J1144J1356J1572J1793J2022J2254J2493J2739
13885I84576J2993J3250J3517J3788J4069J4358J4653J4957J5269J5591J5919J6261J6609
13882A175810J6972J7338J7720J8113J8515J8931J9360J9801K0257K0727K1207K1703K2221
13879A428675K2756K3299K3865K4450K5053K5674K6317K6987K7672K8385K9123K9883L0674
13876A772813L1487L2336L3213L4122L5063L6041L7054L8108L9199M0335M1514M2739M4013
13873B258037M5337M6717M8152M9645N1205N2826N4519N6282N8126O0051O2057O4158O6355
13870B973467O8649P1057P3574P6209P8978Q1876Q4922Q8118R1478R5011R8728J02641J06762
13867D091470J11111J15695J20534J25650J31058J36780J42840J49263J56074J63311J71000
13865E614786J79176J87885J97166K07068K17638K28945K41050K54018K67934K82884K98965
13862H177515L16286L34973L55159L76994M00653M26335M54250M84659N17834N54102N93830
13860A2992590O37444O85419P38328P96800Q61608R33617J013851J103516J204049J317111
13858B2284333J444749J589339J753813J941671K157200K405676K693593L029033L422170
13856D2721577L885842M436466N095225N889705O856321Q043640R517402J1367868J3720826
13853A11534872J6754663K0726985K6016740L3192945M3126309N7173407P7470525J07364794
13852D93361240J51856892K17184863L05856797L96358245L99905136J82960474j82960474
13850A964523173l99905136l96358245l05856797k17184863j51856892j07364794p7470525
13848C08525921n7173407m3126326l3192928k6016740k0726977j6754671j3720826j1367859
13847H6446187r517411q043640o856321n889709n095221m436470l885838l422170l029033
13845C6270374k693593k405674k157204j941671j753809j589344j444746j317117j204043
13842A9763173j103516j013849r33616q61610p96802p38327o85420o37444n93828n54104n17834
13840A1326823m84659m54250m26335m00655l76991l55158l34975l16287k98964k82883k67934
13837G327732k54019k41048k28948k17642k07064j97165j87884j79176j71001j63310j56075
13835E124400j49264j42839j36779j31059j25650j20536j15693j11109j06764j02640r8729
13832C783338r5011r1478q8119q4921q1877p8976p6210p3573p1056o8651o6354o4159o2057
13829B780896o0050n8125n6285n4519n2825n1204m9647m8152m6717m5337m4012m2740m1513
13826B129770m0332l9201l8107l7055l6041l5064l4122l3211l2337l1489l0673k9884k9120
13823A683134k8386k7672k6984k6320k5673k5055k4447k3866k3299k2754k2223k1705k1207
13820A363543k0729k0254j9799j9361j8932j8516j8113j7719j7338j6971j6610j6261j5920
13818A127020j5591j5268j4958j4653j4356j4070j3788j3516j3251j2992j2738j2494j2255
13815I47090j2021j1794j1571j1359j1143j0939j0738j0545j0351j0166r985r804r633r464
13811G97577r297r137q977q824q673q526q381q241q104p968p836p708p582p461p338p220p105
13807F59199o994o878o773o667o565o461o362o262o170o074n982n895n806n717n634n551n471
13804E53937n389n311n235n160n085n014m942m871m804m736m671m604m544m482m418m359m300
13800D72012m242m185m127m075m022l966l915l864l813l764l716l668l621l575l530l484l440
13796D07005l399l356l313l275l232l192l156l113l079l041l006k966k932k897k870k824k797
13792C54557k764k735k698k671k636k613k575k547k520k492k464k435k408k383k356k327k308
13788C11625k275k255k229k206k180k157k134k113k089k067k044k024k004j977j962j941j921
13784B76047j901j880j861j843j824j803j789j767j752j733j715j700j681j666j650j633j616
13780B46233j601j588j569j555j539j528j509j497j481j469j456j437j427j416j398j389j374
13776B21000j364j348j337j326j312j301j289j276j266j257j241j232j220j212j199j188j178
13772A99454j169j157j148j138j128j118j107j098j090j079j070j064j054j043j035j026j018
13769A80912j008j001r93r84r77r66r62r52r44r37r30r21r15r05q99q94q84q77q71q64q58
13764A61370q50q41q41q29q22q21q09q07p98p90p88p80p74p68p64p58p49p47p39p35p27p24
13759A44109p19p12p05p03o96o93o85o83o76o71o67o62o55o53o48o43o36o35o29o24o20o17
13754A29477o12o06o03o00n93n92n85n83n77n73n70n67n63n57n54n51n47n44n39n34n32n29
13749A16966n24n23n17n14n13n06n07n00m98m95m92m87m84m82m77m76m73m69m66m62m61m56
13744A06184m56m51m49m45m43m38m38m34m32m29m26m24m22m16m15m15m10m09m05m04m00l97
13739I6826l96l93l93l86l88l83l82l77l78l73l74l68l67l67l63l63l59l55l57l50l48l57
13734H8649l42l48l41l44l34l37l34l30l34l28l27l25l24l21l21l16l16l14l13l11l09l08
13728H1472l03l06l01l00k99k96k96k94k94k88k89k89k83k86k81k81k81k77k77k75k75k70
13723G5131k72k68k67k66k65k62k64k60k58k59k54k57k52k54k50k51k45k50k44k45k43k40
13718F9505k43k38k40k37k36k34k33k32k32k28k29k28k26k26k25k22k20k21k20k19k17k17
13713F4482k15k13k12k12k10k12k08k09k06k05k06k04k03k01j99k02j99j97j95j98j94j95
13708E9987j91j93j92j89j90j87j88j88j85j85j84j82j84j80j80j81j79j78j76j76j80j74
13703E5945j73j72j72j72j70j70j71j66j68j67j65j65j64j65j63j62j62j60j60j60j58j58
13698E2302j58j55j56j56j55j54j51j51j53j53j49j50j49j48j47j47j46j46j45j46j43j43
13693D9001j43j42j40j41j39j41j39j38j37j38j37j34j36j34j33j36j33j31j34j32j29j31
13688D6003j28j30j30j26j28j26j28j26j25j25j24j25j23j22j21j23j21j20j19j21j20j19
13683D3273j18j17j19j17j16j16j15j15j14j14j15j12j12j11j14j11j10j13j08j10j10j06
13678D0780j09j07j09j07j05j08j05j05j06j06r9j06j05j02j02r8j07j03r5j03j00j01r8r8
13673C8296j00r7r7r9r8r6r6r6r5r4r5r4r5r5r2r3r1r3r2r2r2r1r0r0r0r0q9q9q8q9q8q7q7
13665C5236q7q7q6q7q5q6q4q6q5q4q3q4q3q2q3q2q2q3q0q1q0q2p9p9q2p8q1p7q0p8p6p9p7
13658C2528p8p6p7p7p5p5p6p5p5p4p5p3p5p4p2p3p4p3p1p3p3p0p2p1p2p0p0p0o9p2o9p0o9
13650C0120o6p0o9o7o8o8o7o8o7o5o7o8o4o5o6o5o4o6o5o5o4o3o2o5o3o5o3o3o3o2o1o2o2
13642B7972o2o1o1n9o3n8o2n9o1o0n9n9o0n9n9o0n6o0n7n7n6n8o0n7n6n7n6n7n5n7n4n7n6
13635B6044n5n4n6n4n6n3n4n4n5n2n4n3n4n3n3n5n0n3n0n5m9n3n1n1n3m9n3n0n2m9n0n1n0
13627B4310m8n0n2m9m8n0m8n0m8n0m8m7m9m8m7m9m5m8m8m5m7m8m6m7m5m7m6m7m5m6m6m6m2
13620B2745m7m5m2m6m7m1m4m9m1m5m5m6l9m6m8m0l5m6m4m6m5l5m1m2m8l9m4l9m4l8m3m2m0
13612B1323m3l9m1l9m1m0m0m1m0m0m0l9m0l9m1l7m0m0l7m1l7l8l9m0l7l9l7m0l8l5l8m0l6
13605B0031l7l6l7l7l7l7l8l5l8l6l8l5l6l3l7l6l6l7l6l2l8l4l6l5l4l6l5l5l4l3l5l5l2
13597A8855l5l4l3l4l3l4l4l3l4l2l4l3l4l0l5l1l3l3l2l3l3l2l1l3l1l2l1l4l1l2l0l2l1
13590A7778l1l0l2l0l1l1l0l1l1l1l1l0k9l3l0l0k8k8l2l0k8l1k8l0l0k8l0k8k9k9k9k8l0
13582A6791k9k8k8k8k8l0k6l0k8k8k7k8l1k5k9k6k8k8k6k7k8k6k8k7k9k5k6k7k6k7k7k7k6
13574A5884k5k8k6k7k5k7k4k8k5k7k5k4k7k4k5k6k5k4k6k5k5k5k7k4k6k4k5k4k5k3k6k4k5
13567A5048k3k6k3k3k5k4k4k4k4k4k3k3k3k4k5k3k3k4k4k2k5k1k4k3k2k3k1k5k3k1k3k2k4
13559A4277j9k2k2k6k5k0k3k3k0j8k6k0k5j9k1k2k3k1k0k0k5k2k0k2k1k1k0k0k4k0j9k1k1
13552A3566k1k0k0k3k0k1k2j8k3j9k0k0k1k0k1j9k0k2j9k0k0k0k0j7k0k1j9j9k0k0k0j9j8
13544A2904k0j8k2j8j9j9k2j5k0j7k1j9j8j9j8k0j9j6k1j7j9j7j9j9j7j8j9j8j9j6j9j8j8
13537A2290j6j9j9j9j4j9j6k2j7j6j9j8j6j6j9j8j5j9j8j6j8j7j8j6j6j6j9j5j8j7j7j6j5
13529A1721j9j5j7j8j8j3j9j7j6j7j4j9j3j9j6j7j4j6j6j7j5j6j6j7j6j4j6j7j5j5j7j5j6
13522A1186j6j5j5j5j5j6j6j6j5j6j5j5j4j7j4j4j6j5j5j6j5j5j5j4j5j5j3j6j4j5j5j3j4
13514A0691j5j4j6j3j4j6j6j3j4j4j5j4j4j5j3j6j3j4j2j4j6j4j3j4j4j4j3j4j5j4j3j3j4
13506A0225j4j2j5j2j5j3j4j2j4j4j3j3j4j4j3j2j5j2j3j4j2j4j3j2j4j1j5j0j3j7rj4j1j2
13499I780j2j3j3j2j6j0j3j3j2j2j4j4j2j1j3j3j1j3j2j3j2j2j2j3j2j1j3j1j3j1j3j1j1j4
13491I359j0j3j2j2j3j1j2j2j3j1j2j1j1j3j0j2j1j2qj4j2j0j2j2j1j1j3j2j0j3rj2j2j0j2
13483H955j3rj0j1j2j0j2j1j2j1rj2j1j1j1rj2j2j0j0j1j0j1j1j2rj0j2rj4qj1j1j0j0j1j1
13474H556j0j1j0j2qj1j1qj3rj1rj0j1rj1j2rrj3pj2j0qj1rj0j3pj1rj0j0qj1j1rrj1rrj0
13465H135qj2rj0j0rj0rj0qj0j0rj0j0rrqrj1rrj0j0qj0j0prj0rrqrj2rpqj0qj2prrj1pj0
13454G699qqj0orj0qj1pj1qqqj1j0orj0rpqrrqqrroj0qrrrprpj0prqpj0ppj0qrrpj0j0oqo
13442G243j4pmqj2Jj6ppj2npj0nqqj0nqrpqrqpqqprpprpqprpqqpqorpqoqqqpqqoqorororq
13428F769oorpqopoqqmj0rnqoqqpppnrornqpqnqnqppqopppqmrnqpopqnppopopj0lppppoqp
13413F318mpqoqoorlqj0koqnppoponqnppopoppnppoonqmromooqnpoooooooqnomqoonpoopn
13398E904qnonnonppoooopnnopnnnoonpmqnomponpomnnooonrmmpomnnppojqmooqlqkomj2k
13383E528j1JmPk5J1k2Pqj0%lj1onmpjj2knopllponmpomolpnp%ppnmnonmoolplnpnnmonmo
13369E217mnnmnoomokkrmmonmnnmpnlpmmnompkonolnnmmmplnmnoknnmommlonnmomnomlomn
13354D900lmmpjqolnknmmololnnlnmmmnlommmnmoknmmmmnmnlommmmmolnmmnmlnolkolnnnm
13338D611jommnllnlnmnmknnnllmolmnmkmnlmmmnnknlmmnlmlokmnmlnjmlnmmnkolnnloknM
13323D353mmqnkpkknnjnmmlnmklnmkmnknmnkmlmlknnjmmmmjokmlmmmlmklnlmlnllllokmkm
13308D107llnmllmlmlmlmjokmlnjnlmlmmjmnjlolkmkmmknlln%pjlllklnlkmmlkloljmllmm
13292C883jnllmjnljmmknjlmmklmkmmllkn%mlmmkklmklmmlllllklmlklmklmlkkllnkkllmk
13277C680mklmkmlkmllllmjlllkkllljnkklmlljnlkmllkknjmklklok%n%nlk%pjJq%ljojlk
13262C491mjlkmlmmkklkllklkjnlklklljmkklkmkjmlkkmjlllljlnJlnjm%njnjklklllkjlm
13246C314jkklmjklkkmkkljnl%mm%mkllklljljn%kkml%mjmkklm%o%%kmkkjnjljmljklkljm
13231C153lkjlll%klklm%jknkjmk%lm%lkmkljnjkkll%klkjn%nKlkljmkkkljljllkklkkkjk
13216C004mkkljkjknjkmk%lljkkmjkklj%llkjll%lljnLpKoJnlKkmkjkm%kjlkkjnj%ljmjkj
13200B865m%ljn%%mkljklkkkjm%ll%ll%lkl%kklljjlk%mJm%mkkjjlkklkjjkkkkkkjljlkkj
13185B733l%mjkjljljkjl%mJmkj%lkkjmjjl%ljnJkll%jn%%mjjl%lkjlkj%lkmjjjkjkjkljj
13170B613mjkJmk%mjjkjljkkl%kkkkkjkjjkkkklJmLmjlk%mjlJmjkkkjkjkkjkkkjkkk%mJm%
13154B498lkjjjjkl%l%l%jlJlkjkjmjn%%jrJ1j5pJ3nMok%nKljkk%k%lklkjkj%jljlJkl%l%
13140B397kl%ljjm%%llJl%jkjkk%kkkjkk%jjnlLmKmkkjkj%klj%ljjjkk%kjk%l%ljkjjjl%l
13124B296Jlk%jm%k%ljj%ljkjjkkj%mjkkKjmlMpJjkjjk%kjjjlkjjjkjl%lJkljjkjkJlkjjk
13109B202jjkkjjjkjjkk%k%ljjjkkkKjljlJkkjkk%jkjjjljjjjkjjjl%%lk%jl%jk%ljkjjjj
13094B114k%k%kkk%jkjjjmJkk%jnLnJ%lJkkk%jjlJkjjjkjjjjjjmJkjjk%lJmJjkjjkjjjjkj
13078B031jljjkj%jk%jk%lJjkkJ%lJnJkkkJl%k%lkJkjkjj%jjjkkkJkkj%k%kjlJjkjjk%jkj
13063A952k%%kJmJjlJm%jkjlNlk%jjkjjjjkjl%jJm%%jljj%lJl%kJlJl%jkj%jjjk%jkkJl%j
13048A880kjkj%jl%%kJnMoKjjlj%k%k%jk%k%%l%%kl%jkjJkjmJJl%%k%jjl%jk%jk%kj%jjjl
13032A808LoKl%jlkL%lLqjjLn%Jj%j%k%kjJlkKlk%jk%jkj%kjJjjkk%Jl%kJm%%k%jk%%kk%%
13017A745k%jk%jmJj%jjkjjJk%kk%kJkjjjj%jk%k%jj%k%jj%kjjkkJ%jkk%%kjJ%ljjj%jlLm
13002A681jkJ%mjKk%l%%k%jjj%jk%%k%lJkjj%%jjj%mJjj%jk%jjjjjjkJ%l%k%jjj%j%k%jjk
12986A622k%%kjjjJjjk%kJlJkJjjk%k%jjj%jkj%j%jkj%Jl%kJ%kk%%jjj%%lkkKj%kJlKk%kj
12971A567l%kJkjjKkk%%kJjkKk%ljKl%kJkj%jjj%jkJl%j%JklKmJj%k%jjlJjj%Jkk%k%%%l%
12956A513%k%%k%%jk%jj%kJ%jjkj%%kjj%kJjk%j%jjjjj%%lJk%j%%jjj%jkjlJj%Jjjkjj%j%
12940A463k%Jjk%%k%jJk%k%jkJkkKl%JlkKk%%%kjj%jj%kkJjjjjjJj%kj%l%KnK%j%%%jmJ%%
12925A416j%jk%jkKkkJjjjJk%jJknMkJk%Jk%l%Klk%%nPpKjl%lQlqmJ5rNj0pkJ9lprRJ1j1%
12911A375LojJjkJljLnjkLl%lMn%K%jjlJJj%lJj%jjj%%%m%Jk%jjJk%k%%jjJ%jlJk%j%kj%j
12895A328J%mJ%j%JlJkj%k%jjJJlj%JjkjJk%%jj%jJk%k%JkjJkk%KlkJ%Jkk%%j%jkJk%j%kJ
12880A288%jjj%%kJ%l%JjjkJjlK%mJ%%%jlKjjJj%ljJkjj%%%%jjkLkjkjKkjj%%jkJ%kJ%%kj
12865A248j%jj%%j%%kj%kKjjj%%%k%k%%jjJj%j%lKj%jlKj%j%%lKjkj%J%kk%kJkJk%j%%jjj
12849A209Jjjj%k%J%%kj%jj%jj%%k%%j%%j%j%l%J%kJk%JlkLmMlJmLk%lKjjJk%j%jJjjjJj%
12834A175%jjjjJjjJmKk%jJk%%%lJJ%l%KljJ%ljKjkjkLkKlkJJjKlJ%l%%j%%j%jjjkKj%jj%
12819A140%kJjJkj%%jjjKkj%%kj%JkJ%kj%jJj%%lKlJjlKjJjjj%%j%%k%%k%jJk%jJk%%j%jK
12803A108l%JjjJkKjkj%JjlJjk%%%kJ%%jjKjkLjmMkoOj0PjLnLljKljjKlMlkJkLjlJJk%%%j
12788A077%lJ%jj%jjjJj%jK%k%k%%ljKjJkJjk%lLk%%Jkj%jjj%Jjj%jJjj%%j%jj%kJJKllKk
12773A044%j%Jj%%jkJkKkjJjjJl%%%jjKlk%J%%%jJk%JkJk%%%kk%KjkJ%%j%%%k%kLjk%j%Jk
12758A016%Jk%jj%%%jj%Jk%%j%j%Jjj%kKk%j%%j%%%kj%jJ%k%%jjJk%jJj%%J%kmKJkJ%j%jj
12742I88%j%jjJ%%jJjlKl%jkLJnKMkJnMkjlJJJnLlKjkJj%kJj%%%%j%jJj%kKk%j%%k%JjjjJ
12727I62%%jj%jjJ%j%Jkj%%Jl%JkJkJ%j%jjJjkJ%kJk%%j%%jJ%jj%jKklJ%jJjJjjjJkJ%j%j
12711I35j%jJ%kJkJ%jkLkjJj%j%j%%j%%kJ%jj%%j%jJk%j%%%jJjJj%lKkKlJjKk%kJkJ%%jJj
12696I11%j%j%%%k%J%kkJJ%j%jj%jJkJjjjJj%%%jJjk%JkjJJj%%%%k%j%jJ%k%%JlLjjj%lMj
12680H88%%lmLlJOnmPmk%%Ljk%k%Ljk%%jJkKjkJ%%k%%%lK%j%%%kjK%k%%Jk%%k%jkK%%JmKJ
12664H65kKklLkjJlJ%%jjjJ%%jJkjJkKjj%Jj%%Jjk%JkJ%j%jjKkJjJlJj%%%jJjj%lJJJkJlJ
12649H41kJ%Jj%kjK%k%jJj%JjjjjjJ%%j%%%j%JjjKkJkj%%jJj%j%%%jJj%j%%kJj%jjjjKjJj
12633H19Jj%%%%jjKkjKj%jjjjJ%%jjJjKlJ%kJ%kJ%JjjJjj%%kJ%jJ%kJkj%kKJKnJ%%KlJjk%
12618G99%%%jJjjJjJ%kjKkJj%%lKj%jJkKkJjkJJj%%%kJjJ%k%%jjKj%Kjj%kJj%lJJjj%jJ%%
12602G81jJj%k%%%%jjJk%KlK%kKkJk%%j%%%%%%k%JkJ%jjKjk%j%K%lJJjj%Jj%Jkk%jLkjJjj
12587G60%jJ%jJkJkJ%kJkJ%k%%%j%KkJkK%kJ%jjJ%%kJ%%jJ%k%JkkKjKjlJjKjj%kJjKjjj%%
12571G42%j%Jj%%%%kJ%jjJj%jJj%jJ%%j%%jJjkJk%LkjJMj1JLmKRmk%kKmjJ%Jj%jj%%%Jj%%
12556G25k%%%JjJkjKjj%jJj%%Jjj%JjJjj%%kJ%j%J%j%Jk%%jJj%%jJ%jk%JjJkJ%%%jj%%%%j
12540G08JkJJl%Jj%%%%jjJjj%JJ%jjj%k%%JJ%lJlJNn%JjJk%JjjJjjJj%Jk%j%J%%jjJj%jKj
12525F92kJjJ%j%Jk%%kJ%jJ%j%jjJ%jJj%%JjJlJJjjjJ%k%%%%%jJ%kJjKk%jJ%%kK%jj%j%Jj
12509F76jJ%j%jKk%JlJ%jJj%%J%lJkjlN%jlKLkkLkj%%kLl%%%%%%jJj%jJjJjj%%%%Kkj%J%j
12493F61j%%jJJk%j%%Jk%J%j%jj%%%jKk%Jj%kK%kJjJ%k%%%%%%jJj%j%kKjjj%JKj%%j%j%jJ
12478F46j%%jjJjJ%%%%kJj%l%JKjj%%J%Jj%j%%j%%%kJJ%kj%%j%Jj%jJjjJ%%%jjJj%Kjj%j%
12462F31j%J%jJ%%jJ%j%k%j%%J%kKkJj%%%%jjJjJjj%%%J%j%%j%jJjJk%%jJjJjKmLj%Jl%%J
12447F18kMnLmMjMljMpPj4JkJ0mj%Qq%L%jLlJ%lJjjJ%JjJjkKk%%jKk%KkJjKk%%k%%j%j%%%
12432F04JkJ%jJ%%%kjK%%j%%j%%j%Jj%kK%jjj%JjjKjJJk%jkKjKjkJ%jJ%kJj%%JlKkKkj%K%
12416E92%kKj%kLl%JKlJkJ%%%kJJj%jKjk%Kk%jJjJ%%j%%%jjj%%%J%jJj%JjjjK%%kLkjJkJj
12401E79kLlKJkJjjJj%%Jj%kJ%JkKkJj%%Jjj%jJJkJ%jkKj%j%%J%jj%j%jJ%%j%jK%jkJ%%kN
12385E70mLmK%mMm%JJk%KlK%j%J%kJj%jJ%%jJjJkJ%JkJjJjjJ%jjJj%%jKjj%KjlK%JjjjKjk
12369E54%jJJjjKj%%%jJj%kJJ%j%j%%jJJk%%%J%jJjj%j%%Jk%JjjK%%%%jKl%kJj%%%lMkjKj
12354E43%j%J%j%%%%j%JkJJjkK%kjKjJj%j%j%Jj%%%%%%%jjJ%Jk%%Kk%jjKj%%j%%jJ%kK%%%
12338E33jK%jjjJjjJ%jJjJk%jJj%Kk%Jj%jJJ%j%%j%%jj%%Jj%K%%%kk%pPjKlL%lK%%%JkKmJ
12323E21J%j%jJ%j%JjJ%%JlJ%%Jl%JkJ%J%k%jjK%%%%%kKJjjJkKm%Mkjj%jJkJj%J%%jjJJjJ
12307E12%%j%JkJJkJj%J%%%j%j%%%kKjj%%%J%Jk%JjjKkkKJkjJJ%j%JjjJ%j%jJk%%jJj%Kj%
12292E02%%%jjKj%jjJ%j%KlKJ%kJj%%j%%jjJj%JjjJJjjJ%j%%jJjJj%JkJ%j%jJJkJJjjJj%J
12276D93j%j%KkKk%JkKjkJj%jJj%j%%J%lMJlKKmKljMjJlKlJkLk%%%jJ%j%J%%jjKj%%kK%j%
12260D83JjjJjjKkJk%%%%%JjjJ%jJjjJjjJJjJ%k%kJJjJ%%k%jK%kKjj%J%j%%jJjjKjJj%Jj%
12245D73Kk%%%j%%Jk%jLmjL%jkJKlJLjlJKjk%%J%Jj%Jjk%%%JkJ%JjjJjKjjjKJjkJJjjjJ%%
12229D65j%j%%%%Jk%%jJ%%%%kK%KjjjKjkJj%%jjK%j%%Jj%j%%%JjJ%Jj%kK%jJjkJJjLkj%Jl
12214D55Jj%kJJKlJJJll%MpLlONjnkKJjkJJk%jJkKJ%k%KkJj%Jk%kK%%jKjJjj%%%%j%J%jJk
12198D46JJkJjJk%%%%JjJj%%J%lJKjjjKjj%jJjJ%jKkJ%kJJkKj%kJ%JkKj%j%%%J%j%%k%JJj
12183D39j%%jJjKjJLpMkjJ%jjKkJKlK%jj%%jK%j%%jjJJj%j%Kk%%%%j%%JkJjJj%%jJj%J%j%
12167D30%jjKlLkjJ%KjJjJkJj%J%j%%%k%K%jjJJk%KkKkjJkJJ%%%jJk%JJ%j%JkjK%kJjjJJl
12151D21lMk%LkkLKjk%%J%%%jJJk%JjJj%KkJkJ%k%%%%%%jJj%%%%%j%Jjj%%%%j%J%jK%jkJK
12136D17mJ%%KjJjj%JJl%J%jJkJ%%%lK%%%%%Jjj%KjjJJlJjJkK%%k%J%lJ%%JjJj%JkJJjKkJ
12120D09%jJjJjj%J%Jk%JJjjJj%%j%j%%%%%%%J%%%kKjkKj%j%Kjj%j%JjJ%lJ%%JKjlK%kJ%%
12105D01%%%Jk%%%%%jJkJjKkJjK%kjJjJ%%j%j%jKj%%%JjjJ%%j%JKmkLKjqJ1pLKkjJJkJjj%
12089C93jKj%%jJjKjjJ%%%jJjjLk%%Jj%kKj%J%%j%%JlKkJkLk%%Jj%jJK%k%j%%J%jjJj%%%%
12074C87%%j%jJJk%%J%kJJJkj%KjjKk%%%%%j%%KlJKjlK%JlJ%kMmLJ%lJjKkKjj%jKjkLj%kK
12058C81j%jK%jkLjjJjLljJ%%j%Jj%jjK%%%Jk%J%%jJ%jKl%JJ%jjJkJ%jJJjj%jJJjJkJj%%J
12043C75jjKjj%%J%k%KkJ%%jJjJ%%%%%%%%%kJjjKnMJKkj%%lJJjJJjJjkJ%jJj%JjJ%JkJ%jJ
12027C69%kJjJJkJjKk%%%Jj%%jJ%j%jJjJ%%j%jjKkJLlJj%%jKjJkJ%j%%J%%j%kJ%%%%jKmKJ
12012C62k%JjJjJ%jJjJkK%%%j%Kk%%jJ%%kjjLjJKjkjJ%%%JkKjJ%j%%%%jjJ%j%Jj%J%Jkj%%
11996C55J%J%kJkJjJJkjK%KjkJJjkjLk%JlLjJJk%%jJ%jJj%kK%jkMjJkMlj%%jJKljJJJ%mkL
11981C49%%KkLnKMmJlkMkrJ0loJ4nPj8lPRpJ5qJ%nRj2J%NKmLkoQlJkmMjJjk%MlLkMk%%jJk
11966C45JjJJkKkkKJkJ%jjjLk%%KJjjlLkJkJJkJ%Jj%jJ%j%%%JkK%j%jjJ%jJ%JkJkK%%jjLk
11951C39%%JJjkJ%J%k%%J%jj%MoL%j%Ljk%jJ%%kJ%jJjJj%JjjLjj%jKkjJ%jJ%JjjJ%JjjJj%
11935C33J%j%%%%J%jkLk%jKlOoK%j%KjkJJjjJJj%jJ%%kKjJj%jKjKjkK%kJ%%j%Jj%%%Jj%%%
11919C29%j%J%%kjNj%JklNnK%kJj%%%JkKkK%j%j%%jKjjJ%JlKJj%%%JjJk%Jj%JjKl%JJj%jJ
11904C24%jkKj%%jKk%J%%%%jJjJJjJjjJjJk%Jj%%%%%%KlJJ%kKkJKjj%%%j%JjjJ%%j%J%k%J
11888C18Ljj%Jl%J%JjjJjKk%JJkJjJ%jJk%Kjj%J%j%Jk%%Jj%jKkJj%%%%KkJ%j%JkKjJ%lJJ%
11873C14Jj%jjJJkJjKj%%%kKj%%jJ%jKj%k%J%%%jJ%%jJj%jKjj%KjJj%%%j%kKjKnMmkMJk%j
11857C05KjjK%%%%KkK%kJJjk%%JjjK%jjJKjj%Jk%J%kKjJj%JJkJ%JlJ%%%%%j%Jl%JKj%%%%%
11842C04j%j%KjjJ%j%%%J%jJjJjJJkK%mL%%%kKjj%Jj%%%J%kKj%jKJk%jkMljKmN%lK%%%jJj
11826B99jKj%%%%%J%jjKl%JJk%jL%kKk%KkKkJ%%jJkJjJJjj%jKjJjKkjK%mL%jJj%%jKjJj%j
11810B94Kk%%%%%%jJ%%%Jk%%JkKjKjjJjjK%jjJJk%KjjjLjkLmMnKmMJKk%%%%j%KkJkJJj%%J
11795B92kJ%jj%J%j%j%Lj%Jj%%%%%Jk%Jk%jKj%Jj%%jLkJkJ%J%jjJjjKj%Jk%%JJkJkJ%%%jJ
11779B86JjlLjKj%jjKj%%KjJj%kJJj%j%jKkJ%%%jJkKJk%jKjJjJj%%%j%%%%JkJ%%%J%jj%Jk
11764B80J%%%J%%kKjJj%%%%Jj%jJ%j%Jj%jJkJJKk%J%kJ%Jk%jLlK%%jJkJkJ%KlJ%JkK%%%%j
11748B78Jj%J%jl%%KJkKJj%KmKjjkkK%JJjqJ1q%kKLjLJjj%JjjjKjkK%jKJkJ%%%jJkJKkjjL
11733B74j%jJj%K%j%%%JkK%%j%%j%JjKjjLjkKjj%jkK%J%j%%%%%kK%jJjK%%%k%JjjLj%%%j%
11717B70JjJlK%%%jK%lKk%KjJjjJK%kjKj%%jjK%kLj%%jJjJjj%%J%kK%j%%jJjjKj%%jJ%%j%
11702B65%KkKJk%%J%kJ%%%jjKkKkJj%%%J%jJ%j%JJkJ%Jl%J%%jJkJj%%%%%j%JJjj%K%%jJ%k
11686B61%J%%jJJlK%%j%lOkKnLj%%%JjJkJ%%Jjj%Jj%JjjJJkJ%JlL%jj%%Jj%%Jj%%%%%Jj%%
11671B59Jj%%%%%jJ%kJK%kj%J%%%%jJjJ%j%%%%%%j%%K%jj%J%jKkJ%jJkJ%j%%jJ%%%J%jJj%
11655B55jJjKkj%Kk%Mk%jjLk%jJ%%jJ%jjJJ%%JjjJjJk%J%%jJ%%jJ%%Jk%J%Jj%kJ%KkJjJj%
11639B52%jjJjKJjj%j%%Kjj%JJjkJJj%%Jj%J%j%%j%Lk%jJJjjJJjjJjJ%%j%%J%jJJl%K%jKn
11624B46kQqKMk%JLmjjL%%k%j%JjJJjJkJ%Jj%%%jKkJ%jJkK%jJjJ%j%%Jj%%%%jKjkJKkLmJj
11608B44%JJJkjJJkj%JJ%j%%j%J%j%Kk%J%J%kKjkJKjjjJ%%jK%jj%Jj%JJl%%%%KlKKnLkKJ%
11593B43%jkJ%%Jjj%JJjjKJlKkJjKjj%jLk%%%kKjJk%KkKjj%%%%%Jj%%jKjJ%%jkJKj%j%%JJ
11577B39jjJJj%jKjJ%kJj%Kj%%%%kKJk%j%%J%%kKJjk%%JjJkK%j%kLjJJJllM%kK%%kJ%jJJj
11562B35%JkJj%%jJ%kK%jjK%%jJ%%Jj%jJj%Jj%%%jjKjj%J%JjL%klNjkJjJkKjJJ%jj%KkJkJ
11546B32KjjjKj%j%Jj%JkKjJk%JJ%jj%%%J%kKjKkJjKj%%jJoLJJk%JKjkKj%j%%%%J%j%jK%J
11531B30jJjJ%jjJjLl%%Jj%%Jj%%jJjK%j%%%JjJ%%j%%jJJkJjJ%jjJJjJj%%%%jJ%%%jLkJk%
11515B26%J%kJJkKjJk%JjJJjljJJKkJnJJkPLoPj1KRo%%LnmQk%%MmkMkklK%Lk%JJmK%%kKj%
11500B22kL%%J%j%jJkLj%K%lJJkKk%%JjJ%k%jJLkKkkL%%k%J%kKjjKjjJ%jJkJ%%Jj%K%%%jJ
11484B22j%kJ%%%%%j%J%j%Jj%%%%%jJJ%JlJlJMm%LjkKjKkJjJ%jJ%j%%Jjj%%jKjJk%jMkJj%
11469B17%j%J%JjJ%kJj%KkJ%kJJkKlKKlJ%jKk%KlKj%JkjLj%JjjJjJ%jJ%%kJ%Jk%JJj%%Jj%
11453B14jK%%Jj%jJJ%k%Kjj%KmKj%JKnKLk%kJJj%jKj%%%%%jJ%%Jj%Jjj%JJj%JlK%kJ%j%J%
11437B12%jKkjJJkK%JjjJJlK%%lMj%jKkJj%%%%j%%%%%%jJ%%%JkJ%Jj%%jJ%%%%%%%%%%j%Kj
11422B10jJJk%jJj%JjJmMjJJjKkKJkJk%%jjJKjjjJ%k%%%JjJkKjJjjL%%%%%jJJjkJjKjjJ%%
11406B07Jj%%%Jj%kJjJKl%K%%jJj%%%Jk%JkJK%k%%JJkJj%%%J%%%jJkK%j%LlJjjJj%jjJJMj
11391B07pKQj0OJnLLmLklMJl%JjjjK%j%%%%kK%%JjjJjKj%j%J%%%JjJk%JjJ%j%j%%%KkKlKK
11375B04mJJ%lJJ%%JjJ%k%J%JkJJjJ%kKjj%%%jjKJ%jkK%Jj%%%%jJjJ%%lK%%%JjJ%%Kjjjj%
11360A98KjJj%J%jjJ%j%J%%kJ%JJk%Jj%jLkKkJjJjKjjj%%JjJ%jJJkKjkJJj%jJjLkK%mJ%Jj
11344A96%JkKjJ%j%JjJjJ%Jk%%KkJjKjkJKk%j%jJ%KjJjjKk%%j%%JjKj%%k%LjKjkjKJjJkjK
11329A95JjjJkK%j%Kk%jJ%jK%%j%kKjjKj%J%j%J%%%j%%Jj%%%J%%jJKkJjJ%lKj%J%j%jJj%%
11313A92jJ%j%jJ%%jJ%J%%%%j%jKJlKjJjkJKj%%%%kK%%j%%jJKk%jjNkmKLlj%KjJj%JjJ%Jj
11298A90Jjj%%JjjKjJjJJJmJjLjjJj%Jj%%jJ%j%Jj%j%Kk%JkK%JjKjjKj%%%%%%jjKJjlJJ%%
11282A88%Jj%%j%%jLk%j%Kk%Kj%%j%KLkk%jJJjjLmLjMlklNjlOlj%JKpJKjjLj%j%KkJJkKlJ
11266A84jKjK%k%%KJjjJkJj%JJlKj%%Jj%JjJ%jJJj%j%Jj%Kk%jJj%J%Jj%%%Jjjj%K%jJKjjk
11251A82JJkJJjj%J%%%Jj%%JjkJJ%jJ%%kL%%klKJKkjJjJjJkLkJj%%Kk%jJ%%%JjjJJk%Kj%K
11235A83jjj%J%kK%%%kK%j%J%jJ%Jk%J%%j%J%%%%jjJk%jKjJ%JjJkK%jJ%j%%%%%%j%Jj%%%J
11220A79%%%%jJ%%%JjJj%j%kLjjkMkKJJk%lKkLJlKkJ%j%%J%%jJ%jJkJ%%%%%%Jk%jJ%J%Jk%
11204A76JJjkK%JkJ%%j%J%j%JkJ%Jk%Kk%%J%j%KjjJkJJkJJ%%%%jJjjK%%%j%%%jJjJ%%%JkK
11189A76j%%%jJjJ%jJjJjKkJ%jkJK%k%K%%Jk%J%j%%%%%jJ%%jj%J%%%jJKjjKjJjJkJj%Jk%%
11173A72%%%%%%JjjJJ%%Jkj%%KjjJjK%j%%Jk%KkLjj%%jJj%JjJkKj%jJ%%JjkJJJ%%JlKJj%k
11157A70%KjJlOjlj%kkLkLJKkjMklLlLlJ%JkK%%%jJkK%jJ%jJjj%Jj%jJjJJj%%%JkJj%Kj%K
11142A71kJjjJJjJ%jJkJ%%%kJ%J%%%%%j%J%jJ%%kJ%Jj%%Jj%J%%j%J%%%j%%KkJkJkLkJ%kJk
11126A65jJ%J%%JJkJj%%%J%j%%J%Jj%%J%%jjJjJJ%j%%j%%jKkJ%%JjJk%J%%%jKk%%JlJK%Jj
11111A66%JkJj%KlKKlJ%%j%%J%jJj%Jj%J%kJj%Kj%j%Jj%JjjJjJjJJ%%kKk%KjJ%kLnMkMklK
11095A64kKjj%JjKjjJ%%%KkJ%jJj%%jKj%Kk%J%jJj%jjKj%jJJJk%%J%jJ%jJ%%JlJJkK%%Jkj
11080A61J%j%%%%%jjK%JkKkKkJjJj%%%Kk%JjJ%%%%kKkK%%%jJ%kJ%jJ%Jj%J%jkL%j%jJ%Jj%
11064A60Jj%jKjJ%j%J%%jJkJ%jKjjJkJ%JjJjJ%jJj%%%JJj%JlJjJ%jK%kKj%JlJ%jLlJkKjJk
11049A56L%kKJ%jkJ%%%kKJ%kj%JjJJ%k%MkJKmlKjLlQKj0NljOrOpQj0Mk%LNrMPmJkjJK%j%j
11033A57mNkMoMlJJJmK%jjJJ%%Ljk%JJkj%JjJJjj%KlLkJ%kJjJJJj%%%kKkJ%%jLjj%JjJJj%
11018A56Jj%kKjJkJ%%%j%LjkJkJJj%KkjjL%jjJJjj%KlLm%MlLLl%j%%jJ%%%jKjj%Kk%KlJjJ
11002A53Jj%JjkKj%KjJ%kJ%%%%%jKj%J%j%jKj%%jJ%j%LjkJj%%JjJJkJkjJ%%KkKjj%K%jJj%
10987A52%%jK%%j%%%jJJjj%kMk%Kk%jK%JklMLmLn%L%jJj%%j%J%j%Kj%%%jjKjJJj%%%kLkjK
10971A51%%%jKkJlKj%%KkJ%%jJJj%jJ%%JKllJLjjKj%j%%j%KjjJj%jKJk%%%J%%KjlL%j%J%k
10956A48%KjkK%jJkK%%J%k%%JjJlLkKjK%kKjJj%%%JkJ%%%jjJjKjJj%%Jk%J%Jk%KkJj%%%%j
10940A46J%%%JjJj%%%jJ%%JJkLnKKlJjJkJJjjKjJ%%%%jJ%%%%%Jj%j%jJjJ%JjjJ%Jj%%%%j%
10924A45Mm%JjjJjKJlLkJLllJjkO%jk%%jKjkKjJ%%jJ%%jJ%JjJj%jJKjkKkLlJ%%%KlJJkKjJ
10909A45%%j%%%JjJjKk%KkjjLkKkJkJ%JjJj%Jj%J%jJkJ%%J%j%%%kJ%%JjJ%%JkJ%%J%k%J%%
10893A43jKJkkJ%jJLjlK%jjLlKjJj%jJ%j%Jj%JJ%jJj%%jJJjJj%JjjJ%j%%J%kKj%%jKkJJj%
10878A41Jj%kK%%Jk%%%Jj%%%%%%jKjJ%%J%kKjJjj%%%%%%JjJJj%j%%JkK%j%KkKjj%jJjkOnk
10862A36JPkkJJ%k%%%j%Kl%%Kj%Jj%jJJ%j%Jjk%KJj%Kk%%jK%jJ%kKjJj%j%%J%%j%%J%kKjK
10847A40jkJ%%%%%JjjJ%%jJ%%%%jKj%%%%%jJ%jJjjJ%KkJJk%%J%%%%%kJjJj%JjJJj%lJL%kK
10831A38j%%jjJJj%K%kJjJj%Kk%J%lLJj%jKk%JjKk%kK%JjJj%%%%Kk%jJjJjKJjjJ%j%JjjjK
10816A36jLl%JJjJ%j%%j%%%jJjJJJj%j%%Kk%%%%JkK%kK%j%JmMJoQnMnlQoJlQmKkJJJKnLJ%
10800A38oKKjJ%%k%%%jJ%%kKjJjJ%j%Jk%%J%JkJJjjJ%%JJkJ%j%KjJjkK%jJkKj%%%%jJ%%%%
10784A33%j%K%%kJjK%JkjKjjJJj%%j%%jJ%%JjKj%JjkKj%Jk%NoKJjjJ%JkJ%J%kK%kJjJ%Jj%
10769A32j%%%JjJj%JjKj%%j%%%%J%%j%J%%%%j%J%jJjjKlLj%JlJJk%JjJ%JkJJkLk%jJ%%%%%
10753A30J%JjJk%KkJ%j%j%JjKj%J%kJ%jLk%%lMjkJ%JKljLJk%%jjLkKj%%j%%jJjK%j%jKjjJ
10738A29J%jJjjJ%kJJj%jJKj%JjkjJ%J%kJJjKmLJKkj%JJjjjKjjjJKjJjJj%J%j%%%J%mL%Jj
10722A28%%%kK%Jj%J%Jk%%%j%JKj%jjJKkjJjkLkJkJJ%JJk%J%jJ%%%kJj%Jj%J%%J%jLjjjJj
10707A27J%jjJjJ%%JjjJjjLk%Jjj%J%JjJjKkJ%jJJj%kJjJ%JjJj%jJ%JjJjJkMk%%Jl%J%JkJ
10691A26jJ%KlK%j%jL%jjLoKKkrLJ2j1PnK%JJkjK%%%%%%j%%%jKj%%KjjJ%%%JjJjjKj%Jj%j
10676A24%%%%%Jj%j%J%%JkK%lKjJJ%jJ%j%%%jJkJJ%j%KlJ%j%%jJ%jJJjJJjJjJjJj%%JjJjJ
10660A24%kJKj%jJk%KjkLLnJkLj%%%J%%jJjJ%jjJ%%Jj%J%J%jjKk%JjJkJ%jJjJ%jj%%J%JkJ
10645A22jK%%jJ%%jK%k%JjjJ%JkK%j%%j%JjJ%JkJ%Jj%%j%J%j%KkJjJJj%jKJmK%%jKkJj%Jj
10629A21Jj%KoL%%KlJKlJJj%Jj%%%Kj%j%KkJj%%%jK%jJjKl%JkK%%%Jj%%jJJj%j%%JJkJjKj
10614A20j%%J%%%k%KJkJ%JlJ%j%JjJJj%jJ%JkJjKj%Jj%jK%j%%Jj%%jJj%jJJj%%KjjK%%KmJ
10598A19%%kMkjJJjJ%j%kLk%j%%Jj%%%JjJJkJJJ%kKjj%%J%jjLlJ%jKj%JjjJKlj%L%jkJkK%
10583A17JkJ%jJ%%%jKj%J%%%jJ%j%JjjJjjK%lKJJjjkKJJkJKlJ%JkMoRmrRoj%Nj2Qk%JJKJk
10567A14KNmJj%k%KlLlLlLjjJKkjKjj%KjJ%jJ%%j%%%%%jJ%jJ%jJ%Jj%%Jj%jjKjJ%j%jJ%J%
10552A16JkJj%j%JJkJ%J%JjJj%Jj%jK%k%JJjjJ%jJ%jj%K%jkJJ%%%Jj%%jJJjJj%%jKkK%%jj
10536A14%%J%%j%%%%JjJJk%JJjJj%%j%JjJjJj%Jj%JjkK%jJ%%jLj%jKkjLk%jKj%%jJj%jJJ%
10520A14%%jJjJj%jKkJjJ%jJjJj%JJkJ%%jJJ%mJKj%JjJkKljPm%MoLjJlMlLkj%JjJj%J%%Kk
10505A12J%%%%jKjjjJj%%%J%%%%%%JJk%%%jJKj%jJ%%j%%%JKk%%jjJj%%KkKjj%%%JJlK%jJj
10489A11LkJ%j%JkJ%KjjJjjJjKJjjjJjJj%Kjj%%JkKJoMJj%jJjJ%%%%j%J%%%jJJ%JlJ%j%%%
10474A10%J%Jk%%jLlJ%%%%Jj%JjJkJjJ%JJJmK%j%J%%j%Jjj%%J%%%%jJj%J%kK%j%K%lJKJl%
10458A09%JjjK%kLj%jKkJjkLlMlMm%MnN%oKkJNn%LkLlJj%%JkJjJJjJjJ%%%J%jJmL%%%%jJj
10443A08J%%%jjJjJj%%J%%jL%j%k%JkMjlMkJjK%%k%JjJJk%J%%JjJ%jJjJj%%%%j%%jKjjK%j
10427A08%kLj%JkjJJjJJkJJjkJMmNklKjJl%J%%%Jj%j%JKkJJj%j%JkK%Jl%LlLkjKj%JJkJjJ
10412A08jjKj%%%%%jJkMk%jJlL%%jJjLlJj%%JjJkLj%%jJj%%jKlKj%JkKjJjj%J%%JjJkK%kJ
10396A05Jk%JKjJ%%jlJLKnK%j%kMj%%j%jJJ%jKj%j%J%%%%%J%%%jj%Jjj%J%%J%kJjKk%J%%%
10380A05jK%jJ%KnK%jJ%jKjjJ%%%%JkJ%%kKjJjJj%%%%JkKkKkJ%%J%jJjKkjJJ%Jj%kJkKJJk
10365A04jLkJj%kJ%Kj%JkJj%jJ%%%%%%J%kJJ%%Jj%lK%Jj%J%kJjJJ%%k%JJkjKjjjKJjjJKmL
10349A03J%jJj%jJ%%JjJJjkKj%%%JkJ%%jJ%J%jJjlK%Jjj%JlLJ%%j%KljJKkKjKk%oNJlRplK
10334A00jLJj%lLjJJ%lKjKj%KlJJj%%%%%JkJj%j%KkJKk%J%jjK%%%%jKj%JjjJJkjjMkKjJk%
10318A01%%Jj%jJ%%KkJjJ%%%j%%%%%jK%%KkJj%%%j%JJjkJ%jJJJkjjJ%jjJKlK%JjJKljKjJ%
10303A01%%Jj%%jJjJ%%%kKjJJkjJ%%%%jKj%jJ%jK%j%%jJ%jJj%J%j%JjJJ%%kJkJ%Kj%jJjJ%
10287A00Kk%%kK%%jJ%kJJj%JjJlKJj%JjKjJkjJ%JjJ%jJ%jJJ%kJmKKJkKj%kKk%KkK%jJ%jJj
10271I9%kK%%%Jj%%%j%%%%JkJJ%%%%%jJjJ%%%j%JjJKk%%JkJ%J%j%JlJJ%kJjKj%J%kK%jJ%%
10256I9kJ%J%%%j%%jJ%%J%kKkJjJjLl%%JjKkLl%JKk%Jj%%LjlJJkKkK%mJ%Kj%j%J%jj%K%j%
10240I6%J%kJKkJj%J%%%jJJk%%KjkJJ%j%jJ%%%%J%j%JjJ%jJ%jJjJ%%%%kKj%jK%j%jLjkKjJ
10224I7kJJ%%%kKjJk%%JjjJJkJ%JjJlJ%J%kLjjJj%L%%%jjJjLkJk%Kj%j%%Jj%Jj%%J%%j%%%
10208I5jJ%J%%j%KkJJ%%%jJ%%%k%jJ%%kLjjJJj%Jk%JjJ%%%jJ%%%jJj%%Jk%%JJ%jKkJJjJjJ
10192I6j%Jj%%Jjj%%JJj%%jJl%JJJj%%jJ%%Jj%%jJjKjjJ%Jj%Kk%Jj%J%Kl%J%kJJj%%%jJj%
10177I3JJ%jJl%K%JkJjjJJjJJj%kK%JkJJkJ%%JkJj%kKjKj%JlJJ%%KjjjJJjJ%jLlj%KlKJkJ
10161I3jKjLnMkk%Ol%jKkjK%j%J%jj%JjJJKl%J%jJjJ%k%JJJ%jj%J%jJJ%jjJ%kJKjjJkJjjL
10145I4jj%J%j%%J%jJjJjKj%Jkj%J%%JjJjKkKjjLj%kjNkjKljJ%%%K%j%%J%j%%k%K%jl%KkL
10129I2%jJjjKkJJkK%%Jj%%jJjJ%%%J%%%j%jjLlJ%J%%j%%%jJj%JJj%%JjkLj%J%%jKjjjLlK
10114I2j%jKlKJj%kJK%KkJj%%JkJmLKJkpP%%nPnLjnOkKMnlJ0ko%MJJojj1K8Ok1j6oJ0K0j4
10100H5K3l7L2j8NJ2j0qJ1oLkNmJqRlkK%kJK%j%JlNk%lLjJkLmKlK%J%%%jKj%%JkJjKl%%K%
10085I0%jkL%%%%%JkJj%%j%JkLkJ%jKjJJjkLmMj%%j%Kjj%J%%%%%jJjjJJl%%K%KjjjjjK%%L
10070I1jkJjJ%J%%%Jj%%%jKj%%%Jj%JjLl%%JlJj%%%jKlLkJJkKjJjJjjJ%%jJ%L%kJjjJJlKj
10054H8%%kJKj%%JjJkK%kKjJJkjJjJ%Jj%J%kJj%J%j%J%kK%KjJJmJJ%nOlOlm%K%%%%j%J%%%
10038H8%jjJ%%%jJJkJKlLk%JKk%%%kL%%k%JjjK%kKjJ%kLj%%JJlJkKjJ%Jk%%%%%jJ%%JjJjj
10022H6JJkKj%JjJjJjJjjJJjKlKj%%jKjjJJk%J%jJjJmNlMmKmMk%jJ%%%%%JjJ%%%Jj%%%%%%
10006H6j%KJl%%%J%kKj%jK%kJjjKJjJkJ%J%%%Jj%%%JJJ%lkK%%%%%JjjJ%k%K%%JjjJj%JjJ%
9991H6jJj%Jj%%JkKj%%%kL%j%Ll%JjkKJJjL%ljLoLJlLKmJJkJ%%KkJjJj%%%jJ%%%%%JkJ%jJ
9975H5j%%%%jJjJJjKkJKlJ%jjKjJjJJk%%KjJkKj%%%jJ%kKkJJ%jJkKjjKj%%jJJjKk%%%%%%J
9959H5jJkLjkKj%j%%J%jJjJ%KjkjLjJkJ%J%JlJ%%%%%jLj%%%%j%JkKmLjJkL%JjjJJkJ%%%jj
9943H3%%%%jLjj%%J%JlKlLKkjJkJKjjJ%KjjJJjkKjj%%Kkj%KlJ%KjjJjJJj%%jJ%%jJjjJjJJ
9927H3jJ%LoLkKJjjKk%%LlJKl%jKk%KJlJ%JjJ%%%%%JkJ%Jj%J%jJjJjJj%%JjJj%j%%J%%%jJ
9911H3j%jKKl%%jK%Jj%%%%J%%JlJjjKjjJjJJjJ%%kLlJ%Jj%%Lj%k%%JjjKkJ%%JkKjkMkjJ%j
9894H1J%%%%JjjKk%Kjj%%%%%%%J%%k%Lk%JjJ%j%J%j%%%%Jj%%JkKj%%Jj%JjJjjK%%%%j%jJ%
9878H1jJjJ%%%jJjJkKjJjjK%jJ%K%kjKk%Kjj%jLJk%JJkK%j%jKm%MmO%KlqLmQkkKjkKKlL%j
9862H1lKJkKJk%J%kJjJK%kJj%jJ%%JJkJk%KkKjJkJ%%j%J%Jj%%KkJj%jJkLj%%jKjjJ%%%%%j
9846G9%%%J%%Jk%%%J%%jJ%%%%jJ%j%%%%jJ%JlLjjKJk%k%MlKKlj%KkjKJjJkJ%%%jJjJ%jKj%
9830G9jJjKjjJj%%J%Jj%J%%%jJ%%j%Jj%%JjKjKkjJJmJ%KkK%%%%j%%%%jJ%jJ%j%Jj%%J%%jK
9814H0%jjKjJk%Jj%%%%%jKkJ%J%%mL%%Kj%KnOmjLkJ%jJ%%jJ%jJ%%k%Kj%J%%j%K%j%k%JjKj
9798G8Jj%J%%%%%JlJKjjjKkJ%%jJjkJJ%KkKJjJkJjJkJ%jJ%%J%j%%%kJJJjj%Kj%Jk%Jj%KjJ
9782G9j%JjJJk%%%%jJ%Kjl%%K%LnjJKj%J%%k%%Jj%%J%%JjjK%jKjJjjjJ%jJ%%Jj%%%jJ%KkJ
9766G8%j%JjJJkJKkJmLJkJ%%Jk%JJl%%j%JJ%%j%%%%%J%%KljLJkJj%%%%%jLjjkJjJjJK%jkl
9750G2MklMJjLqJ1oNnJkJLnMjkK%kJ%%%%J%kL%%%lKj%JjjKJj%%Jj%%%%%%jKj%%Jj%%JJlJj
9734G5%JJjJ%%%kKjJ%%%%jjJJj%Jj%%%%%%kJKjjJ%Jj%j%JjKj%%jKj%%Jj%%Jj%Jk%jLJl%Ml
9718G6%%J%%kJJk%JjJjJ%k%J%%%%J%jJ%kKJkJjJ%%j%%%Jk%JJ%jjJ%JkJ%jKjk%JJ%j%JkJ%%
9702G4J%lK%JjJ%%%%%j%JjKlJ%J%%j%%%%%JJj%kKjK%JmKjKk%%kMj%jKjMoJ%jLJjjkKjJjJj
9686G4%jJJjkLj%J%j%%%j%K%jJj%jJjJ%jK%lJ%Jj%jKkJ%KjjJlK%jJJj%jJ%JjKj%%%%%%%jK
9670G5kKj%%%%Jj%kJ%Jj%Jj%Jj%%jJJjjKJlJJ%%JkLm%LjKlJLlj%%Jjj%%%%J%%%%%%%Jj%%J
9654G4%k%JKk%%JjJ%%jJ%KljJ%%JjJkJjJjJ%%LmkKJ%%j%J%%jJj%Jk%Kj%JjJkLjj%Kk%jLj%
9638G3%kJjLkKl%KjJkMlj%KJnM%jkNNmpLQplMOo%jkkM%kkMlLnM%%JkjKKmKJjJj%%jJJkJjK
9622G3kKjJkKjJ%Jl%%%K%%kJKk%JjJjJkJ%jKjj%%J%%kJjJ%%%%%jK%j%%%%%%%j%JjJJjJkK%
9606G2%j%Jk%J%%jjLjJjJ%k%Mjk%%%%K%%kj%Kj%%%%JjJJlJ%%j%LlKjjKjJjj%JjKjj%KkJ%J
9590G2jjJJjJjJ%jKjj%%%%jJ%%J%jJj%jJ%jJjJ%jJJkJJkJ%jJ%%%J%j%JjJ%%%j%%%jKjkKJ%
9574G2jmKJjKJlNnKJ%j%kKkLjj%Jj%KkJJk%j%J%%%JkJ%J%jJ%kJ%jKkLjJkjKj%JjjJjKjJk%
9558F9KjkMjj%jK%kK%%%j%JkJjJ%%k%%JKkjKJk%K%jjJj%%jK%jjJkJJ%%%%%%Kjk%jKLkj%j%
9542F8JJ%%%j%%KjJkJjK%j%Jj%%jJ%jKlKj%%J%JjjJjJ%jJj%%J%jJJ%mK%L%k%kKj%JKjjj%J
9526G0%kJ%%kK%%%jJ%j%KjJjJ%lJJ%%JlLk%J%jJJjk%KkK%jjK%%nJKNkj%lPljlLjJjKJjkLj
9510G0j%jJJkLlJjKkKkLkj%%%KkK%jj%%Jj%jK%jJJk%J%jLJnJJ%Kk%Jk%JJ%k%j%J%J%kKjJ%
9494F9%%%%Jj%%J%lKj%%kJJ%jJj%J%%%j%%Jj%KlKjJJjKk%jJkJJ%j%JjKj%%Jj%%jJ%%%Jjj%
9478F7j%JKj%%j%Kk%%KkkKLlKj%%%kJ%%jJJkKJlJ%KlKjJ%j%JjJj%Jj%%JkKkKkJJjJ%kKkKk
9462F6J%%jKj%Jj%jJJk%J%JjjJjJkK%J%Jk%JkJJjJkJ%%%J%jjJKkJ%%j%%%%Jk%Jj%jJ%%jJ%
9446F6%JkJJ%%%%Jj%%%%JkJkKj%%%kJJJ%%%jjJJj%%J%kJJ%%%j%%J%%%JjkLjjJ%kJjJJJjJj
9430F7%jJ%%j%jJJj%%JjKmJ%jK%KlJJ%j%%j%%%%K%%%%j%%Jj%Jj%%%jKlLkK%j%%%%%%%Jjj%
9414F5J%JjjjLmLJmLj%Lj%kJ%J%jkMk%%%%JkKj%jJjJjJ%jkK%KjjJjlJL%%jJl%Lk%KjJjKkM
9398F9qNoO%JLoKjjkMKl%jJkKJ%lMk%j%%J%JjJ%jjKlLjjJJ%jJ%jJJjjKjj%jJJj%%JjkJJ%%
9382F5lLkjLkJ%%%%%jKJk%J%JjJ%j%JkjKJjKk%%jKkJJk%JjJlLJk%JjJ%j%K%%kkJJkNjjj%L
9366F7k%jJJjjK%%kK%%kJ%%%%%%%kLk%Kj%%Jj%kKj%Jj%JkK%%j%%%%j%L%jj%JkKj%%Ll%%%J
9350F5jjKjJj%jJjKjj%%%%J%%JkKjJkKjjKjKj%jJkK%%%lKjJJKkJkLmLj%JmK%j%j%K%%%%kL
9334F5kJ%j%KlL%jJmL%j%J%%jK%jJj%Jj%JjjJkK%%%jjKk%KkJjLl%Ljj%Jj%%Jjj%K%j%K%jj
9318F3%%JlJJ%%%jLjj%%JkKjjJKk%%J%jKkKlKJjmNk%%Jjj%K%jkKJj%J%jJj%%jJ%%%jKjjKj
9302F3%Jk%J%jJj%%J%jj%%JJj%%Jj%%JJ%mLKk%%J%kK%%j%%%jKjjJjJ%jJ%%KjjJj%kKKj%kJ
9286F3j%J%%jjLk%jjKJLljJjMm%JjlOoOMojK%JnKJ%j%J%%%jJ%%jjKJk%Jj%j%J%jK%%lKjJ%
9270F2JjKlJ%%%%Jk%%J%%JkKkK%%kKjKk%J%jJjJj%%Jj%Jj%J%jJ%jJKl%jJ%jJ%JkK%kjKjJ%
9254F2%jJjJkJJ%Jk%%kK%kLJ%kJ%Jj%j%%%Kj%jJ%kJJj%%J%jKk%JkK%jJ%%%j%%%%kKj%JjJJ
9238F2j%Jj%J%Jj%jkJJjJ%%jJJlK%jJj%%%J%%JkKj%%%j%jK%%jJJj%jKjjK%%jJ%kJjLk%j%k
9222E8KkLjNmKk%J%%%kLlK%kJjKjJkjJ%%JjJ%%jjJjJ%%Jj%JjjJJj%kL%j%JjJ%JlLkKjk%K%
9206F1kK%%k%JJj%Kjk%K%jJ%kK%%Jk%KlK%j%J%J%j%j%Jk%%%KkKKlKj%J%j%mKKjJKjkkLjJ%
9190F1jJjjjJ%%JjJ%jJ%jJJ%kJkJK%%j%j%KjJjj%KkJjJ%j%%jJ%%%%JJk%jKjJkK%JkJJ%kMl
9174F0Lkj%%%j%JJJmL%KkjJjKkkJJKkj%KkNnLKoJOmmoRJJ0j2rNkJ4Kmlj1KjPNljMnJMk%nN
9159F2kjKJl%J%LmKKkjkLjj%JJj%%kJJ%k%JJj%%%%%JJj%jKk%jMkJj%%%Jj%JkJJkjKjJ%%jj
9143E8KkJjJ%%%KkjJJJj%JkjJ%JkKkJjJKj%jKjlKK%lLlKk%K%kKk%%Jj%Kj%%kK%jKjjJJ%jk
9127E7JJkLjJ%jJkJ%jJ%%%%%Jk%J%jKkJkK%JJjjjJ%JjKkkLjjJ%jjJ%j%J%%J%%j%jkMjJj%J
9111E9%%%j%%%jKj%JjJk%Kk%%j%L%k%JKpNjKJmJJjKjJ%lJJLmJJ%%%j%%JJk%jNmkK%JjjLk%
9095E8%%JjjK%%jJkJjJ%JkJ%JjJkJJ%%%kJ%%jKj%jjL%j%%%%KkJJjj%jKjJlK%JkJj%%%jKkJ
9079E7J%%%jKjJjjKJJkljLJJmLlKjjJJjjJJj%JjJjJ%%Jj%%JkJ%j%JjJjJjJjJjj%JjJ%JjJk
9063E6%lM%J%%j%%J%j%jKj%J%%%%kKJjjJj%%%jjJKj%kLmLlJK%%%jJJj%Kk%%JkjL%kjKKlJJ
9046E8JllJNLj3Q%jJ%%jjK%%jLk%lM%k%Kj%jJ%J%J%j%jjJJjj%J%Jj%%j%jKjJj%%j%K%Klj%
9031E5J%J%%jjJjJ%%%KjJjJjJjJj%J%%Jl%Jj%JJkJ%jJ%jJ%%jJ%%jJ%j%Kjj%KkJKjk%JKk%j
9015E6%%%Jj%%%JkKjJk%jJJ%%%%%j%JJlLlK%Jj%%Jj%%%j%Jj%%%%K%lKlJ%Mj%k%J%jJ%%jKk
8999E5KkJJ%%jjJjJ%%jJ%kJ%JJJkjKjJk%JJjjJJ%%jjJkK%jJ%jKjJ%kjKj%KjjJJj%Jjj%JJj
8983E6%jJ%%%%Kk%kK%%%j%%J%%%jJk%KjJjJ%%J%kKj%%jjJJJk%JjJ%j%JJjj%JkjL%jjJ%kKJ
8967E6%%j%%JkMj%j%%j%JjJj%%JkJKkJ%jJjKlKJkJ%%mJKkL%%jJ%j%J%jJjJjJj%%J%j%%%j%
8951E4%K%%j%JjJ%%%kJKj%jKjJk%J%%%j%%KkjKkLk%JkJ%jJ%jJ%jJj%%%%JjJj%%j%jK%J%kK
8935E5Kj%%KklMk%J%JkkKJjKkkLlMKjojNLmKklNoMKmJJJmKJjjJ%Jk%JJj%%%%j%JJJlJjJjK
8919E5j%%%j%%j%J%Jj%jJ%kLKkjJj%jKJk%jLj%%%%jJJkJ%JjjJ%jJj%J%jJ%%%J%kKj%%jKkK
8903E5jJjJj%jKjjjJ%jMjjKmKJ%%kKkJ%jJJjj%JjjJJ%%kJ%%jLkJ%jjK%%k%%Kj%%Jj%JJj%%
8886E4%j%%Jj%%Jj%lL%jJJ%%%kJj%J%%jJ%%jJ%%JjKjj%JkjJJjJ%kLkJJj%%jjKJjKj%%%kKJ
8870E5JkjlN%klLKj%%j%K%jkLk%%JjKkJj%K%jjLlJ%%%%kJ%%j%Jj%LjkJJ%%jKjjJkJ%jKnM%
8854E3j%%%KkKj%Kjj%%JlK%KkJjJj%jJjJ%%kKj%JjJkJJjK%kJjJ%jKj%lK%JJj%JjJjjKkJ%J
8838E4jj%K%%jj%%jK%kK%%%%Jj%Jjj%J%%jJ%%%jJj%JkKjJ%j%%kLj%%jK%kJ%%Jk%KjJjJJk%
8822E2KkJ%%kJ%J%j%J%%j%JJJlJjJ%JjKlJJkKjJkJKJlJk%lMNlMnJnKkL%JjjKjkK%J%jkJ%K
8806E4kJJljKJj%%Jk%%JjJJjJkJj%%K%kK%kJJJj%%%KljJJ%jjjKjJ%Jj%j%%JJ%kJjK%jJJj%
8790E3jJkJJ%jKjJlKk%Kj%jJjjK%%%jj%JjKJj%j%KJj%lK%jjKkKjJJjJ%j%%%%jJjj%%JjKkJ
8774E1%JJj%%%%J%JkJJjjJ%%%j%J%j%%J%kJjKjj%Jj%J%%jJ%%jJjJ%%%%kJJ%jJkK%kJJj%jj
8758D9KJ%%JkJj%%JjJlL%jKj%JKnLjJkJjjjMlJj%JjJjjKJ%j%KjjJ%%jjKkjK%%%%%jjJKk%%
8742E0JjKj%%jKj%J%%%jJjkKkJJJjJkK%j%JjJjj%jJ%JkJjK%%%%JJlLk%Jj%%J%jJjJ%%jJjj
8726E0J%JjJjkLl%Lj%JJlKJlJ%%%jJjJ%jJJlK%j%JJjjLlKjkKJjJ%j%j%%JjJJ%k%JjJ%%J%j
8710E1Jj%J%%kKJk%jJj%j%J%jKj%JkK%%%JkJj%%jjJJj%JjKk%J%lMlKjJJ%j%%JmQoKkjKKjK
8694E3lPj7J2Pj3OjkjLjJ%%%lMlJKJnJ%%jJ%KlKKkjJJlKjkLj%%K%%jjLj%%%JlK%%%%%k%%%
8679D9KkJj%KjjJ%jJJjlLjKjjJjJJ%jJjJlJJJ%jKkJ%j%jJjJJjJj%%jjJKj%%JjjKmMJkjJ%j
8663D9JJ%jJjjjJJjK%kjJ%%%JkJ%J%%jJ%j%jJjJ%%jJ%jKj%J%%k%JjKkLkJ%Jk%Jj%J%j%%Jj
8647D9Jj%%%jKkJj%J%JjJk%Jj%J%%J%j%%%JJjjKk%jJKk%%j%%nM%LlKj%%JJkLkJ%%J%jjjKj
8631D9J%kKjjJ%%jKjlKjKjKj%JjjJ%jK%kKjJJj%%%jJj%%%%%kK%j%%J%%%Jj%%Jj%%jJJJjjJ
8615E0%%j%%jJ%%%j%%J%j%JkLkJ%%JkKj%%J%%j%kJ%%JkJ%%jKJkJjJj%J%JjjLjj%%%%j%Kjk
8599D7KkK%jjKkKjjJjJJ%%%kKJlJ%%Jj%%%Jk%L%%lKk%JJj%Jj%jJ%j%%%Jj%%J%%JkJkMjjjJ
8583D8%Jj%%%JJjlJ%KkjK%%kJLmLmKjkLLkLjjjkK%%kJ%%%Ml%kK%k%JJjJJjjJ%%%KkjJ%Jjj
8567D7Kk%J%jJJjjJ%%jKjJlK%KjjJ%jjJ%%J%%j%jJJkKjjJjJ%%%jJjJ%Jj%jKk%%%Jj%Jj%%%
8551D7J%jJ%j%%JkJNm%%kLjjLjj%%%%%%J%j%%%%%%jJ%Jj%Kj%kJ%%%%kJJ%jJj%jJ%K%jj%%j
8535D6JjKkL%KkjjJJ%jJj%J%Jjj%%%%%Jj%jKj%J%%jj%j%%jKj%KjjjK%kJ%KkjLjkKJJmJJmN
8519D8kKmNkkKJj%kKJ%%j%%jJKj%%%jjJ%%j%JjjK%jjKJj%%j%%JJk%Kj%jJ%%J%jkKjKjkLjj
8503D6jJJj%%%JjJj%%J%j%%%JkJ%%Jj%K%%kJjLj%jj%J%%JjJk%Jj%J%%%jkLj%%J%kKjJjKjj
8487D6JjJ%%Jk%jJ%%%J%kKjJ%KkjjJJjjJJj%JjJ%%JkLl%%jK%kJ%J%JjjJjJJ%%jJj%jK%k%L
8471D9kJk%KkJjJjjKJ%jkMjjjJJkKkJ%K%kjKjJ%JjKmLk%KnNm%%%PlnKLnKJlNkkKjJjJ%%jJ
8455D7jJ%jK%jjJJmJJJjJ%%%jJjjJjLj%j%JJj%%%%jJjjLl%%jLj%%%%%%%Jk%KjJjjKj%Kl%%
8439D5%KjJkJ%jjJKjKlJ%J%jjJ%%%%%%j%jKlJJJkJK%kJkJ%JjJkJjJJjJjK%%%kJkJJj%%%Kj
8423D6%jJ%%%J%%jJjjJj%JjJj%JjJ%%jj%K%%JkJ%%%%%%j%LkJjjJJj%%Jj%kJJjJ%j%%%%%Jj
8407D5Jj%J%Jk%%%%%%%JkLlJ%%Jjk%KJjJj%%%Jj%J%k%JjJJj%jKjjJ%%%kLjJjJkK%kJ%jJjJ
8391D5%J%j%%%%J%Jj%%%j%JjKlJ%jJj%%J%%%Jj%%%jKj%%J%%j%jKj%JjjJ%%%jJjjJ%%%%KkJ
8374D5%jJj%%%%KjjKlLkKj%%JkKkJ%jJkJ%J%jJ%%jJ%%j%%JjKkKjJjJkJ%J%j%J%%jJj%jK%j
8358D5jKj%lLjJJkJJk%JjJ%%%%KlJKjjjJJj%jJjjJKjjK%jJj%%JjJ%Jk%%%%JmLjJJl%K%%jM
8342D8lnOJmJJkjKjJkJ%KjjKj%%%Jj%J%jjKkKjJjj%jK%%J%j%%KkJjJj%%J%j%JJ%lKjkKJj%
8326D4%%JjJjJjJ%JjKmKj%Jj%Jjj%JkLk%Jj%KkKj%jJ%%jJ%J%JmMkJ%k%LjmJjjMkK%Jk%JJ%
8310D5%%%%%jJ%k%J%%kJjJjKkJ%KjJjJjJlK%j%Ljj%Jjk%J%%jMj%lK%j%JJ%jJJ%jJkJjJj%J
8294D5Jk%%%jJj%JjJjKlK%jJ%JjjJ%%J%jKk%jJ%JjjJkJLl%%%KkLk%%kLkJ%jJkKj%%%Kj%%%
8278D4%jJJ%kkK%jJ%%JjJ%j%KkJkJJkJ%JjjJ%%Kjj%LkkJ%%JjJjJ%%%j%Kj%J%JjjjJ%%%k%J
8262D3%%j%JjJjJ%%jJ%JjJjjJ%%KjkJ%%kJJ%k%K%Jj%%jLjjJjkKkKjK%jjJJjjKjjJJj%%jJ%
8246D3%%%Jj%JjjKkJkJJj%KjjJ%jJkJ%JjJJlJJ%%j%J%Kj%%kMkJ%jj%jLlJ%lMkJ%j%J%jKmL
8230D3kMmKoQpMLpNPmnNj0jJ1j5K1j2j1L1j5jjPmmKK%MokKl%j%%PnkM%kJ%LlLklJKlMJlkJ
8216D2KlKj%LJoJJ%%jKjJjjJ%JjKkJlNkj%%Jj%%L%j%jjKj%J%kJ%j%J%Jj%JkJj%%%Jj%Kj%j
8200D2%%Jj%JKkKJnLkj%KjlMKpOkjK%kjKkJ%%J%jK%jJ%%jK%ljJ%JkKJk%J%%JjjJ%%J%j%%%
8184D2jKj%Jj%JkKjKk%jJjjJJkJ%jKjJ%%KlJjLjj%Jk%Kj%j%K%kJ%%j%%Jj%JkJjKkKj%%jKJ
8168D3kJ%%KmJJOqKJlK%%J%jj%J%Kk%jJJ%j%Jj%%J%%kKjkKj%JjJjjKkJ%%KkJ%Jjj%JJ%lL%
8152D3JkjLlKjJkJ%jJj%%j%J%%%Kj%jJj%jK%%KmK%%jK%lKJj%%Jjj%JkJJJkLkjKj%k%K%jJ%
8136D2%Jjj%%%J%j%%JkJJ%jJ%jJ%jKkJ%j%Kj%%%Jj%%%jkLjJ%j%%%J%Jj%%jJjMmjLjjJ%%%j
8120D1J%JjJ%%jKlJKjj%%%%%JkJ%%%%%jJ%%%j%%KkJjjJJjJ%%kKJmMkMnL%lKMllKkKJ%jLlJ
8104D3kKJjjJ%k%%JKmKKk%%Jjj%Kj%%jJkJJj%%%J%jjKj%Jj%jJ%%%jJ%j%Lj%jjKj%j%JjKkj
8088C9J%%%jK%j%JjJjj%K%j%%JjjKlKjLjjKjjJjJkKjjJjjMk%%J%%jJjJjJkKjJj%JJjJjjKk
8072D0%Jj%KkJ%JjJ%jjJK%j%jKk%jJ%jJJjJj%%JJkjJjJjjJJkKJkJ%J%k%J%%jJJjJ%j%%%%%
8056D1%%kJ%JJjjKkKjJJnJKjjJJk%JMmLmJjKoN%Jj%J%%jjK%%%jJ%%jJ%j%jKk%%JjjJ%%%jK
8040D0kJJJjJjJ%j%KlJ%Jjj%Kk%%MkjjJJ%%j%%jJ%Jj%%%j%%J%j%J%J%JJk%jJ%%%jJ%jJ%%%
8024D1%%j%%%J%%%kJKjmKJ%%KlKj%Kkj%J%j%Jj%%%J%jJJjj%%KkJJj%%%%j%Kk%%KlK%%JjJ%
8008D1kJjJ%%kK%%JkKj%%%%J%k%J%j%Kk%J%%%Jj%%jJjjJJkK%%k%JJk%JkKJ%%Kj%j%%KmKkj
7992C7Rjj5LOjKJjkJK%jkL%jk%KjJj%J%j%Jj%%Jj%JJmKJj%jJJj%jK%j%%%jJJJlJ%jJkKJkj
7976C7Ml%jL%%%jjKk%jKjJj%%J%%%Jj%%%jKlLj%jK%j%J%%jJ%k%KjKk%J%jJkJJk%jLkMmJJk
7960C8JkJJ%JJkJ%JlJJjJjjJ%jJJjjLj%Jj%jK%%jKkJj%J%j%jK%%jj%JJjKkKkJk%KjjKj%%J
7944D1%%%jkK%%jJ%j%%%Kj%Jl%K%%%J%jjKjjjKjjJJkjJJlLjLjmMkkKLjkJ%J%%%%jJ%J%lJJ
7928D0kJJjj%J%%kK%%J%j%j%jKjKj%%j%%%%J%%%j%KjjKjjjMj%%jJjjJJj%%jJ%%K%j%Jj%jJ
7912D0JkJ%k%%%KkKkKjKkLlJjKj%kJJ%j%%kK%JjKjJ%mKJjKj%j%Kj%%k%J%jjJjKjJ%%%%%%j
7896C8%JjJJ%kK%j%%%jJkJ%%%%%%jJjKjJjKl%%Kj%J%jjKjjKkKJkJ%jKkJjKj%%JkJ%lKkJK%
7880C9%%jJJk%%J%%j%%Jj%jJ%jL%JkKnLmOljNklLlKj%%jKKjj%Jj%kJKjJlK%kJKj%kKj%%%j
7864C7Kj%%%%%jJ%jKj%%jKJlJjKjKk%JjJ%%j%%jJ%JjjJ%%J%j%Jjj%Ljjj%%%%Jj%%%%%jL%%
7848C9lJKj%%J%jKlJjJKkLnMk%K%kjKkJ%JJ%kKkJ%%%%jJj%%%j%J%%jKj%Jk%JjJ%J%jjJJ%%
7832C9%%jkLjKj%kJ%JjjJ%Jjj%JjKkJkJJJjkLkJ%jJJj%%kJJjKkKj%JjJj%jjLjj%LlLjjJ%j
7816C8kJkPn%L%k%jKjJ%%%%%k%%JJjJkJ%%jJj%%%JJjjJjKjjJ%%J%jKlJ%KlKjJJkJ%j%%%%J
7800C9%jJ%%%J%j%jJ%%%%jj%JJk%Jj%J%Jk%Kk%JJj%%%jJJ%j%%%jJ%jjKjKkJ%JkJ%kJkL%Jk
7784C7Kj%jJ%JjJjj%J%J%j%%kLkJ%JkJjJjJ%j%%%J%J%jj%%kJJJlJJ%j%Jjj%K%%jJJJkjJjj
7768C5K%%jKjJj%Kk%%jjJ%%Ml%%kK%J%lMKn%J%JlNlJoQJnNkmjMljKOk%JpJMlKJJnJ%KkJKk
7752C7Kj%jJ%%k%KkJJj%jKj%jJlLkJJjKjjJ%jKj%%J%%kNmJKlJJkjJjJ%j%%JjJ%%JkJJjK%k
7736C7jjKKlJ%jK%J%k%JJlKkJjKjJkJ%%%%JJk%KJjmM%mK%JjJjJkKkKjjKj%JjJkJ%%%JJk%k
7720C5LjKjk%J%%Jj%%%KlJJj%jK%jjJ%JjKl%kKJJj%%JjJkKj%%%jJ%Kj%%%j%%J%j%%J%jJj%
7704C7j%jJJ%JkJjjJ%%J%%jJLnKkLkK%%Jl%Ll%KkKjKjjkL%jjKj%%%Jj%%jKkLlJJj%%%%%j%
7688C6%J%kKJkjJ%%kK%JjjLk%JkJJjJ%%j%%%jJ%%J%jjJjK%%%jKk%%%KjjJj%JjJj%%%%%jJ%
7672C6jjJKlKJkJkKjK%L%mJj%KJk%jKjjjKk%J%j%Jj%%KjJkKjjJJj%%J%kJJj%J%jJj%%JkKk
7656C5KkJ%JlJJJj%JjjKjJkKjJj%%JjJkLk%JkJ%Jj%jJ%%J%%Kjk%%jJJj%Ll%jK%j%%KkK%lK
7640C7Qj2OmNoKJKmjJjKjKj%J%j%Jj%J%%jjJkKjJjj%%%%JJjjK%%jJ%%%j%KjjKkK%j%Kjk%%
7624C5Jjj%J%%jK%kJjJ%J%%jJJjj%JKmKJj%jJJj%%%jJjKjJJk%%%J%jJk%J%%mMjjLkjJJjLm
7608C4JJ%jJj%J%J%jjJ%%%J%jjKJkJ%j%%KjkKkJjjKjjK%j%JjjJ%%%lLJj%KJkj%%J%JJkJk%
7592C5JjKj%%%%%jJj%%jJJkK%%j%j%JJ%%jJjjLkJ%%%jJ%jKjNlnKlOjKl%Jk%KmK%%%jLjk%L
7576C7jj%J%k%Kjj%J%%J%%%jj%K%%jJjjJ%jJ%KlKkLjkjLj%jJ%jJJkJ%%%%J%j%%jJ%jKjJk%
7560C4Jj%J%kLkKj%%%%%%jKjJkJJjjK%jJjJjJJJjjJJjJ%l%%%%Kj%%J%kJjJJ%jJj%%J%jk%K
7544C6%%%jKkJ%jKj%k%%%KkJjJ%%JjjJkKjJ%K%j%%%jj%K%kKjJj%jJjJkJ%Kk%%J%jJjKJjkJ
7528C5j%%KjKlKmLKl%J%KjKjN%mnOnPjnljPnLjKlJ%jJ%jKj%%jJ%%%jJ%jKlKKl%%%KkJJj%j
7512C4%J%Kk%jKjJjJj%J%%jJ%jj%J%%%jJ%%jKjkKjj%%KjJ%%%%%J%lLj%%k%LlKj%J%JjJ%j%
7496C5JjkJ%KmKjJKmL%kKkJJKk%kJK%%JlJ%jJ%jJJ%%%jJkLkK%kJj%KjJkj%JjJ%%j%%J%jjJ
7480C4%kK%KkJ%%Kjj%jJj%j%jKj%%%J%%%%jK%jJ%jj%Jj%%jLkKjJ%j%Jk%J%%%%jj%M%jJnLJ
7464C5%%kJK%kJJkJkJjJj%K%kKj%JkLjj%%%j%J%kJ%JJj%J%kLkJ%j%JjKjJkJkJjJJjjJJkK%
7448C5%J%j%Kk%Kjj%J%%jKjjkJJjJ%jJjj%%%%J%jJJkJ%Jj%%KjjJ%jJ%jKk%L%m%jNmKJk%%J
7431C5Jj%%kKjJ%%jJkJ%%%%jLj%jJkKjJ%j%%JkJ%jJJj%j%%KjjKkJkKjKj%Jk%%JJk%J%%JkJ
7415C4%J%jKjkJJjjjKk%LjjKjj%JjKj%%%KjjjLljMmOlmNl%KjKoNjjK%k%JjKk%Kk%jJ%JjJJ
7399C5JkjJjJjJ%jJjJj%J%j%J%jJjJ%j%JJj%%%JlK%J%JlJ%jJJjJjJkjK%J%kJ%jJ%%JkJJ%j
7383C4J%JlJ%%J%%jj%JjJ%%Jj%J%%JkJj%jJ%K%l%%K%%j%%jJJk%%JjjJKkJ%JjkJKkJk%JlKK
7367C4jjJ%%%jKkJ%%j%J%%%j%Kj%jJ%%kLk%Lk%J%%j%JjjJjLlKkJ%jjLjJ%j%J%kJ%kMkJJj%
7351C4jJJj%%jJ%jJjj%%KjMkkkKJlK%%%Kj%%%Jj%jKJkJj%jJ%JjJj%%JjJjk%JjJ%j%%J%%%%
7335C3%jKj%%%J%kKjLmLkJkJ%%%%%JkJ%K%jJ%jJkJjJj%jJ%jKjjjLjJJj%%j%JjJj%J%k%JKj
7319C4%Kk%jjJ%JJkKkkK%JkJ%jK%j%Jj%jKj%JJ%%kJj%%%%%%JkJ%JkK%JkJJkJjJ%jJjkKJj%
7303C3JJ%kj%%jJJ%jJJlKJjjJjJjJK%kJkJJkJkjKJ%JJjjkL%%kjJjJjkKJ%JJOpnjNLj9J4oJ6
7288D0j6Kj2K8j7NMlmQnOmKJl%JKj%kjNjjkJJjJjMkjkKkjLjJlKJk%K%j%%JkLkJ%kLk%JjjJ
7273C3%%%%J%%jKjk%KmLj%J%kK%Jj%jJkK%J%jjjKjJj%%jJ%%JjJkJ%%J%%j%LJm%KkKk%Kk%%
7257C2%%%JjjJKlKJkKjJj%%%%%%JjjJj%JjJ%jJ%jJkJ%K%jJ%kJ%JjjJjKjK%k%Kjj%K%kj%J%
7241C3jKjj%%%%%J%j%%J%j%KkjK%%%jJ%jJj%%%%Jj%JJjJk%%JJj%jjJkkK%kLjMmJJ%%j%Kj%
7225C2JJjj%jJJkJ%j%JjKlJJ%Kk%JjkJjLk%JJlKj%%%J%jK%kjJ%j%%K%kJJJlKjKjjJ%jJJ%%
7209C3jJ%J%jKl%%%jJjJ%j%J%%jKjkLk%%%%%MkkLkJ%Kl%kLj%%jJkKjKkKkJJJkjJ%%j%KkJj
7193C1JjjJ%%%JjJJ%%jJkKjJ%%jJjjKJj%%jjjKjKj%jJ%%%%JjkJJjJ%%JjjJJj%%JJlJ%JjJj
7177C2%%Jjj%JjKkjKJkK%jjKjjJmMMpNkM%oJ%KJkJKnK%%jJ%%jJjK%kJj%K%jjJj%%%J%%j%J
7160C2j%J%%%%jJ%jJk%J%J%j%Jj%%Jj%J%j%J%%%j%J%jJJk%%%%J%jK%Jk%JkJJj%%jJ%J%%jJ
7144C3%kKlKkJJjj%L%JkkKJjjJ%%jK%jJ%kKj%%JjJkJjKjJjJ%%jjJJ%j%%%j%%JjJj%%%KkJj
7128C1jJ%Kj%jJ%jKJkjJ%kJjJkLj%%jKj%%%%%%%J%j%jJJj%J%%j%%%J%jjKlMjkK%JlK%j%Km
7112B9jOnLmL%j%J%jK%jKJkJj%jJkKJkJ%%%jj%%LlKj%Jj%J%%Jjj%%JjK%j%%jJjJkK%%%j%%
7096C1%%%K%kJlK%J%jJkJJj%jJ%Jj%jKJ%lJjKlKjJj%J%%JjJj%jKj%%j%JJkKJjj%%jJkLkKj
7080C1J%jjJjKkJJjJ%%jKj%%KlJkLj%j%%J%%%%kJjJ%j%J%j%JJkK%jjjKJj%KlKjKlJ%%%%%%
7064C1%J%%%%j%JjJ%jlMJk%J%%k%%JJkKjjJ%jNnJJ%ljO%kjjMKpkMpPJ%kjK%%%kLmMk%Ljj%
7048C1%%%jKJlJ%j%Kj%kLjjKlJ%JjjJ%%J%%%%Jj%%KkJ%%%jJj%%%%KlKkK%j%J%%j%J%%Jk%j
7032C0KkJjJKk%j%%%%Jj%J%kJ%KkJj%JjjJJ%%kKJkLkkJJj%K%jj%%%%J%J%jkK%%jJkJ%jKkJ
7016C0Jj%jKj%JJk%jKkK%JjJj%jJ%JjJ%JjkLJk%kK%kJJlK%%jJj%J%%%%jJ%JJ%kJkMl%jKj%
7000C1%%%j%JJkJ%%%kJ%%J%%JJ%%jJlLklJLk%%J%%j%JJjjKkKj%JkJ%jJJjJ%jjLj%%%j%JjJ
6984C2%j%JkJ%JJkKk%%jJ%JjKkjJj%K%%kJ%%Jk%JkJ%J%%JkjJ%J%jjKkJ%J%%%j%Kj%J%jjj%
6968B9J%jJjj%%Kj%Lj%kJ%J%kJjJ%%%JjjJ%jKjjJ%JjKkJjJJj%jJ%jJjJ%%j%J%%j%%JjKjj%
6952C0JkK%%jjLjjJjjKj%J%%%%Jk%JjJ%%%%%kJj%%J%%jJ%JjKjjJj%KmJJ%jJ%%JJkkjLkmN%
6936B9k%OnKjLkJKlJ%JmKJlJJ%%%%J%j%jKjj%Kjj%%%jJj%K%jJj%%%%JJj%jJ%%Kl%JjK%k%J
6920C0%jJ%%Kk%jJj%JJjJjJjj%%%KkKJjjkJJjKkKjjLjjJjjJ%%kKkJ%jJkLkLKnjJJkLjjJJ%
6904C0JkKj%kKjJ%%%J%Jk%%Kk%kK%%jKkKk%%%J%%%jKj%%jJ%%%jK%kJJlJKj%Jk%%Kj%JlKjJ
6888C0jJ%j%%J%jJjj%LjkKj%Kk%%JkKjJ%j%%%JkLJkJ%k%%MlLoJK%jKk%%j%J%jKkJjJ%jJJj
6872B9J%KjjJj%%jLlJ%Jj%jJ%jj%J%jJ%%JjJJkJJ%jjKjkMkJj%%%j%%%%%Jk%JkK%%JjJJj%%
6856C0%j%%J%j%%Kk%Jj%%jK%j%Kjk%%jJK%kKJlMlKlLjJjJjJj%%%%JjJjk%J%J%jJkKkKj%%%
6840B9%%jJjKkJJjjJ%jJjJjJ%%kLkJ%Kjk%JJk%JJj%%K%j%j%Jj%jJ%J%j%jJ%%k%JJ%jJ%kJ%
6824B8JjLkjjKKlJNnkNpLkJmOjK1k1jKjLlNjjkkMj%%kLjJj%kKjJkLjjJJjKl%jJ%J%%Jj%%j
6808B9Kj%%kJjjK%JkJJjjJ%jLk%j%JkLj%lL%%%JjJj%%%Jj%%jJjJJjj%J%kKJjJkJ%kJJJjjJ
6792B9%Kj%jJjjKkJ%%jKJjkKJ%%kJ%j%%%kK%%J%jJj%%j%J%%%JkKjjJ%Jj%%%%Jj%%%Jj%%Jj
6776B9%%%lL%%%%jK%jJjJj%%JjJkJJkJjJJjJlJJ%kJJJj%j%jKkLl%JJkK%%jJkKjJ%%jjJjNk
6760C0mMlJ%jJKkjKjJj%Jj%J%j%%%%%%%%JkK%jjKjJ%Jj%j%%KjjKjj%%J%Jj%%jJ%%%JmKJjJ
6744B9%%jJ%%%%%kKjJjJjK%jJj%JjJ%j%JkKJj%JjJkJj%%jJkK%j%%%%jKlKLkJjJlLkK%j%%J
6728C0Jk%%%%J%%j%J%j%J%%jJjj%%J%%%j%jJJ%J%lLj%%%%%%j%K%jkK%%lLJlK%kJ%%%%JkJJ
6712B9%%%jJk%J%%jJ%%j%KjJjJjJjJJJjjJ%jKk%JjkJJ%nKjOj%%l%lOkkLlMkJkjKjJKkjKj%
6696B8J%jjKkJ%JkK%%%Jj%jJ%j%Jj%jJ%jK%%jJ%JlLl%MkkKkJJ%jJJ%j%Jj%j%Jj%JkJJjJjj
6680B7KkJ%kKJkJj%J%JjJj%kK%Jj%%kKj%Kj%j%L%%kJlKJ%jKjjKkJKkjJJkJJj%jJ%j%Kj%kK
6664B9jJ%jJjjJ%JkJ%%%%jJ%JjJkJ%jJJ%%jJJ%k%Jj%KjjKk%jJ%JjJj%%%%JjjJJjJ%j%jJ%%
6648B8J%%jJ%jJj%JjjLk%%MnlLMk%JJ%j%%jJj%jJ%k%J%%%jJ%jJ%JjJjJj%%%JkJKkjJ%%%%%
6632B8jJ%%%jJjJ%%%%%JkKk%jJK%jJj%%jJJkJ%jjJJjJ%%j%%jLlLlJJ%kLjJj%%JkKjJJlKj%
6616B8Jj%JJkJkKjjK%kKkKjJ%%%j%%j%JJ%jjLkJJjkLkJjJj%%%j%J%%Jj%jJJj%%JkJ%%Kjjk
6600B6L%%%lJLkjjKj%JJlKjjJJ%J%%j%J%kJJjjJJjJk%JJ%kJ%%jjKJJkJJkJkKk%lO%kjLKj4
6584A8J1oQmkJMmOnJKjj%JkJjLkkKkJ%jL%kjJ%KlK%Jj%Jk%JjJjJjKjJlKj%KkJ%kKj%%%K%j
6569B8j%J%jJjJ%%J%jJ%%%%kK%J%kjKjKk%K%jj%jJ%Jj%j%%JkKjjjKj%J%KkJ%kL%k%JjKkJ%
6553B8JkJjJkLkjKjjJ%Jj%JjJjjKjJ%jK%jjKJ%kJjJ%%%Jjj%JjJkLlK%j%jJj%J%kJ%Jj%%%%
6537B7JkJJj%%JkJjjKJ%kJJjJjJjJjjJ%%jJjKJk%%JjLlKlJJ%KjJj%jj%jK%%%KlJ%j%%JJj%
6521B8%%jJj%JjjJKjjjJ%%jJ%%jJkK%%%J%%%j%J%%mLJjJjJ%kJ%%%Jj%J%jJ%jjKjjKjKjjJk
6505B6J%Jj%%%%J%jJ%%J%kJ%j%J%%jjJ%%%KjkMl%JjJJj%%j%J%j%JkLlJJJjJjj%Jj%LlJk%K
6488B8kJ%%J%jKjkJJjJ%jJ%jJjjJJkJJJlKj%%JjJjJ%Jkj%jJJj%JjjJ%%J%jJjjLlK%%%%%%J
6472B8kK%kJjKlJKJkKlKlJ%J%LpOjjnPpM%Kj%%lLJk%K%kJ%%%%%%jJ%JJj%j%%j%JjKk%JjJj
6456B6JJJlJ%%jKjJj%%%%lKKlJJJ%j%J%%%jJjjKjJjJJ%kJjKkK%%kKj%j%%%%jJ%jjLk%KjJj
6440B7%%%%%JkLjJj%lK%jKjkJJJkJjJlKkLj%j%JJkK%%%%%jKkJj%%JjJ%Jj%%%jJJ%kJj%JJJ
6424B9kjjLkJJkLkJkJJ%%%KjjJj%jJ%jJjj%J%%jK%j%jJjJkLjj%J%jKj%kJjJ%%Jj%J%JJjkL
6408B9mJKj%%%%%%J%lKJjjJ%%JkJjJ%kKjJ%j%J%%%kJ%JkJKj%j%kJJJjJjJj%Ll%jlL%KjJjj
6392B5LkjJ%%%J%%%Jk%jK%j%JjJjJj%jJKlLlKJlK%jJjLkJ%j%jJ%%JlK%%k%LkJ%%JkKl%Lj%
6376B7Jk%JjJlLj%jLkJjJJj%J%j%JKljK%lK%J%jLlJlLJkJj%jKj%KJnJMmJk%LjJmLkKmNmLn
6360B2OlKjJ%kkjjKKLJlKJnLnMmRLj5PJ0j1JOoMoJ9k3J3nkKj7OqJ1K1n2N2j3j0K0k3J1Kjj0
6348A7QoOnNNMqkkOjKn%L%KoPmpNJKjkPjpJK%LmK%j%J%kKj%kM%k%%jLlKJl%%LJmJMmjKj%j
6332B5LjLkJjjlKjLnLJlL%jKjkKjjJJJjj%J%lLj%%%jLkj%JjJ%%%j%J%%Kkj%J%Kk%jLj%jkK
6316B6j%jKJk%jLk%J%Kjj%%%jJJjJjjLlJ%JkJ%jJlKJJj%%%KjkKjkKjJ%%JjjKjJjJ%%jjKJk
6300B6%JJjlM%l%K%k%J%j%%Jj%KlLjJjj%%M%nj%Lj%LjkL%kJJkJ%%jj%JJ%jJJkJ%%%jJJlJj
6284B5K%j%Jj%J%%%%%%jJ%%j%jJ%%%jK%j%%J%%%kK%jJ%j%%%%%%JjjJ%%jJjKJkJkKjJkK%jj
6268B5K%%k%%JjJ%%%jK%%k%kKkLJlJ%%jL%j%j%JJj%Jj%JjJj%J%%j%J%jJkLjjjJj%%JkKj%j
6252B4%J%%JkKjJjKj%jK%%Kk%lJJ%%%J%jjKj%jJjKj%jLkkKJkKJjKmKj%JjJJlKJkJ%jK%Km%
6236B6%%jKkJnMoO%kKkMLm%jMlJjJ%%%Jkj%Kjj%Kj%kJJ%kKJk%KjjKj%%jJJjjKkJkKj%%JjJ
6220B6JjJjKk%JjjJkKJ%k%%jJ%JjJj%JjjKj%%%JjJ%JlJJ%kKJk%%%Kj%%%jJKj%%j%KmKKlLm
6204B4Lk%%Jk%jLj%jKkLjJj%%%Jj%J%%jjKjjKj%Jjj%Jj%J%%jKkKk%J%j%JjjKlJkL%JjkLj%
6188B5%KkJ%jKjJj%jJJlJ%J%%jJ%%j%kKJ%jJjKlJJ%jJJjj%K%%%%j%jKJpNlMJ%jKjk%jJjKk
6172B5%%JJmMj%%jJ%j%JJ%kJ%j%J%kjKkJ%%%%JjJ%%%%JkJ%Jj%KjkJJ%JJjjJjJjJj%JjjJJj
6156B6%%%%JjjJ%%Jk%jKj%jLkJjJ%jJk%JjKj%%j%KjkLjkKjKLmLjlK%Kj%%%kJjJ%j%JJk%J%
6140B6jJj%%%KlKjJjjJJ%kKjJjJ%%j%jKjJj%J%%j%KkKkKjj%%%Jj%JjJjJ%Jj%J%jjJjjJJk%
6124B4J%%j%%JkK%%JlKjjLkJJkKjjjKKm%OlLknmJ4pLlKkJk%%JjKnNl%LkjLkjLkJj%%%%Jj%
6108B4%%J%%jJjJJjjJ%Kk%%JjJ%%%jJkKjjJjJkJ%j%%%J%J%j%Jj%J%jKkJ%jJJ%%jJ%jJJj%%
6092B6JkJj%%Jj%JJ%%jJ%j%kK%KoM%%lJKJk%JjKj%j%%%JkJ%jK%kK%%%jJJJmJjJ%Jj%%%Jj%
6076B5j%JjJ%jJ%j%%J%jJ%%j%J%%Jj%%%Jk%JJ%jKk%JkJ%%JkJ%%j%%jJJ%J%%%%Jk%Jj%J%lL
6060B6lJjKjjJKJmjPo%KKkjKjj%JJj%%Jk%K%jj%%JjJjj%K%%%%jJkJ%%%%J%%Jk%JJj%kJKj%
6044B5kJ%jKkJ%jJ%%JjJj%JkJ%%%JkKkKkK%%j%%%JJ%j%%%%j%J%JjJj%j%JJj%Kj%%jj%KmMl
6028B3JJ%jKlKj%Jj%Jj%K%j%%%jJ%jJj%JjJJkKjjKjj%%JjJjKjK%jjJj%jLlL%jkKjkKKlKj%
6012B5%%%JlK%%%%jJjJkJJ%jJJj%%KkjJJkJjJj%JkjJ%Lk%kKLl%%jJKkKlJ%KlJLoMkjJKlKl
5996B1KlNk%KkjKjJ%J%JkLk%%Klj%JjJjJ%%J%%%jJj%J%%%%%jKkJk%jJjJJ%%JkK%jJ%%jJj%
5980B4J%Jk%%%%%%%JjJ%%j%J%kK%%kJ%KlJ%JjjJKk%%KkkKjK%%%kJJkJjjLj%J%kKj%%JJjjK
5964B6j%Kk%LlJj%%kJJ%%jJJjjJ%%J%jJ%jjJKkJKlJk%J%%J%kJ%Jj%%j%%%%%%%jKjJ%%KlJ%
5948B5Jjj%jKj%JjJ%jJjkLj%%JkKjjKj%kKLnOo%J%J%jjKjK%jKkjKj%Jj%Jj%%J%kJjLj%%k%
5932B3K%j%J%j%JJk%%JJkJ%%j%%KjjKkkLjJj%J%kJjJj%%kK%J%%%%%%jK%j%j%kK%jJ%jL%j%
5916B4J%j%%JjJ%j%%%J%JjkLl%JKkKlKj%%J%jjK%jKkJ%JkKjj%JKkkKjJJj%%J%kJJkJJ%k%L
5900B7kj%J%jJjJjK%lK%j%%KkkJKjKkJ%jKj%j%jJ%Jk%J%%jJJj%jKkJ%kKkLlJJ%lLk%JMmLl
5884B3JjMknlLjkQmJ%MlKKlJnMKkjJKlLkkLlK%jJ%JjkjK%Jj%J%%%kJJJjKlJjJ%%jJjJ%Kjj
5868B4%%Jj%j%J%%%j%J%jKj%Jj%J%%%%%JkJ%Kk%%kK%%j%KjjJ%%JkKkjKj%J%jJJkLkkJ%JjK
5852B6Jk%jJ%Jk%j%JjJJk%J%JkLkKlK%%kjJ%%J%kK%%j%J%J%jKk%JjJjJ%%%jJ%%j%jJ%KkjJ
5835B4%JjJ%%%%%jJjKjj%jjK%jJ%%%%j%JjKk%%JjJJjJkJkK%j%J%Jj%LknOj%KjlJjKkJjJj%
5819B3Kjj%%Jj%JjKlJK%kJJjjJKk%%j%JjJjKj%%%Kk%%Jj%jjLkJjJ%mM%jJ%%%%j%%KmJJ%%%
5803B3%%%JjJj%%J%Jk%J%j%%%%%JjJjJ%j%%jJJjJ%Km%Mk%j%K%kJj%%Jj%jK%%%%JkJKjkJjJ
5787B4j%%%%Jj%K%jjJj%JjJJj%j%JkJJ%jJ%jJKj%kJkJKkK%Jk%J%%%%kJJj%%%J%jJjjJJkJK
5771B6lJ%%%%jKkKJkjjKkKjKkK%%l%%QqOoLkj%J%jjK%LkJjJj%Jj%KlJj%%%jK%j%lKJ%Jj%j
5755B2K%%j%KlJ%%Jj%%J%j%jKkJ%jJk%JJj%%KkJ%%%kK%jJ%%%%J%jJ%jJkKJlK%j%jK%%j%%J
5739B4kK%%%%jJ%j%%%jJ%kK%%%kKLlK%%k%jJ%Jj%%%jJ%%KkJjJJ%kLm%K%j%%J%%jJJj%Jj%j
5723B3J%j%j%JJjK%lJLk%j%JJk%Jk%J%jJJ%%JkJ%jjKj%%JkJJ%jJjJjJkKkKjJ%%%j%JJ%k%j
5707B2%LljPjkjkJ%kNjkKlJjJjJjJJjj%J%%%J%%j%Kjj%%%%J%j%%jJJ%%%%j%JJjJj%j%JJjj
5691B3%jJjJJjJ%j%%jKj%%%jJ%%%%%%%%%Jjj%KjkLkKjKkJjJjj%%%LlJ%JjjJJk%KkLJ%mkLk
5675B1JJJ%k%K%j%K%%kJ%jKjjJkL%lK%%jjLk%%%%%jJ%j%JJk%KkJ%%%%jKk%%KjJjJ%jJkJ%%
5659B3%%JjJkKkK%JjjJJkKk%%J%JjjJjK%kK%jj%%%%kK%kJ%%J%JLlkJ%nM%LlKKjlNmjJjJKk
5643B3K%l%LjjjJjKk%JJjjJJkJjJj%%j%Kj%JjKj%%%%%JkJkKjL%lJ%jKkKk%J%%%%Kk%%j%Kj
5627B3J%kKjjJ%Jjj%JJkJ%J%%%%jJ%jKj%%%j%%jLkjLmMkJ%JjlJ%jJ%JjjJkKjK%jJ%jKjJkJ
5611B3jjK%%%jjJJkKjjKk%%%JJkK%j%%J%%%jJjkK%KkjKj%%%%%%Jj%%JjKkJ%jJJkJjK%%j%%
5595B3%%%Jj%%Jj%%j%JJkJJj%%KjjjjjMjnMJ%jLk%Kl%Ljj%KlJjLjjJ%j%%jKjKkJ%jjJjJj%
5579B2Jj%%J%j%Kj%j%%JjjK%J%%jjJjJ%jJj%%jJ%JkJkLj%%%J%%J%%kJKl%Jj%%%%Jj%%JjJj
5563B2jkMk%J%%%JjJj%KlLkjJj%JjJJj%%%JjJ%%JkkKJ%Jj%%%k%J%J%Jk%%J%j%J%jjKjJ%%J
5547B4jjJ%%%KjjjK%JlJ%jJ%J%jJKlKkJkJjJ%%jJj%%J%jJ%Jj%jKj%KkkMk%J%%jjJJl%%Kj%
5531B2KkkMK%mKJm%LjjJjJj%J%%j%%%JjJJk%KjJk%Kk%K%k%%%%j%J%kK%jJ%%%%%%jLjjJ%jK
5515B4k%%kLjJjJ%JjjKk%%jJ%jKjjJ%Kj%jkLjJ%%%jJ%kJJj%jK%kJ%%%%%%%jKJ%nPmKlMk%l
5499B0Lj%%Jj%%J%j%Kj%%%%%%%%j%%%J%%%%%%%jK%kjJKkJjj%J%jJjJJlL%Jk%%KkJJjJ%j%k
5483B1LjJ%jJkJjJ%%%%JkjKkKj%J%JJk%%j%jK%%%%kK%jk%KjJkL%nNKmMjjjJ%j%J%j%J%%kK
5467B3jJjJjJjLk%jJj%%KkKjJj%%%jJjJ%%%%j%KJl%%%%jjLJlKlMk%JJk%%Jj%%%jJ%%jJ%k%
5451B0JJkL%j%%kKjJ%%%%%j%%%%%J%%Jk%K%%%%JkJKmKK%kKkJk%JkJ%jKkJJ%jJj%%JkKkJJk
5435B1JJjJ%kJjJ%%JjJJk%KlLj%jJkJjJJ%JklLKkKkK%kjKJj%jKl%%JjjJJ%jJ%%%JJlKJ%jl
5419B0K%MnKJmK%%jMKlj%oJ5j0jOoKJj1J4qJ0%MpkrRJ%lJjjJlL%j%jLj%%kK%JkLmKjLJklJ
5404B1JkKjLjkJ%JkK%%%%%jJ%%jJkK%j%LlJjJj%jK%%jJjKk%%%jJ%JjKkkKJ%lL%%jJ%jJJjJ
5388B4jk%JJ%%kKkJ%j%%%JjKkJkNmjJJjK%%kjLk%J%%%Jj%%J%Jk%%%J%jJkJ%jJ%%%Kj%j%%j
5372B1%JjJ%jJjKjKkj%LkJj%J%j%%%jJ%%J%kJ%j%Jj%jJ%jJJkJjJ%%JjJ%jJ%kJJJ%kKkJJ%k
5356B1MmjL%jKlkKjLlK%Kjj%%jKkKjJ%j%%j%J%%%kKj%j%JJj%%%J%%%j%JjJj%J%%%jK%kJJj
5340B2%jJ%Jj%%%jK%j%Jj%J%jJ%%kK%kJjJKlJj%%J%j%J%j%Kjj%JjJkJJ%%Jjj%JJjJljNmJk
5324A9KkJJJjjJjK%kKjjJJ%KmMjj%%KlK%kJ%%Jk%KkJjJKk%%jJ%jKj%%%Jj%kKJ%kKj%JkKjj
5308B1jJJ%%jK%jJJj%%%j%%jJKk%%jJJjJ%j%%j%%J%%%kMm%LmPm%%jJJ%%kNljJl%%KJjjKlJ
5292B1KkjJjK%J%kKj%%%%%%JjJj%jK%lKjjJjJJ%j%J%jK%jjK%jJ%kKkjK%%JjJ%j%kKkJjJjK
5276B2kKjJjKjKk%jJjKjJj%J%j%%J%j%%%%%%%%%%%j%%JJ%lJKl%J%J%jJjJ%%Kk%j%JjJ%j%J
5260B2%J%kJ%%j%%%Jj%%JjJ%j%%Jjj%%Jj%JJJ%jkKjK%j%%%Jjj%JjJkKJkJ%%%jKJj%j%jJkM
5244B4kjJ%JjJj%%j%LkJjjJkLj%jjKkLKlMpLjK%kKkkLJlJJ%JjKjj%%%%%%%JjLkjKj%%%%j%
5228B2J%%Jj%JlJ%jJj%Kj%%Kk%%%%jJ%jjJ%jJjJ%J%Jj%%%jjJJjJjJkJjJ%%%jKjjJ%K%kJ%j
5212B1K%k%Jj%%%jJ%%JlMljNmJkK%jJKjj%KkjJKjjJ%j%%%JjJ%j%KjjjKj%jKjJj%%j%JjJj%
5196B0jJ%J%%%jJJjmLKjKj%j%%J%jJjJjJ%j%jLjjK%jJj%Jj%jJ%%Jj%J%j%%JlL%jl%Ml%LJ%
5180B4l%jpOmKJ0ok%LlJKlJK%JjkJLnLj%%j%Jj%K%%lL%JkKj%jKj%%%JjjJj%%%J%%j%jKjJ%
5164B2jjJKmJJ%%%%%j%JjKjJ%%kK%%jKkJ%%%kJJ%kJ%%%J%%%%%j%jjJJjJ%JkJ%Jk%%kKKlKJ
5148B2%jKkj%JkJJj%J%%jJ%jKk%%J%JkJJjJkJJ%%jjJJjJ%jJjJjJ%kLlJKkjLkJjjJkKJkJ%%
5132B1j%JJ%Jj%jJ%%JjJkJ%JkJJjkKkKj%jLkJ%%kKj%jJJjkK%jKk%LklKJ%Kl%%%lL%J%JjJk
5116B0Kjj%J%%jjKJlK%kJ%J%j%%%jJJ%jJj%jJJ%JjJj%J%%jKjjKJ%jjj%j%%K%jJjJjJjJ%kK
5100B2j%%%%Jj%%Jk%%%%%%J%JlKj%%J%jJJjKlLlKj%%kJJKkkJJ%JjJ%jjJj%JkK%%j%J%jJJj
5084B1%Jj%%%jJJj%J%k%J%JjjJ%%j%%%KjjJJ%kJkJ%%j%Kj%J%j%%J%%jJ%j%%JJjJk%KjJ%k%
5068B0jLjJj%J%%jjLk%j%JJ%%kK%JlKkJ%LrNjK%Kk%jJjJ%%%%JjjKj%jKjjjKJj%j%%%J%%jJ
5052B1%j%%Lk%j%%J%Jk%J%%JjjJJjj%JjKlK%J%j%%%%jJ%j%%jKjjJJjKlK%JjJjJjJk%J%jKk
5036B0%J%%%KkJ%%jK%lJ%KlLk%%jj%Mk%jJ%jL%k%%%jJ%j%JkJJ%Jjj%j%%JkK%JjJJj%%J%%%
5020B2j%j%%JkJLlJjKk%KkJ%jJjJjJ%JkK%jJj%%Jj%%%kL%jJjJ%j%jK%j%j%JJkKjjKlJ%%Lj
5004B2Jm%JKkK%kKl%jJJ%%%%jKkJJ%%%j%%%JjkKjK%JjjjJK%%%%jj%%%Jj%%J%%j%KlKj%JKj
4988B2jJJkjKkJJjJ%kKjjKj%%%Jj%jJJ%kK%%%kJ%%%%%%%%%jJ%jJkJ%JJjjJjJ%kJ%jKjJlNk
4972B1j%%%JJj%j%%%Jj%jLj%jJ%kKJkj%J%JkJ%jKj%Jj%JkK%j%%KjjJj%jJjLkJJkJjjJ%jJ%
4956B0jKkJ%j%J%JkK%%jj%Lk%J%J%%kjJLj%lJjJ%%J%JkKoLJjNnJ0pLmmlOL%mmMKkMl%L%lJ
4940B1JlJJkKjJJkJJkKjJkjJKjJkKjJjJ%%jK%jj%KkjJjjLjjJJlMlJ%%j%Jj%JJk%J%kJJ%%j
4924B0%%%jJ%kJ%J%JjJkJ%%JkK%j%%jJJj%%Jj%%%%Kj%J%%%jkJjJJ%JjjJ%jjKjJlKJjK%Jkj
4908B0%%%jJJk%%%%Kj%%jJjKj%Jj%JkJJJj%j%%KjJ%k%jJ%JJjj%Jj%%jKjJj%KkKj%%jjLjJj
4892B1%j%%JJjjJ%KkJj%%JjjJ%JlkMJJmM%lJJ%jJ%%j%JkJjJJk%j%J%jKJjJj%Jj%kKj%%%J%
4876B1Jj%%J%Jj%jjJJ%j%%j%J%%jK%jjKjJjjjJJjJ%j%%%%JjjJJ%jjjJKj%JjJkLj%jJ%%kJK
4860B2k%%%jJ%Jjj%JJMlkKjkK%j%K%kJjJJjjJj%%%%%%%Jj%%j%Kk%JjjJJj%jJJ%jJjJJjJjJ
4844B1jJkKK%jmKJj%J%%jjJkK%jJ%%j%Jj%J%jJ%%kJ%Lk%J%Jj%%%jjL%k%KjjJkJ%JjJKmJkj
4828A7NoNlNlJ%j%JkLk%%j%J%Jk%J%JJk%jKj%j%J%%Jk%%JkJJJkJ%JkKjJjJjJj%%kK%lMmKJ
4812B0KkjKj%%JjJkJ%jJJj%%JjjJ%j%%KkK%%%j%Jj%%jJ%%kKJ%jjK%%%kMlJ%%kMJm%%J%%jj
4796A9JJj%%jJ%%%%%%Jjj%J%jMmJ%jJjJjK%jJkjKj%KlJ%J%%jJj%%%%%Jj%J%%%jK%%%JjJ%%
4780B2j%%jJ%%%%%j%jJlLjKl%Kj%KjJj%JkJjJ%jKk%%JJ%kKjkJKljLK%j%%jKjjJj%J%%kKJj
4764B1%%%jJj%Jj%%%%%%j%J%%j%%%J%%Jj%Jj%jJ%J%jKjjKjlKjJkK%%%%jJKlKj%Jj%JjjJ%J
4748B1jJk%JkJJ%jJ%jKj%%%%JjJjJ%%mMkJj%JjkMKlJ%Kl%%%%j%KkJ%%J%kJ%%JjKkJjj%J%J
4732B1j%jJ%j%JkK%%jJ%%Jj%%Jk%Kk%kL%lJ%Kk%%J%J%jjJJJj%%J%j%j%Lk%%KlKj%%%%jJJl
4716A8L%j%JlMkjJJkJ%%MklkLJkRj5J3lmmMoMJNlJjkK%KljKj%KkKkKk%Jj%J%%%%JjKk%%Kj
4700B1jJ%%j%Jj%%Jj%j%JJ%kLjjjJ%J%kJkK%jK%%%j%j%JJjjJjJjJkJJkKj%%JjJ%jKjJjJkJ
4684B0jJKj%kJ%%%jJJ%j%Kjl%JJ%j%jKjjJJkJ%%%jLk%JjjKjjJ%%J%JkJjLjjjJ%J%%%j%%%%
4668B0jJ%jjLkKk%KkJk%Kj%jJ%%Jj%JjjJjK%%J%kJJjjLjjKkJj%j%%%%Jj%JjKj%jJJkJJj%j
4652A9JkjJKkLjjKk%J%%%%jJjJj%%JKjkK%jJj%j%KjjJjK%kKjjJ%%%%%jJj%%JkJ%Jj%kMj%J
4636B1kJjjjJ%%jK%kKkLlKj%%%%KjjjKkKkJjKjJjJjJ%%J%%jJJ%j%%JjlJ%J%jLJpOj%%%j%j
4620A8J%j%%%JjJjJJkJ%jJ%%%Jjj%JjJ%J%jj%K%jJ%%%%Jj%j%jKj%%KjJk%%kLk%JjKjJj%Kj
4604B0jJKlJj%%J%Jj%JJk%%%JkJ%%%%j%jJK%lJjJKkKj%%%K%%KKlmJMjrOKlMkjkLj%jJ%JkJ
4588B0%j%JkJ%%Kk%%jJJjJkJ%%Jk%LkJ%jJkJ%%JkJ%%%%%Jk%KkLj%j%%Jj%JJlJJ%j%%%jJ%j
4572A8%%JJj%%j%K%%j%%%%J%%Jk%k%KJjjKjkKJjKlKjn%PjjLjj%jJJk%KjkK%JjjJ%kJ%%J%j
4556A9%JjJ%jKjJk%jJ%%%jKjJjKjj%jJKkKjlKJjjJJjJj%J%jJ%jJJj%J%k%JjJj%JjJ%Kk%%%
4540B0%%kJJ%%%J%%jJjjJj%%JKjoLJlPmK%kjJ%%%%jJJkJj%JJ%%jJ%JJkjJjKjjj%J%jjJ%J%
4524A9%%jJ%%%jK%kJJjJkJ%jKJl%J%jLjJjj%J%%j%%%%Jj%%Jj%JjjK%JlJ%%jJ%%jJ%%jK%k%
4508A8%%%%%%%jKKmjKLmkNk%J%J%jJ%j%%JkJ%%J%Jk%J%jJjJ%%jJjjKj%KkJ%kLl%JkKJ%Jj%
4492B0jJ%jLkJkLl%kLkJkL%%kJ%j%KkKkK%ljMlJKjjJkL%KkJkKJnKJKjJKmoRj%jj1Qlk%KqK8
4476C5kpj5L%j2L7j9Nj5NJMKpKkOmMJoMJ%JoKJj%Jk%KJ%kLkKJl%L%nJ%Kj%J%Jk%JkMjkJjK
4461B1%k%JjJ%JkJKnKj%%Jj%jJJ%%%J%kJ%jJ%jK%jjKlLjJkjJJkK%Jk%JJkJJ%k%JMn%KmLJl
4445A7K%jJJjJkJ%jJ%jK%k%%%%JJj%%j%J%JjJ%%jjK%%k%KJkJj%KkJ%j%Jj%%jKjjJ%J%%jjJ
4429A9%%JjJjJ%j%JjJJjjJj%JjK%jjJ%%jJ%jJjJ%%%j%jJjj%MjKllKKjJj%jKjkK%%KlKkLjj
4413A9Jj%K%jjJk%%JJk%Kjk%%JjKj%%%JkJJ%jjJJjJ%%%%jJJj%%kK%kLlJJjJj%%%JkKjK%jJ
4397B0%jJ%%%%kjL%j%%%%%%Jj%j%JkK%j%jJ%%kLjjJ%jJlLjL%j%%jLj%j%%%Jj%JJjjjKk%Kk
4381A8%JkK%jJ%jJJ%j%jJk%JKjjJJkJ%%%%J%%jLkk%Kj%jJ%%%j%%jJ%J%%jJJ%j%%Jj%%Jj%k
4365A7JjKJjkJJjj%%J%%JjJ%jK%jJjjJLpMnOmJJKlkOlJjLkj%KjkJ%%%Jj%JjKk%KlKjJ%JjJ
4349B0k%%%jJ%JkK%j%J%j%jLkK%kJ%jj%JJ%%jKjj%K%jjKj%%%Kk%%%%%%J%jK%kjKkKj%KjkK
4333B0%JjjKjj%Kkj%Mm%kNkk%JjJ%jJ%JjJjj%%K%j%JjJ%k%J%JkJ%%jK%%%jJj%%%JkJJkJjK
4317A9JjjJ%JkJJkJ%kLkKlLj%jJ%J%kJ%%%%%%%%%j%J%J%%%kJ%j%jJJj%J%JjjKkJ%%%J%kjK
4301A9kLjjkKKlKLmKJkj%K%%kJk%J%%%JJk%%J%J%%%jj%%K%j%%j%J%Jj%%%%jJ%%%JkKjJJ%j
4285B0%%j%Kk%%J%j%JkJ%J%%j%%%J%jjKkjLkJj%JJjKjJkJ%j%JJk%%%JkKk%K%lJKKk%jK%k%
4269A9%%JkJjKj%j%%%%%%%%Jj%KjkMkjJ%%KkjJ%Jj%j%Jj%jJ%%JkJ%jJ%JjJj%kLJjjjJJjjJ
4253A8JJkJjJjJ%%jJjJ%%%jKjkJJ%%jK%%jJj%%JjjjKjKlKmMl%RnkMlRrmNkjNoJLJnK%%%%%
4237A8KmLjjK%kKKmKKlJJj%%%JjJ%jj%Jj%%J%JkJJ%JkKjlKJ%%%%%%%jjJ%j%J%jkK%jJ%%jK
4221A9j%jJjKjjK%j%J%k%JJj%Kj%j%Jj%%%Ll%%kK%kLjJJ%%kJJ%jjjKkJjjKJjj%%JkJ%J%%K
4205B0jjJj%JJkJjjLlJ%JkK%%j%%JJjj%J%jLl%J%%jjJ%J%%jJjJj%K%j%%%%%%j%%%J%%kK%%
4189A9jJJ%%%%%%kKjjJkK%%kKjJmMmKjOj%mKkJj%J%kJjKJjjJ%%J%%jKk%%JjKk%LkKk%JjJj
4173A9%%jJJkJj%J%%jjKkJj%J%kjMk%K%j%%%%%%%%jK%kKjJj%jJ%JjJjJjJ%jJjJ%%jJj%%Jk
4157A7Kj%%%%JjJj%K%j%lLlNmjJKj%%%KjjJ%%%jJj%%%%%%jKkK%jJjJkLjjJ%JlJJj%%KkjJJ
4141A9Jk%KjJjjjjL%j%%%JkKj%j%J%J%%%jJj%%%%%JkJjkLjLk%%jjKjKk%J%jKJ%%JlJlLlJM
4125B1mlKkMKJjkjjK%%K%jjKJl%%JjJ%j%%jKj%%jKk%Jj%%Kjj%KlJJj%%JjjK%%jj%JJJ%%k%
4109A7K%%jJKJl%JkK%jJ%JjjK%l%%J%j%Jj%%JkJ%jKjjKj%%jKkKj%kKjJjJJjkKjJ%jK%jJj%
4093A8%Jj%jJ%%%%jjKj%Jj%JjJJJ%kJJk%%%%%%jJj%JjK%kJ%%%jJ%lL%Kl%%LjJjjjKjJ%j%%
4077A8%%jJ%%%jKjj%JJj%%jJJ%j%J%%j%Kj%jJjJjJj%JjKlLkjLJkjMmJjJjJJlK%jj%K%j%J%
4061A9jjKj%jJjJjKj%%%Jj%%%%Jj%%kLj%j%jKJj%kLj%JJKl%jJ%j%kKJkJJJkJ%jJjJJkJ%kJ
4044A8%%%Jj%kJJJ%kJ%%J%j%%KkJkJ%jjKj%jK%jK%k%kKJ%%%%%%%jJj%K%jJ%j%%%%jKjjK%j
4028A8j%Kkj%Kj%%J%%%J%j%%%%%%%jJJkJ%%JkKkJJjK%j%jKlJjJJkK%JlKjJkLjJkKjKmMmLl
4012A7JJJkkLj%j%%%LlMkkK%nRnKmJRj1QpJ3lmljjKlLKl%jK%JkKjJjJk%jJJkK%kj%JKkJjJ
3997A8j%J%jJ%%%k%JJJ%%%kJJj%kLlJ%JJjjLkJkJ%JjJjJlKj%jKjKjKl%J%%%jKj%%%%JjJ%k
3981A7%KjJJjmL%KkJ%jLl%J%kjKjjJKk%%JJjJkJ%%Jj%J%kJJ%jkLjJJlLl%JJk%K%kjLjjJ%%
3965A8%jJ%j%Kk%JJj%JkJ%jJj%JjKjjJ%j%Kj%jJJlKJJmK%jJJjKmK%%jJjJ%%J%%j%jJkJ%Kk
3949A7KkKk%k%L%jKjkK%%jJ%jjJ%jJJj%JkJJ%jJ%k%JJjjLj%kJJkJ%JKkJjjJ%JJjj%kJjKjJ
3933A8Jl%JJJj%%jK%jJjJj%j%%J%%jJ%%%jKj%Jj%j%JkK%jjJKj%%%KkjJjKj%%KjjjJKkj%Jj
3917A7jJ%%%Jjj%K%%%%%JjjKj%JkJ%J%jkK%%%%%%%jJ%%JkJ%%JjjJ%kLkKJkJkJJ%%%%j%%%%
3901A8jJj%Ll%Kjj%J%jJkjMk%JkKjjK%j%%JJ%%jJ%lJK%KlkKJj%jNnKklQnk%Mj%JkJJk%%%K
3885A9lJ%J%%jK%jJkJ%jJ%%%jJJk%JjJj%%JjKj%Jl%JkKJJ%lKJJkJJkjJJj%j%jJJkjKjJ%j%
3869A6KkJ%%JJk%Kj%j%jJKk%%%JjJJjJj%jJkL%mK%kMmMkJJk%%%JjJ%j%jKj%%J%%kJ%%%jJK
3853A9%j%%%j%Jj%JjJ%%J%kKk%%jL%kJjjKkJ%%%JlK%JJj%%%j%Kj%jKj%jKk%%LkJjKlKkKk%
3837A7JjKjjK%j%kKjJ%jLk%%%%%jjL%kJjjJKj%Ll%JkJj%J%%%kJ%JjJJ%%%jJkJ%j%JjJ%%%j
3821A7K%j%%%%%JjjJ%JJkJ%lLkJjKj%%%%j%JkJJj%Kjj%%%jJ%%J%j%%J%%%j%%%%JjJ%%%%%%
3805A8j%%%%%JjjJJ%%JjjJ%jkKjjJ%jLj%Jj%%jJjK%%%kKjj%JjLjjj%KkKj%%%%JjKlJjK%kK
3789A8jLlJ%%lJJJ%%%kJJ%jjJj%JjJj%JJ%jJ%j%J%jKmjKjKKjj%%%%%Jl%%K%JJ%jlMMmJl%k
3773A5kLJlkKLJjLmKjj%%LjJkK%jjK%kJJkjJjLk%Jj%%K%k%%Jj%%jJ%JJjkK%%JkKmJJJ%%%j
3757A7J%lLj%%J%j%j%JJ%j%J%j%%%Jj%KkJkJjJKkJ%kK%jJj%%%J%jKlKJjjKkJkK%jJ%j%%%%
3741A7%%%jjK%Jjj%J%J%%jJj%Kj%jkK%%%%%%jKjJ%%j%%J%%kKjJ%kJ%KjLmJ%%jJ%%kK%%%%j
3725A7Kk%Jj%JkKj%jJJJ%%kJJj%%%%j%JkJJk%K%%%k%KjjJjKmMj%jLKjlJ%%%JJk%jJjjL%j%
3708A8%j%J%jjJJ%j%%J%jj%%%Kk%J%%kJ%%KkJj%JlKJJ%kJj%%J%%kK%%%%%%jJ%kLjJjjJJjj
3692A6KJjJjk%J%%%jK%jjJjJ%jJ%%%%%%JjjKkJjjL%jJj%%%jJ%%JkJj%Kj%%%KkJjKj%%J%k%
3676A7J%%%%%%jJkJJ%%jjLkJjJ%%jJj%kJJkKJjjJ%jKJk%Kk%Jj%j%%JjKkKjJj%JlJLjj%J%k
3660A6K%Jjk%%J%j%JJkJKkLlkOrN%jKljKJjKj%Ll%%%JjJj%jKkKjJkK%lL%%J%jJj%%JjJj%J
3644A9%j%J%%%kJ%%%jK%jJJKkmK%%jK%kjKkKkJ%JjjjJ%jJ%J%%%J%%jK%jkKj%jJKkJ%%%%%J
3628A9jj%%%%%lM%jJJlJ%JjJ%%kKjJ%j%JjKjkLk%KkJj%jJ%%%%%%%J%kJkK%%KkKk%Kjj%%%J
3612A8%%jJKlKjjJ%%%jJj%Jj%J%Jk%J%%j%J%j%JjJjKlJK%jj%Jk%JJ%k%JjJ%%%%%JjkOo%%k
3596A3LJJ%%jJkJ%%%%%Kk%%%JJlJjJ%%LlKkJkjJJ%JjjKkJ%jJjJ%%%%JJlJ%j%%%%KkLkJj%j
3580A6LJljJ%j%J%%j%Kj%%JJkjL%j%Jj%jJ%kJ%%%%%jJ%%%Jj%Kk%J%kLjlJJj%jJKjjJJjJkJ
3564A7jJ%jJ%jKjjJ%%J%jJ%jJ%%jjJ%%Jjjj%JjJJlKjLjjJ%%j%KKlJjjKjjJjLkjJ%J%jJ%kK
3548A8%jjKj%%JjJkKjjJJj%LkjKlKkJjjNj%%JjjlkONpjoOlLJ3oMk0J4oLMrJmPmjMjMlKkMo
3533A4MkKjjJ%jJkJ%%%KkKkJjJ%%%JjJjjJ%%%jJJ%k%KjjJjj%%%%%KjKjjJ%%KjKkJ%jjJj%K
3517A9k%kJJjJ%%%%J%jJjJJk%K%jJj%%JkjKJmLjjjKJkjLkjJj%JJ%%%jjJJjJjJj%%%jKJjkJ
3501A6%KjJjjJ%jKjJ%kJjJ%%JlJ%%%JkJj%J%JjKkKlJ%jJKj%Jj%jKkJ%%Jj%%Jj%jJ%j%%JjJ
3485A7%%%JjJkK%jj%kKjJ%KkjK%%kL%k%jjJK%%%%jJkJ%JjjKjJ%j%%%%J%%%lLjJ%kKJj%%%j
3469A6%%KkKjjJ%jKkKkKjJkjLkKJk%%%jJjJjJ%j%%JkK%jKjjJj%J%jJ%%jKjJjjJ%Jj%%%jJk
3453A5K%%%%jJk%Kj%JKk%j%Kk%jKjKkKk%JJk%J%jJjKj%kLjLl%J%%%kKj%%KkjJKk%j%JjJ%k
3437A5J%%jJLljKj%%%%%jJJJj%jKjJ%j%KjJk%%%KjkKjKkK%jjJj%jJ%JjjJjJJ%%JmLJk%KlK
3421A8kLo%LJJJjjk%Lk%J%%jJ%JkKk%JjK%k%JJkK%k%%J%jJjJ%jJ%j%jKjjKjJjjJJ%kKjJjj
3405A5K%%j%JjJjJkKkJ%JjJ%%%j%JJJjkJ%%j%jKjJjJ%%Jk%Kk%%%%%JJj%j%%%jLl%Kj%JkKj
3389A6J%%%%%JlJJ%%JkKkJ%Jjj%jJJ%%%%j%Jj%%J%%%%%%%%%%JkJjJkJ%JJ%jJ%%j%%%j%%Ll
3373A6%J%jJ%%Jjj%%%Jj%j%J%%%Jj%jJJkLkJ%Jj%jJJj%%Jj%%lKjLj%%KkJk%JJkK%jjKk%%K
3357A8k%J%jKjJ%Jk%Jj%Jk%Jj%Kj%J%jJjJ%j%%j%%%%jLk%jKkLjJk%J%jKj%%%%%jJ%%jKk%J
3341A7%Jj%%%jJ%%%kJjJ%%JjJj%jL%%kKjkJKjJllMKj%JkKJk%J%k%JjJjJ%j%%JjjL%j%%%kJ
3325A6J%kJjJ%Jj%J%j%%jLjjJ%j%%%JKjkKlJjJ%J%kJ%J%jJJjjKjJ%jjKjj%J%JJkJkJJjJj%
3309A7KlK%jkJjLmK%mOmkNjjOpLnOkjnK%JLJ%%%J%jkKJ%jKjjJj%%kJ%KlKj%jKj%jKj%J%j%
3293A6jK%jjKj%%J%%j%%JkKJ%k%Jj%J%%j%J%%%jjJj%%Kj%%J%kJJ%JjjJjKj%Jk%jKj%JkJ%%
3277A6JjjKlJ%%KkJkKJ%%%J%jJjKj%j%JjJ%%%JjjJj%jKj%kJJ%JjJjjKkKj%%Jj%%jJlJJ%Jj
3261A6Kj%KmKjj%Kj%jJJj%%JjjKjjJ%%j%K%kJjK%%%jJjJjj%%JJ%J%kKj%JjJk%%J%jj%KlJ%
3245A5%kJK%%Jj%JjKkJ%j%%%%%J%%j%JJk%J%J%%kJJ%%j%%JkLl%Jj%%jK%jjKj%jK%%j%KkJ%
3229A7J%%lJjJjJ%kLj%%JjKkKjj%%%%j%Kj%%Jj%%Jj%Kk%%J%JjJkJ%%jKkjJJLmJkJkKjJJkK
3213A7jJ%jJJj%JkJJ%%k%KkK%j%%%%Jj%%jJJj%jJ%JjjJkJ%J%jK%Jk%kLj%%jKkJj%J%Jjj%K
3196A8%kKlLj%j%J%%J%j%JjJkJJ%j%%J%jj%JkjL%kK%JJmKkJ%jKmLKkJkj%K%%%JjJjJkJ%%J
3180A7jjKkLk%J%kKjJj%J%%%jKlKjJjjJJ%%jJj%%K%%j%jj%%JjJ%%JjJJj%j%%J%kKj%%%J%j
3164A6J%%jKkJj%%%%KkKjjJjJj%J%j%J%JkLkjkMj%lKJjjK%%%Jjj%J%Jj%%j%JjJ%jJJj%%%J
3148A8Jk%%%%jJ%%jJj%JkJ%%JjkKj%KjKjlJJJ%%%%jJ%jJ%%kK%%JkjJjJ%%Jj%J%%%j%J%%jJ
3132A7jJj%%%J%%jJJkLk%kJjk%JRnoO%k%%%Kjj%%jjK%jJ%%%jJj%KJkjJjJKkJJjjJ%%%KjkJ
3116A7%JjjJJkjJJkjM%mKlLjjKJk%J%jJJ%k%J%jJjJ%%%jJ%%JkLkJj%JJkK%kJjjJ%j%J%JkJ
3100A6J%%jj%%J%LJk%lJJJj%j%%jKj%%%%Jj%%%kLj%JjjJjjLlK%%jKjj%Jjj%KJlJKkjJJj%%
3084A5J%jJkKj%%%%J%j%J%%%JkJJJ%mJJ%J%%j%%jJJ%%jjJjJ%%kK%KjJKmMoJlLkJ3j4PlQj2
3069A2MLJoJ3pnjjLKkJlKj%JJjjLjjJ%jKjj%%J%JJkj%JjjJKkJJkJ%%JjJjjJj%JjJkJ%JjJk
3053A5J%jJ%%Kj%j%KkJ%%%Jjj%%%J%jJ%JkJkJ%JjJjJj%JlJJ%%kK%jJ%KjJjkKjKJjk%jjK%%
3037A6%kKkJJK%lJ%jKjJ%%%%jJ%jKJljLk%Jj%%JjjK%JkJj%J%J%j%Jj%%kKKm%K%%%%jJJ%%j
3021A7%%j%Kj%%jJj%Jk%JjJJk%%JJj%JlJJjJjJjJ%J%j%%%kMkLn%Mjj%%JkKjKjk%KkJ%%%j%
3005A5JJk%%JJj%JlK%J%j%%Jj%jKjj%KlKjJjkK%j%MjlKLmJJkJ%Jj%Jjj%%JjKlJKjj%JKkJj
2989A6JKkkLJ%kjJ%%J%%j%jJkJJj%KlKj%JJkJkKKlJJ%%kjJJjJj%%JjKk%JjjK%%kKjjjLkKl
2973A4Kj%JJjJkJ%J%%j%%%J%JkJ%J%j%%Kn%L%lK%%%kJJj%J%JjJ%j%JjjJ%Jj%K%lJ%Kk%%Jj
2957A6%%j%JjK%j%%j%K%ljLkRrQlkkKkLnM%kJjKk%KjkLj%%%%%J%jJjJ%jKjkLjkJj%%jK%%%
2941A6%%%J%JjJlJ%Jj%JjlKL%k%Jj%%%J%j%%%J%kKjJ%%%j%Kj%jJjjJJ%j%%%%jJj%jLjj%%%
2925A5%kL%jJjK%kJJoPlJ%jJjKj%J%jj%J%%%jjJ%%J%%LmLljKj%JjJ%Jk%%KkJ%%Jl%K%%jJJ
2909A7kjK%j%J%%%JkKj%jKjJjJkjKj%JjJjJj%JjJjJ%jJjJj%J%jjKjLlJJ%kJ%KjJj%jjJ%lK
2893A5JLkkK%%%jJj%J%jJj%Jjj%J%%%%kLjjKjjJ%%kK%%JkK%jjK%jjJJ%lK%%Kj%%lNkjJjJk
2877A5Jj%J%jJjKjJj%J%%jJkJ%%%Ljk%kJ%J%%kK%J%j%J%%j%%%jJ%%%jKJjjJlLkJJ%%k%%Jj
2861A5J%%%%JjJ%jJ%%Jk%JJk%j%%Kjj%JjKjKkKlLkJkJjJ%%JkJ%kMkjlKJ%%%%%J%%JjjK%j%
2845A6%%jLjjJ%j%Jj%l%K%J%%jkKJ%JmL%JkjjJJLkj%jPqMnPlkPlmLkMnM%jk%JJ%jJkKkJJ%
2829A7jKkj%MjlKk%JJkKkJjJ%jJJlJJjJjJj%KlJkLJk%%jjJKkKkJ%JjjJJ%kJ%%JjJ%%Jjj%K
2813A7kJ%jKkJjJJkKjjLk%Kk%J%%jjLj%%kLkJ%jK%jjJjj%K%jkJJjJ%%j%%%kKJj%%%JJkJ%L
2797A9lJ%%kJ%%jJJ%jJ%Jj%%j%JJj%jLlkK%jJ%jKj%%Jj%jKjjJjK%jJ%%%jJ%lKjj%JJ%kK%%
2781A6JkK%j%%j%KlLkK%kKlLk%lKK%kKjjMjJlKkJjJjjKjJjjK%JjjjLlJ%Jj%%LlKkKj%jLk%
2765A6%%j%jKjJ%J%j%jKjK%k%jJ%%Jj%jJjJkJ%%%%J%kJJjKkJJkKjkK%j%%J%%%jK%kJJ%jj%
2749A5JkK%J%%lJjJ%%KjJJlKj%JkKjjK%kJ%jKkjKjJ%%kK%KlKJkJj%%jJ%%%Jj%jJ%JjjJjjL
2733A7k%Jk%JjJ%%%JjKkJj%%JjKj%%%%%%%%%J%%lLj%jJJlJ%J%j%JkK%j%KkKj%mNkJkMlnQ%
2717A8mJjKjJjjKjK%%j%%J%jj%J%%%%JJk%jjKj%%%%%%Jj%J%JjJ%j%%%jL%jjJlK%Kjj%%j%K
2701A7j%Jjj%%JJjJkjJjJJj%KjjkKJjkKj%J%%%%J%%%%%j%%J%%Jj%%K%kkLjJ%kJ%%jJKl%%K
2685A7%%jjJkK%jKk%%%jK%lK%J%%%%%JjJjJjKjjJj%JjkLjkJjLjJJj%k%%%Kj%Jj%%jLkJkJ%
2669A6%%%j%Jj%%jJJ%%JlKj%KjJ%lJ%%%%%J%lLkL%klM%KKqOkJ%%JjkkL%jJ%%kJJjJ%jJjJj
2653A5Jj%%%%%jKJk%%KkJ%%%%%%KkjKjj%%J%%jjjJJjJJJ%%jJ%%%%Jk%%J%jJmLk%KkJ%%jJk
2637A3L%j%kNk%JkJjjKj%J%%%kKJjkLlK%kJJlNnJ%%%KkjKjK%jKj%J%%jJjJJkk%%jK%Kk%%J
2621A6JjkJJJ%lKjJ%%%%k%L%JmLlLJk%Jj%%kJLk%%KmJJjjjLkLkjMmM%k%mNkMmlJ%LjOp%%M
2605A8JklkJ1lpLLLj7Rjj2J3J9J9l1QJ7m3PmK1j2j1L0k6J2j0LlNjjMmN%mJkRo%JjjKjjJkJ
2592A5jJjJJJm%Nl%JJj%%%j%LkjjLlLlMlkNkj%%JjKljL%%%jLk%k%J%JkJ%J%kJKJkJJkJ%kL
2576A8lKJkJJlK%j%jJ%kJKj%jLkkK%kJKjjJKl%%JjJJjJj%KkJl%K%%kJk%KJjjKjJkK%%%J%%
2560A7%kJ%kJ%%jJ%kMk%jJ%Jk%JJkJ%%%jJ%%%jK%%jJ%j%Jj%jJjJj%KjJjJkKjJ%jKj%jKjJk
2544A5%Jk%KlLKjl%MoLmLKj%%kKKkJjJ%%jKjj%JjJJ%%kKj%%jJ%jJjK%j%Jk%%Jj%JjJk%JjK
2528A6JJkjJ%jJkJ%%Jj%JjJk%JJj%Kjj%%j%K%%%%%J%jkJjJ%J%jJjjJJ%kLk%JkLlJ%Mkj%%K
2512A8nMjj%jJ%J%j%%%jJ%%%%%%%%%Jj%%jK%j%Jj%JjJj%j%%JjJ%%%%JjJjLkjKkKkjKkjJKj
2496A5j%jKjJ%kKkK%jJjJjJ%JjjL%jj%%jKj%%J%%kK%%%jkL%%Jj%%jkMk%MMrJlKkNJkjlL%%
2480A5Kj%j%%%J%jjMkj%J%JJl%%J%%%jJjJj%KkJ%j%J%%jJj%%J%kLjjjK%%%j%%%%%%jKkjJ%
2464A4J%%Jj%kK%JJ%k%JJjJkJj%%%jJ%%%%jJJJjj%%kK%jJ%jjj%KKj%j%J%JkJJk%JjKkJ%%%
2448A5j%JkJK%j%%jJj%JjK%kKj%%%%%j%J%%JjJ%kKjKlJj%JJjJj%JjJ%j%jKjJ%Jj%%JkKj%J
2432A7JlJ%%%jjJjJJkLkJj%%jjKj%JJJlJjLKoJLmJJkL%lLkKk%Kj%Jj%%%JjjJ%%%%%%Jj%%%
2416A5JkJ%J%j%%%kJJ%J%%%j%JjjjK%%J%jj%J%jK%%kKJk%jKJkJ%%jJj%Jj%KkJ%%jJjJjJkJ
2400A5%JkK%kKj%%JLkjj%%%%KoOkMkJmKk%JJjJj%%%JKlJ%%j%Jj%%jLjk%J%%jJj%JjJJjJ%j
2384A5JJjjKjjJ%jjJMjkJkJjJ%kKjj%%%%J%j%J%Jj%%jJ%%%%%%J%%%jJjjJK%lLl%%MkjjMk%
2368A6lJjLLOqjpjJ4moMlNl%lJL%lKlMk%%KkJkLk%KjjJKkJjJ%%j%%J%jKj%j%%%%%JjJj%J%
2352A6jJjMlJjJk%jK%%%%jJk%K%k%JJjKk%j%JJjJj%%%JjkK%%Jk%KkJJj%Jj%Kj%JJmK%JlJk
2336A3JJ%jjLjJj%jK%%jjKjJj%Jj%Jj%%j%%JJkKj%%%%JjJj%jJjKJ%kJj%%%jJjJJ%jjLj%Jj
2320A6%j%j%J%%%%%%%%JlKjJ%J%J%j%JkJ%Jj%%%%j%%JjJ%jJjJ%lJJjJJ%%KjkLkk%K%%j%j%
2304A4%%%J%Jj%%j%J%jJ%%jJJ%Jk%%jKj%%JkJJ%kK%jJkKj%J%%KlkLjJjJj%Jj%%%%%JJlJJj
2288A5Jj%jjJJjK%jjKkLkJ%jJ%j%%%jJ%%KjjJjjJ%%JlLjKkKjjjJjjK%jJ%jKj%kJJ%%j%%%%
2272A4%JjJ%kJjJ%JjJj%%J%%kL%jJj%%jJ%%jJjJ%JjJjKjkJ%Jj%J%%kLj%%%%j%JkJ%%%%Kk%
2256A5J%kJ%%J%j%J%j%%jJ%%%KmJ%LkLoOkKrO%KllQn%%%j%%K%JjJJkjK%%j%Kk%j%jMjkJ%%
2240A5%%%%%%j%Jj%JJjj%J%%jJjJlMjJ%j%%j%%KlJK%jjJJk%J%jJj%jJJjJ%%jJ%%jJjJJ%kK
2224A6j%%%%J%j%KkkJjKJJn%MkLlJJlLjJjjKkLk%kJ%%%K%%%jJjJ%%kJJj%jJJ%%j%jJJjJjj
2208A4%JjJJj%JJlJJKjkjKj%jKjJj%j%J%jK%j%J%%jK%jJkKjlL%kJ%jJjKjJjjJ%%jkLkJJj%
2192A4JjJLo%K%JkLKnJKjlLjKj%%jJ%%%J%jJj%JkJ%jLkJ%jJjjJ%%JkJ%%jKlKjJjJjKkJ%Jk
2176A4J%JkKj%%%%J%%%jjJjJ%Jj%%%%J%%k%K%mLJjJjK%j%jKk%Kk%%%JjJ%%%j%kKjLjjkKjJ
2160A5kJJkJjKJjkKkJJ%%jJj%J%JkJjJj%J%jKjj%%J%jKmKKkJJj%%%JjJkJ%kKlLj%%Kj%kJ%
2144A4%JjJk%LkjJ%KkjJJJj%%KjkKkJkKKljJLlKk%%jJK%lN%%lnP%kJpP%knKNKljlKNoL%Jk
2128A4K%jKk%%%K%kJ%kJJjJjJj%jJJ%%%%kJ%Jj%J%%jkL%jjJjJj%%%%%J%jJjJ%%jJ%%%%J%j
2112A5%%%jKj%%%%jJJj%Kj%j%%JJjj%%%%jKj%%kJjKJjJJkKlKjkK%%%jJJ%jJjJj%%%%jJ%Jj
2096A5KkjjLjJj%JjJkJjKk%%JkK%%%%%%jjJJj%KJjj%Jk%Kjj%%%%JjJj%J%jKjJjJjjJJjjLl
2080A4%%%JjJkKjjLjJkJ%%%JmLjkMl%On%KjkkKKJ%k%Jj%%%%Jj%%%J%%%JjKj%j%jKkJ%JjjJ
2064A5j%%JjKk%JJkJ%%jJ%Jj%%J%kKj%jJkLj%%jjLjj%JjJjJ%j%Jj%JkLkj%LkJjKkJj%j%%J
2048A4j%JJjjKjJjJjjJjKkKkK%Jj%Jj%jK%j%%%Jj%%j%JjJ%%%j%KkLjkjJJ%%%%%jJJj%JjjJ
2032A5jJ%%j%jJKj%LmK%JjjJ%%%j%%%J%Jjj%Kj%%JjjJ%%j%jKk%%JjLlLlJJ%jKjJkJkjJLjk
2016A4JlKLnLJNmjJlLjJjjJjKlMlKj%%JjJj%jJ%%j%JJ%kJJj%%j%%jJ%%J%Jk%J%%jJ%j%%%j
2000A4%%%LkJkJ%k%JJ%j%%J%%JjkJJJkJkjJJj%%JJjJjJ%%%%kJJJk%J%kK%JjjKlLk%jJ%j%K
1984A5%j%jJJ%%JkKjjLk%j%J%jKkJkKjjLkJ%%K%j%Jj%jJ%j%Kk%%Jj%%jKjkJ%Jj%jKkKkKkK
1968A5%JjKjjJJj%%jJ%j%jJ%Jj%j%Kj%JjJkL%k%jKj%jJjJjJjkKjmPkJjjJ%%J%lK%JJlK%kK
1952A5J%jjK%j%j%%%%J%%%Jj%%%%%%%j%JJJjjJ%kKkK%kjMl%MnJ%Jj%J%%%jK%jJkKj%jJjJj
1936A4J%jJ%%j%%%J%j%%%jJ%J%Jk%%JjJ%%j%Jj%jKKl%%LjlLjj%jK%jjKj%%JJjjKj%jKjjJK
1920A7kj%J%JjjJ%%%%%jJ%jKk%JjJjLkjLl%KjLkkLmLjJkJ%j%%%Jj%LkKk%%jKJkKJkKkJ%j%
1904A6Jk%Jj%jJ%%j%KnNkmM%LnkOLLolQnjj%%kKJlLKkjKjjJjJ%J%kK%j%jKJkjJ%JlLjjKkJ
1888A5%jKkJJjJ%%%%jJ%kJ%%JkJ%%Jj%%jKk%Kj%jJ%%%JkKj%Kjk%JKk%KkJ%jj%JJjJkJ%%jL
1871A7k%%J%j%jKjJj%LmjNnKkKLmK%kJJjj%JJmL%%j%%JkJJ%%%%Jj%JjJj%j%Kj%jJ%j%JjjJ
1855A4Jj%%%JkKjJlJ%J%Kj%%%%%j%LjjjJ%%j%J%jjJJ%lLJjj%JjJ%%k%J%%JJjk%J%K%kj%Jk
1839A2L%j%mMkKKk%Kk%J%J%k%J%J%jJ%k%J%%kKjjK%Jk%JjJjJ%%%jJjjK%j%%%j%Kk%LkJjjM
1823A7kj%%J%j%jK%j%JjJ%%j%Jj%JkjK%%%%%J%%%%%j%%J%jKkJkJ%%%%kJKkJkJK%kLjJjjj%
1807A3J%JjJk%K%kJ%Kk%%Kj%jJ%kJ%J%%%%J%%k%JjJkK%%%JkJjJJjJ%jJjjj%JLk%jKkJjK%k
1791A4J%JkJj%%jJ%%%J%kLkJ%%%j%jK%%jjLkj%Lj%J%j%%JkjM%nJOoMlNm%mMJkLl%%JjKjKj
1775A6jjjKjKj%%%Jk%J%JjJ%%j%j%%JjLl%JjJjjK%jJJjjLm%J%JkJ%%%Jj%%J%%%jJJj%%Jj%
1759A5JjJkJJk%JjJjJJmLj%j%%JJ%%jjJjJ%jMljNmKlK%kKjJlJK%%%jKj%%%JjjJ%jKkJ%jkN
1743A7%kj%JkJJjj%KjkJKjjJjJKkJ%%%%KjkJKj%%%JkJj%%JkJjJjJ%k%%J%%%kLjjJKj%%j%j
1727A3J%JJj%%JjjJj%JjJ%jKk%jLmLJM%pK%%JJk%%lLj%j%K%j%JJk%J%%kK%jJkJ%J%%%%k%K
1711A5jJ%%%jJ%jJj%%KmOlJKmLk%k%JKkjJ%jjLk%J%jKjKkJ%%jKkMklKJjjjJ%jJ%JjJ%%JJl
1695A4J%JlKlJLlKjLlJ%%%j%%%J%%%%%J%jJJk%J%kLkJjjKkJKl%JkJ%Jj%%J%j%JJjj%KjjJ%
1679A5k%J%%%kLJkjJjKjLk%jJjKkJ%j%%%%%JjJj%MljJ%jkJJ%kJLmJJJl%jJNLmmLkJ0j5NLK
1664A8j4jK0qNjj7K4j2LpJKKnLMmjLJ%l%%LlKkKjkKJlK%%%kK%Jk%Ll%%JjJkKjJjKjj%Kk%J
1649A4jjKjNl%JKl%J%%%j%kLj%jJJkK%j%j%%jJJjKk%%jJJ%%%kJ%%%JkJ%%%%jJ%JkJJKljJK
1633A6k%J%%jjLk%J%%jKj%JjjJ%%JlMlJ%KlKj%j%JJlK%%%%Kkj%JJkJjKk%JjL%kJkj%K%%%j
1617A4Jj%JkK%%%%KkjJjJjJjJ%%j%JkJ%J%%j%JkKkJ%%jjJ%j%Lk%J%lMkJJ%klMkJjJ%jK%j%
1601A3JjKkJ%%J%%j%JjJJ%jj%Kj%J%jj%KjJ%%j%%JlK%%j%%JkJLkJlJJ%jjJ%%%J%%jKjjJ%%
1585A5%jJjjJJjjJ%KjjJjjKj%%jJJj%%%jJkK%J%%%%%Jk%%Jj%jJ%%%JJkKjJk%JjJJjkJ%J%j
1569A4%Jj%JJjJj%%lKJ%%j%Jj%%%%J%%jJkJjJjKJlJKjjJ%kJ%%KjjjJ%%KjkJJ%kK%%%%j%%J
1553A5j%JkJ%j%K%j%%%%kLjJKkjJlN%koMJ%%MqP%kkJkLkJJjJJlKj%J%jKkj%KkjK%jKjKkJj
1537A4JkK%%jKj%%%%%%kJ%%JkKj%KjjKlKJj%%%Jj%jKkJ%JkKlJ%JjKj%%j%%%%%jJJj%jJjKj
1521A4%%jjK%JJjJ%kKlJLmKJJlJJlL%jjJ%%%%%Jj%%%j%J%%JjjjK%JkLlLk%J%kJj%J%Jk%Kk
1505A4J%j%%j%Kj%jKjKjj%JjKk%%%%J%kJJ%%Kk%%%JjjKkJ%%JkKjj%J%jJjJ%%jKlJJJ%lKJj
1489A5JkK%jnOmMKmLmNjlJkK%%JJlJJ%j%JjKkJ%kJ%LljJ%JkJ%%%JkJjJ%j%Kj%jJkK%%%JjJ
1473A6kK%%kLjlKjJjjJ%j%JjK%%jJkKjKlKJkJJ%kJ%%j%J%jjK%%jJj%%%j%%JJ%%%lJKJjljM
1457A5kJj%jJJ%jJ%jJjJ%jK%j%%jJkjNljK%%%jKjjK%kJK%jj%Jj%Jj%%J%%jJ%%kK%%%jLkj%
1441A4%JjJ%%j%J%%j%%%%%J%JkJkKj%%%Kk%%jjK%JlKj%JkJJJ%jlLJKJlNqKKmNoNJlj%%KJ%
1424A6j%JkJ%jJJjJk%Kk%JJjj%%%%%KlLjJj%%jJJmKJJl%%Kj%Jj%Kj%kKjK%%k%%%%J%j%%%%
1408A4%%%jjK%Lkj%KkJ%%%%j%JJjkK%j%J%j%%%%J%%LlJkLlJjKkKk%J%%%j%J%%JlKjJ%%%j%
1392A4Jj%JjJ%kKj%%%Kk%JjJjKjJ%jjJ%%jKJk%%Jk%%%jJJj%%%%%%Jjj%Jj%JjJ%J%Jk%%%Jj
1376A4JkJ%%%%%j%%JKlK%J%jJjj%j%KlJLjmMlLjkJJkJJ%%%K%k%%J%%Kl%%Kjj%%J%jJj%jLk
1360A4%%%%jK%%%j%K%kJ%JJjjkK%%J%%kj%JJlKJkJjJ%j%JJkJjJJ%j%%Kj%j%jJ%%%jJ%%%%j
1344A3Lk%%JJjJj%%Kjj%j%Kj%jj%Ljj%%Jj%%%%%%J%jJJj%%%JjKk%jK%j%%%%j%%Jj%jKkJ%J
1328A5%%jJj%j%jNmKjJjkJ%jKjJj%JJlKJkJ%%JkK%kK%j%jK%j%%%j%%JjKkJKmLj%%%Jj%J%m
1312A1K%PqKOmK%jmKkLj%Jk%%KJkJ%j%%JJk%Jk%J%JkJ%%%%%jJj%Jk%Jjj%K%jJJj%%J%j%J%
1296A5lJK%%%jJ%JjJjJj%%jJjJ%%jJ%kJLnLj%J%kJ%%Jj%%%Jj%%%%lKJ%%jkLmNj%jKlJJjJJ
1280A5k%J%JjJ%%%kJ%J%j%j%JjJJjLmJLk%kK%Jj%jJ%%jJ%jjJ%%%%%j%%Jj%%KkJ%JjKkjKk%
1264A3jJJ%%%%J%%j%%%%Jj%Jj%JkK%kKj%jjJKjJkKjJkKkLmMj%KnKLqLKJjjJ%%J%%jJkKkKj
1248A4j%JkKjJJj%jK%%JkjJkJJjJJk%KkJ%%j%JjjK%%%KkJjjK%jKjj%JJk%%%Kj%%jJkJ%Jj%
1232A4%JkJjKj%%jKj%%JjJj%jJ%%kKJjJlLkJ%jKk%K%%kKlKjJJj%%jJJ%k%J%kLj%kJJ%kJJJ
1216A5j%jKjJkJ%%jJ%%JjkJJ%%Kk%%%%%%j%%JKk%jLjjJj%%%Jj%jJJj%%%kLjjKjj%%Jk%J%J
1200A4%JkKj%KJlJ%kkM%lMkkJknJ1JnkrJ4mMMk%mk%OpN%kLmJ%%LlkMkJ%jJjjLk%JkJj%L%%
1185A6k%%%%%kJJjJj%Kj%kMkj%j%MnL%jJ%jKj%Jj%%Jj%J%j%jJJ%jK%j%%jJjjKj%%jJ%%JjJ
1169A5j%%jK%jjJ%kKJ%%KmLl%KkJjKjJj%%Jj%kK%%%j%Jj%JjJj%%%%JjJ%%jJJj%%%JjJj%%%
1153A4%%jjJ%%Jj%%%jJKj%jKkJ%jJ%%%%%Kj%kKjJkKjJj%jJJ%JjjJ%JjJ%j%kLj%%%jJjj%%J
1137A4%jmNjjKK%%mJJkJjLjJjJjJjJjJj%jJJjJj%jJjJjKj%Jj%%J%jJ%%j%J%%%%JkJkJJ%jK
1121A6%k%JjJjJj%%jKk%JkKjJkJ%J%Jj%%Jjj%KkKjJj%%Jj%j%jJ%%%%Jk%LkJjkLJkJJlKjKk
1105A3LmJ%J%JjJk%%J%%jJ%j%Kj%jJj%J%jJJj%%JjJ%%jJj%JjJj%J%kLkj%%jKj%JJ%j%%%jK
1088A5k%KjJj%%JkJ%JjjJjJJJj%%jJj%%%Jj%kK%%J%J%lK%JlLk%JjJmLLnJjLkKj%J%jKlKjJ
1072A5%%%%jJJj%%JkJ%jkKjK%jJjjJ%j%J%%%%jKjJ%JlJ%Jl%K%JlK%jJ%%%j%JjJjJjK%%j%%
1056A4%JkKjjJ%%kJJjjKjJ%j%%jKj%%jJ%%Lkj%%jjLjjjLJjJk%JkK%%%jj%jK%jJ%%JjKkK%j
1040A4%JjJjJjJj%%%%Jj%%jjK%%jLk%%j%Kj%jKkKj%JJjjKj%kKjJjj%JJjJ%%jj%JjLkJlK%%
1024A4%%%%%jJJj%%jKjKkJjJkKjMoKKlJKkKjjJjJ%k%Jj%%%%%J%kK%JkJj%%Kj%jJ%%jJjKkK
1008A5%j%%%%%JJj%j%%J%jJjkL%JjKjjjJj%J%j%j%%K%j%%J%%jJ%jJkLjjJJkJkJ%%j%JjkKJ
992A4%jKl%Jj%JJjjK%%KkJ%k%J%kKkKjj%KjJ%%jK%jj%J%kJKjJkJkKj%%JJkJJj%kLjJ%kJJk
976A3JjJJlJJk%LkkJ%%J%%%jJJkJJJjkJ%%J%%jJ%j%Lk%%j%JjJ%j%J%%%kKKk%JjkLmKlKJLl
960A3KJjOj3MOmKkJkJLkj%Kjj%J%%Jj%%j%jJ%jKlJjJ%%KkJjKkKkJj%JjjK%JjJ%JmJLjj%jK
944A5jjJ%jJ%%Jk%JjJ%JkJ%J%kJJkJjKlKjJj%JJJkjKj%jJ%jKj%Kk%Jk%KkkKJkKJkKkJ%%Kj
928A5%%%jKjjjJj%JJj%%%Jjj%J%%jKj%%Jj%JjJ%Jk%JkJ%KlJKjkJjLlJ%Jj%jL%k%Jj%jJJj%
911A4Jk%J%jJJjJk%%Jj%Jj%%Jj%Jj%JjJ%%JJjJmJK%jk%OmKLnJjJjJkK%%j%%%jJJ%kLk%%Jj
895A4%j%Kj%JjKjj%Jj%jJjJ%j%%%KjjJjJJjKjkK%j%%J%%jJjJ%%j%%%jJj%%%%jJJ%kJJ%%k%
879A2K%jjJ%%KlKjK%%kKj%jJJ%%jjjJLk%JjJ%jjjK%kK%%j%%%jJ%%%Kk%%jK%%%Kk%%jJ%JjJ
863A5kKj%jJ%j%kKJk%JjJ%%JjJk%JjJ%%Kk%jJJjJ%j%J%%j%%%JJj%J%%%%j%%Jj%JjJ%j%kKJ
846A5jJkJJ%k%JJk%LljJJNknLmKJJmMj%%JjJjjJj%J%JjJJk%%j%K%jj%%Jj%JjjKj%%J%%%%J
830A5kJ%%JjJj%JkKjkLjJ%jJ%jK%j%kJJkJKlJjJjjJ%JkJLlJjJj%%J%jJJjj%J%jJ%%jJJ%Jk
814A4k%L%JjjjjKj%JjjJjJ%Jj%%%JjJ%%jJjKkK%%%jJj%j%%%%JkJ%J%jJJjjJjJ%%kMmKKjlJ
798A3J%%%%%jJkKKk%%jKjjjJJ%JkjJLk%jJKj%%j%%Jk%K%%jjK%j%j%j%KJlKJkkJjOkjJjjKj
781A4%Kj%kJ%jJJJjj%%j%KjjJ%Jj%%%j%%%J%%jKj%J%%%%%%kJJJj%jJkJjJj%J%%%%J%jJjKk
765A4J%j%JjJ%jJk%%KJjjKjjjJ%jJj%Jj%%%%%j%%J%%%JJ%l%LmM%%k%j%K%JlKkJKk%Kjj%jJ
749A3%KlKj%jLj%JjJkJJjjKlK%%Jj%%jK%k%J%k%K%nN%%jjLjKjJlJJk%jLk%jJ%L%kjJjj%JL
733A6k%kK%%%%kMJmK%m%KLjjmLLpJ6pqJ1lRj4MrOkoJ6lloOlJMnMmjkKOmk%mOjlM%m%LjJK%
717A5%kjLk%JjJkJ%%KnLjK%kJJjJjJKmM%jlKjJk%JKjJk%j%Kj%KkJkJ%%jJkKjLk%JJkJlJK%
701A4kJJjj%LkjK%j%%Jj%%%Kl%J%Jj%Jj%%JjJjjKjjJjKj%jJj%%%%%jK%JJ%j%kKJkjKjJ%%j
685A3Kj%J%j%%%Jj%jKkLj%%%j%JkK%j%Jk%Kj%j%Kj%J%kJ%JkjKkJ%Kj%%%%JkKjJjjK%lJKJl
668A3jJJKmMkKmLJkj%%JkKKlJ%Jj%%jJ%%Jkj%JKkjJJj%Jj%%kLj%%%Jj%Jj%%%%%JjjK%%jLj
652A5jjJ%jJ%J%%k%KjjJ%%%%JjjJ%j%J%jJKjk%Jj%J%JkJ%jjL%%j%%k%K%jjKlLj%J%lNkJ%j
636A4%%j%%%%%JjJ%jJjKjj%%J%jK%j%%j%J%Jjj%jKjJJj%j%%jJJj%jK%%jJ%lL%%%k%J%Jj%K
620A5lLjJj%KkjJ%j%%%kJ%J%Jjj%%J%jK%jJJk%%KjjKkjLlKJnJK%KJMllLm%JlJJ%J%kK%JkJ
603A4jKjJjJJkjJj%%jLkJJj%%%%jJj%jJjJJjJ%%J%Jj%jKkJjj%J%J%j%%%%%j%J%jJjJj%%%J
587A4j%Kjk%KjJ%k%%J%Jj%KkJjJj%KlJ%JJj%lMk%JJjjJjJ%Kk%%%JJk%%jJjJ%j%KjjJJj%%%
571A4j%%KjjJj%J%%kJJ%jK%kKj%jJ%%%%kKJ%j%Jk%JjJjKkJj%%%%%Jj%JjJ%kKjK%%kJj%JjJ
555A4jKjkKJkJjKjjL%l%KkLljNk%%KlJ%kKjJj%%JjKkj%J%%%%jjK%JjJ%jjK%jjJ%j%%Jj%jK
538A4%%jJ%JkKjkJ%%jj%L%%%%JjjJ%%%%jjK%%JlK%kJ%%JlJKjJ%jJj%%%jJ%jJj%%JjjKj%%%
522A2JJ%j%MkmJL%lK%%kJ%Kj%%Jj%jK%kJj%%J%jJjJj%%jKjJjJjjJ%%jKkKkK%Jj%%Kk%J%jK
506A6kjJKkjJ%jKkJjJ%jJJjJj%j%J%%kLkL%j%kK%%kjK%jLk%%kJ%Kj%kLjJkJkL%%k%K%Lkmj
490A1LJkjKJkJ%K%jJjJjj%j%jKjJj%J%JjJjJJjJj%%Jj%%jJ%Jj%%%%mKJkJJ%JjjJ%kMjkJ%j
473A3J%%%%jJjJjJj%Jj%%%%%JlL%%%%JkJ%JkJ%%jJkJjKjKJk%JjkKKljKj%%jKjJkK%jJ%j%%
457A3%%%%J%%jJjJK%kjJ%jJJj%j%K%%j%JjjKj%kKjJ%kKjlNkKkJj%%J%j%%Jj%JjJkKj%j%Jj
441A2J%J%j%%%Jj%Jj%%Jj%%Kjj%JJkj%JjLk%jNkl%KjNklKl%JjLk%JjJjJ%JjKl%J%%%%%JlL
425A5l%JJj%%J%%j%JkKjjK%%jJ%%jJj%JjKkjLkJJk%%%%%JJjj%%%%jJ%Kj%jJjJ%J%%%%%kjK
408A4%jJ%j%%%J%kKj%J%%%j%Jm%MjJKl%K%%jJ%j%Jj%%%%jJ%%%JjJkJKk%Jk%j%Jj%%%J%KkJ
392A4%kK%%%%j%J%jJ%JkKlLJkjJj%%%%%%%j%JJ%j%J%jKJjjJJjkLkjKjKlJJk%%%KkJjjKjjK
376A4JJlKj%%oOjMllMJ%lJ%%%kJJjJkK%JjjJ%%JjJkJJlK%Jj%%JjJ%jKjjjJjJjKj%kKjJjJ%
360A4%JjJ%k%%jKj%J%jjJJ%kJJ%J%%j%jJ%%jJ%jKJk%J%jJlJ%jKkJ%J%jJjJjKk%%jLk%j%Lk
343A3%%JjJ%%kKJjkJ%KjJ%jJ%jKkLlKj%j%%Jj%jJj%JJjjJ%j%KjjJ%%%%Jj%%Jjj%%JjJj%JJ
327A5j%JjkJJjJjJ%k%JJjjJJjJkJ%jK%k%%J%j%%J%JkJJkKjjLJp%KK%KjlJjjLJj%KkjJ%%J%
311A4%jj%jK%%%Jk%jJJjKjj%J%JkJjK%kJKkJkJ%J%%jjJ%%%J%%kLkKj%j%%j%KjkJJ%%%J%kJ
295A3J%jjKKkkJ%%J%jJj%J%%KlJ%JkKkJKk%%j%JLoL%JkJJ%lKkMlKlJ%J%%JlKj%Jj%J%kK%j
278A3J%jK%lJJ%%j%%jKj%%%%JjJ%jKkJ%%jjKjK%%jJkJkKJkJ%%jjJ%JkK%j%j%LJlJJj%%%Kj
262A5JlMjjjJ%JoOjkjjMMq%JKlPKj5J5j3jRKjJnJMjkjL%lLj%jJjkK%jkJJKjkJ%%jKJlJLk%
247A4%Jj%%%JjjJ%jJjJj%kLjkKjjJ%K%%%Jjk%KjJ%%j%%%J%JjJjjJkJkLk%J%%%%JkKkJjJ%%
230A3jJkK%JJlJjLjjkLjkLjJkLljJK%jJ%j%j%JjJ%%%JjKkKkjK%%%j%%%%%%Jj%j%Ljj%J%j%
214A3Jj%%%Kj%k%Kj%J%lK%jJjJ%%%jJjJj%%Kj%j%%KlKjJjJJ%j%JkJKlJ%JkJ%j%%K%jKljNl
198A3mMjPnKk%j%J%J%lKjJjJJl%KjJ%%%%%%kJjJjJ%jKjJ%%%%%%%%jJjJ%%%J%k%L%%j%%jkK
182A4jJ%%%%%%%j%jJJJj%%%kKj%%Kj%j%%JjJ%Jk%JJkJ%%%%JkJ%%jJ%JkKjj%J%%j%%J%j%%%
165A3JjKjJj%%%%J%%%jJ%%j%J%k%J%%%J%j%%J%%%kJJj%%%%%%Jl%JjJ%%Jj%%JjJjJjJJkJjJ
149A4JkJj%Ljj%%Jk%JJk%JjKl%KjJjJj%jK%lJL%JjlJjPk%ojRn%%kkJLJjJjJlJ%JjjJjK%%%
133A4Jjj%KkJ%Kk%jJ%j%Jjj%K%j%J%jjJ%jjK%%JJJk%J%k%%%%%Jj%%J%j%Kj%%jJ%%JjKmLjj
117A3Kjj%%jK%%j%%Kk%%%%Kkj%Kj%lOkJjkJkLjKjkJJjjKkKkjJ%J%%J%jj%%JJ%J%j%%Jj%%%
100A4%%J%jjJkK%%%jJJjj%KJkJj%JjjJ%jJ%%%Jj%%%%%Jj%%J%jJj%jLjjJkJjJkKjJ%Jj%jKl
84A2JjKj%jKkkLj%PojJlPnJ%%jKjjJJkLj%j%J%kJ%Jj%%KjJjj%J%jJ%%jJk%%%KJkJ%j%J%%%
68A4Jk%KlK%j%JjjJj%%Lk%jKk%J%Jk%J%%%%%J%j%%JJjj%j%Kj%J%jJJjkK%%kKjJlL%jJKj%j
51A4%k%K%j%%%%J%k%%%JJ%j%%JjJkKj%K%lJ%JjJ%j%j%Kj%%%K%j%%J%jjKkJjJJkKjjJ%Jj%j
35A3JJjJkK%%j%j%%KjjJj%%%JjKj%%JkKkJ%kL%k%%KkJJj%lMlNkk%KmJ1mn%nQmjNjl%JJj%j
18A2KjJ%Kj%Jk%J%jJ%lMkJ%jKjj%%JJ%%j%%JkJjjJj%JkKjJj%KljKj%J%JkJJ%k%%K%jK%jjj
2A2KJkK%jjJ%%jKj%%%%jJjJjkLjJjJ%j%JjJjK%jKkjJJjJjJ%kKkKkJjJjJjJ%%jJlL%jJ%j%%
-15A3jjJ%J%jJj%JKjjJjJjJjK%kjLkj%%j%JKk%%Jj%%%JjJK%%%%%jKk%%%jJjJJjKkJkJJ%kK
-31A5j%jJJj%%%jjJ%%%j%%Kk%Kjj%%%%KjLk%%%%JkJJj%JkJJj%%JlKKl%J%jkJ%%J%%%jkJJJ
-47A3Jj%%%%Jj%%Jjj%J%j%K%kKJjjJj%jK%%j%%JjJj%%%JjJj%kKkKjJ%%%%J%j%jKlJ%J%jJj
-63A2J%JJkkLkJLm%%K%jJJJk%jKkK%kjKjJ%jKkJ%j%jKJjjJJj%%Kl%J%j%K%lJ%Jj%%%j%Kj%
-80A3Jjj%JjJkK%Jj%%%%%%jJJ%jjJJJj%%Jk%%%KjkJ%jJ%JjJjjKkKJkJlJJkMkLlmJ0rKQrLj
-96A3oOjOnLkjJJ%j%JjJj%jjJ%%JkK%kjLJj%j%JjJ%JkJ%%jKj%jKj%%%%%jjK%%%%%j%J%j%J
-112A4Jj%jJ%jJ%j%%jJ%J%%kKjjKKmKjJJj%J%jJ%j%j%%J%j%jKJlKjKk%JJlNnJJjJ%%jJk%%
-128A2JJ%JjJkJ%%j%KjjjLk%%Jj%%J%%%J%j%%J%j%%%%%%%J%jj%%jJ%J%j%JjjKj%JjjKkKkJ
-144A3%%%%kJJjJJj%j%Kj%%J%%jJ%jJ%%Jj%%jK%JjJkKlkJKLllKkJKJ%JkJkJ%jjKkJjKj%Kk
-160A3%Jk%Jj%JjKjjJjJjJJ%jJ%j%%JjJjK%jJjKm%%Kj%j%%%KkJJ%%j%JjJkJJ%j%J%kJK%nL
-176A3%JkK%%kJJkLk%JkJjJ%%jJKk%jJ%JJjj%jJ%JJlJJjJjJjJkJjKj%jKj%%%j%jKJlKJk%J
-192A3%%JlK%%kJ%KkJ%JJ%jKlK%kJkJKkJ%jJJkJ%jJjKk%%LlJ%%kjLJ%jj%jjKLlLlJjLlJJk
-208A3KjKljNoNkpLJ2jqNj2J6j4qK4J5k9J2nk%kjLjkMlL%m%JJ%JJ%%j%k%%KjKjjJjjK%%kJ
-222A4JkJJ%jkJjJjJ%Jj%K%lJJkJJ%j%Jj%%JjJ%jKk%J%%%%%jJJ%%jkJJj%J%%%JkJ%%%JlKj
-238A3%%%%%%%%%KjjJlMnKJKlKkKjJ%%%k%KkJ%%jJ%%kK%jK%kJkKJj%j%KjjJ%%JkKj%%%%jJ
-254A3%JkLj%Jl%jJJ%JkJJJkJ%j%%JkKj%%%JjjJ%%Lm%%%KkLjj%KkjJJk%J%%jJJ%jjKkjKjJ
-270A3rJ0jkj%M%%KlLk%j%J%jjJjJJj%%j%J%%%j%JJkJJkJ%jKj%%%%%%J%kJ%J%%jj%Kjk%J%
-286A2JkLk%JJj%Jk%J%jJ%j%%K%jJ%%jJJJlK%k%%%JkJ%jK%j%%%JjJ%j%jK%jLkkLk%jKj%j%
-302A2K%kJjK%%%jJjJ%j%%%Kk%%jJJjKjJj%kJkJ%%Kk%%jKjjKjJ%jLk%J%J%jj%%jJ%%%%jLk
-318A3%%jjJ%KjkLk%JJjjKjkJ%J%%jJkKJlKkKj%JjKjJj%jlQnjjKJjkMj%kK%j%JJ%%kKj%%%
-334A3Ll%J%j%JjjJJ%k%%%%LmKjkL%j%J%Jj%Kk%%%j%JJlK%%J%j%%JjJ%kKj%Jj%%%%%J%%j%
-350A3%JjKk%Jj%KjKjkK%kKjJ%kJJjJ%jLmJjLjkJ%jJJlKjj%J%Jj%Jj%%%J%jKj%jJj%%J%j%
-366A3%jJjKj%Jk%j%KjJ%%%j%K%jJk%KkK%%%J%k%jJ%Jj%j%K%jJ%j%%Kj%J%kKjlK%J%%%j%J
-382A4%%kJJlJ%Kjj%KkJ%KjJj%jjk%PoJjKjj%J%J%Jj%JjkK%%%%kK%JlK%jJJkKjj%JjJjJj%
-398A2J%j%%Kjj%JJkJ%kJJj%KjjjK%%%%%JjJjJj%%%%JkJJj%JjJj%J%%%jJ%kJ%j%%%%JJkjJ
-414A2%J%KlKjkKJkjKLl%KkJJkJj%J%%JjjJk%K%%%kK%%jJ%Jj%%%%JjjjJ%%%%%%jJkJJ%j%%
-430A2KjJ%%jLlLlJJJj%j%j%JJJ%jJmKjJj%jK%k%KjKjJ%k%J%Kk%jLlKjJjJkLjJmK%KLmKnM
-446A6j0J6j0jK%j%KlJKKm%K%kJJJjKk%%%kKjJkJJKlJkJ%%Jj%Jk%j%%Lj%%%%jJ%j%JjJjLk
-462A3K%%kJ%%jJkKj%J%%%jJj%%J%jJ%k%%K%%Jj%%%%jJjJk%%JjJ%%jJ%JjJkKjJk%kK%%jLj
-478A3JlK%%KlKjJ%jJ%%%j%KjlKkJ%%jK%%Jj%j%J%%%kKjJJj%%%JjKl%Kk%JjK%%%JlLjKj%j
-494A4JkKjJkJjKjJ%jjLkkJ%J%%%J%lKJ%jj%Kj%%Jl%%KJlLJnJ%KlLjLkJkMmjK%jjJJj%%%%
-510A3%%%jJ%%jJKjjJkK%%%%kJjKj%%j%J%%JkKj%%jJ%Jj%KmKKkJj%%J%jJj%%%%j%Jj%JkK%
-526A3%kLjJ%kJ%J%jJ%%Jk%J%j%%%Kk%JJkKkj%LlKpNj%MkJ%jKkKjJ%jjJ%JjjJj%%%J%jjJj
-542A2JJj%%JJk%jKJk%J%j%%%%%J%JlJLkjjjLjJ%jJ%jJjJ%%%%%Jjj%Jj%Kk%%Jj%jKJjJj%%
-558A4jKkJJ%j%jJ%%JkJ%j%%lMjJJmK%%LmKjJ%KlJ%JkJJkjJ%%%jJ%%JJ%jj%kK%%%%kJ%K%%
-574A4Jj%J%kJjJk%Kj%%jJjKj%%%%JkKjJ%JkJ%%jjJ%%%%%%%%JjJjKlKkKj%%%J%k%Jj%JjKk
-590A2J%%J%kJJJ%kMmkPkjk%JjJJjjJjJjJJk%%KkjKJlK%%%kJjjM%jj%JjjJJj%%%%%%%Jj%j
-606A2KkJj%LlK%%%j%J%JkKj%%%%%jJ%j%%J%%Jj%%%jJjjK%jJ%j%J%j%JJ%k%J%%%kK%%%%Mn
-622A3mLL%%nKKjjLlJj%jLjj%%JjKj%jJ%Jl%%%KkK%Jj%%JjjJ%kKKlJ%JkKj%J%jj%kL%%jJJ
-638A4j%%KjJjj%%JJjjJj%J%%%jJJj%kLjjJ%%%jJ%jjJ%%j%K%%kJjJKj%kjKkJ%KmMkJLkjKk
-654A3j%JKj%jJkKJj%Jj%jK%jjJ%%%jjjJ%%%%Jj%%Jj%%%%j%JjJJJl%J%%%%K%k%%%Jj%JjJ%
-670A3jKJkjJ%%j%KkKlLk%jLj%%Kk%K%mMjJkKKk%JoPJloNNOoj5J2jj0J6j5PJMkl%NljkJKk
-685A3jMjjjKj%%%j%K%%%lKJkjLlJjJjjJKj%jMmKj%%j%%J%kJ%MljKlJKjjJjKlKKjk%J%%%%
-701A3Jk%KjjKjJlKJjj%%J%j%J%%JjjKkKjJJ%jJ%lLj%LmjKjjK%%%%Jl%%K%lJJ%J%Jjj%%Km
-717A1L%%k%J%%jJ%jJ%%%J%jJj%Jj%jJ%j%Jj%JLlj%J%J%j%%JkJKkjJ%JjJ%jj%%JjJ%JlKjJ
-733A3%jJ%jjJJ%kK%kKj%JjKkjKjJ%Jk%JKkOnKj%kKkJk%K%%jJ%j%%Jj%JkJ%Kj%kK%j%%Jj%
-749A3J%jJj%KjjJkJ%%J%j%%jK%JkJJljKJ%jJ%%k%J%%%%%JJk%%%%J%Jjj%Jj%%JjJ%kJ%JJk
-765A3JjKk%J%j%JjjJ%JJmNlJjj%Kj%%%%J%%jJ%%k%KjjJ%jJjKjJJkJ%jjJJjJ%%%kKJj%%%j
-781A3jJ%%JJkj%JjMkJlL%kJ%%jjJjKJkJj%%kKjjJ%%jKjkMjj%JjLj%JjjKk%jKjJj%KlMlJ%
-797A4kLKmJkJkL%mLKJjjlLlKjLjkK%j%%KlKkJJkL%jkJjJ%Jj%%kKJj%%jJjJJjjJ%jJKkkMj
-813A4Jj%j%J%j%J%JkJ%kjKJj%Jj%j%J%JJlJj%%%JJj%jJJ%%%kJj%JJkJJj%j%%JKj%JkkJJj
-829A2JkKjKj%%%%%jKjjKlL%%kKjjJJk%JJ%jkLj%jKjJj%jKjjJ%kLlK%%%jJLn%K%%jKkJ%Jj
-845A3JjjJ%%%Jj%%J%%%k%MlJ%%%J%%j%kLkJkJ%j%JJ%kJKkKJkKjjk%KJ%jjjK%%%jKjjJkJJ
-861A4j%j%J%jJJjJ%jKjJk%K%kJjJj%Kj%J%j%jKjj%jL%lK%kKkKkJ%jKj%%%J%j%kLjjJ%%jK
-877A4jJ%j%%j%%%%%JkKjJ%KkJj%jLkJJjkJ%jKJkjjLlOoL%JnMjJj%jJ%JjKjjJj%JkJjKj%%
-893A3JjJj%%Jj%J%j%%%%J%jjJ%JjKkJjJ%%JjjkJK%%j%jKkJ%JjjJ%%%%%jJkLjJj%j%Kj%j%
-909A2JJj%%%jJ%jJ%j%J%J%KpMnQLlqJLk%JLjkJJ%%jK%Jl%KJkKlMjj%%j%J%jJj%K%%kJjJ%
-925A4j%%kJJ%%%jJjJj%KkjLkJkJ%JjJ%%Jk%JJ%jj%J%jJjJk%JJ%j%j%JKjjjJ%%jJjKjj%JJ
-941A3j%%%jJjK%LnLkOqLJjKkKkJ%JkJ%%j%Jj%j%JJkKjJj%%jK%kJJj%%%%%JjjJjJ%%%%kKJ
-957A4%jjLkkJ%%kKKk%%J%j%JjJ%%%%jJ%J%%j%%%%%%%%%%JjJjJjJj%JJlJK%j%%%JlL%k%J%
-973A4Jk%jJk%JJ%JjJ%kK%%JJ%kkL%kJjjKjJkLjlK%%%Jj%J%j%%JjJjjJjJj%Jj%%%JjJjKj%
-989A3%%%lJK%kJJ%%jJ%j%J%k%J%%%J%kK%j%JjJjjJ%%J%jJ%%%jJJ%j%%%%jLk%%LlJjJj%jJ
-1005A3kJjK%jJJj%%%%J%j%JjJkjKKjjJ%%j%jJj%%J%JlK%%%%jJkJJjKJlJJkKlL%%%j%Jj%%
-1021A3%J%Jk%jJ%%%Jk%J%%Jk%jJJJkK%%%%kLkJjKlK%%lNjKmjMoJKkJJkL%%%nOjjjLjJkKk
-1037A3%JkK%%Jj%j%LkjKJl%J%%Jj%jJ%J%k%JkJJj%JjJkKkJ%%J%mK%J%Jj%j%LjjJJk%JjJ%
-1053A4Jj%jJj%jKj%Jj%JjjJJ%JjJlJ%jKj%JkJJ%%Kn%K%KlJjLkJjJ%jJj%%Kk%J%%%jKjjKj
-1068A4jJ%%%jJjjKjJj%J%j%J%jjKj%%%JkJJkKJkj%JJjJkJ%%jKk%KjJj%KkJJk%%%%%JKmJj
-1084A2JKlJjJ%%%JjjKjj%J%%J%%jJkJlKMnMk%%KkJk%KJkKj%j%%KkJ%jJjJj%JjJ%j%Jj%%J
-1100A4jJjJjjK%kK%%jj%%J%kLkjLjkK%jJJ%jKk%KjJjj%%%%JkJJjj%KjJ%%J%jjJ%%j%%%J%
-1116A4jj%J%Jj%jKj%%jK%J%j%jJ%%kK%JkK%j%jJ%%Jk%KJkJkJJjjJ%j%KkJj%JjJ%k%%JjJ%
-1132A3%%%J%kLlKkLjJjJkLkjJ%%JkKkLkJj%jJkJJJk%J%jLlJ%JJmJKlL%jkJMkJnNjkmOlkP
-1147A7Lj3Pj1j4nQ1q6J32p9Pm4M4m6K8jj2nJ7jnLqPkMjlKnKJJk%NmJ%kL%kkJJ%%JjkjK%%
-1160A3LkJjjJ%Jj%JjjJ%%%Kjj%jj%JK%jJk%kKJ%jKlJkLkJJj%Jj%%%%%%JjKlKjJ%%%JjJj%
-1176A4%%jJ%%%%lK%jLlKnLJkKJkJ%%%%%J%%%%%%j%KjJk%JKkJ%k%J%%%%jJ%kK%J%jjKj%%%
-1192A4k%JJlJ%%%jL%lJJjJ%%%j%K%j%J%%kJJ%%jJj%jJJj%J%jJ%jKjjJJjJjJjjJj%%j%J%%
-1207A3kPmkjJj%JJJJkJjJ%%%%jJj%JkJ%Jj%%JjKkJjJJj%%%%%%JjjJjJ%%%jJ%j%jJK%kK%%
-1223A5%j%jj%KjjJJj%%%JjjJJjJj%%%JjkL%JjkL%jj%Jj%%JkJjKkJ%kLkJ%%kMkkLlOknKKk
-1239A2%JJ%%jJ%jjJJ%kKj%%JlK%%jJjKjJlK%JjJjJjJ%jjKkjJJ
-1250A3
##$OBSERVED MULTIPLETS=	(I, X, Y, Hs, Vs, An, H, C, N, (J))
$$ I: Multiplet Index
$$ X: Strt Coordinate
$$ Y: End Coordinate
$$ Hs: Horizontal Chemical Shift
$$ An: Normalised Integral Area
$$ H: Hydrogens
$$ C: Category
$$ N: Name
$$ (J): Coupling Constants
(1, 110.75331383864390489, 110.87506918973922154, 110.81419151419156321, 2, 2, s, 1&comma;2)
##$OBSERVED MULTIPLETS AREAS=	
(1, 2.4708746998654227411)
##$OBSERVED MULTIPLETS PEAKS=	(I, X, Y)
$$ I: Multiplet Peak Index
$$ X: Peak x Position
$$ Y: Peak Intensity
(1, 110.81419151419156321, 0.2372424626192020658)
##$PREDICTED PEAKS=	(X Y T A)
(110.80291143080766858,  , 4.6500000000000003553, <1>)
(110.80291143080766858,  , 4.6500000000000003553, <2>)
##$PREDICTEDCOUPLINGCONSTANTS=	J(A,B)	$$ (Hz)
152.58(1, 1)
152.58(2, 2)
##END=		$$ NMR SPECTRUM
##TITLE=	Predicted 13C NMR Spectrum
##JCAMP-DX=	6.0	$$ MestReNova 17.0.1-41952
##DATA TYPE=	NMR PEAK TABLE
##DATA CLASS=	PEAK TABLE
##BLOCK_ID=	4
##ORIGIN=	Mestrelab Research S.L.
##OWNER=	ctheodore
##CROSS REFERENCE=	NMR SPECTRUM: BLOCK_ID=3                                     
##.OBSERVE FREQUENCY=	125
##.OBSERVE NUCLEUS=	^13C
##NPOINTS=	1
##FIRSTX=	110.81419151419156321
##LASTX=	110.81419151419156321
##XFACTOR=	1
##YFACTOR=	1
##FIRSTY=	0.2372424626192020658
##XUNITS=	PPM
##YUNITS=	ARBITRARY UNITS
##PEAK TABLE=	(XYW..XYW)
110.81419151419156321,0.2372424626192020658,0.012175535109530857825
##$MNOVA/PEAK_DATA_TABLE=	(T,F,A,ST,SP,APT,APC)
$$ Complementary to PEAK TABLE
$$ T: Type
$$ F: Flags
$$ A: Annotation
$$ ST: Shape Type
$$ SP: Shape Parameter
$$ APT: Attached Peaks Type
$$ APC: Attached Peaks Count
Compound,None,,1,0.020604946572864268894,0,0
##END=		$$ NMR PEAK TABLE
##END=		$$ LINK
