##TITLE=	conj ketone 13c
##JCAMP-DX=	6.0	$$ MestReNova 17.0.0-41178
##DATA TYPE=	LINK
##BLOCKS=	4    
##ORIGIN=	Mestrelab Research S.L.
##OWNER=	ctheodore
##$MNOVA/METADATA=	(DOCUMENT,BASE64)
eyJuYW1lIjoiL1VzZXJzL2N0aGVvZG9yZS9Eb2N1bWVudHMvY2xhc3Nlcy9OTVIgZXhwZXJpbWVudC9
naXRodWIgZmlsZXMvY29uanVnYXRlZCBrZXRvbmUvY29uaiBrZXRvbmUgMTNjLm1ub3ZhIiwicGFnZX
MiOlt7Iml0ZW1zIjpbIjEiLCAgICAgICAgICAgICAgICAgICAgICAgICAgICAgICAgICAgICAiMyIgI
CAgICAgICAgICAgICAgICAgICAgICAgICAgICAgICAgICAgXX1dfQ==
##TITLE=	
##JCAMP-CS=	3.7	$$ MestReNova 17.0.0-41178
##BLOCK_ID=	1
##ORIGIN=	Mestrelab Research S.L.
##OWNER=	ctheodore
##$MNOVA/METADATA=	(ITEM,BASE64)
eyJhbmdsZSI6MC4wLCJwb2ludHMiOlt7IngiOjUzMjEuMCwieSI6NTgzNS4wfSx7IngiOjU3NzAuMDA
xNjk2NDc5MTU3LCJ5Ijo1ODM1LjB9LHsieCI6NTc3MC4wMDE2OTY0NzkxNTcsInkiOjYwODMuMTIyMD
I5NDUzNTk5fSx7IngiOjUzMjEuMCwieSI6NjA4My4xMjIwMjk0NTM1OTl9LHsieCI6NTMyMS4wLCJ5I
jo1ODM1LjB9XSwieiI6MS4wfQ==
##NAMES=	
##ATOMLIST=	
$$ AN	AS	NH
	1	C	3
	2	C	 
	3	C	1
	4	O	 
	5	C	1
	6	C	3
##BONDLIST=	
$$ AN1	AN2	BT
	1	2	S
	2	3	S
	2	4	D
	3	5	D
	5	6	S
##MAXRASTER=	32768
##XY_RASTER=	
$$ AN	X	Y	Z
	1	-32767	14190	0
	2	-16385	4728	0
	3	0	14190	0
	4	-16385	-14190	0
	5	16385	4728	0
	6	32767	14190	0
##END=		$$ JCAMP-CS
##TITLE=	Predicted 13C NMR Spectrum
##JCAMP-DX=	6.0	$$ MestReNova 17.0.0-41178
##DATA TYPE=	NMR PEAK ASSIGNMENTS
##DATA CLASS=	ASSIGNMENTS
##BLOCK_ID=	2
##ORIGIN=	Mestrelab Research S.L.
##OWNER=	ctheodore
##CROSS REFERENCE=	STRUCTURE: BLOCK_ID=1                                     
NMR SPECTRUM: BLOCK_ID=3                                     
##.OBSERVE FREQUENCY=	125
##.OBSERVE NUCLEUS=	^13C
##NPOINTS=	5
##XUNITS=	PPM
##YUNITS=	ARBITRARY UNITS
##PEAKASSIGNMENTS=	(XYWA)
(27.971826900959115392, 0.15056778490543365479, 0.0060596777663857182006, <1>)
(197.65235699364430388, 0.048570238053798675537, 0.0060596762264140124898, <2>)
(131.78390540928253927, 0.075534716248512268066, 0.0060596768724394678429, <3>)
(143.74017665380694098, 0.075534716248512268066, 0.0060596774525407681722, <5>)
(18.216725519494680441, 0.13773976266384124756, 0.006059677448284617185, <6>)
##END=		$$ NMR PEAK ASSIGNMENTS
##TITLE=	Predicted 13C NMR Spectrum
##JCAMP-DX=	6.0	$$ MestReNova 17.0.0-41178
##DATA TYPE=	NMR SPECTRUM
##DATA CLASS=	XYDATA
##BLOCK_ID=	3
##ORIGIN=	Mestrelab Predictor
##OWNER=	ctheodore
##NUMDIM=	1
##$MNOVA/METADATA=	(ITEM,BASE64)
eyJhbmdsZSI6MC4wLCJheGVzIjp7IngiOnsibWF4IjoyMzAuMDI1MzAyNzgzMzA2MTYsIm1pbiI6LTk
uOTk5MjY4ODY0ODg3NjM4fSwieSI6eyJtYXgiOjAuMTY1NjI0NTYzNTgyMjQxNTQsIm1pbiI6LTAuMD
E1MDU2Nzc1MzY0MzgzOTl9fSwicG9pbnRzIjpbeyJ4Ijo1MzIxLjAsInkiOjU4MzUuMH0seyJ4Ijo4N
zIyLjAsInkiOjU4MzUuMH0seyJ4Ijo4NzIyLjAsInkiOjgyMDguMH0seyJ4Ijo1MzIxLjAsInkiOjgy
MDguMH0seyJ4Ijo1MzIxLjAsInkiOjU4MzUuMH1dLCJ6IjowLjB9
##.OBSERVE FREQUENCY=	125
##.OBSERVE NUCLEUS=	^13C
##.SOLVENT NAME=	DMSO-d6
##.PULSE SEQUENCE=	
##.ACQUISITIONMODE=	SIMULTANEOUS (DQD)
##$ORIGINAL FORMAT=	Predictor
##$MNOVA/SCALES_VERSION=	9
##$PARAMETER FILE=	(parameters, ASCII, , 0)
$$ <?xml version="1.0" encoding="utf-8"?>
$$ <PredictorParameters>
$$     <Title>Predicted 13C NMR Spectrum</Title>
$$     <Origin>Mnova: NMR Prediction</Origin>
$$     <Name>Mestrelab Predictor</Name>
$$     <Version>1.7</Version>
$$     <Nucleus>13C</Nucleus>
$$     <Solvent>DMSO-d6</Solvent>
$$     <From>-10</From>
$$     <To>230</To>
$$     <Frequency>125</Frequency>
$$     <LineWidth>1.5</LineWidth>
$$     <Size>131072</Size>
$$     <DEPT>0</DEPT>
$$     <ProtonatedCarbons>0</ProtonatedCarbons>
$$     <ExcludeLabile>false</ExcludeLabile>
$$     <FastPrediction>0</FastPrediction>
$$     <ProtonDecoupled>1</ProtonDecoupled>
$$     <Reference/>
$$     <Options>
$$         <Settings>
$$             <Predictor Name="Mestrelab Predictor">
$$                 <Settings>
$$                     <Model>/Applications/MestReNova.app/Contents/Resources/data/13C.mbst</Model>
$$                 </Settings>
$$             </Predictor>
$$         </Settings>
$$     </Options>
$$     <MoleculeID>{abd811cd-c9e9-4eb5-925c-34ad93ae92b8}</MoleculeID>
$$ </PredictorParameters>
$$ 
##XUNITS=	HZ
##YUNITS=	ARBITRARY UNITS
##FIRSTX=	28750
##LASTX=	-1249.7711181640625
##DELTAX=	-0.2288818359375
##XFACTOR=	1
##YFACTOR=	7.0113588578788208027E-11
##FIRSTY=	1.4530598058115629101E-08
##MINY=	3.3124238907333847237E-09
##MAXY=	0.15056778490543365479
##NPOINTS=	131072
##XYDATA=	(X++(Y..Y))
28750B07q%%Q%q%Qq%%%Q%j6Q%%%%%%%%%%%%%%%%%%%%%%%%%%%%%%%%%%%%%%%%%%%%%%%%%%%
28735A99%%%%%%%%%%Qq%%%%%%%%%%%%%%Qq%%%%%%%%%%%%%%%%%%%%%%%%%%%%%Qq%%%%%%%%Q
28719B07q%%%%%%%Qq%%%%%%%%%%%%%%%%%%%%%%QqQq%%%%%%%%%Qq%Q%%%qQq%%%%%%%%%%%%q
28704A91%Q%%%%%%%qQ%%%%%%%%%%%%%%%%%%%%%%%%%%%%%%%%%%%%%%%q%Q%%q%QqQ%%%%%Q%q
28688A99%%%%%%%%%%%%%%%%%%%%%qQ%%%%%%%%%%%%%%%%%%%%%%qQ%%q%Q%%%%%%%%%%%%%%%%
28672A99%qQ%q%Q%%%%%%%%%%%%%%%%%%%%%%%%%%%%%%%qQ%q%Q%%qQ%%%%%%%%%qQqJ6q%Qq%%
28657A99qQ%%%%qQ%q%Q%%%%%%qQ%qQ%%q%Q%qQq%%Qq%%Q%%%%%qQ%%qQqQ%%%%qQ%q%QqQq%%Q
28642A99%qQq%Q%%%%%qQqQ%qQqQ%qQ%q%QqQq%QqQq%%%%%Qq%%Qq%Qq%%QqQq%QqQ%%%%%%%%q
28626A91QqQ%q%%QqQ%%qQ%%q%%Qq%%%%%%%%%%Qq%%QqQq%QqQqQq%%%%%%%%%%%%%%Q%%qQ%%%
28610A99%q%%%%%%%%%%%%%%%%%%%%%%%%%%%%%%Qq%Q%%%q%Qq%%%%%%%%%%%%%%%%%%%%%%%%%
28595A91%%%%%%%%%%%%%%%%%%%%%%%QqQq%%%%Qq%%%%%%%%%%%%%%%%%%%%%%%%%%%%%%%%%%%
28579A91%%%%%Qq%%%%%%%%QqQqJ6j6j6J6%%%%%%%%%q%Q%qQ%%%%%%%qQ%%%%%%%%%qQ%%%%%%
28565A91%%%%%%%%%%%%%%%%%%%%qQ%%%%%%%%%%%%%%%%%%%%%%%%%%%%%%qQ%%%%%%%%%%%%%%
28549A91%%%%%%%%%%%%%%%%qQ%%%%%%%%%%Qq%%%%%%%%%%%%%%%%%%%%%%%qQ%%qQ%%qQ%%qQ%
28533A91%%%%%%%%%q%Q%%%qQqJ6q%j6K4Qk4qqQJ6J6qk4%L2j6Qq%Qj6%J6q%Qq%%qQqQq%%%%
28520A83%%%%Q%q%QqQq%QqQ%%%%%%%%qQ%%%%%%%%%%%%%qQ%%%%%%%q%%%%Qq%QqQqQqQ%qQ%%
28505A91qQ%%%%%%qQq%Q%%%qQ%qQ%%%%%%%%%%%%%%%%%%qQ%qQ%%%q%%%%%%%%%%%%%%QqQqQ%
28489A91q%Q%%%%%%%%q%%Qq%%%%Q%%%%%%%%%%%%%%%%%%%%q%Qq%%%%Qq%%%%%%%%%%%%%%%%%
28474A83%%%%Qq%%%Qq%%%%%%%%%%%%%%%%Qq%%%%%%%%%%%%%%%%Qq%%%%%%%%%%%%%%%%%%%Qq
28458A83%%qJ6qQq%%%%qJ6q%QQqQ%j6%Qq%%%QqQ%qQ%qQ%%qQq%Qq%Qq%QqQq%%Qq%%%%%%%%%
28443A83%%%%%%%%%Q%q%Q%%q%Qq%%%%%%%%%%%%%%%%%%%%%%%%%%%%%%%%%%%%%%%%%%%%%%%%
28428A83%%%Qq%%%%%%%%%%%Qq%%%%%%%Qq%Qq%%%%%%%%%%%%%%%%%%%%%%%%%%%%%%%%Qq%%%%
28412A83%%%%%%%%%qQ%Qq%%%%%%%%%%%%%%%%%%%%%%%%%%%%%%%%%%%%%%%%%%%%qQ%%%%%%qQ
28397A83%%%%%%%%%%%%%%%%%%%%%%%%%%%%%%%%%%%%%%%%%%%%%%%%%%%%%%qQ%%%%%%%%qQ%%
28381A83%%%Qq%Qq%%%%%%%%%%%%%%%%%%%%%%%%%%qQ%%%%%%%%%%%Qq%%%%%%%%%qQ%%qQ%%%%
28365A83%%%%%%qQ%%%%%%q%%%%%%%%%QqQ%%%%qQ%%%%%%%%%%%%%%%%%%%%%%%%%%%qQ%qQqQ%
28350A83%%%%%%%%%qQ%%%q%Qq%%%Q%%qQ%%%%%q%%%Q%%Qqj6J6%%j6K4j6Q%%%%%%%%%%%%%%%
28335A83%%%%q%Q%%%%%%%%%%%qQqQq%%%%Qq%%%%QqQ%q%%%%%%%Q%%%%%%qQ%%%%%q%%%Q%%q%
28320A75Qq%%%%%%Q%q%%%%%Qq%%Q%qQqQq%Q%qQ%q%%Qq%%QqQ%%qQ%%qQqQ%q%%%Q%%q%%%QqQ
28304A83q%Q%%%%%%qQ%q%%%Qq%%%Q%%%%%q%Qq%%Q%qQ%%%%q%Q%%qQqQ%Qqq%Q%%qQqQ%q%Qq%
28289A75%Q%q%Q%%%%%%q%%Qq%Qq%Qq%%%%%Q%%%q%%%%Q%q%Q%%qQq%J6qqQ%%%%%q%%%QqQq%%
28273A75%%%%%%%%%%%%%%%%%%%%%%%%%%%%%%%%%%%%%Qq%Q%q%%Q%qQq%%%%%%Qq%%%%%%%%%%
28258A75%%%%%%%%%%%%%%%%%%%%%%%%%%%%%%%%%QqQq%%Q%q%%%%%%%%%%%%Qq%%%Q%qQq%%%%
28242A75%Q%%q%%%%%Qq%%%%%%%%%%Qq%Qq%%%%%%%%%%%qQ%QqQq%%%%%%%Qq%%%%%%%%%%%%%Q
28227A83q%%%Qq%Qq%%%%%%%QqQ%%q%Qq%Qq%%%QqQqQq%%%%%%%%%%%%%%%%%%%%%%%Qq%%%%%%
28211A75%%%%%%%%%%%%%%%%%%%%%%%%%%%%Qq%%%%%%%%%%%%QqQq%%%%%%%%%%%%%%%%%%%%%%
28196A75%%%%%%%%Qq%%%%%%%%%qQ%%%qJ6q%%%%Qq%%%%%%%%%%%%%%%%%%%%%%%%%%%%%%%%%%
28180A75%%%%%%%%%%%%%%%%%qQqQ%%q%Q%%%%%%%%%%%%%%%%%%%%%%%%%%%%%%%%%%%%%%%%%%
28165A75%%%%%%%%%%%%%%qQ%%%%%%%%%%%%%%%%%%qQ%%%%%%%%%%%%%%%%%%%%%%%%%%%qQ%%%
28149A75%%%%%%%%%%%%%%%%%%%%%%%%%%%%%%%%%%%%%%%%%%qQ%%%%%%%%%%%%%%%%%%%%%%%%
28134A75%%%%%%%%%%%%%%%%%%%%%%qQqQqQqQ%%%%%%%%%%%%%%qQ%%%%%%%%%%q%QqQ%%%%%%%
28118A75%%%q%Q%%qQ%%%%%%%%%%%%%%%qQ%%%%qQqQ%%q%%%Q%qQq%QqQ%%qJ6j6%Q%%%%%%%%%
28103A75%%qQqQ%%%%%%%qQ%%qQ%%%qQ%qQqQ%%%%%%%%%%%%%%%%%%%%%%%%%%%%qQ%%%%%%qQ%
28087A75%%%%%qQqQ%%%%%%%%qQqQ%%q%Q%qQ%%%%%%%%qQ%%%%%qQ%%%%%q%Qq%%Qq%%%%%%QqQ
28072A75%%%qQ%%%%%%%%%%%%%%%%%%%%q%QqQ%%%qQ%q%QqQqQ%%qQ%qQqQq%%QQq%%Qj6%QqQ%
28056A75qQ%%%%%%qQqQqQqQ%%%%%%qQq%%%%Q%%qQ%%qQ%%q%Qq%QqQ%%%qQqQqQ%%%%%%%%qQq
28041A67%QqQ%qQ%%%%%qQ%%qQq%%%%%%Q%q%%%%%%QqQ%%%%%%qQq%%Q%qQq%%%Qq%%Qq%%%Qq%
28025A67Qq%%Q%q%Qq%%%Qq%QqQ%%%%%%%%qQq%Q%%%%%qQq%Q%%q%%Q%%%q%%%%%%%%%%%%%%%%
28010A67%Qq%%%%%%%%%%%%%%%%%%%%%%%%%%%%%%%%%Q%%qQ%qQqQ%qQ%q%%QqQ%%qQq%%%Qq%%
27994A67%Q%qQq%QqQqQ%%%%%%%%%%%q%%Q%%%%%q%Q%qQ%q%QqQq%QqQ%q%Qq%%%Q%qQq%%%%%%
27979A67%%%%%%%%%%%%%%%%%%%%Q%%qQ%q%%Qq%%Qq%%%Q%qQ%qQ%%%q%%%%%%%%%%%%%%%%%%%
27963A67Qq%%%%%%%QqQqQq%%%%%%%%%%%%Qq%%Qq%Q%q%%%%%%%%%%%%%%%%%Qq%%%%%%%%%%%%
27948A67%%%%%%%%%%%%Q%qQ%%%%q%Qq%%%%Qq%%Qq%Qq%%%%%%%%%%%%%Q%%%q%%%Q%q%Qq%%%%
27932A67Qq%%%%Q%q%%%%%%%%%%%%%%%%Qq%%%%%%%%%%%%%%%%%%%%%%%%%%%%%%%%%%%Qq%%%%
27916A67%%%%%%%%%%%%%%%%%%qQ%%%%%%%%%%%%%%%%%%%%%Qq%%%%%Q%qQq%%%%%%%%%%%%%%%
27901A67%%%%%%%%%%%%%%%%%%Qq%%%%%%%%%%%%%%%%%%%%%%%%%%%%%%%%%%%%%%%%%%%%%%%%
27885A67%%%%%%%Qq%%Qq%%%%%%%%%%%%%%%%%%%%%%%%%%%Qq%Qq%%%Qj6J6q%%%Qj6K4q%qM0k4
27871A83j6qK4k4%QqJ6q%Q%q%%%QqqQQ%q%%%qQ%%%%%%%%%Qq%%%%%%Qq%%%%%%%%%%%%%%%%%
27856A67%%%%%%%%%%%%%%%Qq%%%%%%%%%%%%%%%%%%%%%%%%%%%%%%%%%%%%%%%%%%%%%%%%%%%
27841A67%%%%%Qq%%%%%%%%%%%%%%%%%%%%%%%%%%%%%%%%%%%%%%%%%%%%%%%%%%%%%%%%qQ%%%
27825A67%%%%%Qj6%J6q%%%%%%%%%%%%%%%%%%%%%%%%%%%%%%%%%%%%%%%%%%Qq%%%%%%%%%QqQ
27810A75qqJ6q%%%%%%%%%%%%%%%%%%%%%%%%%%%Qq%%%%%%%%%%%%%%%%%%%%%%%%%%%%%%%%%%
27795A67qQ%%%%%%%%%%%%%%%%%%%%%%%%%%%%%%%%%%%%%%%%%%%%%%%%%%%%%%%%%%%%qQ%%%%
27779A67%%%%%%%%%%%%%%q%QqQ%%%%%%%%%Qq%%%%%%%%%%%%%%%%%Qq%%%%%%%%%%%%qQ%%%%%
27764A67%%%%%%%%%%%%%%%%%%%%%%%%%%%%%%%%%%%%%%%%%%%%%%%%%%%%%%%%qQ%%%%%%%%%%
27748A67%%%%%%%%%%%%qQ%%%%%%%%%%%%%%%%%%%%%%%%%%%%%%%%%%%qQq%Q%%%%%%%%%%%%%%
27732A67%%%%%%%%%%%%%%%%%%qQ%%%%%%%%%%%%%%%%%%%%%Qq%Q%j6%QqQq%J6j6%Q%%%%%qQq
27718A59Q%%%%%%%%%%%%%%%%qQ%%%%%%%%%%%%%%%%qQ%%%%%Qq%Qq%%%Qq%%%%%%%%%%%%%%%%
27702A67%%%%%%%%%%%%qQ%%%%%%%%%qQ%%qQ%%%%%%%%%%%%%%%%%%%%%%%%%%%%%%%%%%%%%%%
27686A67%%%%%%%%%%%%%%%%%%%%%%%qQ%%%%%%%%qQ%%%%%%%%qQ%%%%%%%%%%%%%%%%%%%%%%%
27671A67%%%%%%%%%%%%%%%%%%qQ%%%%%%%%%%%%%%%%%%%qQ%%qQ%%%%%%%%%%%%%%%%%%%%%%%
27655A67%%%%%%qQqQ%%qQqQ%qQ%%%%%%%%%%%%%%qQ%%%%%%%%%%%%%%%%%%%%%%%%%%%%%%%%%
27640A67%%%%%%%%%qQ%%qQ%qQ%%Qq%%%%%%%%%%%%Qq%%%%%qQ%%%%%qQ%%%qQ%%%%q%%Q%qQ%%
27624A67%%%%%%%%q%Qq%%Q%q%Q%%%qQqQ%q%Q%%%%%%%%%%qQ%%%%%%%%%%%%%%qQqQ%%%%%%%%
27609A67%%%%%%%%%qQ%%qQ%%%%%%%%%%%%%%%%%qQ%%%q%Q%%%%%%%%%%%%qQqQ%%%%%%%%%%%%
27593A67%%qQ%%qQ%Qj6%%%QQ%j6Qj6K4j6Q%%%%%%%%%%%%%%%qQqQqQ%%%%%%%%%%%%%qQ%%%q
27579A59Q%%Qq%%%%%%qQ%q%Qq%Q%%%%%qQqQ%%q%%Q%%%%%%qQ%qQ%%qQ%%%%%%%%%%%q%%Qq%Q
27563A67%%%%%%%%%%%%%%%%%%%%%%%%%%%%%%%%%%%%%%%qQ%%%%%%%%%%%%%%%%%%%%%%%%%%%
27547A67%%%%%%%%%%%%%%%%%%%%%%%%%%%%%%%%%qQqQqQqQ%%%%%%%%%%qQ%%%%%%%%%%%%%%%
27532A67%%%%%%%%%%%%%%%%%%%%%%%%%%%%%%%%%%%%%%%%%%%%%%qQ%%%%%%%%%%%%%%%%%%q%
27516A59Q%qQqQ%%%%%%%%%%%%%%%%%%%%%%%%%%%%%%%%%%%%%%%%%%%%%%%%%%%%%%%%%Qq%%%
27501A67%%%%%%%%%%%%%%%%%%%%%%%%%%%%%%%%%%%%%%%%%%%qQqQ%%%%%%%%%%%%q%Q%qQ%%%
27485A67%%%%qQ%%%%%%%%%%%%qQ%%%%%%%%%%%%%%%%%%%%%%%%%%%%%%%%%%QqQq%%%%%%%%%%
27470A67%%%%%%%%%%%%%%%%%%%%%%%%%%%%%%%%%%%%%%%%%%%%%%%qQ%qQ%%%%%%%%%%%%%%%%
27454A67%%%%%%%%%%%%%%%%%%%%%%%%%%%%%%%%%%%%%%%%%%%%%%%%qQ%%%%%%%%%%qQ%%%%%%
27439A67%%%%%q%QqQqQ%qQ%%%%%%%%%%%%%%%%%%%%%%%%%%%%qQ%%%%%%%%%%%%%%%%%%%%%%%
27423A67%%%%%%%%%qQ%%%%%%%%%%%%%%%%%%%%%%%%%%%%%%%%Qq%%%%%%%%%%%%%%%%%%%%qQ%
27407A67%%%%%%%%%%%%%%%%%%Qqq%%Qq%Q%%%%%%%%q%Q%%%qQ%qQ%qQ%q%Q%%%%%%%%qQ%%%%%
27392A67%%%%%%%%%%%%%%%%%%%%%%%%%%%%%%%%Q%q%%%%%%%%%%%%%%%%%%%%%%%%%%%%%%%%%
27376A67%qQ%%%%%%%%%%%%%%%%%%%%%%%%%%%%%%%%%%%%%%%%%%%%%%%%%%%%%%%%%%%%%%%%%
27361A67%%%%%%%%Qq%%%%%%%%%%%%%%%%%%%%%%%%%%%%%%%%%qQ%%%%%%%%%Qq%%%%%%%Qq%%%
27345A67%%Q%qQq%%%%%qJ6%%qQqq%QQqQ%q%%%%QqQqQq%%%%%%%%%%%%%%%%Q%q%%%%%%Qq%%%
27330A67%%%%%qQ%%%%%%qQ%%%%%%%%%%%qQ%%%%%%%%%%%%%%%%%%%%%%%%%%%%%%%%%%%%%%%%
27314A67%%%%%%%%%%%%%%%Q%%%%%qQ%%qQ%%qQ%q%%%%%%%%%%%%%%%%%%%%%%%%%%%%%%%%%%%
27299A67Qq%%%%%%Qq%%%%%%%%%%%%%%%Qq%%%%%%%%%%%%%%%%%%%%%%%%%%%%%%%%%%%%%%%Qq
27283A67%%%%%%%%%%%%%%%%%%%%%%%%QqQq%%%%%%%%Qq%%%%%%%%%%%%%%Qq%Q%q%QqQqQq%%%
27268A67Q%q%%%%%%%%%%%%%%%%%%%%%%%%%%%%%%Qq%%QqQ%%q%%%%%%%%%%%Qq%Q%q%%%QqQq%
27252A67%Qq%%Qq%%%%%%%%Q%qQq%%Qq%%%%QqQq%%%%%%%%%%%%%%Qq%%QqQq%Q%q%%%%Qq%%Qq
27236A67%Qq%Q%qQq%%Q%%q%%%%%%Q%%q%Q%%%%%%%%%%%%%%q%Qq%%%%%%%Qq%%%%%%%%Qq%%Qq
27221A67%%%%%Qq%%%Qq%Qq%QqQq%%%%%%%%%%%%%%Qq%%%%%%%%%%%%%%Q%%%q%%%QqQqQqQ%%%
27205A75qQ%%%%qQ%q%%%%%%%%Qq%Qq%%%Qq%%QqQq%%%Qq%%QqQq%QqQ%q%%Q%%%%%%qQq%%Q%%
27190A75%%q%%%Q%qQ%q%%%Qq%Qq%%%%%%Qq%%Q%%q%Qq%%QqQqQqQ%%%q%%Q%q%%%%%%%%%Qq%Q
27174A75qQ%q%%%%%%%%QqQ%q%%Qq%Qj6QJ6%j6%Q%%%%qQq%%%%Qq%Q%qQ%%qQ%%qQ%%%%q%%%%
27159A67%%%%QqQqQqQ%%q%%%%Q%%qQ%q%%%Qq%%Qq%%%%%%%%Qq%Q%q%%%Q%q%%%%Q%%%%%%%%%
27144A75%%%%%%qQq%QqQ%%%%qQq%Q%q%Q%qQ%%%%%%%%%Qq%%%%%%%%%%%%%%%%%%%%%%%%%%%%
27128A75%%%qQ%qQ%%%%%%%%%%%%%%%%%qJ6k4J6%qQQj6Q%%Q%q%%%%%%qQ%%%%%%qQqQqQ%%%q
27113A67%%%%Qq%%%%%Qq%Qq%%Q%q%Q%%%%%%qQ%%%qQ%%%%%%%%%%qQqQ%%%%%%%%qQqQ%%%%%%
27098A75%%%%%%%%%%%%%qQq%Q%%%%%%%%%%%%qQ%%%qQ%%%%%%%qQ%%%%%%%%%%%%%%%%qQ%%%%
27082A75%%%%%%%%%%%%%%%%%%%%%%%%%%%%%%%%%%%%%%%%%%%%%%%%%%%%%%%%%%%%%%%%%%%%
27067A75%%%%qQ%%%%%%%%%%%%%%%Qq%%%qQ%%%%%%%%%%%%%%%%%%%%%%%%%%%%%%%%%%%%%%%%
27051A75qQ%%%%Qq%qJ6q%qQqQ%%%%%%%%%%%%%%%%%%%%%%%%%%%%%%%%%%%%%%%%%%%%%%%%%%
27036A75%%%%%%%%%%%%%%%%%%%%%%%%%%%%%%%%%%%%%%%%%%%%%%%%%%%%%%%%%%%%%%%%%%Qq
27020A75%%%%%%%%%%%%%%%%%%%%%%%%%%%%%%%%%%%%%%%%%Qq%%%%%%%%%%%%%%QqQqQq%Qq%%
27005A75Qq%%%%%%%Qq%%%%%%%%%%%Q%%q%%%%%%%%%%Q%qQ%q%%%QqQq%%%%%Qq%%%%%qQ%%%%%
26989A75%qQqQ%%%%%%%%%%%%%%%%%%%%%%%%%%%Qq%%%%%%QqQq%%%%%%%%%%%Q%%%%q%%Qq%%%
26974A75%%%%%%%%%%%%Qq%%%%%Q%q%Q%%q%%Q%q%%%%%%%%%%Q%qQ%qQqQ%qQ%%%%%%%q%%%Q%%
26958A83%%%%q%Q%q%%%%Q%%%%q%QqQ%qQq%Q%qQq%%%%%%%%QqQqQqQq%%QqQ%q%%Q%qQ%%%%q%
26943A75%Q%qQ%qQ%qQ%%qQ%%%%%%%%%%%%qQqQq%J6j6%%%J6k4J6Qk4K4j6QqqJ6%%%q%%%%%Q
26929A83%q%%%Q%%%%%%%q%Q%%%qQ%%%qQ%%%qQ%%qQqQ%%%qQ%%q%%Q%%qQ%%%%%%%%%%%%%%%%
26913A83%%%q%Q%%%qQqQ%%%%%%%%%qQ%%%%%%qQ%%%%%%q%Q%%%%%%%%q%QqQ%%%qQ%%%%%%%%%
26898A83%%%%%%%%%%%%%%%%%%%%%%%%%%%%%%%%%%%%%%%qQ%qQ%%%qQqQqQ%%%%%%%%%%%%%%%
26882A83%%%%%%%%%%%%%%%%%%%%%%%%%%%%%Qq%%%%%%%%%%%%Q%j6%Q%%Qq%%%%%%%%%%%%%%%
26867A83%%%%%%%%%%%%%%%%%%%%%%%%%%%%%%Qq%%%%%%%%%%%%%%%%%%%%%%%%%%Q%qQq%%%%%
26851A83%%%%%%%%%%%%%%%%%%%%%%%%%%%%Qq%%%%%%QqQ%qQ%q%QqQq%%%Q%qQ%q%%Qq%%%%%%
26836A83%%Qq%%%%%%%%%%%%%%%%%%QqQq%Q%qQq%%%%%Q%qQq%%%%%%%%%Qq%%QqQq%Q%qQ%q%Q
26820A91q%%%Q%%q%%Qq%Qq%QqQ%q%Qq%QqQ%q%%%%%Q%%q%%%%Q%%%%%%%%%%%q%Q%%%%%%%%%%
26805A91%%%%%%%%%%%%%%%%%%%%q%%QqQqQqQq%Qq%Q%qQq%Q%%qQ%%%%%%%%%%%%%%%%%%qQ%%
26789A91q%%%%%Qq%%%%%%%%Qq%Qq%Qq%qJ6qQ%qQq%QqQ%%%%%%%%%%%%%%%%%%%%%%%%%%%%%%
26774A91%%%%%%%%%%%%%%%%qQ%%%%qQ%%%%%%%%%%%qQ%%%%%%qQ%%%%%%%%%%%qQ%%%%%%%%%%
26758A91%%%%%%%Qq%%%%%%%%%%%%Qq%%%%%%%qQ%%%%%%%%%%%%%%%%%%%%%%%%%%%%%%%%%%%%
26743A91%%%%%%%%%%qQ%%%%%%%%%%%%%%%%%%%%%%%%%%%%%%%%%%%%%%%Qq%%%%%%%%%%Qq%%%
26727A91%%%%%%%%%%%%%%%%%%%%%%%%%%%%%%%%%%%%%%%%%%%%%%%%%%%%%%%Qq%Qq%QqQq%%%
26712A91%%%%%%%%%%%QqQq%%%Q%q%Qq%%%%%%%%%%%%Q%q%%%%%Qq%Q%%%qQqQq%Q%qQ%%qQq%%
26696A91%Q%%qQ%q%%%%%Qq%%QqQq%%%Qq%%Q%q%Q%%%%%%%%qQq%%Q%%%%%qQq%Q%%qQq%%Q%qQ
26680A99qQ%%%%%%%%%%%%%%%%%%%%%%%%%%%%%%%%%%%%%%%%%%%%%%%%%%%%%%%qQ%%%%%%qQ%
26665A99%%%%%%%%%%qQ%qQ%%%%%%%%%%%%%%%%%%%%%%%%Qq%%%%%QqQqqK4j6%Qk4%%J6%j6J6
26651A99%Q%q%%%qQ%qJ6q%%%%Qq%%%%qQ%%%%%%%%%%%%%%%%%%%%%%%%%%%%%%%%%%%%%%%%%%
26635A99%%%%%%%Qq%%%%%%%%%%%%%%%%%%%%%%%%%%%Q%q%%%%%%Qq%%Qq%%Qq%Qq%%%%%%%%%%
26620A99%%%%%%%Qq%%%Qq%%%%%%%%Q%%qQ%%%%%%q%QqQ%qQ%%%%qQqQ%qQ%%%%%q%%QqQqQ%q%
26604A99%%Q%%q%Q%%%%%%%%%%%%%%%%%%%%%%%%%%%%%%%qQ%%%%%%q%Q%%q%Qq%Q%%%qQ%%%%q
26589A99Q%%%%q%QqQ%q%Q%%%qQ%%%%%%%%j6J6%Qq%%%%%qQ%%%%%%%%%%%%qQ%%%%%%%%%%%%q
26574A99%Q%%%%%%qQ%%%%%%%%%%%%%%%%%%%%%%%%%%%%%qQ%%Qq%%%%%%%%%%%%%%%%%%%%%%%
26558B07%%%%%%%%%%%%%%%%%%%%%%QqQq%%%%%%%Qq%%QqQq%%%%%%%%qQ%%%%%%%%%%%%Qq%%%
26542B07Q%q%%%%%Q%q%Qq%%%%%%Qq%%%%%%%Q%%%qQqQqQq%%Qq%%Qq%%Q%q%QqQq%Q%q%Q%qQq
26527B07%%%%%%%%%%%%%Qq%%%%%Qq%QqQq%%Q%%%%%%qQ%%%%%q%Q%%qQ%%%%%%%%%%%%%%%%%%
26511B15%%%%%%%qQqQ%%%%%%%%%%%%%%%qQ%%%%%%%%%%%%%%%%%%qQ%%%%%%%%%%%%%%%%%%%%
26496B15%%qQ%%%qQ%%%%%%%%%%qQ%%%%%%%%%%%%%%%%%%%%%%%%QqQq%%%%%%Q%q%%%%%%QqQ%
26480B23qQ%q%Q%q%%%%Qq%Q%qQq%%%%%%Qq%%%%Q%%qQ%%%qQ%%%%q%%Qq%%%QqQ%q%%%Qq%%Q%
26465B23qQq%%%%%%Qq%Q%%%%%%%qQq%%Qq%%%%%%%%%%%%%Q%qQ%%qQqQ%%%qQq%%%%%%Qq%Q%%
26449B23%%%%%%%%qQ%%qQqQ%%%%%%%%%%%%%%%%%%%%%%%%%%%%%%%%%%%%%q%Q%%%%%%%qQ%%%
26433B23%%%%%Qq%%%%%%%%%%%%%%%Qq%%%%%%%%%%%%%%%%%%%%%%%%%%%%%%%%Qq%%%QqQqQqQ
26418B31qJ6qQj6%Qq%Qq%%%%%Q%qQq%Q%%%%q%Qq%%Q%qQ%q%%QqQ%q%Qq%%%Q%q%Q%qQ%%%%qQ
26403B31%%%qQ%%qQqQ%%%%%%%q%%%Qq%Qq%Qq%%Q%%%%%%%%%%%qQ%q%QqQ%%%%%%%%%%%%%%%%
26387B31%%%%%%%%%%%%%%%%%%%%%%%%%%%%%%%%%%%%%%%%%%%%%%%%%%%%qQ%%%%%%%%%%%%%%
26372B31%%%%%%%%%%%%%%%%%%%%%%%%%%%%%%%%%%%%%%%%%%%%%%Qq%%Qq%%%QqQ%%q%%%%%%%
26356B31%%%%%Q%q%Q%%%%qQ%%q%%%Q%%%%%%%%qQ%%%%%q%%%%%QqQ%qQqQ%%%%%%%%%%%%%%%%
26341B39%%%%%%%%%%%%%%%%%%%%%%%%%%%%%%%%%%%%%%%%%%%%%%qQ%%%%%%%%%%%%%%%%%%%%
26325B39%%%%%%%%%%%%Qq%%Q%q%Qq%%%%%%%%%%%%%%%%%Qq%QqQqqQ%%%%%%%%%%%%%%QqQq%Q
26309B47%%%q%%%Q%%%qQq%Q%%q%QqQ%qQq%Q%%q%Qq%QqQ%q%%%%%%Q%%%qQqQ%%%%%%%%%%%%%
26294B47%%%%%%%%%%%%%%%%%%%%%qQ%%%%%%%%%%%%Qq%%%%%%%%%%%%%%%%%%%%%%%%%%%%%%%
26278B47%%%%%%%%%%%%%%%%%%%%%%%%Qq%Qq%%Q%qQ%q%%%%%Qq%%%Q%%qQ%%%%%%%q%Qq%%%%Q
26263B55q%%%%%%%%%%Qq%Q%%q%%%%%%Qq%%QqQq%%%Q%qQqQ%%%%%%%%%%%%%%%%%qQ%%%%%%%%
26247B55%%%%%%%%%%%%%%%qQ%%%%%%qQ%%%%%%%%%%%%%%%%%%%%%%%%%%Qq%%%%%%%%%%Qq%%%
26232B55%%%qJ6%%qQ%q%Q%qQ%qQ%%qQqQqQq%%%%%%Qq%%QqQ%qQqQ%qQ%%%%%%%%%%%qQ%%%%%
26216B63%%%%%%%%%%%%%%%%%%%%%%%%%%%%%%%%%%%%%%%%%qQ%%%%%%%%%%%%%%%%%%%%Q%%q%
26201B63%%%%%Qq%QqQ%%q%%Qq%%%%%QqQq%Qq%%%%%%%%%%%%Qq%%%%%%%%%%%%%%%%%Qq%Qq%%
26185B63QqqK4j6%J6j6qJ6q%J6k4QQq%Q%%qQqQ%q%Q%qQqQ%%%%%qQ%%q%%Q%%%%q%Q%%%%%%%
26171B71%%%%%%%%%Qq%%%%%%%%%%%%%%%%%Qq%%%%%%%%%%%QqQq%%%%%%%%%%%%%%%%%%%%QqQ
26156B79qQ%%%qQqQq%%Qq%Qq%%%%%%%%%%%%%%Qq%%Qq%Q%%q%Q%%%%%%qQ%qQ%%qQ%%%%%%%%%
26140B79%%%%%%%%%%%%%%%%%%%%%%%%%%%%%%%%%%%%%%%%%%%%%%%%%%%%%%%%%Qq%Qq%%Q%%q
26124B79Q%%qQq%%%QqQ%%%%%%%q%Q%%%%%%%%q%%Q%qQq%Qq%%%%%Q%%%%%qQ%%q%Q%%%qQqQ%q
26109B79Q%%%%%%%%%%%%%%%%%%%%%%%%%%%%%%%%%%%%%%%%%%%%%%%%%%%%%%%%%QqQqQ%%%%%
26093B95q%%%%%%%Q%%%%%%%%%%%qQ%qQq%Q%%%q%Q%%qQq%Q%q%%QqQq%%%Q%%q%Q%%%%%%%%%%
26078B95%%%%%%%%%%%%%%%%%%%%%%%%%%%%%%%%%%%%%%%%%%%%%%%%Qq%%%%%%%%%Qq%Q%%%%%
26062C03%%%%qQqQ%q%Q%%%%%%%%%q%%QqQ%q%Q%q%Q%%%%%%%%%%%Qqq%QqQ%%%%%%%%%%%%%%%
26047C03%%%%Qq%%%%%%%%%%%%%%%%%%%%%%%%%QqQq%Qq%QqQqQ%%%%%%%%%%%qQq%%QqQ%%%%%
26031C11%%%%%%%%%%%%%%%%%%%%%%%%%%%%qQ%%%%%%%%%%%%%%%%%%%Qq%%%%%%%%%%%%%%%%Q
26016C19q%%%%QqQ%%q%Q%q%%Qq%%Q%%%%%%%%%%q%Q%%%qQ%%qQ%qQ%%%q%%Q%%%%%q%QQq%%%Q
26000C27%j6Q%%Q%k4L2Qk4J6j6L2m0O4q0J12p2l2L2k4%qK4qqJ6qJ6j6%%%%%%%Q%qQ%%qQ%q
25989C19Q%%%%qQ%q%QqQqQq%%%QqQq%Q%%%%%%qQ%qQ%%%%%%%%%%%%%%%%%%%Qq%%%%%Qq%%%%
25973C27%%Qq%Q%%q%Q%%%%%%%%qQ%%%%%%qQ%qQ%%%%qQ%%%%%q%Q%q%%%%%QqQ%%%%qQ%%%%%%
25958C35q%%Q%%%%%%%%%%%%%%%Qq%QqQq%%%%%%%Qq%%%Q%qQq%Q%%qQqQ%qQ%%%qQq%%%%%%%%
25942C35QqQ%qQ%%%%%%%%qQ%%q%%%%Q%%%%%%qQ%%%%Q%q%QqQq%%%Qq%%%%%%%%QqQq%Qq%Q%%
25927C51%%%%%%%%qQ%%qQ%%%%%%%%qQ%%%%%%%%qQ%%%qQ%%%%%%%%%%%%%%%%%%%%%%%%%%%Qq
25911C51Q%qQq%%%%%%%QqQ%%q%Qq%Q%qQqQ%%%%%%%%%%%%qQ%%%%%%%%%%%%%%%%%%%%%%%%%%
25896C59%%%%%%%%%%%%%%%Qq%%%%%%%%%%%%%%%%%Q%q%Qq%%%%Q%qQ%%%%qQ%%%%%%%%%%%%Qq
25880C67%qQ%q%J6qQq%%%%%Q%%%q%%%%%Q%%q%%%%%Qq%QqQ%q%%Q%%%%%%%q%QqQ%%%%%%%%%%
25865C75%%%%%%%%%%%%%%%%%Qq%%%%%%%%%%%%%%%%%%%%Qq%Qq%%%%%QqQq%%%%Q%qQ%%%%qQ%
25849C83%%%%%%%%%qQQj6qJ6qQ%%%%%%%%%%%Q%%%%qQ%%%%%%%%%%%qQ%qQ%%%%%%%%%%%qQ%%
25834C91%%%%%%%%q%%%Q%%%%%%%%%%%%%%%%%%%%%%%%%%%%%%Q%%%%%q%Q%%%%%%%qQ%%%%%%%
25818C99%%%%%qQ%%%%%%%%%%%%%%%%%%%%%%Qq%%%%Q%%%%%%%%%%%%%%%%%%%qQ%qQ%%%%%%qQ
25803D07%%Qq%%%%%%%%%%%%%%%%%%%%%%%%Q%qQ%%%%%qQqQ%%%%%%%%%%%%%%%%%%%%%%%%%%Q
25787D23q%%%%%%%%%%Q%q%%%%Q%q%Q%q%Qq%Q%%qQ%%%%%%%%%%%%%%%%%%%%%%%%%%%%%%%%%%
25772D23%%%%%%%%%QqQ%%qQqQqQ%%%qQ%%%%%%%%%%%%%%Q%q%qQ%%%Q%q%Q%q%%Q%qQq%Q%%%q
25756D31Q%%%%%%%%%%%%%%%%%%%%%%Qq%%%%%%%%%%%%%%%%%%%%QqQ%q%Qq%Q%%%%%%%%%%%%%
25741D47%%%%%%%Qq%Qq%%%%%%%%%%QqQ%%%%%%%%%%%%%%%qQ%%%%%%%qQ%%%%QqQq%%%%Qq%%%
25725D55QqQ%%qQ%%qQ%qQ%%%%%%%%%%%%%%%%%%%%%%%%qQ%%%%J6j6qK4j6J6q%j6QQ%%%qJ6q
25711D71%%%qQ%%%%%%%%%%%%%%%%%%%%%%%%Q%%q%%Qq%%%%%%%%%%%%J6j6Q%%%%%%%%%%%%%%
25696D79%%%%%%%%%%%%%%%Qq%%Q%%%%%%%%%%%%qQ%%%%%%%%%%%%qQ%%%%%%%%%%%%%%%%%%%%
25680D87%Q%%%%%%%%%%%%%%%%%%%%%%%%Qq%%%QqQ%%%%qQ%qQ%%%%%%%%%%%%%%%%%%%%%%%%%
25665E03%%%%%%%%Q%qQ%%%%%%qQ%%%%%%%%%%%%Q%q%%%%%%%%Q%%q%Q%qQ%%qQ%%%%%%%%%%%%
25649E19%Qq%%%%Qq%%%%%%Qq%QqQq%Q%qQ%Qq%%%%%QqQq%%%%%%%%%%%Q%%%qQ%qQ%%%%%%%%%
25634E35%%%%%%%%%%%%%%QqQq%Qq%Q%%%%%%qJ6q%%%%%%%%%%%%%Qq%%Q%%q%%%%QqQ%%qQqQ%
25618E51%%%%%%%%%%%%%%%%%%%%%%%%%%QqQj6J6q%%QqQ%%%%%%qQ%%%%%%%%%%%Q%%%%%qQ%%
25603E67%%%%%%%%%%QqQ%qQ%q%Q%q%QqQ%%%q%QqQ%%%%%%%%%%%%%%%%%%%%%Q%%%%%%%%%%%%
25588E83%%%%%%%%%%%%%%%%%%%%%Q%qQq%%Q%%%%%%%%%%%%%%QqQ%%qQ%%%%%%%%%%%%%%%%%Q
25572F07%%q%%Q%%%%%q%%%Q%%%%%qQ%%%%%%%%%%%%%Qq%Qq%Q%%%%qQ%%%%%%%%%%%%%%%%%%%
25557F15Q%%%qQ%%%%%%%%Qq%%%%%%%%%%%%%%%%%%%%%%%%Q%%%%qQ%%%%%%%QqQ%%q%QqQ%%qQ
25541F39%%%%Qq%Qq%Q%%%%q%Q%qQ%%%%%%%%%%%%%%%%%%Q%%%%%%%qQ%%%%qQqQQq%qJ6qQ%q%
25526F55%Q%q%Qq%%%Q%%%%%%%%%%%%%%Qq%%%Q%%%%%%%%%%%%%%QqQ%%%%%%%%%%%%%%%%%%%%
25510F79Q%%%%%%%%%%%%%%%%%%%%%%%%%%%Q%q%%Q%%qQ%%%%%%%%%%QqQqQ%%%%%%%%%%%%%Qq
25495G03Qq%%%Qq%Q%%%%%%%%%%Qq%%%QqQ%%%%%%qQ%%%%%%%%%Qq%Qq%%Q%q%Qq%J6j6QQ%qQ%
25480G35q%Q%%%%%%%%%%%%%%%Q%%%qQqQ%%%%%%%%%%%%%Q%%%%%%%%%%%%Qq%%qJ6qQl2K4J6q
25465G59Qj6%%Q%%%qQ%%%Qq%%Q%%%%%%%%Q%q%%%%%%%%%%QqQqQ%%%%%%%Qq%%Qq%%%%%%Q%%%
25450G83%%%%%%%%Qq%%%%%%Q%%%%%%Q%%qQ%%%%%%%%%%%%%Q%%q%%Q%%%%%%%%%%%%Qq%%%%%Q
25434H15%%%%%%%%%%%%%%QqQ%%%%%%%%%Q%%%%qQ%%%%%%%%%%%QqQqQ%%%%qQ%%%%%%%%Q%q%Q
25418H47%%%%%%%%Q%%%qQ%%%qQ%%%%%%%Qq%QqQ%qQqQ%%%%QqQ%q%Q%%%%%%%%%%%%QqQq%%%Q
25403H79%%%%%%%%%Q%%%%%%%%%%%%%%%Q%%qQ%%%%%%%QqQ%%%%Qq%%Q%%%%%%%%%%%%%%%%%%Q
25387I19%%%%%%%%%%%QqQ%%%%%%%%%%%Q%%qQ%%%%%%Qq%QqQq%Q%%%qJ6q%%%Q%%%%%%%%%%%%
25372I51%%%%Q%%%%%%%%%Q%%%%%%%Qq%QqQ%%%%%%%%%Q%q%Q%%%qQ%%%%%%Qq%Q%%%%%%%%%%Q
25356I99%%%%%%%%Q%%qQ%%%%%%%%%Q%%%Qq%%QqQ%%qQ%%%%%%%Q%%%%%%%%%%%Q%%%%%%%%%%Q
25341A047%%%%%%%Qq%Q%%%%%%%%%%Q%%%qQqQ%%%%%%QqQ%%%%%%%%%%Q%%%%%%QqQ%%%%%Qq%%
25325A087%%Q%%%%%%%%%Q%%%%%%%%%Qq%%Q%qQ%%%Q%%%%%%%%Q%%%%%%%%%%Q%qQ%%%%%%%%%%
25310A135QqQ%%%%%QqQ%%%%Q%%%%qQ%Q%q%Q%%%%%%Q%%%%qQ%%%%%%%QqQ%%%%Q%%%%%%%%Q%%
25295A199%%%%Q%qQq%%%Q%%%%%%Q%qQQqQ%qQ%%%%%%%%%Q%%%%%Q%%%%%Q%%%%%%Q%%%%%%%%%
25279A255%Q%%%%%%%%%%%Q%%%%%%%%%%Q%QqQ%%%%%%%%Q%%%%Qq%Q%qQ%%%%Q%%%%%Q%%%%%%%
25264A319Q%%%%%%%Q%%%%Qq%QqQ%%%%%Q%%%%%%Q%%%%%%%%Q%%%%%%Q%%%%%%Q%%%%%%Qq%Q%%
25249A391QqQ%qQ%%qQQ%q%qK4%%%QqQ%%%%%%%Q%%%Q%%%%%%%%%Q%%%%%%Q%%%%%%Q%%%%%QqQ
25234A471qQ%%%%Q%%%%Q%%%%%%Q%%%%Q%%%%%%%Q%%%%%Q%qQ%%QqQ%%%QqQ%%%%Q%%%%%QqQ%Q
25218A559qQ%%%Qq%Q%%%%Q%%%%%%%Q%%%%Q%%%%QqQ%%Q%%%Q%%%%%%Q%%%%%%%Q%QqQ%%%%%Q%
25203A647%%%%%Q%%%%%Q%%%Q%%%%Q%%%%Q%%%%%%Q%%%%Q%%%Q%%%%%Q%%%Q%%%%Q%%%%%Q%%%%
25188A743QqQ%%%Q%%%Q%%%%%Q%%%%Q%%%%%Q%%%Q%%%Qq%Q%%Q%%%%%Q%%Q%QqQ%%%%%Q%%Q%%%
25172A855%%Q%%%Q%%%%Q%%%%Q%%Q%%%%%Q%%%Q%%%Q%%%Q%%%%Q%%Q%%%%%Q%%Q%%%Q%%%%QqQQ
25157A983qQQ%%%%%Q%%%Q%%%%%Q%%%Q%%%Q%%%Q%%Q%%%%%Q%%Q%%Q%%%Q%%%Q%%%Q%%%Q%Q%%%
25142B111Q%Q%%%%Q%%%%Q%%%Q%%Q%%%Q%%%Q%Q%%%%Q%%Q%%%%Q%Q%%%Q%%Q%%%Q%%QqJ6qQ%%Q
25127B263%%%Q%Q%%%Q%%Q%%%Q%%Q%%Q%%%%Q%Q%%Q%%%Q%Q%%Q%%%Q%%%Q%qJ6%qJ6%%Q%Q%%%Q
25112B423%Q%%Q%%%Q%%Q%Q%%%QQ%%%Q%%%Q%Q%%Q%%Q%Q%%Q%%%Q%Q%%Q%%Q%Q%%Q%%%Q%Q%%Q%
25096B607Q%%%QQ%%Q%Q%%%Q%%Q%Q%%Q%%Q%Q%%Q%%QQ%%%Q%Q%%Q%%Q%Q%QQ%%Q%%Q%%Q%Q%Q%%
25081B815Q%Q%%Q%Q%%Q%Q%Q%Q%Q%%Q%%Q%Q%%QQ%Q%%Q%Q%Q%Q%Q%Q%%QQ%%Q%%QQ%%Q%QQqQQ%
25066C055%Q%QQ%%%QQ%Q%Q%Q%Q%Q%Q%QJ6%qQ%%%J6%J6%q%%J6QQ%Q%%Q%Q%Q%Q%QQ%Q%%Q%Q%
25051C303Q%Q%Q%QQ%QQ%Q%Q%Q%QQ%%QQQ%%Q%Q%QQ%Q%QQ%%QQ%Q%QQ%Q%QQ%Q%Q%Q%QQ%QQ%Q%
25036C607QQQ%Q%QQ%QQ%Q%QQ%Q%QQ%Q%Q%QQQ%QQ%QQQ%Q%QQQ%Q%QQ%QQQQ%Q%QQ%QQ%QQ%QQ%
25021C959QQ%QQQ%QQ%QQQ%J6%Q%QQQ%Q%QQ%J6Q%QQQ%QQ%J6Q%QqJ6QQ%QQ%J6%QQ%QQQQQ%QQ
25006D335QQ%QQQQ%QJ6%%J6%QQQQQ%QQQQQ%J6%QQQQQ%QQQQ%J6QQ%QQQQQQ%J6%QQJ6%QQQQQ
24992D759QQ%J6QQ%QQQQQJ6%QQQQQQQQ%J6Q%J6Q%QQJ6Q%J6%QJ6%J6%J6%J6Q%J6QQQQQQQQQ
24980E199QJ6%J6QQQQQQQQJ6QQQQQQQQJ6QQQQQQQQJ6QQQQQJ6QQQQQQQJ6QQQJ6QQQQJ6Q%J6
24967E719QJ6QQQJ6QQQQJ6QJ6QQQJ6QQQJ6QQJ6QJ6QQQQJ6QQJ6QJ6QQJ6QJ6QQJ6QQJ6J6QQJ6
24955F263QQJ6QQJ6QJ6QJ6QJ6QQJ6QJ6J6QJ6QQJ6J6QJ6J6%J6J6QJ6QJ6QJ6QJ6QJ6QJ6J6QJ6
24945F799J6QJ6QJ6J6QJ6QJ6J6QJ6QK4QJ6QJ6J6QK4%J6K4QJ6QJ6J6J6J6QJ6J6J6J6QJ6J6Q
24935G351J6J6J6QJ6K4QJ6J6J6J6J6J6QJ6J6J6J6J6QK4QJ6J6J6J6J6J6J6J6J6J6J6J6QK4J6
24927G919J6J6J6J6J6J6J6J6J6J6J6J6K4QK4J6J6J6J6K4J6J6J6J6K4J6J6J6J6J6K4J6J6J6
24919H495K4QK4J6K4J6J6J6K4J6K4J6J6J6J6K4K4J6J6K4J6K4J6J6J6K4K4J6K4J6K4J6K4J6
24911I143J6K4J6K4K4J6K4J6J6J6L2L2QJ6K4K4K4J6J6K4K4K4K4J6K4K4J6K4K4K4J6K4K4J6
24903I855L2J6K4K4K4K4J6K4K4K4K4K4K4K4K4K4K4K4K4K4K4K4K4K4K4K4K4K4K4K4L2K4K4K4
24896A0671K4K4L2J6K4L2L2J6K4L2K4L2K4K4L2K4K4L2K4L2K4K4L2K4L2K4K4L2K4L2L2K4L2
24888A1559L2K4K4L2K4L2K4M0K4L2L2L2K4L2L2L2L2K4L2L2L2K4L2L2L2L2L2L2L2L2L2L2L2
24881A2559L2L2L2L2M0L2L2L2L2L2L2M0L2L2L2M0L2L2M0L2L2M0L2M0L2M0L2M0L2M0L2M0M0
24873A3703L2M0M0L2M0L2M0M0M0L2M0M0M0M0M0M0M0M0M0L2M8L2M0M0M8M0M0M0M0M0M0M8M0
24865A4999M0M8M0M8M0M8M0M0M8M0M8M0M8M0M8M8M0M8M0M8M8M8M8M8M8M8M8M8M8M8M8M8M8
24858A6503M8M8M8M8N6M8M8M8N6M8N6M8M8N6N6M8M8N6N6M8N6N6N6M8N6N6N6N6N6N6N6N6N6
24850A8239N6O4N6M8O4N6N6N6O4O4N6N6O4O4N6O4N6P2N6O4O4N6O4O4O4O4O4O4O4O4P2O4O4
24843B0263P2O4P2O4P2O4P2O4P2P2O4P2P2P2P2P2O4Q0P2P2P2Q0P2P2Q0P2P2Q0Q0P2Q0Q0Q0
24835B2655Q0P2Q0Q8P2Q0Q8Q0Q0Q8Q0Q0Q8Q8Q0Q8Q8Q0Q8Q8Q8Q8Q8R6Q8Q8Q8R6Q8R6Q8R6R6
24828B5495Q8J04Q8J04R6Q8J04Q8J04R6J04J04J04Q0J20J04R6J04J12R6J12J04J04J04J12
24822B8015J12J04J12J12J04J12J20J12J12J20J12J12J20J20J12J20J20J20J20J28J20J20
24817C0559J20J28J20J28J28J28J28J28J28J28J36J28J36J36J36J36J36J36J44J36J44J36
24812C3463J44J44J44J44J44J44J52J52J44J52J52J52J52J52J60J60J52J60J60J60J60J68
24807C6815J60J60J68J68J68J68J76J68J76J76J68J76J76J84J84J76J84J76J92J84J92J84
24802D0679J92J92J92J92K00K00K00J92K08K00K08K08K00K08K16K08K16K16K16K16K16K24
24797D5199K24K24K24K32K32K32K32K32K40K40K40K40K40K48K48K56K48K56K56K48K64K56
24792E0511K72K64K72K72K72K72K72K80K80K88K88K80K96K88K96K96L04K96L12L04L04L12
24787E6831L20L12L28L20L28L28L28L36L36L36L44L44L52L52L52L60L60L60L68L68L76L76
24782F4415L92L84L76L92L92L92M08M00M08M16M08M24M32M32M08M56M24M72M32M80M40M40
24777G3623M88M40N12M00N20M96M88M88M96N20N20N20N20N20N36N36N36N52N60N60N60N76
24772H4967N76N76N92N92O00O08O16O16O24O40O32O48O56O56O72O72O80O80O96P12P04P20
24767I9135P28P36P44P52P60P68P76P92P92Q00Q16Q24Q32Q40Q56Q48Q72Q88Q88R04R12R28
24762A17191R36R36R60R68R84R92J008J016J032J040J056J072J080J096J112J120J144J152
24757A35895J176J176J200J216J224J248J264J280J296J312J336J344J368J392J408J424J448
24753A58007J464J480J512J528J544J576J592J616J648J656J688J720J736J760J792J816J848
24750A85983J872J904J920J968J992K016K048K096K112K152K184K216K256K296K328K368K408
24746B22119K440K488K528K576K608K664K704K752K792K848K896K944L000L056L104L160L224
24742B69903L280L344L400L456L536L592L664L728L808L880L952M024M120M184M272M360M448
24738C34951M544M632M720M832M920N032N136N248N360N472N592N720N840N976O104O240O392
24734D26711O536O688O840P000P168P336P512P704P888Q080Q280Q488Q704Q928R160R392R640
24730E62055R896J0160J0432J0712J1008J1312J1624J1952J2296J2640J3016J3392J3784J4200
24727G28479J4624J5072J5528J6016J6520J7032J7592J8152J8752J9376K0016K0696K1400
24724I59255K2144K2928K3728K4584K5480K6416K7384K8432K9512L0640L1848L3112L4440
24721A319903L5840L7320L8888M0528M2280M4120M6072M8152N0344N2680N5160N7800O0608
24718A929695O3608O6800P0208P3848P7760Q1944Q6424R1256R6440J02032J08056J14560J21616
24715C084247J29240J37528J46536J56344J67040J78744J91552K05633K21095K38176K57032
24713E113167K77936L01168L27048L55968L88408M24872M66048N12696N65744O26344O95872
24710A0055271P76024Q68896R77112J103928J253496J431111J643625J899912K211703K594728
24708B4815806L070129L667046M426080N404728O686112Q392502J0707390J3911708J8443042
24706I9524543K4990472L4633770M8986123P0059581R8663416J27857496J29001566N9019477
24704F92736444n9019477j29001619j27857470r8663389p0059621m8986057l4633796k4990492
24702I9524523j8443022j3911708j0707396q392496o686118n404729m426073l667056l070127
24700B4815798k594720k211711j899904j643625j431120j253495j103920r77112q68896p76024
24698A0055271o95872o26344n65752n12680m66056m24872l88408l55968l27048l01168k77936
24695E113167k57032k38176k21104k05624j91560j78736j67047j56337j46536j37528j29240
24693C084247j21608j14568j08056j02032r6440r1248q6432q1944p7760p3856p0200o6800
24690A993303o3600o0608n7800n5160n2672n0352m8152m6072m4128m2280m0528l8880l7328
24687A355743l5832l4440l3112l1848l0648k9512k8424k7392k6416k5472k4592k3728k2920
24684I81407k2144k1408k0696k0024j9368j8744j8160j7584j7048j6512j6016j5536j5064
24681G43103j4632j4192j3792j3392j3008j2640j2296j1952j1632j1312j1000j0720j0432
24678E82103j0152r896r640r392r160q928q704q488q280q088p880p704p520p336p160p000
24674D46775o856o672o536o392o240o112n968n848n712n592n472n360n248n136n032m928m824
24670C48847m720m632m536m448m360m280m184m112m032l952l880l800l736l664l600l520l472
24667B79919l400l336l280l224l160l104l056l000k944k896k848k800k752k704k656k616k568
24663B29575k528k488k440k408k368k328k296k256k216k192k144k120k080k048k032j984j960
24659A91687j936j896j872j848j816j792j760j736j720j688j664j640j616j592j576j544j528
24655A62463j504j488j472j440j424j408j384j368j352j336j312j296j280j264j248j232j208
24651A39447j200j184j168j152j136j128j112j096j080j072j048j048j032j016j008r92r76
24647A20999r68r60r44r36r28r12r04q88q80q72q56q56q48q24q24q16q00q00p84p76p68p60
24642A02095p52p36p36p28p20p12p04o96o88o80o72o72o56o56o48o32o40o24o16o16o00o08
24637H7303n92n84n92n68n76n68n52n60n44n44n36n36n28n20n20n04n12m96m96m96m88m80
24632G5511m80m72m72m64m56m56m56m48m40m40m40m24m32m24m16m16m16m08m00m08l92l92
24627F5959l92l92l76l84l76l76l68l68l60l60l60l52l52l52l44l44l36l36l36l28l28l28
24622E8111l20l20l20l12l12l12l12l04k96l04k96k96k96k88k88k88k80k80k80k72k72k72
24617E1591k72k72k64k64k64k56k56k64k48k56k48k48k48k40k40k40k40k40k32k32k32k32
24612D6103k32k16k32k24k16k24k16k24k08k16k16k08k08k08k08k00k08k00k00k00j92k00
24607D1447j92j92j92j92j92j84j92j84j84j76j84j76j84j76j76j76j76j68j68j76j68j68
24602C7471j68j60j68j68j60j68j52j60j60j60j60j52j52j52j52j52j52j52j52j44j44j44
24597C4039j44j44j52j36j44j36j36j44j36j36j36j28j36j36j28j36j28j36j28j28j28j28
24592C1055j28j20j28j20j28j20j20j20j28j04j36j12j20j04j28j12j12j20j12j12j12j12
24587B8447j12j04j12j04j12j04j12j04j04j04j04j04j04j04j04r6j04r6j04j04r6r6r6r6
24581B5967j04q8r6r6r6q8r6q8r6q8q8r6r6q8q8q8q8q8q0r6q0q8q8q0q8q0q8q8q0q0q0q0q8
24574B3047q0q0p2q8p2q0q0q0p2q0q0p2q0p2p2q0p2p2p2p2p2p2p2p2p2p2p2o4p2p2p2o4p2
24566B0599o4p2o4o4p2o4o4o4p2o4o4o4o4o4o4o4o4n6o4o4n6o4o4n6o4o4n6o4n6n6o4n6n6
24558A8527o4n6n6n6o4m8o4m8n6n6n6n6n6n6m8n6n6n6m8n6m8n6n6m8n6m8n6m8n6m8m8m8m8
24551A6751n6m8m8m8m8m8n6m8m0n6m0n6m0m8m8m0m8m8m8m0m8m8m8m0m8m8m0m8m8m0m0m8m8
24543A5207l2m0m8l2n6m0m0m0m0m8m0m0m0m0m8l2m0m0m0m0m0m0m0m0l2m0m8l2m0m0l2m0m0
24536A3887m0l2m0m0m0l2l2m8l2m0l2l2m0m0l2m0l2l2m0l2l2l2m0l2m0k4m0l2l2l2l2l2m0
24528A2719k4k4m8m0k4l2l2l2l2l2l2l2l2l2k4l2l2l2l2l2l2k4l2l2l2l2k4l2l2l2k4l2k4
24521A1703l2l2k4l2l2k4l2k4l2k4l2k4l2k4l2k4k4l2k4l2k4k4k4l2k4k4k4k4l2l2j6l2k4
24513A0799k4l2k4k4k4k4l2k4k4k4k4k4k4k4k4k4l2j6l2k4j6k4k4k4k4k4k4k4k4k4k4j6l2
24506I991j6k4k4k4k4k4j6k4k4k4j6k4k4k4j6k4k4k4j6k4j6k4k4j6k4k4j6k4j6k4j6l2j6j6
24498I263k4j6k4j6k4j6k4k4j6k4j6k4j6j6k4j6j6k4j6k4j6j6k4j6k4j6j6j6k4j6k4j6j6j6
24490H607j6k4j6k4j6j6j6j6k4j6j6k4j6j6j6j6k4j6j6j6j6j6j6j6j6k4j6j6j6j6j6j6j6j6
24482H015j6j6j6j6j6j6j6j6j6j6j6j6j6j6j6j6j6j6j6j6j6qk4j6qj6j6j6j6j6qj6j6j6j6
24474G471j6j6qk4qj6%l2j6qj6qj6j6j6qk4qqj6j6j6j6j6qj6j6j6qj6j6qj6j6qj6j6qj6j6
24465F911qj6qj6j6qj6qj6j6j6qj6qj6qj6qj6qj6j6qj6qqj6qj6j6qqj6qj6qj6j6qqj6qj6q
24455F375j6qj6qqj6qqj6qj6qj6qj6qqqj6qj6qj6%j6qj6qqj6qqj6qj6qqj6qqqqj6qj6qqqj6
24444E839qqqj6qj6qqqqj6qqj6qq%k4%qqj6qqj6qqqqqj6qqqqj6qqqqqqqj6qqqqqqqqqqj6q
24431E311qqqqqqqqqqqj6qqqqqqqj6%qj6qq%j6%qqqqqqj6%qqqqj6qq%j6qqqqqq%j6%qqqqq
24417D831qqqqqq%j6q%j6%qqqqqq%qqqj6%q%j6qq%qqqqq%j6q%qqqqq%qqqqqq%qqqqqqq%qq
24403D391q%qqqq%qqqqq%qqq%qqqq%qqqqq%qq%j6%qqq%q%qqqq%qqqq%qq%q%qqq%qqq%qqq%
24388C991qqq%qq%qqq%qq%qq%q%q%qqq%qqq%q%qqq%q%q%qqq%qq%qqq%qq%q%qq%q%q%qq%qq
24373C631%qq%q%qq%%qq%qqq%%q%q%qq%qq%%qq%q%qq%qq%q%qqq%q%%qq%%qq%q%q%q%%qq%q
24358C327%qq%q%q%q%q%q%q%q%q%q%j6%%%qq%%qq%q%q%%qq%%q%qq%q%%qq%q%q%q%%q%q%q%
24342C063q%q%q%q%%qq%%q%q%q%%%qq%q%q%%q%q%q%q%%q%q%q%q%%qq%%%q%q%q%q%q%%q%%q
24327B823q%%q%q%%qq%%q%q%q%qQqq%%q%q%%%q%%q%q%%q%%q%%q%%q%q%q%%q%q%%q%%qq%%%
24312B615q%q%%q%%q%%qQj6Qj6Q%j6%Q%j6q%Qq%q%%q%q%%q%%%q%%q%q%q%%q%%q%%%q%%q%q
24297B431%qQq%%q%%q%%%q%q%%%q%q%%q%%q%%%qqQq%q%%%q%%q%%q%%q%%q%%%%q%%q%%%q%%
24282B271q%%%q%%%qq%%%%q%%q%%%%q%%q%%q%%q%%q%%q%%%%q%%%%q%%q%%%q%%q%%q%%q%%%
24267B119q%%qQqqQ%q%%q%%q%%%q%%%%q%%%q%qQq%%q%%%q%%%q%%%%q%%%q%%%q%%%q%%q%%q
24251A975%%q%Qq%%%%q%%%q%%%q%%%%q%%q%%%q%%%q%%%%%q%%q%%q%%%%%%j6QQj6%%qQj6Q%
24237A863qQq%%%%%%%q%%q%%%%q%%%%q%%%%q%q%%%q%%%%%q%%%qQq%%%%q%%%q%%%qQq%%%%q
24221A751Qq%q%%%q%%%%%q%%%q%%%%q%%%q%%%%%%%%q%q%%%%%qQq%%%q%qQ%q%%%%%%%qQq%%
24206A655qQq%qQq%%%qQq%%%q%%%%%q%%%%%q%%%%%q%%qQq%%%q%%%%%%%q%%qQ%%q%%%%q%%%
24191A559qQ%q%%%q%%%qQq%%%%%%q%%%%q%%%%%qQq%%%%q%Qq%%%%%%%q%q%%%%q%%Q%qQq%q%
24175A471%%%%%%q%%q%%%%%%%%q%%%%%qQq%%%q%%%%%%%q%Qq%%%%q%%%%%%%q%%%%%qQq%%%%
24160A399q%%%%%%q%%%%%%qQq%%%%%%%q%%%q%%%%%%q%%%%%%%q%%%%%%qQq%%%%%%q%%%%%%%
24145A327%%%%q%%%%q%%%%%%q%%%%%%q%%%%%%%%qQq%%%%%%%q%Qq%%%%%q%%qQ%%qQq%%%%%q
24129A255%%%%%%%%%%%q%%%%qQq%%%%qQ%%q%%J6qj6Q%%j6%Q%Qj6Q%qJ6j6%%%q%%%%%%%%q%
24115A199%%Qq%%%q%%Qq%%%%qQ%q%Qq%%%%qQq%%%qQ%%qQq%%%%qQ%q%%%%%%%%q%%%%%%%%%%
24100A151q%%%%%%%qQ%q%%%%%%qQq%%%%%%%%%q%Qq%%%%q%%Qq%%%%%qQ%%q%%%%%%%%%%q%%%
24085A095qQ%qQq%%%%%%%%%qQq%%%%%%%%%q%%%%%%%%%%%%%q%%%Qj6Q%qQ%j6Q%%%%%q%%%%%
24070A047%q%Qq%%Qq%%%%%%%%q%%%%%%%%%%%%%qQ%%q%%%q%Q%%%qQq%%qQ%q%%%%%%%%%%%qQ
24054A007q%%%%%%%%%%%q%%%%%%%%%q%%%%%%%%%%qQqQ%%%%%q%%%%qQq%%%%%%%%%%qQqQ%q%
24039I59%%%%%%%%%%%q%%%%%%%%%%%%q%%%%%%%%%%q%Qq%%%%qQ%q%Qq%Qq%%%%%q%%%%%%%%%
24024I19%%%%%%%%%%%q%%%%%%q%Q%q%%%%%%%%%%%%%qQ%%qQq%%%%%%%%%%%%%q%%%%%%%q%%Q
24008H87qQq%%%%%%%%qQ%%%qQ%q%%%%%%%%q%%Qq%%%%%%%%%%%qQq%Qq%%%%%%%%%%qQ%qQqQ%
23992H55q%%%%%%%%%%qQ%q%%%%%%qQ%%%%q%Qq%%%%%%%%q%%%%%%Qq%%%%%%qQqQq%%Q%q%%%%
23977H15%%%%%%%%%%q%%%%Qj6K4%qj6qQQK4m0Q%%%qJ6qQ%q%qQ%%%%%%%%qQq%%Qq%%%%%%%q
23963G83%%%Qq%%%%%qQ%%%q%%%Q%q%%%%%Qq%%%%%%qQ%%%qQq%%%%%%%%%%%%%%%%%%%q%%%%%
23947G59%%%%qQ%%q%%%%%%%%%%%%q%%%Qq%%%%%Qq%%%%%%%%%%%%%%%q%Qq%%Qq%%%%%%%%%%%
23932G35%%%%%%%q%%%%%%%%qQqQ%q%%%%%%%%%%%%%%%%%%%%%%%%q%%Qq%%%%%%%%%%%%qQ%q%
23916G03%%%%%%%%%%q%Qq%%%%%%%%%%%%Qq%%%%%%%%%%%%%q%Q%%q%%%%%%%%%%%%%%%%%qQq%
23900F79%%%Qq%%%%%%%%%%%%q%Q%q%%%%%%%%%%%%%%%%%%%q%Qq%%Q%q%%%Qq%%%qQ%qQ%q%Qq
23885F55Qq%%%%%%Qq%%%%%%%%%%%%%%%%%%%%%q%%%%%%%%%%%%%qQ%q%Q%q%%%%%%%%%%%%%%%
23869F39%%%%%%%%q%%%%%Qq%%%%%%%%%%%%%q%%%%%%%%%%%%%%%%%%%%%%%%%qQqQq%%%%QqqJ6
23854F23%q%%%%%%%%%%%%q%Q%%%%%q%%%%Q%q%Qq%%%%%%%%%qQ%%%%%%qQqQqQq%qQqJ6%%qQ%
23838F07%q%%%%%%%%qQ%%%%qQq%Q%qQq%%%%%%%qQ%%%%%%%%%%qQqQ%q%QqQq%%%%%Qq%%%%%%
23823E83%q%%Q%q%%%%%%%%%%%%%%%%%%%%%%%%%%qQ%%qQ%q%%%%%%%%%%%%%%%%%%%%%%%%%q%
23807E59QqQ%q%%%%%%%%%%%%%%%%%%%%%%%%%%%qQq%Qq%%%%%%%%%%%%%%%%%%%%%%%%%q%QqQ
23792E51q%Q%q%%%%%qQ%%%%%%%%%%%%%%%%%%%qQqQ%qQq%Qq%%%%%qQ%qQqQ%%%%%%%%%%%%%%
23776E35q%Q%%%q%%QqQq%%%%%%%%%%%%%%%qQ%%qJ6q%q%Qq%Qq%Qq%%%Qq%%%%%%%%%Qq%%%%%
23761E19%%%%%%%%%qQq%%%%%%%%%%%%%Qq%%%%%%%%%%%%qQ%%q%Q%q%%%%%QqQ%q%%%%%%%%%%
23745E03%%%%%%%%%%%%%%%%%%qQq%Q%%q%%Q%q%%%qJ6j6%Q%%%%%%%%%%%%%%%qQ%qQ%q%Q%q%
23730D87%%%%%%%%%%%qQ%%%%%%%%%%%%%%%%qQq%%Q%%qQq%%%%%%%%%%%%%%qQ%%%%qQ%%%%%%
23715D79%%%%%%%qQq%%%%%%Qq%%%%%%%%Q%%%q%%%%%%%%%%%%%%%%qQqQqQ%%q%%%Q%qQq%%%%
23699D63Qq%%%%%%%%%%%%%%%%%%%%%%q%Q%%qQ%%qQ%%qQq%%%%%%%%%%%%%%%%%%%%%%%%%%%%
23683D55%%%%qQ%q%%QqQ%%%%qQqQ%q%%%Qq%%%%%%%%%%%%%%%%%%%%%%%%%%%%qQ%q%%%%Qq%%
23668D39%%%%%Qq%%Qq%%%Qq%qQQq%%%%%%%%%%%%%%%qQqQ%%%q%%Q%%qQ%%qQ%%qQqQq%%Qk4J6
23653D31%%qJ6qqQ%Qq%%Qq%qQqQ%qQ%q%%QqQq%%%%%%%%%%%%%%%%Q%q%Qq%%%%%%%%%%%%%%%
23637D23%%%%%%qQ%%%qQ%%%%%q%%%QqQ%q%%%Qq%%%%%%%%%%%%%%%%%%%%%%%%%%%qQ%qQ%%%q
23622D07Q%qQqQ%qQq%%QqQ%%%qQqQq%%%%%%%%%%%%%%%%%q%Q%%%q%Q%%%%%%%qQ%qQqQ%qQ%q
23606C99Q%qJ6j6%Qq%%%%%%%%%%%%%%%%%%%%%%%%%%%%%%%%%%%%qQq%%%Q%qQ%%qQq%QqQ%j6
23591C83%QQqQq%%QqQq%%%%%qQ%%%%%%%%%%%%%%%%%%%%%%%qQ%%q%%%Qq%Q%%%%%%%q%%%%Q%
23576C91%qQq%Qq%Q%qQq%%%%%%%%%%%%%%%%%%%%%%%%%%%qQqQ%%%%%%%%%%%%%%%%%%qQ%%%%
23560C83qQ%qQ%qQq%%%%Qq%%%%%%%%Qq%%%%%%%%%%%%%%%%qQ%qQ%%%%%%%%q%Qq%Qq%%%%%%Q
23545C75%q%%%%%%%%%%%%%%%%%%%%%%%%%%%%%%%%%%%%%%%%%%%%%%q%%%Qq%%%%%%%%%%%%%%
23529C59%%%%%%%%%%%%%%%%%%%%%%%%%%%%%%%%%%%qQ%%%%%%%%%%%%qQ%qQq%Qq%%QqQ%%qQq
23513C51Qq%QqQq%%Qq%%Q%%qQ%q%%Qq%Qq%%%%%Qq%%%%%%%%%%%qQq%Q%qQ%%%%%%%%%%%%q%%
23498C43Qq%Q%%qQ%q%Qq%%Qq%%%%%Qq%%%Qq%%%%%%Qq%%%%%%%Qq%%%%%%%%%%%%%%%%%%%%%%
23482C43%%%%%%%%%%%%qQqQ%%%%qQqQqQ%qQ%q%%Q%%q%%QqQq%%%%%%Q%qQ%q%%%%qQ%%%%%%%
23467C35%%%%%%%%%%%%%%%%%%%%%%%%%%qQ%qQq%%%%%%%%%%%%%%%%%%%%%%%%%QqQq%%%%%%%
23451C27Qq%%%%%%%%%%%%%%%%%%%%%%%%%%%%%%%%%%%%%%%%%%%%%%%%%%%%%%%qQ%q%%Qq%%Q
23436C27%q%%%Q%%qQ%q%Qq%%QqQq%%%%%%%%%Qq%%%%%%%%%%%%%%%%%%%%%%%%%%%%%%%%%qQ%
23420C19%%%%Qq%%qQqQ%q%%Qq%QqQqQq%%%%%%%%%%%%%%%%%%%%%%%%%%%%%%%%%%%%%%%%%%%
23404C11%%%%%%%%%%%%%%%%%%%q%Q%%q%QqQ%%%%qQ%%%%%%%%%%%%%%%%%%%%%%q%%%%%%%%%%
23389C03Qq%%%%%%%%%%QqQ%%%%%q%%%%Qq%%%%%%%%%%%%%%%%%%%%%%%%%%%%qQ%%qQ%%qQ%%%
23373C03%%%%%%qQj6J6Q%q%qQ%j6J6q%Q%qQqQ%%qQ%q%%%Q%%%qQ%qQ%q%Q%%qQqQq%%%%%%%%
23359B95%Qq%Qq%%%Q%%q%%%qQ%%%%%%%%%qQ%%%%%%%%%%%%%%qQqQqQqQ%%%q%%Qq%Q%q%Q%q%
23343B87%%%%%%%Q%q%%%%%%%%%%%%%%%%%%%%%%%%%%%%%%%%%%%%%%%%Qq%%%%%%%%%%%%%%Qq
23328B87%%%%%%%%%%%%%%%%%%%%%%%%%%%%%%%%q%Q%%%%%%qQ%%%qQ%qQ%%q%Qq%%%%%%Q%q%%
23312B79%%%%Qq%Qq%%%%Qq%%%%%%%%Q%q%%%%%%%%%%%%%%%%%%%%Qj6J6qqQ%%%%Qq%%%%%%%q
23297B71QqQq%%%Qq%%%%%%Qq%%%%Q%%%%%%%%qQ%%%%%%%%%qQqQq%%%%%%%%%%%%%%%Q%%qQ%q
23281B71%QqQ%%%%%q%%%%%%%%%%%%%%%%%%%%%%%%%%%%%%%%%Qq%%%%%%%%%%q%J6q%%Q%q%%%
23266B71%%%%%%%%%%%%%%%%%%qQ%%%%%%%%%%%%%%%%q%Q%%%%%%%%%qQqQ%q%%Qq%%%Qq%%%%%
23250B63%%%%%%%%%%%%%%%%%%%%%%Qq%%%Qq%%%%%QqQq%%%%%%%%%%%%%%%%%%%%%%%%%%%%%%
23235B63%%%%%%%%%%%%%%%%%qQ%%%%%%%%%%%%%%%%%%qQ%%%q%Q%%qQ%qQ%%%%%%%q%%Q%%qQ%
23219B63%%%%%%%%%%q%%%%%%%%Qq%%%%QqQ%%%q%%QqQq%%%%%%%%%%Qq%%%%%%%%%%%%%%%%%%
23204B55%%%%%%%%%%%%%%%%%%%%%%%%%%%%%qQ%%%%%%%%%%%%%%%%%%%%%%%%%%%%%%%%%qQ%%
23188B55%%%qQ%%%qQ%%%q%%QqqQQ%%qQQq%qQq%%%Qq%%%Q%q%Qq%%Qq%%%%%%%%%%%Qq%%%%%%
23173B47%%Q%q%%%%%%%%%%%%%%%%%%%%%%%%%%Qq%%%%%%%%%%%%%%%%%%%%%%%%%%%%%%%%%%%
23157B47%%%%%%%%%%%%%%%%%%%qQqQqQ%q%%%Q%%%qQ%%q%%%%%%%%Qq%%Q%%q%Qq%Q%qQq%%%%
23141B39%%QqQ%qQqQq%Q%%%qQqQ%Q%j6QqQq%%%%%%Qq%%%%%%%%%%%%%%%%%%%%%%%%%%%%%%%
23126B39%%%Qq%%%%%%%%%%%%%Qq%%%%%%%%%%%%%%%%%%%%%%%qQ%%qQ%qQ%%%%%%%%%%%%%%%q
23111B31Q%%%q%%%Q%%%qQqQqQ%%%qQ%%%%%%%qQ%q%%Q%%qQ%%qQ%%%%%%%%%%%%%%%%q%%Qq%%
23095B31%%%%%%%Qq%%%%%%%%%Qq%%%%%%Qq%QqQqQ%%%%%%%qQq%%%%%%%%%%%%%%%%%qQ%%qQ%
23079B31%%%%%%%%%qQQq%%%%%%%%%%%%%%%%%%%%%qQ%%%qQq%%%QqQ%q%%Q%q%Qq%%Qq%%%%%%
23064B23Qq%%Q%%%%%%%%%%%%%%%%%%qQ%%%%%%q%Q%%%%%%q%%Q%q%Qq%%%Qq%Q%q%%%Qq%Qq%Q
23048B31q%%%%%%%%%%%%%%%%%%%%%%%%%QqQq%%%%%%%%%%%%%%QqQq%%%%%%%%qQ%qQ%q%J6%%
23033B31%q%%%%%%%%%%%%%%%%%%%%%%%%%%%%%%%%%%%%%%%%%%%%%%%%%%%qQ%%%%%%%qQqQq%
23017B15%Q%%%%%qQ%%q%%%Q%%%%%%%%%%%q%QqQ%%%q%Qq%Qq%QqQ%q%%Q%qQ%%%q%Q%%qQqQ%q
23002B15QqQq%%%%%%%Qq%Q%q%%Q%qQ%%%%%%%%%%%%qQ%q%%Qq%Q%qQ%%%qQq%%%%%%%%%%%%%%
22986B15%%%%%%%%%%%QqQq%%QqQq%%%%%%%%%%%%%%%%%%%%%Qq%QqQq%%%%%%%%%%%%%%%%%%%
22971B15%%%%%qQ%%qQ%%q%%Q%%%%%%%%%%q%Q%%%qQ%%%%qQ%q%QqQ%%%%%%%%%%%qQ%%qQqQ%%
22955B15%%%%%%%%q%%%%%%%%%Qq%%%%%%%Qq%%%Qq%%%%%%%%%%%Q%%%%q%QqQq%%%%Q%q%%%%%
22940B07%%%%%%%Qq%%%%%%%Qq%QqQq%%Qq%%%%%%%%%%%%%%%%%%%%%%%%%%QqQ%q%Qq%%%%%%%
22924B07%%%%%%%%%%%%%%%qQ%%%%%%%%%%%%%%%QqqQQq%QqQq%%%%%%%%%%%%%%%%%%%qQqQ%%
22908B07%%%%%%%%%%%%%%%%%%qQ%%%%Qj6K4k4j6%L2q%Qj6J6j6QQqq%%Q%qQ%q%Qq%QqQqQqQ
22895B07%%%qQqQ%q%%%QqQqQq%%%%%Q%q%QqQq%%%%%%%%QqQq%%%Q%%%%%%%qQ%q%%Q%%%qQ%%
22879B07%%%%%%%%qQ%q%Q%%q%%Q%%%%%%%q%%Q%q%%%%%%%%%Q%q%%%%%%%%%%%%%Q%q%%%Qq%%
22864A99%%%%Qq%QqQq%%%%%%%%%%%%%%%%%Qq%%Qq%%%%%%%%%%%%%%%%%%%%%%%%%%%%%%%%%%
22848A99%%%%%%%%%%%%%%%%%%%Qq%%%%%%%%%%%%%%%%%%%%%%%%%%%%%%%qQ%%qQ%%%qQ%%%%q
22832A91%%Q%%%%%qQ%%qQ%q%%Q%%%%qQqQ%%%%%%%%%%%%qQqQ%%%q%%%%%%Q%%%%%%%qQqQ%%%
22817A99%%%q%%%%%%%%QqQ%%qQ%%%%%%%%%%%%%%%%%%%%%%qQ%%q%Q%q%%%%%Q%q%QqQqQq%Q%
22801A99q%Qq%Q%Qqq%%%QqQq%%%%%%Qq%%%%%%%%%%%%Q%q%%%%%Qq%%%%%%%%%%%%%%%%%%%Qq
22786A91%%QqQqQq%Q%%%q%%%%%%%%%%%%%%%%%%%%%%%Qq%%%%%%%%%%%%%%%Qq%%%%%%%%%%%%
22770A91QqqQ%%%%%%%%%%%%%%%%%%%%%%%%%%%%%%%%%%%%%%%%%%%qQ%%%%%%%%%q%Q%%%%%%q
22755A83Q%%%%%%%%%%%%%%%%%%%%%%%%%%%%%%%%%%%%%%%%%%%%%%qQ%qQ%%%%%%%%%%%%%%%%
22739A91%%%%%%q%%%%%%%%%%%%%%%%%QqQ%%%%%%%%%%%%%q%Q%qQ%%q%%%%%%QqQqQ%%qQ%%%%
22724A91%%%q%%%%%%%%%QqQ%%%%%%q%Q%q%%%%Qj6J6qQ%Qj6QqQqQqQqQq%Qq%%%%%%%%%%%%%
22709A83%%%%%%%%%%%%%%%%%%Q%qQq%Qq%%%Qq%%%%%%%%%%%%%%Qq%%%%%%%%%%%%%%Qq%%Qq%
22693A83%%%%%%%%%%%%%%%%%%%%%%%%%%%%%%%%%%%%%%%%Qq%%%%%%%%Qq%%%%%%%%%%%%%%%%
22678A83%%%%%%%%%%%%%%%%%%%%%%%%%%%%%%%%%%%%qQ%%%%%qQ%%%%%%qQ%qQ%%qQ%%%%%%%%
22662A83qQ%%%%%%%%%%%%%%%%%%%%%%qQ%%%%%q%Qq%%Q%qQq%Q%%%qQqQ%%qQ%%%%%%%%%%%%%
22646A83q%Q%%%%%%%%%%%q%%%%QqQ%q%%%%%%%%%%%QqQq%%%Q%%q%QqQ%%%%%%%%%%%%%%qQ%%
22631A83%%%%%%%qQ%%%qQ%%qQq%%Qq%Q%q%%%%%%%%Qq%%%Qq%%Q%%%%%qQqQ%q%%%%%%%%%%%%
22615A75%%%%%%%%%%%%%%%Qq%%%%%%%%QqQqQq%%%%%%%%%%%%%%%%%%%%%%Qq%Qq%%%Qq%Qq%%
22600A75%%%%Qq%%qQ%%%%%%%%%Qq%%%qQqQ%qQ%%%%%%%%%qQ%%%%%%%%%%%%%%%%%%%%%%%%%%
22584A75%%%%%%%%%%%%%%%%%%Qq%%%%%%%%%%%%%%%%%%%%%%%%%%%%%%%%%%%%%%%%%%%%%%%%
22569A75%%%%%%%%%%Qq%qJ6q%qQ%%%%%%%%%%%qQ%%%%qQ%%%%%%%%%%%%%%%%%%%%%%%%%%%%%
22553A75%%%%%%%%%%%%%%Qq%%%%%%%%%%%%%%%%%%%%%%%%%%%%%%%%%%%qQqQ%%%qQ%%%%%%%q
22538A67Q%%qQ%%qQq%Q%%q%Qq%%Q%qQ%%%%qQ%%%%%%%%%%%%%%%%%%%%%%%%q%Q%%%%%%%%%%%
22522A75%%%qQ%%%%%%%%%%%%%%%qQ%%%%%%%qQ%%%%%%%%%%%%%%q%%%%%%%%QqQq%%%%%%%%Qq
22507A67%%%%%%%%%Qq%%%%Qq%Q%%%%%q%%%Q%%q%%%%QqQ%q%%%%Q%%q%%%%%QqQq%%%Qq%%%%Q
22491A75%%qQ%%%%q%%%%%%Q%%q%%%%%Q%%qQ%qQqQq%%Qq%%%QqQq%%%%%%%%%%%%%Qq%Qq%Qq%
22475A67%%%%%%%%%%%%%%%%%%%%%%%%%%%%%%%%%%%%%%%%%%%%%%%%%%%%%%%%%%%%%%%%%%%%
22460A67%%%%%%%%Qq%%%%%%%QqQ%%q%%%%%%%%%%%%%%%%%%%%%%%%%%%%%%%%Q%qQq%%%%%%%%
22444A67%%%%%%%%%%%%%%%%%%%%%%%%%%%%%%%%%%%%%%%%%QqQq%q%QQq%QqQq%%%%%Qq%%%%%
22429A67%%%%%%%%%%%%%%%%%%%%%%%%%%%%%qQ%%%%Qq%%%%%%QqQq%%%%%%%%%%%%%%%%%%%%%
22413A67%%%%%%%%%%%%%%%%%%%%%%%%%%%%%%%%%%%%%%%%%%%%%%%%%%%%%%%%%%qQ%%%%qQ%%
22398A67%%%%%%%%%%%%%%%%%%qQ%qQ%%%q%Q%%%%%%%%%%%qQ%%%%%%%%%%%%%%%%%%%%%%%%%%
22382A67%%%%%%%%%%qQ%%qQq%Q%%%qQ%%%qQ%qQ%%%%%%%%%qQ%%qQq%%%%Qq%QqQqQq%%Q%%%%
22366A67%q%%%%%%%Q%%%%qQ%q%%%Qq%%%Qq%%QqQ%q%Q%%%qQ%qQq%%%%%QqQqQ%%%%%%%%qQ%%
22351A67qQ%%%%%%%%%%%%%qQ%%qQ%%%%qQqQ%q%Q%%%%qQ%qQ%%%%%%qQ%qQ%%%%%%%%%qQqQ%%
22335A67%%%%%q%%Q%qQ%%%%%%%%%%%qQ%q%%%Qq%Qq%%%%QqQqQqQq%%%%QqQ%qQ%qQqQ%%q%%%
22320A59%%%%%%%%Qq%%%Q%q%%%QqQqQqQ%q%QqQ%%%%%%%%%%%%%qQqQq%%%%%%%%Q%qQ%%%q%%
22304A59QqQ%%%%%%%%qQqQq%Qq%Qq%%%Q%q%%%%Q%%q%Qq%%%%%%%%%%%%%%%%%%%%%%%%%%%%%
22289A59%%%%%QqQq%%%%%%%%%%%%%Qq%%%%%%%%%%%%%%%%Q%q%%%%%%%%%%%%%%%%%%%%%%%%%
22273A59%%Qq%%%qQ%%%%%%%%%%%%%%%%%%%%%%%%%%%Qq%%%%%%%%%%%%%%%%%%%%%%%%%Qq%Qq
22258A59%Q%q%%Qq%%%%%%%%%%%%%%%%Qq%%%%qJ6%j6J6qqQj6QQq%J6k4%J6K4l2k4L2J6k4k4
22245A27K4Q%%%q%%QqQqQ%%%%%%%%q%Q%%%%%%%%%%%%%%%%%%%%%%%%%%%%%%%%%%%%%%%%%%%
22230A59%%%%%%%qQ%Qq%%%%%%%%%%%%%%%%%%%%%%%%%%%%%%%%%%%%%%%%%%%%qQ%%%%Qq%%%%
22214A59%%Qq%%qQ%%%%%%%%%%%%%%%%%%%%%%%%%%%%%qQ%%%%qQ%qQq%Qq%QqQ%%%%%%%%%%%%
22199A59%%%Qq%%%%%%%%qQ%%%%%%%%%%%%%%%qQ%%%%%%%%%%%qQ%q%Q%%qQ%qQ%%%%Qj6Q%%%q
22183A51Q%%%qQ%%%%%%%%%%%%%%%%%%%%%%%%qQ%%%qQ%qQ%qQqQ%qQ%%qQ%%qQ%%%%qQqQ%q%Q
22168A59%%%%%%%%%%%%%%%%%%%%%%%%%%%%%%qQ%%%%%%qQ%%%%%%qQ%%%%%%%qQq%%Q%%%%%%%
22152A59%%qQq%%QqQq%%Q%%%%qQ%qQ%qQ%%%%%%%%%%%%%%%%%%%%%%%%%qQ%%%%%%%%%%%%%%%
22137A59%%%%%%%%%%%%%%%%%%%%%Qq%%%%q%%Q%Qq%%%%%%%%%%%%%%qQ%q%%%%%Qq%%Q%%%qQq
22121A51%%%%%%%%%%Q%q%Q%qQ%qQ%%%%qQ%%%%qQqQ%%%%%%q%Q%%%%%qQ%qQ%%%%%%%%%%%%%q
22106A51%QqQq%QqQ%%%%%%%%%%%q%QqQ%qQ%%%%%qQq%QQj6J6qQ%qqJ6q%qQ%%qQ%q%%Q%q%%%
22091A51Q%%%qQ%%%%%%q%%%Qq%%%%%%%%%%%%Qq%QqQqQq%%QqQ%%q%%Q%%%%%%qQ%%q%%Qq%%%
22075A51Qq%QqQqQq%Q%%%qQq%%%Qq%%%%%%%%%QqQq%Qq%%Q%%qQ%%%qQ%%%%%%%%%%%%%%%%%%
22060A59%%%%%%%%%%%%%%%%%%%qQ%q%%Q%%%%%q%%%%Qq%Qq%%%%%%Qq%%%%%%%%%%%%%%%QqQ%
22044A59%%q%%%%%%%Q%%%qQ%q%Q%%%%%qQqQ%q%%Q%%%%%%%%%%%%%%%%%%%%%qQqQ%%q%Q%qQq
22028A51%%%%%%Qq%%%%%%%%Q%%qQqQ%j6J6%%%%%%qQ%%%%%%%%%qQ%%q%%Q%%%%q%Q%q%%Qq%%
22013A51Qq%%QQqQqqQ%qQ%q%QqQqQq%Qq%%%%%%%%%%%%%%%%%%%%%%%%%Q%%%%%%%%%%%%%q%Q
21998A59q%Qq%QqQq%QqQ%%qQ%%%%%%%qQ%q%%%Q%%%qQq%%%%%%%%%%QqQ%q%%%%%%%%%%%%%Qq
21982A51%%%%%%%%%%%%Q%%q%%%%%%%%Qq%%%%%%%%Qq%Qq%%%%%%%%%%%%%%Qq%%%%%%%%%%Qj6
21967A43Q%%Q%%q%QqqJ6q%Q%q%%%%Qq%%%%%%%%%%%%%%%%%%Q%q%%%%%%%%%%%%%%%%qQ%%%%%
21952A51%%%%%Q%%qQ%q%Q%%%%q%Q%%%%q%Q%%qQq%%%%Qq%%%%%Q%q%%%%%%%Q%qQqQ%q%Qq%%Q
21936A59q%%%%%%%%%%%%%%%%%%%%%%%%%%%%%%%%%%%%%%%%%%%%%%%QqQ%%%%%%q%%QqQ%%qQq
21920A51%%%%QqQq%%%%%%Qq%%%%%%%%%%%%%%%Qq%%%%%%%%%%%%%%Qq%%%QqQ%%q%Q%q%%%%%Q
21905A59%%%q%%%Q%q%%%%%%%%%%%%%%%%%%Qq%%%%%%%%%%Q%qQ%%q%Qq%%%Qq%%%J6j6%%%%%%
21890A51%%%%%%%%Qq%Qq%%%%%%%%%%Qq%%%%%%%%%%%QqQqQqQq%%%%%%%%%%%%%%%%%%QqQq%%
21874A51%Q%q%%%%%%%%%%%%%%%%%%Qq%%QqQqQ%q%%%%%QqQ%q%%%Qq%%%%Qq%qQ%%Qq%%%%%%%
21859A51%%%%%%%%%%%%%%%%%%%%%%%%%%%%%%%%%%%%%%%%%%%%%%%%Qq%%%qQ%%%%%%%%%%%%%
21843A51%%%%%%%%%%%%%%%%%%%%%%%%%%%%%Q%%%%q%%%%%%%qQQ%q%%Qq%%%%%%%%%%%%%%%%%
21827A51%%%%%%%%%%%%%%%%Qq%%%%%%%%%%%%%%%%%%%%%%%%%%%%%%%%%%%%%%QqQ%qQ%%qQq%
21812A51%%%%%%%%%%%%%%%%%%%QqQ%q%Qq%%%%%%%%%%%%%%%%%%%%%%%%%%%%%%%%%%%%%%%%%
21796A51%%%%%Qq%%%%%%%%%%%%%%%%%%Qq%%qQ%Qq%Qq%%%%%%%%%%%%%%%%%%%%%%%%%%%%%%%
21781A51%Qq%%%%%%%QqQj6QJ6k4QQq%q%Q%QqqQQqQqQq%%%Qq%%%%%%%%%%%%%%%%%%%%%%Qq%
21766A51%%%%%%%%%%%%%%%%%%%%%%%%%%%%%%%%%%%%%%%%%%%%%%%%%Qq%%%%%%%%%%%%%%%%%
21750A51%%%%%%%%%%%%Qq%%%%%%Q%q%Qq%%Qq%%%%%%%%%%%%%%%%%%%%%%%%%%%%%%%%%%%%%%
21735A51%Q%q%%%%Qq%%%Qq%%%qQ%%qQQ%qQ%q%Q%qQqQq%%%%%%%%%Q%q%Q%%%q%Qq%%%%%%%%%
21719A51Qq%Q%q%Qq%%Qq%%qQ%Qq%%%Q%%%%qQq%Qq%%%Qq%%%%%%%%%%%%%%%%%%%%%%%%%%%%%
21704A51%%%%%%%Qq%%Qq%%%%%%%%%%%%%Qq%%%Qq%%%%%%%%%%%%%%Qq%%%Q%qQ%q%%%%Qq%Q%q
21688A51Q%%%q%%%%%%Qq%%%%%%%%%%%%%%%%%%%%%%%%%%%%%%%%%%%%%%%%%%%%%%%%%%%%%%%
21673A51%%%%%Q%q%%%%%%%%%%%%%%%%%%%%%%%%%%%%%%%%%%%%%%%%%Qq%%Q%qQq%%%%%%%%qQ
21657A51qQ%%%%%%%%%%%Q%q%%%%%%%%%%%%%%%%%%QqQq%%%%%%%%%Qq%%%%%%%%%%%%%%%%%%%
21641A51%%%Q%%%q%%%%%%%%%%%%%%%%%%%%%%Qq%%%%%%%%%%%%Qq%%%%%%%%%QqQ%%%q%%%%%%
21626A51%Qq%%QqQ%q%%%Qq%%%%%%%%%%%%%%%%%%%%%%%%%%%%%%%%%%%%QqQq%Q%%%%%q%%%%%
21610A51%%%%%Qq%Qq%%%%%%%%%%%%%%%%%%%%%%%%%%%%%%%%Qq%%%%%%%Qq%%Qq%%%%%%Qq%Q%
21595A59%q%Q%q%%%%%%%%%%Qq%Q%q%%%%%%%%%%%%Q%%q%%%%%%%%%%%%%%%%%%%%%%%%%%Q%q%
21579A51Q%q%Q%qQ%qQq%%%%%%Qq%%%%%%%%%%%%%%%%%%%%%%Qq%%Qq%%Q%qQq%Q%%%qQq%%QqQ
21564A59q%Qq%%%Qq%Qq%%%%%%%%%%%Q%q%%%Qq%%Q%%qQ%%q%%Qq%%%%%%%%Qq%%%Qq%%%%%%%%
21548A51Qq%%%%Qq%%Qq%%%%%%%%%Q%j6QqQ%%%%%%%%%%%%%%Qq%%%%%%%%Qq%%%%%%%%%%%%Qq
21533A51%%%Qq%%%%%%%%%Qq%%%%%%%%%%%Qq%%%%Q%%qQ%%qQqQqQqQqQqQqQqQq%%Q%%%qQqQ%
21517A59qQqQ%%%%%%qQ%%%qQq%%%%Qq%%%%%%%%%%%%%%%%%%%%Qq%Q%q%%Qq%Qq%%Q%q%%%%%%
21502A51QqQqQ%q%%Q%q%%%Qq%Q%%qQqQqJ6j6Q%q%%%%%%%%Q%%%qQ%%%%%%%%%%qQ%%%qQ%q%Q
21486A59qQq%Qq%%%%%Qq%%%%Qq%%%Qq%Q%%qQ%%%%%%%%%qQq%%%Q%qQ%%%%%%qQ%%%%%%qQ%qQ
21471A59%%%qQ%%q%Q%qQ%%q%QqQq%%Qq%%Qq%%%Q%q%%%QqQq%%%%%%%%%%%%%%QqQ%%%%%%%%%
21455A59%q%%%QqQ%%qQq%QqQq%%Qq%%%%%%%%Qq%Q%q%Q%qQq%%%%%Qq%%%QqQq%%%Qq%Q%%qQ%
21440A59%qQq%%QqQ%%q%%%%%%%%%%%%%%%%%%%%%%%%%%%Qq%%QqQ%q%%%%%%Q%%qQq%%%Qq%Qq
21424A51%QqQqQq%Q%%qQ%%q%Q%qQ%qQ%q%Q%qQq%Q%%%qQ%qQ%%%qQ%%%%%%%%%%%%qQ%%%%%%%
21409A59qQ%%%%%%%%%%%%%%%%%%q%%Q%%%%%%%%%%%%qQqQ%%%qQ%q%%%%%%%%%%%%%%Qq%%Q%%
21393A59%%%%%%%%%%%%%%qQ%%%%%q%Q%%%%qQqQ%%%%%%%%%%%%%%%%%%%%%qQqQ%qQ%qQ%%Qq%
21377A59%%qQ%%%q%Q%%%qQqQ%%%%%%qQ%%qQqQqQq%Q%qQ%qQ%%%%qQ%%%%%%%qQ%qQ%%%qQq%Q
21362A59%qQqQ%%%%%qQ%%%%qQ%%%%%%%%%%%%%%%%%%%%%%qQ%%%%%%%%%%%q%QqQ%%%%%%%%%%
21346A59%%%%%%%%%%%%%%%%qQq%Q%%%%%%%%%%%%%%%%%%%%%%%%%%%%%%%qQ%%%%%%%%%%%%%%
21331A59%%%%%%%%%%%%%%qQ%%qQ%%%%%%%%%%%%%%%%%%%%%%%Qq%%%QqQq%%%%%%%%%%%%%%%%
21315A59%%%%%%%%%%%%%%%%%%Qj6Q%qQ%%J6k4%%J6%%j6J6j6Q%%%%q%%%Q%%%qQ%%%%%%%%%%
21301A59%%qQ%%%%%%%%%%%%%%%%%qQ%%%%%%%%%%%%%%%%%qQ%%q%Q%%q%Q%%%%qQ%%q%Q%q%%Q
21286A59%%%%%%%%%%%%%%%%%%%%%%%%%%%%%%%%%%%%%%%%%%%%%%%%%%%%%%%%%%%%%%%%%%%%
21270A59%%%%%%%%%%%%%%%%%%%%%%%%%%%%%%%%q%QqQqQ%%%%%Qq%%%%%%%%%%%%%%%%%%%%%%
21255A59%%%%%%%%%%%%%%%%%%%%%%%%%%%%%%%%qQ%qQ%%%%%%%%%%%%%%%%%%%%%%%%%%%%%%%
21239A59%%%%%%%%%%%%%%%%qQ%%%%%%%%%%%%%%%%%%%%%%%%%%%%%%%%%%%%%%%%%%%%%%%%%%
21223A59%%%%%%%%%%%qQ%%%%%%%%%%%%%%%%%%QqQ%%q%%%%%%%%%%%%%%%%%%%%%%%%%%%%%%%
21208A59%%%%%Qq%%%%%Q%%%q%Q%%%%%q%QqQ%%qQq%%%%%Q%qQ%%%q%%%%%%Qq%Q%%%qQq%%QqQ
21192A67%q%QqQ%q%Qq%%%%%%%%Q%%q%Qq%%%%%%%%QqQqQ%%%%qQ%%%%q%%QqQ%%%qQ%%%qQ%%%
21177A67qQqQqQ%q%%Qq%%%%QqQq%%%Qq%%Qq%%QqQqQq%%%%Q%%qQ%%%%%%%qQ%%%%qQ%%qQ%q%
21161A59Qq%QqQqqJ6qQq%QqQ%q%Q%%%%qQ%%%%%%%%q%%Qq%%%%%%Q%%qQ%%%%%qQ%%%%qQ%q%%
21146A59Qq%%%%%Q%qQ%q%%QqQ%%%q%Q%%%%q%%%Q%%%q%QqQ%%%qQ%%%%%%%qQ%qQ%%%%%%qQ%q
21130A59Q%%%%%%%%%%%qQqQq%%%%%%%%QqQ%%%q%Q%qQqQqQq%%%Qq%%Qq%%Q%qQqQ%q%Q%q%Q%
21115A67qQ%%%%%%%%%%%%%qQ%%%%%%%%%q%Qq%%%%%%Q%qQ%%%%qQ%q%QqQ%%%%%%%%%qQqQqQ%
21099A67q%Q%qQ%%%%q%%%%Q%%qQ%%qQ%%qQ%%%%%%%%%%%%%%%%%%%%%%%%%%%%%qQ%%%%%%%%%
21084A67%%%%%%%%%%%%%%%%%%%%%%%%%%%%%%%%%q%%J6q%j6J6q%Q%%%%%%%%%%%%qQ%qQ%%%%
21069A67%%%%%%%%%%%%%%%%%%%%%%%%%%%qQ%%%%%%%%%%%%%%%%%%%%%%%%%%QqQq%%%%%%%%%
21053A67%%%%%%%%%%%%%%%%%%%%%%%%%%%%%%%%%qQ%qQ%%%%%%%%%%%%%%%%%%%%%%%%%%%%%%
21038A67%%%%%Qq%%%%%%%%%qQQq%%Qq%%%%%%%%QqQ%%q%%%j6K4K4k4m0J6L2%qj6J6k4J6qJ6
21025A75%%%qQq%%Qq%%%%%%%%%%qQ%%%%%%%%%%%%%%Qq%%%%%%%%%%%Qq%%%%%%Qq%%%%%%%%%
21009A67%Qq%%%%%%%%%%%%%%%%%%%%%%%%%%Qq%%%%%%%%%%%%%%%%%%%%%%%%%%%QqQ%q%%Qq%
20994A67%%%%Q%q%%%%Qq%%%%%%%%%%%%%%%%%%%Qq%%%%%%%%%%%%%%%Qq%Qq%%Qq%%%%%%%%%%
20978A67%%%%%Qq%%%%%%%%%Qq%%%%%%%%%%%%%%%%%%Qq%%%Qq%QqQq%%%%%%%Q%qQ%q%Qq%%%%
20963A67Q%%q%%%%Q%%q%%Q%%%qQ%%q%%Q%%qQ%%%qQ%%J6j6Qj6Q%q%Qq%%%%%%%%Q%qQq%%%%%
20948A67Qq%Qq%Q%%%%q%%QqQqQ%q%Q%q%Q%%%%%%q%Q%qQ%qQqQ%%%%%%%%%%%%%qQ%qQq%Q%%q
20932A67QqQqQ%%%%%%%q%%%%Qq%Qq%%Q%%%qQ%%%%%%%Qq%%%%%%%%%%%%%%%%%%%%%%%%%q%%Q
20917A75%q%Qq%%Qq%%%%%%%%%Q%q%Q%qQ%%%%%%qQ%%%%%%%%%%%%q%%Q%%%%%%%%%%%%qQqQ%%
20901A75%%%%%%%%%%%%qQq%%Q%%%%%%%%%%%%%%%%qQqQ%qQ%qQ%%%%%%%%%%%%qQ%%qQ%%%%%%
20885A75%%%%%%%%%%%%%%%%%%%%%%%%%%%%%%%%%%%%%%%%%%qQ%%%%%qQ%%%%%%%%%%%%Qq%%%
20870A75%Qq%%%%%%%%%%%%%%%%%%%%%%%%%%Qq%%%%%%%%%%%%%%%%%%%%%%%%%%%%%%%%%qQ%%
20854A75%%%%%%%qQ%%%%%%%%%%%%%Qq%%%Qq%%%%%%%%%%%%%%%%%%%%%Qq%%Qj6QqQ%qK4j6qJ6
20839A83q%Q%qQ%qQq%%%%%%%%%%%Qq%%%%%%%%%%Qq%%%%%%QqQ%q%Qq%%%%%%%Qq%%%Qq%%%%%
20824A75%%%%%Qq%%%%%%%%%%Qq%%%Qq%%%%%%%%%%%%%%%%%%Qq%%%%%Qq%Q%qQ%qQq%%Q%%%%%
20808A83%%%q%Qq%%%QqQ%qQ%%%q%%Q%%%%%%%%%%%qQ%q%%Qq%%Q%qQ%%%%%q%Q%q%Q%q%Q%%q%
20793A75QqQq%Q%%%qQ%qQq%%QqQ%q%%%%%%%%%QqQqQ%%%%q%Q%%%qQ%%qQqQqQ%%%%%qJ6%j6Q
20778A83%qQ%qQ%%%qQq%%Q%%%%%%%%%%%%%%%%%%%%%%%%%%%%%%qQ%%%%q%Q%%%%%%%%qQ%%%%
20762A83%q%%Q%%%%%%%%%%%%%%%%%%%%%%%%%%%%%%%%%%%%%%%%%%%%%%%%%%%%%%%%%%%%%%%
20746A83%%%%%%%%%%%%%%%%%%%%%%%%%%%%%%%%%%%%%Q%q%%%%%%%%%%%%%%%%qQ%%%%%%%%%%
20731A83%%%%%%%%%%%%%%%%%%%%%%%%%%%%%%%%%%%Q%%q%%%%%%%%Qq%%%%%%%Qq%%%%%%%%%%
20715A83%%%%%%%%%%%%%%%%%%%%%%%%%%%%%%%%%%%%%%%%%%%%%Qq%%%%Qq%%QqQq%%QqQq%%%
20700A83Qq%%QqQ%%%q%Q%%q%%%%%%%%%%%%Q%%%qQ%qQ%q%%%Qq%%%%%%%%%%%%%%%%%%Qq%%%%
20684A83%%Qq%%%%%%%%%%%%%%%%%%%Q%q%%%%%%Q%%%%%%%qQ%%%%%qQqQ%%%qQqQq%%Q%%%%qQ
20669A91%%%%%qQ%%%qQ%%%%q%%Q%%%%%qQ%%q%%QqQq%Q%%%%q%Q%%%%%%%%%%%%%%%%%%%%%%%
20653A91%%%%%%qQ%%%%%%%%%%q%Q%%%qQq%QqQ%%%%%%q%%Q%qQ%%%%%%%%%%%%%%%%%%%%%%%%
20638A91%%%%%%%%%%%%%%%%%%%%%%%%%%qQ%%%%%%%%%%%%%%%%%%%%%%%%%%%%%%%%%%%%%%%%
20622A91%%%%%%%%%%%%%%%%%%%%Qq%%%%%Qq%%%%%%%%%%%%%%%%%%QqQ%q%%%%%%%%%%%%%%%%
20606A91qQ%QqQq%Qq%%%%%%Qq%%%%Qq%%%%%%%%%%%%%%%%%%%Qq%%%%%%%%%%%%%%%%%%%%%%%
20591A91%%%%%%%%Qq%QqQ%%q%Qq%%%%%%%%%%%%%%%%%%%%%%%%%%%%%%%%Qq%%QqQ%%q%%%%%%
20575A91%%%%%%Qq%%%%Q%q%%%Q%qQqQqQqQq%%%%%%%%Q%q%%Q%qQqQ%qQ%q%%%%%%%Q%q%Q%%q
20560A91%QqJ6qq%J6%q%q%Q%qQ%%q%Q%%q%Q%%%%%%%%%%%%%%%%%%qQ%%q%%%Q%%q%Q%%%%%qQ
20545A99qQqQ%%%%%%%%%%%%%%%%%%%%%%%%%%%%%%%%%%%%%%%%%%%%%%%%%%%%%%%%%%%%%%%%
20529A99%%%Qq%%%%%%%%%%%%%%%%%%%%%%%%%%%%%%%%%%%%%%%%%%%%%%%%%%%%%%%%%Qq%q%Q
20513A99%%%%%%%%%%%%%Qq%%%%%%%%%%%%%Qq%%%Q%q%%%%%%%%%%%%%%Qq%%Q%q%%%%%Qq%Qq%
20498A99%Q%qQq%%%%%%%%%%%%%%%%%%%%%%%Q%q%%Qq%QqQ%q%%%%QqQq%%%%%Qq%%%%Q%%%qQq
20482A99%Q%qQqQ%%%%%%%%%%%%%%q%Q%%%%%%%%%%%%%%%%%%%q%%%%QqQ%q%%%QqQqQq%%%%%Q
20467B07%%%%%%qQ%%%%%%%qQ%qQ%%%%%%%%%%%%%%%%%%%qQ%%%%%%%%%%%%%%%%%%%%%%%%%%%
20451B07%%%%%%%%%%%%%%%%%%%%%%%%%%%%%%%%%%%%%%%%%%%%qQ%%%%Qq%%%%qQ%%qQ%%%%%%
20436B07%%%%%%%%%%%%%%%%%%%%%%%%%qQQq%%%%%%%%%qQ%%%%%%%%%%%%%%%%%%%%%%%%%%%%
20420B07%%%%%%%%%%%%%%%%%%%%%%%%%%%Qq%%%%%%QqQq%%%%Qq%%%%%%%%%%%%%%%%%%%%%%%
20405B07%Q%qQ%%q%%%Qq%%%%%%Qq%%%%%%%%%%%%%%%%%Qq%%Q%%%%qQ%%%%%%%%%%%%%%%%%%q
20389B07%%%QqQ%q%Q%%%%qQ%%%%%%q%%QqQ%q%Q%qQ%%q%%%Q%%%q%Q%qQ%%%%%qQ%%%%%%Q%q%
20373B15%Qq%%%%qJ6Qm8K4Q%%Qq%%qQqQQqQq%%%%%%%%%%%%%q%Q%Qq%%qQ%%%%%%%%%%Qq%%%
20359B15%%%%%%qQ%%%%%%%%%%%%%%%%%%%%%%%%%%%%%%%%%%%%%%%%%%%%%%%%%%%%%%%%%%%%
20343B15%%%%%%%%%%%%%%%%%%%%%%%%Q%q%%%%%%%%%%%%Q%qQ%%%%qQ%%%qQq%Qq%%%%%%%%Qq
20327B15Qq%%%%%Q%%%qQ%qJ6%j6%Q%q%QqQqQq%%%QqQq%Q%qQ%%%%%%%%%%%%%%%%%%%%%%qQ%
20312B23%%%%%%%%%%qJ6qq%QqQ%%%%%%%%%%%%%%%%%%%q%Q%%%%%%%%%%%%%%%%%%%%%%%%%%%
20297B23%%%%%%%%%%%%%%%%qQ%%%%%%%%%%%%%%%%%%%%%%%%%%%%%%%%%%%%%%%%%%%%%%%%%%
20281B23%%%%%%%%%%%%%QqQq%%%%%%%%%%%%%%%%%%%%%%%Qq%%%%%%%%%%%%%%%%Qq%%%%QqQq
20266B23%%%Qq%Qq%Qq%Qq%%Qq%%%%%%%%%%%%%%%%%%%%%%%Q%q%Q%qQq%%Q%qQqQ%qQqQqQ%%%
20250B31%qQqQ%%%%%%%%%%qQqQ%qQq%Qq%%%Q%%%%%%%%%%%%%%%%qQ%%qQqQqQ%%qQ%%%%%%%%
20235B31%%%%%%%%%%%%%%%%%%%%%%%%%%%%%%%%%%%%qQ%%%%Qqq%Q%%QqqQ%%%qQqQj6K4qQ%j6
20220B23Q%%%qQ%qQ%%%%%qQ%%%%%%%%%%Qq%%%%%%%%Qq%%Qq%%%%%%Qq%Qq%%%Q%q%qQ%%%%Qq
20204B31%%%%%%%%Qq%%%%%%%%%%%%%%%QqQq%Q%q%Q%q%%Qq%%Q%%%%q%%%Q%%q%%Q%%%%qQ%%%
20188B39%%%%qQ%%%%%%%%%%%%%qQ%qQ%%%%%%%%q%Qq%QqQ%%%%%%%%qQ%%%qQ%%%%%%%qQ%%%%
20173B39%%%%%%%%%%%%%%%%%%%%%%%%%%%%%%%qQ%%%%%%%%%%%%Qq%%Q%%q%%%%%%%%%%%%%%%
20157B39%%%%%QqQ%q%%%%%%%%%%%%%Q%q%%Q%%%q%Qq%%%%%%%%%%%%%%%%%%%%%%%%%QqQ%%%q
20142B39%Qq%Q%%qQq%Q%qQ%%%q%%Q%%%%%q%%%Qq%QqQ%%qQ%%%%%%qQq%Qq%Q%qQqQq%Q%%q%Q
20126B47%qQqQqQ%%qQ%%%q%%QqQ%%%qQ%%qQ%%%%%%%%%%%%%%q%QqQ%qQqQ%%%%%%%%%%%%%%%
20111B47%%%%%%%%%%%%%%%%%%%%%%%%%%%%%%%%%QqQq%%%%Qq%%%%%%%%%%%%%%%%%%%%%%%%%
20095B47%%%%%%%%Qq%%%%%Qj6Q%%QqJ6K4j6j6Qj6Qq%%Qj6QQ%q%%%%%%Qq%Qq%%%%%%%Qq%%%
20081B47%%%%%%%%%Q%qQqQq%Q%%qQ%%%qQ%%%%qQ%%%%%%%%%%%%%%%%%%%%%%%%%%%%%%%%%%%
20066B55%%%%%%%%%%%%%%%%%%%%%%%%%%%%%%%%%%%%%%%qQ%%%%%%%%%%%%%%%%%%%%%%%%%%Q
20050B63qQq%%%%%%%%%%%%%%%%%%%%%%%%%%%%Qq%%%%%Q%q%%%%%%Q%%%%%%%q%%%Qq%%%%Qq%
20034B55Q%qQ%qQ%%qQ%q%%Q%%%%%%q%Q%qQ%%qQ%%qQ%q%Q%%%%%%%%%%q%Q%qQ%%qQqQqQqQ%%
20019B63%%%%%%%%%%%%%%%%%qQ%%%%%%%%%%%%%Q%q%%%%%%%%%%%%%%%%%%%%%%%%qQ%%%%%%%
20003B63%%%%%%%Qq%Q%q%%%%%%Qq%%%Q%qQqQ%qQ%%q%Q%q%%%%%%%%%%Qq%%Q%%%qQq%Qq%%%%
19988B63QqQqQ%%%qQ%%%qQ%%%%%%%%%%%%%qQ%%qQ%%%%%%%%%%%q%Q%%%%%%%%%%%%%%%%%Qqq
19972B63Q%%%%%%%%%%%%Qq%%Qq%%%%%%%%%%%%%%%%%%%%%%%%%%Qq%%%%%%%%%%%%%%%%%%%%Q
19957B79q%%%%Qq%Qq%%%%%%%%%%%%Qq%%Qq%Qq%%%%Qq%%%%%%Q%%qQ%q%Q%q%Q%qQ%%qQ%%%%%
19941B79%%%%%%%%%%%%%%%%%%%%%%qQ%%%%%%%q%Q%qQ%%%%%qQ%%%%%%%%%%%%%%%%%%%%%%%%
19925B79%%%%%%%%%%%%%Qq%%%%%%Qq%Qq%%%Qq%%%%%%%%%%QqQq%%%%%%%qJ6%qQq%%%%%%%%Q
19910B87qQq%%%%QqQ%%qQq%Qq%Q%q%%%%Q%%q%Q%%j6J6q%%Q%%qQ%qQq%Q%q%Q%%%%%%%%%%%%
19895B87%%%%%%%%%%%%%%%%%%%%%%%%%%%%%%%%%%%%%%%%%%%%%%%%%%%%%%%%%%%%%%%%%%%%
19879B87%%%%%Qq%%%%%Q%q%Qq%%%%%%%%%%%%%Qq%Qq%%Q%q%%%Qq%%Q%%qQ%qQ%%%%%%%q%Q%%
19864B95%%%%%%%%%%%%%%%%%%%%%%%%%%%%%%%%%%QqQq%%%qQ%qQqQQq%%%%%%%%%%%%%%%%%%
19848B95%%%%%%%%%%%%%%%%%%%%%Qq%%%QqqJ6qqQQqQ%q%%Q%%qQqQ%%%%qQ%%%qQ%%%%%q%Q%
19833C03%qQq%%Qq%%Qq%Q%%%%%%%%%%%qQqQ%%%%qQ%%%qQ%%%%%qQ%%qQ%%%%%%%%%%%%%%%%%
19817C03%%%%%%%%%%%%%%%%%%%%%%%%%%%%%%Qq%%%%%%%%%%%QqQ%qQ%%qQ%%qQ%%%%qQ%q%%%
19802C03%%%Qq%Q%%qQ%%%%%%%%%%%%%qQ%%%%%%%%qQ%%%%%%%%qQ%%%%%%%%qQ%%%%%%%%%%%%
19786C11%%qQ%qQ%%%%%%%q%Qq%QqQ%%%%%%%%%%%%%%%%%%%%%%%%%%%%%%%%%%%%Qq%%%%%%%Q
19771C19qQ%q%%%%%%%QqQ%qQq%%Q%%%%%%%%%%%%%%%qQ%%q%Qq%%%%%%Q%%%%%%%%%%%%%%%%%
19755C19%qQ%%qQ%%q%%Q%qQ%%%%%%%%%%%%%%%%%%%%%%%%%%%%%%%%%%%Qq%Q%q%%%%%%%%%%%
19740C19%%%%Q%%%qQqQqQq%Q%%%qQ%%%%%%%%qQq%%%%Q%%%%%%%%%%%%%%%%%%%qQ%%%%%%%%%
19724C27Qq%%%%%%%%%%%%%%%%%%%%%%%%%%%%%%%%%%%%%%%%%%%%%%%%%%Qq%QqQq%%%%%%%Q%
19708C35q%%%%Qq%Qq%%%Qq%Q%%%%%%q%%%%%%Q%%%%%%%%%%%%qQqQ%%%%%%%%%%qQ%%%QqqQ%q
19693C27Q%%%%%%%%%%%%%%%%%%%%%%%%%%%%%Q%%%%%qQq%Q%%%q%%%Q%q%%Q%%%qQ%%%q%%%Q%
19677C43%q%Q%qQ%%%%%%%%%%%%%qQ%%qQ%%%q%Q%%q%Qq%Q%qJ6q%Qq%%%%%QqQq%%%%%%%%%%%
19662C43%%%QqQ%q%%%%%%%%%%%%%%%%%%%%%%Qq%%QqQqQ%qQqQ%qQ%%q%%Q%%%qQ%qQ%%qQ%%%
19646C51%%%%%%%%%%%%%%%%%%%%%%%%qQ%%%%%%%%%%%%%%%%%%%Qq%%%qJ6q%%%%%%%%%%%%%%
19631C51%%%Q%q%%Qq%Qq%Q%q%%Qq%Q%%qQ%%%%%%%%%%%%q%Qq%J6%j6K4j6%qQ%%%%%%%%%%%%
19616C59%%%%%%%%%%%%%%%%%%%%%%%%%%%%Qq%Qq%%%%%%Qq%%Qq%%%%Qq%%QqQ%%%%%%%%q%Q%
19601C67%%%%%%%%%%%%%q%%%%%%Qq%Q%%%qQ%%%%%%%%%%%%%%%%%%%%%%%%%%%%%%%Qq%QqQqQ
19585C75qQ%q%%%%Q%%q%%%%Q%%%%%%qQ%%q%Q%%%%%%qQqQ%%%qQ%%%%%%%%%%%%%%%%%%%%%%%
19570C75%%%%%%%%%%%%%%%%%%%%%%%%%%%%%%%%%%%%Q%%q%Q%%q%%QqQqQ%%%%%%%%%%%%%%%%
19554C83%%%%%%%%%qQ%qQ%%%%%%%%%Qq%%%%Q%q%%%%%%%%%%%%%%%%%%%%%%%%%%%%%%%%%%%%
19539C83%%%%%%%%Q%%%%%qQ%qQ%%qQ%%%qQ%%%%%%%%%%%%%%%%%%%%%%qQ%%%%%%%%%%%%%%%%
19523C91%%%%Qq%%%Q%%qQq%%%%Q%qQqQq%Q%%%%%%%%%qQ%%qQqQqQ%%%%%%%%%%%%%%%%%%%%%
19508C99%%%%%%%%%%%%%%%%%%Qq%%%%%%%%%%%%%%%%%%%%%%%%%Q%qQ%%%qQ%%%%%%%%%qQ%%%
19492D07%%qQ%%%%%%%qQ%%%%Qq%%%%%%%%%%%%%%%%%%%%%%%%%%%%%%%%Qq%%%%Q%%%q%%%Qq%
19476D07Qq%QqQ%%%%%%%%qQ%qQqQ%%%%%%%%%%%%%Qq%%%%%%%%%%Qq%%%%%%%Qq%%Qq%%%Q%%%
19461D23qQq%%%%Qq%%%%QqQq%%Qq%Q%q%%Q%%%%%%%%%%%qQ%%%%%%%%%%%%%%%%%%%%%%%%%%%
19445D23Qq%%%%%%%%%%%%%%%Qq%Q%%qQ%%q%Q%qQ%%%%%q%%Q%q%J6j6QJ6l2%K4qQj6J6%q%Qq
19431D31%%%Qq%%%%%Qq%%%%%%%%%Q%%%qQqQ%%%%%%qQ%%%%%%%%%%%%%%%%%%%%%qQ%%%%%%%%
19416D39%%%%%%%%%%%%%%%%%%%%%%%%%%Q%%q%Q%qQq%QqQqQ%%%q%Q%%%%%%%%%%%%%%%%%%%%
19400D47%%%%%%%%%%%%%%%%%%%%%Qq%%%%%%%Q%q%Qq%Qq%Q%%%%%%%%q%%%QqQ%%qQj6J6%Qq%
19385D55%%%%%%%%%%%%%%Q%%%%q%%%%%%%%%Qq%Qq%%Qq%%Qq%%%Qq%%%Q%%%%%%%qQq%QqQ%%%
19370D63%%%%%%%%%%%%%%%%%%%%%%%%%%%%%%%%%%%%%%%%%%%%%QqQq%Qq%%Q%%%%%%%%%%%%%
19354D71%%%%%%%%%%%%%%%%%%%Qq%Q%qQq%QqQ%qQ%qQ%%qQ%q%QqQ%%%%%%%%%%%%%%%%%%%%%
19338D79%%%%%%%%%%%%%%%QqQ%%%%%%qQqQq%%Q%q%%%QqQ%%%%%%%qQ%%%%%%%%%%%%%%%%%%%
19323D87%%%%%%%%%%%%QqQ%q%Qq%Q%qQqQqQqQqQ%%%%%%%%%%%%%%%%%%%%%%%%%%%Qq%%%%%%
19307D95Qq%Q%%qQ%%%%%%%%qQ%%%qQ%qQ%%%%%%%%%%%%%%%Qq%%%%%%%%%%%%%%%%%Q%%qQ%%%
19292E11%%%%%%%%%%%%%%%%%%%%%%%%%%%%%%%Qj6QqJ6%q%Q%q%%Qq%%Qq%%%%%%Qq%%%%%%%%
19277E11%Q%%%%%%%%%%%%%%%%%%%%%%%%%QqQq%%%QqQ%q%%Qq%%%%%%%%%%%%%QqQqQ%%%%%%%
19261E27%%%%%qQ%qQ%qQ%%%%%Qq%%Q%qQ%q%%Q%%%q%%QqQ%%%%%%%%%%%%%%%%%%%%%%%%%%%%
19245E35%%QqQq%%%%%Q%%%%%%%%%%%%%qQ%%%%%%%%%%%%%%%%%%%%%%%%%QqQ%%%%%%%%%%%%%
19230E51qQ%%%%Qq%%%%%%%%%%%%%%Qq%%%%%%%%%%Q%qQq%%Q%%%%%%%%%%qQ%qQ%%qQ%%%%%%%
19214E59%%%%%%%%%%%%%%Qq%%Qq%%%Q%q%Q%%%%%%%%%%%%%%%%%%%%%%%%%%%%Qq%%Qq%Q%%qJ6
19199E83q%%%%%%%%%%qQ%%%%%%%%%%%%%%%%%%%Qq%%%%%%QqQ%%%%%%%%%%%%%%%%%%%%%%%%%
19183E83%%%%%%%%%%%%%%%%%%%%%%%%%%%%%%Q%%%%%qQ%%%%%%%%%%%%%%%Qq%%%QqQ%q%QqQq
19168E91QqQ%%%%%qQ%%%%%%%%%%Qq%%%%%%%%%%%%%%%Qq%QqQ%%q%%Qq%QqQ%%%%%q%Q%%Qq%j6
19152E91M0l2QqL2j6qQqQ%q%%Q%%%%%%%%%qQ%Qj6Q%%%%%%%%%%Qq%%%%Q%%%%%%%%%%%%%%%q
19138F15QQq%%%%%%%%%%%%%%%%%%%%%%%%%%%%%%%Qq%%%%%%%%QqQ%%%qQ%%%%%%%%%%%%Q%qQ
19122F39qQ%%qQqQqQ%%%%%%%%%%%%%%%%%%%%%%%%%Qq%%Q%%%%%%%qQ%%%%%%%%%%%%%%QqQ%q
19107F47Q%%%%%%%%%%%%%%%%%%%%%%%%%%%%%%%%%%%%%%Q%%%qQ%%%%%%%%qQ%%%%qQ%%%%%%%
19091F63%%%%Q%%qQ%%qQ%%%%%%%%Qq%%%%%%%%%%%%Qq%Q%%q%QqQq%Q%%q%Q%%%Qq%%Qq%%%%Q
19075F87%q%%Qq%%Q%%%%%%%%%%%%%%%%%%%%%Q%qQq%%%Q%%qQ%%%%qQ%qQ%%%%%%%%%%%%%%%%
19060F95%%%%%%%%%QqQ%qQ%%%%%%%%%Qq%QqQ%%q%%Q%qQqQqQqQqJ6q%%qQ%%%%%%%%%%%QqQq
19044G11Q%%%%%%%%%%%%%%%%%%%%%%Qq%%%%Q%%%q%Qq%Q%%%q%Q%%%%%%%%%%%%Q%qQqQ%q%Q%
19029G35%%%%%%%%%%%%%%%%Qq%%%%%%%Q%%qQ%qQ%q%Q%qQ%Qq%%%%Qq%Q%q%Q%%%%%%%%%%%%%
19013G51%%%%%%%%%QqQ%%%%%%%%%%%%%%%%%%%%%qQQq%%%%%%Q%qQq%%Q%%%%%%%%%%%%%Qq%%
18998G67%%%%%%%QqQ%%%%%%%%%%%%Qq%%Qq%Qq%%%Q%%%%%%%%%%%%%%%%Q%q%%Q%qQqQ%%%%%%
18982G91%%%%%%%%%QqQ%%%%%%%%%%%qQ%qQ%%%%%%%%%%%%Q%%%%%%%%%%%%%%%%QqQ%%qQqQ%q
18967H07Qj6J6%%qQ%QqqQ%%%%QqQ%q%QqQ%%%%%%%%%%%%%%%%%%Qq%Q%%qQ%%%%%%%%%%%%%%%
18952H31%%QqQ%%%%%%%%%%%%%QqQ%qQ%qQ%%%qQ%%%%%%%%%%%QqQ%%qQ%%%%%%%%%%%%%%%%%%
18936H55%Q%q%QqQqQ%q%QqQ%%%%%%%Q%qQ%%%%%%%%%%%%%%%%%%%%Q%%%%%%%%%%%%%qQ%%%%%
18920H79QqQ%q%%Qq%Q%%%Qq%%Q%%%qQ%%%q%Q%%%%%%%%%Q%q%%Q%%%%%%%%%%%%%%%%QqQqQ%%
18905I11%%%%q%Q%%qQqQ%qQ%%%%Q%%%%%%%%%%%%%%%%%Q%qQ%qQ%%%%%%%QqQ%%%%%%%%%%%%%
18889I35%%%%%%%%%%%%%%QqQ%%%%%%%%Q%%%%%%%%%%%%%%%%%%%%Q%qQ%%q%%Q%%%%%%%%%%Q%
18874I67%%%qQ%%%%%%%%%%QqQ%%%%%%%%%%%%%%%%%%Q%q%Q%%%%%%%%%%%%%%%Qq%Q%qQ%qQ%%
18858I91%%%%%%%Q%%%%%%%%%%%%%%%Q%%%%%%%%%%%%%%Q%%%%qQqQ%Qq%%%%%%%%%Qq%QqQqQ%
18843A023%%%%%%QqQ%%%%%%%%%%%Qq%%Qq%Q%%%%%QqQ%qQ%%%%%%%%%%%%%%%%%Qq%Q%%%%%%%
18827A055%%%%%Q%%%%%%%%%%%%QqQ%%%%%%%%%%%%%%%%Q%%qQ%%%%%Qq%Q%q%Q%qQ%%qQ%%%%%
18812A087%%%Q%%%%%%%%%%%%%%Qq%Q%%%%%%%%%%%%Qq%%Q%%%%%%%%%%Qq%%Q%%%%%%Q%qQq%%
18797A119Qq%Q%%%%%%Q%%%%%%%QqQ%%q%Q%%%%%%%Qq%%%%%Q%%%%QqQ%qQ%qQ%%%%%%%%%%%Qq
18781A159Q%%%%%%%%Q%q%Q%%qQ%%%%%%Qq%%%Q%%%%%%%Q%%qQ%%%%%%Qq%%%QqQ%%%%%Qq%Q%%
18766A207%%%%%%%QqQ%%%%%%%%%%%%%Qq%Q%%%%%%%%%%%Q%%%%%%%%%QqQ%%%%%%%%%%%QqQ%%
18751A247%%%%%Qq%%%Q%%%%%%%QqQ%%%%%%%%%%Q%qQ%%%%%Q%q%QqQ%%%%%%%%Q%%%Qq%%%%Qq
18735A287Q%%%%%%%%Q%q%%Q%%%Qq%%%Q%%qQ%%%%%%%%%Q%%%Qq%QqQ%%%%%%%%%Q%%%%%%%%%%
18720A335%QqQ%%%%%%%Q%%%%%%%Q%qQ%%%%%%%Qq%Q%%%%%%%%Q%%%%%%%QqQ%%%Q%%qQ%%%%%%
18705A391%%%%Q%%%%%%%QqQ%qQ%%%qQ%%%%Q%%%%%%%Q%%%%%%%%%%Q%%%%%%%%%%%Q%%%%%%%Q
18689A447q%%Q%%%%%%Q%%%%%%QqQQqqQqJ6qQ%qQq%%Q%%%Q%%qQ%%%%Q%qQ%%%Q%%qQ%%%%QqQ
18674A503%%%%%%Q%qQ%%%%QqQ%%%%Qq%%%%Q%%%%%%%%Q%%%%Qq%QqQ%%%Q%%%%%%%%%%%Q%%%Q
18659A567qQ%%%%%%%Q%%%%%%QqQ%%%%%%%%Q%%%%Qq%%Q%%%%%%Q%%%%%%%Q%%%%%%%%Q%%%%%%
18643A623%%Q%%%%%QqQ%%%%QqQ%q%J6q%%Q%%%%Q%%%%%%Q%%%%%%%%%%QqQ%%%%%%%QqQ%%%%%
18628A687%%Q%%%Q%%%%%Q%%%%Qq%Q%%%%%Q%%%%%%%Q%%%%%%Q%%%%Q%qQ%%%%Q%%%%%%%%%QqQ
18613A767%%%%Q%%%QqQ%%%QqQ%%%%%QqQ%%%%%Q%%%%%Q%%%%%Q%%%QqQ%%%%%%%%Q%%QqQqQ%%
18598A847%%%Q%%%%Q%%%%%%Q%qQ%%%Q%%%%%%Q%%%Q%%%%%%%Q%%%Q%%%%%%%%Q%%QqQ%%%%Q%%
18582A935%%%%QQq%QqQ%%%QqQ%%%%%Q%%%%%%Q%%%%%%Q%%%QqQ%%%Q%%%Q%%%%%Q%%%%%%Q%%%
18567B023%QqJ6qQqQ%Qq%%%Q%%QqQ%%%%Q%%%%Q%%%%Q%%%%Q%%%Q%%%%%%Q%%%%Q%%Q%%%%%%Q
18552B127qQ%%QqQ%%%%Q%%QqQ%%Q%%%%Q%%%Q%%%%QqQ%%QqQ%%%%Q%%%%%%Q%%Q%%%%%%Q%%%Q
18537B231%%QqQ%%QqQ%%%%%QQ%%%%%Q%%%%Q%%%Q%%%%Q%%%%Q%%%Q%%Q%%%%%Q%%%Q%%%%Q%%%
18521B343%Q%%%%%Q%Q%%%Q%%Q%%%%%Q%%%%Q%%%Q%%%Q%%%Q%%Q%%%%Q%%%%%Q%%Q%Q%%%Q%%%%
18506B471%%Q%QqQ%%Q%%%QqQ%%Q%Q%%%%Q%%%%J6qQ%%qQK4m8P2j6M0j68J44p2QL2%q%K4j6J6
18494B575QqQqJ6J6j6QqQ%%%J6qQ%QqQqQQ%QqQ%%%Q%Q%Q%%%%%Q%%%Q%%%Q%%Q%%%Q%%Q%%Q%
18479B719%Q%%%%Q%QqQ%QqQ%%%Q%Q%Q%%%%Q%Q%%%Q%%%Q%%Q%%Q%%%Q%Q%%%Q%%QQqQqQ%%Q%%
18464B871QQq%Q%Q%%%Q%%Q%%%Q%Q%%Q%%%Q%Q%%%Q%Q%%%Q%%Q%Q%%%Q%QqQ%Q%Q%%Q%%Q%%Q%%
18449C047QqQQ%%Q%%Q%Q%%%%J6%%%Q%%Q%Q%%%Q%%%Q%Q%%Q%Q%QqQQ%QqQ%Q%Q%Q%%%Q%Q%%QQ
18434C247%QqQ%%Q%%Q%Q%%%Q%Q%%Q%Q%Q%Q%%%QQ%%Q%%%Q%Q%Q%Q%Q%%%Q%Q%%Q%Q%Q%%Q%%Q%
18418C447Q%%Q%Q%Q%%Q%Q%%Q%Q%%QQ%%Q%Q%Q%%Q%Q%Q%%Q%Q%%QQ%%Q%Q%Q%Q%Q%Q%%QQ%Q%%Q
18403C687%Q%%Q%Q%%Q%QQ%%Q%Q%Q%Q%%Q%Q%Q%Q%Q%Q%QQ%%Q%Q%Q%Q%Q%%QQ%%Q%QQ%QQ%%Q%Q
18388C943%Q%Q%Q%Q%Q%QQ%%Q%QQ%Q%Q%Q%Q%Q%Q%Q%QQqQQQ%QQ%Q%Q%Q%J6qQQ%Q%QQ%Q%Q%Q%
18372D223QQ%%QQ%Q%Q%Q%QQ%QQQ%Q%Q%Q%QQ%QQ%Q%Q%Q%QQ%QQ%Q%QQQ%Q%Q%Q%QQQ%Q%QQ%QQ
18357D551%Q%J6%Q%QQ%QQ%QQ%Q%Q%QQQ%QQ%Q%J6%%QQQ%QQ%Q%QJ6QqQJ6QQ%qQJ6qQQ%J6%%J6
18343D879Q%Q%QQ%J6%QQ%QQ%QQQ%QQQ%QQQ%QQQ%QQQ%J6%%QQ%J6%QQQQQ%%QJ6%QQQ%QQQ%QQ
18329E255Q%QQQQQQ%Q%QQQQQQQ%QQQQ%QQQQ%J6%QQQQ%J6Q%QQQQQ%QQQQQQ%J6%QQQQQ%J6%Q
18314E679QQQQQQ%QQQQQQQ%J6%J6Q%QQQQQQQQQQQQQQQQQQQQQQQQQQ%QJ6Q%QJ6%J6%QJ6Q%Q
18300F143J6%J6Q%J6QQQQQQQQQQQQQQQQQQJ6QQQQQQQQQQQJ6QQQQQJ6QQQQQJ6Q%J6Q%J6QQQ
18287F647QJ6%J6QQQQQJ6QQQJ6QQQQJ6QQQJ6QQQQQJ6QQQJ6QQQJ6QQQJ6QQQJ6QQQJ6QQQJ6Q
18275G175QQQJ6QJ6%J6QQJ6QQJ6QJ6QQJ6QQQJ6J6QQJ6QQJ6QQJ6QJ6QQJ6QQJ6J6QQQJ6QJ6Q
18264G703J6QJ6%K4J6%J6QK4%J6J6QJ6QQJ6J6QQJ6QJ6J6QJ6QJ6QJ6QJ6J6QJ6QJ6QJ6QJ6J6
18254H231QJ6J6QJ6QJ6J6QJ6J6QJ6QJ6J6QK4QQJ6J6QJ6J6QJ6J6J6QJ6QJ6J6J6J6QJ6J6QJ6
18244H775J6J6QJ6J6J6J6QJ6J6J6J6J6QJ6J6J6J6QJ6J6J6J6J6QJ6J6J6J6J6J6J6J6QJ6J6J6
18236I319J6J6J6J6J6J6J6J6J6QJ6J6K4QK4J6J6J6J6J6J6J6J6J6J6J6K4J6QJ6J6K4J6J6J6
18228I887J6J6J6K4QK4QK4J6J6J6K4QK4QK4J6J6K4J6J6J6K4J6J6K4J6J6K4J6J6J6J6K4J6J6
18220A0519K4J6J6K4J6J6K4J6K4J6J6K4K4J6J6K4QJ6L2QK4J6N6qJ6K4K4J6K4J6K4K4J6K4J6
18212A1207J6K4J6K4K4J6J6L2J6K4J6K4J6K4J6K4K4K4K4K4J6K4K4J6K4K4J6K4K4K4K4J6K4
18204A1911K4K4K4J6K4K4K4K4K4J6K4K4K4K4K4K4J6L2J6L2J6K4K4K4K4K4K4K4K4K4L2K4K4
18196A2687K4K4K4K4K4K4K4L2K4K4K4L2K4K4K4K4K4K4L2K4L2K4K4L2K4K4L2K4K4K4L2K4L2
18189A3543K4L2K4L2K4L2K4L2K4L2K4L2K4L2K4L2K4K4L2L2K4L2L2K4L2L2K4L2L2L2L2L2L2
18181A4495K4L2L2L2L2K4L2L2L2K4M0K4L2L2L2L2L2L2L2L2L2L2L2M0L2L2L2L2L2L2L2M0L2
18174A5543L2L2L2L2M0L2L2M0L2L2M0L2M0L2L2M0L2L2M0L2M0M0L2M0M0L2M0L2M0M0L2M0L2
18166A6711M0M0M0L2M0L2M8M0L2M0M0M0M0L2M0M8L2M8L2M0M0M0M0M8M0M0M0M0M0M0M0M8M0
18159A8023M0M8M0M0M8M0M8M0M8L2N6M0M0M8M0M8M0M8M8M0M8M8M0M8M8M8M8M0M8M8M8M8M8
18151A9503M8M8M8M8M8M8M8M8M8M8M8M8M8N6M8M8N6M8M8M8N6N6M8N6N6M8M8N6M8N6N6M8N6
18144B1167N6M8O4M8N6N6N6N6M8O4N6N6M8O4N6O4N6M8O4N6N6O4N6N6O4O4N6O4N6N6O4N6O4
18136B3063O4O4N6O4O4N6O4O4O4O4O4O4O4O4P2N6P2O4O4P2O4O4O4P2P2O4O4P2O4P2P2P2O4
18129B5223P2P2P2P2O4P2P2P2Q0O4Q0P2P2Q0P2Q0P2P2Q0P2Q0Q0P2Q0Q0P2Q0Q0Q0Q0Q0Q0Q0
18121B7711Q0Q0Q0Q8Q0Q0Q8Q0Q8Q0Q8Q8Q0Q8Q8Q8Q0Q8R6Q0R6Q0R6Q8Q8R6Q8R6Q8R6Q8R6R6
18113C0591R6Q8R6R6R6Q8J04J04R6R6R6J04R6R6J04J04R6J04J04J04R6J04J12J04J04J04J04
18107C3287J12J04J12J04J12J04J12J12J12J12J12J12J12J12J20J12J12J20J12J20J20J20
18102C5767J20J20J20J20J28J20J20J20J28J28J20J36J20J28J28J28J28J28J28J36J36J28
18097C8535J36J36J36J28J36J44J28J44J36J44J36J44J44J44J44J44J44J52J44J44J52J44
18092D1639J52J52J52J52J52J52J60J52J60J60J52J60J60J60J68J60J60J68J68J68J60J76
18087D5143J68J76J68J68J76J68J76J84J76J76J84J76J84J84J76J92J84J84J84J92J92J92
18082D9103J92J92K00J92K00K00J92K00K00K08K00K08K08K08K08K16K08K16K16K16K16K16
18077E3615K16K24K24K24K24K24K32K24K32K32K32K40K32K40K40K40K48K40K48K48K48K48
18072E8775K56K56K56K56K56K56K72K56K72K64K64K80K72K72K80K80K80K80K88K80K96K88
18067F4735K88K96K96K96L04L04K96L12L04L12L12L12L20L20L20L28L20L28L36L28L36L44
18062G1647L36L44L44L44L52L52L60L52L60L68L60L76L68L76L76L76L84L84L84L92M00L92
18057G9727M08M00M08M00M16M16M16M24M24M24M32M32M40M40M48M48M48M56M64M56M72M72
18052H9271M72M80M80M88M88M88M96N04N04N12N20N12N20N28N28N36N44N44N44N60N52N68
18047A00639N68N68N76N84N92N92N92O08O08O08O24O24O24O40O40O48O48O56O64O72O80O80
18042A14335O88O88P04P04P20P12P28P36P44P44P52P68P60P76P84P92Q00Q00Q16Q24Q24Q32
18037A31031Q48Q48Q64Q72Q80Q88Q88R12R12R20R36R36R52R60R68R76J000J000J008J024J032
18032A50655J040J048J072J072J088J096J112J120J136J144J152J176J176J208J200J224J240
18028A69959J248J264J272J296J304J320J328J360J368J384J392J416J432J448J456J488J496
18024A93231J512J536J552J568J592J608J632J648J664J688J712J728J752J776J792J816J840
18020B21647J864J888J912J928J960J992K008K040K064K096K120K144K176K208K232K256K304
18016B56839K320K360K392K424K456K496K520K568K592K632K672K712K752K784K832K864K920
18012C01135K952L000L048L088L128L192L232L280L336L384L432L480L544L600L656L720L776
18009C57983L832L896L960M024M096M160M224M296M368M448M520M592M672M760M840M920N016
18005D32607N096N192N280N376N480N568N680N784N888O000O112O224O344O472O584O728O848
18001E33263O992P128P264P408P560P720P872Q032Q200Q384Q544Q728Q920R104R304R512R720
17997F73655R928J0160J0376J0616J0864J1104J1368J1632J1904J2184J2480J2776J3088J3416
17994H35551J3728J4088J4432J4800J5176J5560J5968J6392J6816J7272J7728J8216J8712
17991A044439J9232J9760K0320K0896K1496K2120K2768K3432K4144K4856K5624K6400K7232
17988A342719K8072K8968K9904L0864L1880L2928L4032L5184L6384L7648L8968M0344M1792
17985A789687M3320M4888M6568M8328N0168N2104N4136N6296N8544O0928O3448O6104O8904
17982B503423P1864P5008P8344Q1840Q5592Q9560R3768R8264J03032J08128J13552J19344
17979C621719J25560J32184J39304J46928J55128J63952J73448J83696J94760K06744K19712
17977E463135K33792K49113K65775K83976L03864L25640L49568L75873M04895M36952M72497
17974I165080N11983N55984O05152O60288P22289P92279Q71568R61775J064784J182984J319240
17971A8413406J477129J661079J876673K130944K432896K794160L229841L759911M411023
17969D2187062N219234O233990P524305R188048J1366402J4267249J8202559K3649906L1353134
17967A69191889M2483829N8877482Q3276273J19101387J67727778K17357730K19302848J00332963
17966A177652179j00333176k19302688k17357677j67727778j19101360q3276327n8877455
17964B11675718m2483815l1353148k3649906j8202559j4267249j1366402r188041p524329
17962E3640269o233983n219214m411026l759918l229841k794154k432894k130952j876673
17960B1551614j661079j477129j319248j182976j064791r61768q71575p92272p22289o60288
17958A0838199o05144n55992n11976m72495m36952m04889l75879l49569l25648l03856k83984
17955F211815k65775k49105k33792k19720k06736j94768j83688j73448j63952j55127j46929
17953D018775j39304j32184j25552j19352j13552j08120j03032r8264r3776q9552q5592q1856
17950B728639p8328p5008p1872o8904o6096o3448o0928n8552n6280n4144n2104n0168m8320
17947A924487m6568m4896m3320m1792m0344l8968l7640l6392l5184l4032l2928l1880l0864
17944A429679k9896k8968k8080k7224k6408k5616k4864k4136k3440k2760k2120k1496k0904
17941A103767k0312j9768j9224j8712j8216j7736j7272j6816j6392j5968j5560j5176j4800
17938H77815j4432j4080j3736j3408j3088j2776j2480j2184j1904j1632j1368j1104j0856
17935G14767j0616j0384j0152r936r712r512r304r112q912q736q552q368q200q040p872p712
17931E69647p560p416p264p128o984o848o720o592o472o344o224o112o000n888n784n680n568
17928D59063n480n376n280n192n096n016m920m832m760m680m592m520m448m368m296m232m160
17924C77815m088m024l960l896l832l776l712l648l608l544l488l424l384l336l280l232l184
17920C16399l136l096l040l000k952k920k864k832k784k752k712k672k632k600k560k528k488
17916B68831k456k432k384k360k320k304k256k240k200k184k136k120k096k064k040k008j984
17912B31247j960j936j912j888j864j840j816j792j768j760j728j704j688j672j648j624j616
17908B01031j584j568j560j528j512j504j480j464j448j424j416j400j376j376j344j336j320
17904A76391j312j288j280j264j248j232j224j208j192j184j168j160j144j136j120j112j096
17900A56023j088j072j064j056j040j032j016j016j000r84r84r68r60r52r44r28r28r12r04
17896A37175q96q88q72q72q64q48q48q40q24q24q08q08p92p92p84p76p68p60p52p44p44p28
17891A19343p28p20p12p04p04o96o88o80o72o72o64o56o56o48o32o40o24o24o24o08o08o08
17886A04775n92n92n84n84n84n68n68n60n60n52n52n44n44n28n36n20n28n20n12n04n12m96
17881I2735m96m96m88m80m88m80m72m72m64m64m56m56m56m40m48m48m32m32m32m32m16m32
17876H2655m16m08m16m00m16m00m00m00l92l84l92l84l84l76l76l76l68l68l68l60l60l60
17871G4151l52l52l52l44l52l36l44l36l36l36l28l28l28l28l20l12l20l12l12l12l12k96
17866F6903l12k96l04k96k96k96k88k96k80k88k80k96k80k72k80k72k72k72k64k72k64k64
17861F0663k64k56k64k56k56k56k48k56k48k48k40k48k40k40k40k40k32k40k32k32k32k24
17856E5271k32k24k32k16k24k24k16k16k24k08k16k16k08k16k08k08k08k00k00k00k08k00
17851E0567k00k00j92k00j92j92j92j92j92j92j84j92j76j92j84j84j84j76j84j68j76j84
17846D6439j68j76j76j68j76j68j68j68j68j68j68j68j60j60j68j60j60j52j60j60j60j52
17841D2807j52j52j60j52j52j44j52j52j44j52j44j44j44j44j52j36j44j36j44j44j36j36
17836C9591j36j36j36j36j36j36j36j28j36j20j44j28j28j28j28j28j28j20j28j20j28j20
17831C6727j20j28j20j20j28j12j20j20j20j12j20j12j20j12j20j12j12j12j12j12j12j12
17825C4159j04j12j12j04j12j04j04j12j04j04j04j04j04j04j04r6j04j04r6j04r6j04r6r6
17820C1671j04r6r6r6r6r6r6r6r6r6q8r6q8q8r6r6q8q8r6q8q8q8q8q8q8q8q8q8q8q0q8q0q8
17812B8663q8q0q0q8q0q0q8q0q0q8p2q0q8p2q0q0q0p2q0q0p2q0q0p2q0p2q0p2p2q0o4p2q0
17805B6071p2p2p2p2p2p2p2p2o4p2p2o4p2p2p2o4o4p2p2n6p2p2o4o4o4p2o4o4o4o4o4o4o4
17797B3823o4o4o4n6o4o4o4n6o4o4n6o4o4n6n6n6o4n6o4o4m8o4n6n6o4n6n6n6n6n6n6o4m8
17790B1863n6n6n6n6n6m8n6n6n6n6m8n6n6m8n6m8n6n6m8m8m8n6m8n6n6m8m8m8m8n6m8m8m8
17782B0135m8m8m8m8m8m8m8m8m8m8m8m0n6m0m8m8m8m8m0m8m8m0m8m8m0m8m0m8m8m0m8m0m0
17775A8615m8m8m0m0m0m8m0m8m0m0m0m8l2m8m0m0m0m0m0m8l2m8m0m0l2m0m8m0m0m0l2m0m0
17767A7255l2m8l2m0m0l2m0m0l2m0m0m0m0l2m0k4m0m0m0l2m0l2m0l2l2l2m8l2m0l2m0k4l2
17760A6055m0l2m0l2l2l2l2l2m0l2l2l2m0l2l2k4m0l2l2l2l2l2l2l2l2l2l2l2l2l2l2k4l2
17752A4975l2l2l2l2l2k4l2l2l2l2k4l2l2k4l2l2k4l2k4m0k4k4m0k4k4l2l2l2l2l2j6k4l2
17744A3999l2k4l2j6l2k4l2l2k4k4k4l2k4k4l2l2k4k4k4k4l2k4k4k4l2k4k4k4k4l2k4k4k4
17737A3127k4l2k4k4k4l2j6l2j6l2j6k4l2j6k4l2k4k4k4k4k4k4k4k4j6k4k4k4k4k4k4k4j6
17729A2335k4k4k4k4k4j6k4j6k4k4k4k4j6l2j6k4k4j6l2j6k4j6k4j6k4k4k4j6k4j6k4k4j6
17722A1615k4j6k4j6k4j6k4k4j6k4j6k4j6k4j6k4j6k4j6k4k4j6j6k4j6k4j6j6k4j6j6k4j6
17714A0959k4j6j6k4j6j6k4j6j6k4j6j6j6k4j6j6j6k4j6j6j6k4j6j6j6j6k4j6j6j6j6k4j6
17707A0359j6j6k4j6j6qk4j6j6j6j6k4j6qk4j6j6j6j6j6j6j6j6j6j6k4qj6j6k4j6j6j6qj6
17699I783j6j6j6j6j6j6j6j6j6j6j6j6qk4qj6j6j6j6j6qj6j6j6j6j6qk4qj6j6j6j6qj6j6j6
17690I223j6qj6j6j6qj6j6j6j6qj6j6qj6j6j6j6j6qj6qj6j6qj6j6j6qj6j6qj6qj6j6qj6qj6
17681H679j6qj6qj6j6qj6qj6qj6j6qj6j6j6qj6qqj6j6j6%j6j6qj6qj6qj6qj6qqj6qqk4qqj6
17671H135j6qqj6qj6qj6qqj6qqj6j6qqj6qqj6qj6qj6qqqj6qj6qqj6qqj6qqj6qqj6qj6%j6j6
17660G599qqqj6qqj6qqqj6qqj6qqqqj6qqqj6qqqj6%j6qqqj6qqqj6qqqqqj6qqqqqj6qqj6qq
17648G071qqqqj6qqqqqqqqqj6qqqqqj6qq%j6qqqqqqj6q%qj6qqqqqqqqqqqqqqqqqj6%j6%j6
17634F567%j6q%qqj6%j6qq%j6qqqqqqq%j6%qj6%qqqqqqqqqqqqqqqqqq%j6%qqqqqqqqqq%qq
17621F111qqqq%qqqqqqqqq%j6%qqq%j6%qqqqq%j6%qq%j6%qqqq%qqqqq%qqqq%qqqq%qqq%qq
17606E687qq%qqqqq%qqq%qq%qqqq%qqqqq%q%j6%q%qqqq%q%qqq%qqq%qq%qqqq%q%qqqq%qq%
17591E295qqq%q%q%qqq%qqq%%j6%q%qqqq%%j6%q%q%qqq%q%qqq%q%qq%qq%q%q%q%qq%qq%q%
17576D959qqq%q%q%qq%qq%q%qq%q%qqq%%q%qq%%j6%q%q%q%q%qq%qq%q%q%q%q%q%qq%%qq%%
17561D655qqqQqqQj6Qk4Q%j6%k4QQqj6Qj6%%q%%q%j6%q%%qq%%qq%%q%q%q%q%q%q%q%q%qq%
17547D399%q%q%q%%q%qq%%q%q%q%q%%q%q%qq%%q%%qq%q%q%q%%q%q%q%q%%q%q%%qq%%qq%%q
17532D151%%q%q%q%q%%q%q%%q%%qq%%q%%q%q%q%%q%q%q%q%%q%q%%q%%q%q%%q%q%%q%%q%q%
17517C935q%%%qq%%%q%qQj6Qqq%%%q%j6Q%j6Q%qq%%%q%%q%%q%%q%q%%q%%q%%q%%q%q%q%%%
17502C751q%%q%%q%q%qQq%%q%qQj6Qq%qQqq%%%q%q%%q%%q%%%q%%%q%q%%%q%%q%q%%q%%q%%
17487C575%q%%%q%%%q%q%%q%%%q%%q%%q%%%q%%q%%q%%q%%%%q%%q%%q%%%%q%%q%%q%%%q%%q
17472C415%q%%%q%%%%q%%%q%%q%%%q%%%q%%%q%%%q%%q%%q%%%%q%%%q%%%q%%%q%%%q%%%q%%
17456C279q%%%q%%%%%q%%%q%%q%%qQq%%%%q%%q%%%%q%q%%%%%q%%%%q%%q%%qQq%%%%q%QqqJ6
17441C167j6%qQq%qQq%q%%%%%%q%%qQ%q%%q%%%%q%%%q%%%%q%%%%q%%%q%%%%%q%%%%q%%%%q
17426C039%%%q%%%%%q%%%q%%%%%%q%%%%q%%%q%%%%qQq%%q%%%%%q%%%q%%%%%%q%%%q%%%%%q
17411B935%%%%q%QqqQqQ%%q%%%%%%%q%%q%%%%q%Qq%%%%q%%%q%%%%%q%%%%%q%%%qQ%%q%%%%
17395B855%%%q%Qq%q%Qq%%%%q%%q%%%%qQ%q%%%%q%%%%q%%%%%%%%q%%%%%qQ%%%q%%qQq%%%%
17380B775%q%Qq%%%%%q%%%%q%%%%%%%q%%%%%%%%%q%%%%%%%q%%%%%%%%q%%%%q%%%%%%%%%q%
17365B703%%%%%%%q%%%%%q%%%%%q%%%%%%qQqQq%%%%%%q%Qq%Qq%%%%%%q%%%%%%%%q%%qQ%qQ
17349B647q%%%%%%%%q%%%%%%%%%q%%%%%%%%%q%%%%%%%%%%q%Qq%%%%%%%q%%%q%QqQqQq%%%%
17334B591%qQ%qQ%q%%%%%%%q%%%%%%%%%%%%q%%%%%%%%qQ%q%Q%q%%%q%%Q%q%%%%qQqQq%%%%
17318B543%%%%%%q%%%%%%%%%%%%%qQqQ%q%%%%%%%%%%qQqQq%%%%%%%q%%Qq%%%%%%%%%%%%%%
17303B511%q%%%%%%%qQq%%%%%%%%%%%%qQq%%%%%%%%%%%%%%qQ%%%%%%qQq%Qq%%%%%qQ%q%Q%
17288B479%q%%%%%%%%Qq%%%%%%qQ%q%Q%j6QQqq%Qj6J6j6K4q%QqQJ6l2qQP2q0j6QN6m8K4k4
17276B447L2k4qQj6K4j6%%QQqq%Q%qQ%%qqJ6%%%%qQj6Q%qQqQ%%q%Q%qQq%%%%%%q%Q%qQ%%q
17262B431%Q%qQ%%qQq%%%%%%Qq%%%%%qQ%%%%qQ%%%%%%%%%%%%%q%Qq%%%%%%%%%%%%%%%%%%Q
17247B431qQq%%%%%%%%%%%%%%%q%%%%%%%%%%%%%%%%Qq%%%%%%Qq%%%Qq%%%%%%%%%%%%%%%%%
17231B415%%%%%%%Qq%%%%%%%%%%%%%%%%%%%%%%%%%%%%%%%%%%%%%%%%%qQqQ%%%%%%%%%%%%%
17216B415%%%%%%%%%%%%%%%%qQ%%%%%%%%%%%%%%%%%qQ%%qQ%%%qQqQqq%J6%%qJ6j6%QQqQq%
17201B415%QqQ%qQq%Q%%q%%%Q%qQq%%%%%%%%%%Q%%%%%q%Q%%%%%%%%%%%%%%%%%%%%%%%Q%%q
17186B423%Q%q%Qq%%QqQ%%%%%%%%%%%%%%%%%%%%%Q%%%%%%%%%%%%qQ%%%qJ6q%%%%%%Qq%%Qq
17171B439%%Q%%%%%%%%%%%%%%%%%%%%%%%%QqQq%Q%qQ%%%%%Qq%%%%%qQQq%Q%%%%%%%%%%%%%
17156B463%%QqQ%%%%%%%%%%%%%%%%%%%%Q%q%%QqQ%%%%%%%%%%%%Qq%Q%%%%%%%%%%%%%Q%qQ%
17140B495%%%%%%%%%%%%%%%Q%%%%%%%%%%%%QqQ%%%%%%%%%QqQqQ%%%%%%%%%%%%%%Q%qQ%%%%
17125B527%%%%%Q%%%%%%%%%%%%QqQ%%%%%%%%Q%q%%%%Q%%%%%Q%q%Q%%%%%%%QqQ%%%%%%%%%%
17110B567%%%%Q%%%%%%%Q%%%%%%Q%%%%qQqQ%%%%%Q%%%qQ%%%%QqQ%%%%%%%%QqQ%%%%%%%%Qq
17094B615Q%%%%%Qq%Q%%qQ%qQQ%%%%qQqJ6qQqQ%%%%%%%%Q%%%%%%%%%Q%%%%%%%%Q%%%%%%%Q
17079B679%%%%%%%Q%%%%%%%%%QqQ%%%%%Q%%%%%%%%Q%%%%%%%Q%%%%%%QqQ%%%QqQq%Q%%%%Q%
17064B743%%%%Q%%%%%%QqQ%%%%%%%Q%%%%%Q%Qq%%Q%%%%%%%%%%Q%%%Q%%%%Qq%Q%%%%%%Q%%%
17048B815%%Q%%%%Q%qQ%%%%Q%%%%%Q%%Qq%Q%%%%%Q%%%%QqQ%%%%%Q%%%%%%%QqQ%%%%%Q%%%%
17033B895Q%%%%Q%qQqQQ%%%%Q%q%QQ%j6J6%%Q%%%%%Q%%%%Q%%%%Q%qQ%%%%Q%%%Q%qQ%Q%qQ%
17018B991%%%Q%%%Q%%%%%%Q%%%Q%%%Qq%Q%%Q%%Q%%%%%%Q%%%%Q%%%%Q%%%%Q%%%%Q%%%Q%%%Q
17003C103%%%Q%qQ%%QqQ%%%Q%%%%Q%%%Q%%%Q%%%Q%%%Q%%%%%Q%%%%Q%%Q%%%%Q%%%Q%%%%Q%%
16988C215Q%%%%Q%%%Q%%%Q%%%Q%%%Q%%%Q%%%%Q%%Q%%%QqQ%%Q%Q%%%%Q%%Q%%%Q%%%Q%%%Q%q
16972C343J6%qQ%QqQ%Q%%%%Q%%Q%%%Q%%Q%%Q%%%Q%%%Q%%Q%%Q%%QqQ%%%Q%%%Q%%Q%%%Q%Q%%
16957C495Q%%%Q%%Q%%QqQQ%%%Q%%%Q%Q%%Q%%%%Q%Q%%QqQ%%Q%%Q%Q%%%Q%%%Q%QqQQ%%Q%Q%%
16942C663%Q%Q%Q%Qq%Q%Q%%%Q%%Q%Q%%Q%%Q%Q%%%Q%%Q%%Q%%Q%Q%%Q%%Q%%Q%%Q%Q%%%Q%Q%Q
16926C855%%%%J6%%Q%%Q%%Q%%Q%%Q%%Q%Q%%Q%Q%Q%%Q%Q%Q%%Q%%%Q%%Q%Q%%Q%Q%%QQ%%Q%%Q
16911D055%%Q%Q%Q%%Q%QQ%%Q%Q%Q%Q%%Q%Q%Q%Q%%Q%Q%%Q%%QQ%%QQ%%Q%Q%Q%%Q%Q%%Q%%J6%
16896D287%Q%Q%Q%%Q%Q%Q%Q%%QQ%%Q%Q%QQ%Q%%Q%Q%QQ%%Q%QQ%%Q%Q%Q%Q%Q%Q%QQ%Q%Q%Q%%
16881D543QQ%Q%Q%Q%Q%QQ%%QQQ%%QQ%Q%%QQ%Q%Q%QQ%Q%%Q%QQQQ%Q%Q%Q%%QQ%Q%QQ%QQ%Q%Q
16866D847Q%Q%Q%Q%Q%QQ%QQQ%Q%Q%QQ%QQ%QQ%Q%Q%QQ%QQ%%J6%QJ6q%J6%%QQQ%QQQ%%J6%QQ
16851E167%Q%QQQ%Q%QQ%Q%QQQ%QQ%J6%Q%QQ%QQQ%QQ%Q%QQQ%QQQQ%Q%QQQ%QQQQQ%Q%J6%QQQ
16836E535%Q%QQQQ%QQQQ%QQQ%QQQQ%QQQ%QQQQ%QQQ%QQQQQQQ%QJ6%QQQ%QQQQ%QQ%QJ6%QQQQ
16821E951QQQ%QQQQ%QQQQQQQ%QQQQQQQQQ%QQQQQQQQQ%J6Q%QJ6%QQQQQ%J6QQ%J6QQQqJ6QQQ
16807F399QJ6%QQQQQQQQQQQQQQQQQQQQQQQQQJ6QQ%J6QQQQQQQQQQ%K4%QQQJ6QQQQQQJ6%J6Q
16793F903QQQQQQJ6QQQQJ6%QQJ6QQQQQJ6QQQQJ6QQJ6Q%J6QQQJ6QQQJ6QQQQQJ6QQQQJ6QQJ6
16781G423QQQJ6QQJ6%J6QQJ6QQQJ6QJ6%J6J6QQQJ6QQJ6QQJ6QQJ6QJ6QQJ6QJ6QJ6QQQJ6QQJ6
16769G951QJ6QQJ6QJ6%J6J6QQJ6QJ6J6QJ6QJ6QQJ6QJ6J6QJ6QQJ6J6QJ6QQJ6J6QJ6QJ6QJ6Q
16759H479J6J6QJ6QJ6J6J6QJ6QJ6QJ6J6QJ6QJ6J6QJ6J6QJ6J6QJ6J6QJ6J6QJ6J6J6QQK4QJ6
16750I023J6J6QJ6QJ6J6J6J6J6QK4QJ6J6J6J6QJ6J6J6J6QJ6J6J6J6J6J6QJ6J6J6J6J6J6QJ6
16741I575J6J6J6J6J6QK4J6J6J6J6QK4J6QK4J6QJ6J6J6J6K4J6J6J6J6QK4J6J6J6J6J6J6J6
16733A0151J6J6J6K4J6J6J6J6J6K4J6J6J6J6J6K4J6J6J6K4J6J6J6J6K4J6J6J6K4J6J6J6K4
16725A0735J6J6K4J6J6K4J6J6K4J6K4J6J6J6K4J6K4J6J6K4J6K4J6J6K4J6K4K4J6J6K4J6K4
16718A1367J6J6K4K4J6K4J6K4J6K4K4J6K4K4J6K4J6K4K4J6K4K4J6K4K4K4J6K4K4K4J6K4K4
16710A2063K4J6L2J6K4J6K4K4L2J6K4J6L2J6K4K4K4J6L2K4J6K4K4K4L2J6L2K4K4J6K4K4L2
16703A2831K4K4K4K4K4K4K4K4K4K4L2K4K4K4K4K4K4L2J6L2K4K4L2K4K4L2K4K4K4L2K4K4K4
16695A3663L2K4L2K4L2K4K4M0J6L2K4L2K4L2K4M0J6L2K4L2L2L2K4L2K4L2K4L2L2K4L2L2L2
16687A4607K4L2L2L2K4L2L2L2L2L2K4L2L2L2L2L2L2L2L2L2L2L2L2L2L2L2L2L2L2L2L2L2K4
16680A5631M0L2M0L2L2L2L2M0L2M0L2K4M0M0K4M0L2M0L2M8K4M0M0L2M0L2M0L2M0L2M0L2M0
16672A6799M0L2M0M0M0L2M0M0M0M0L2M8L2M0M0L2M8M0L2M8L2M0M0M0M0M0M0M0M8M0M0M0M0
16665A8095M0M8M0M0M8M0M0M8M0M8M0M0M8M0M8M8M0M8M0M8M0M8M0M8M8M0M8M8M0M8M0N6M8
16657A9559M8M8M8M0M8M8M8M8M8M8M8N6M0N6M8M8N6M8M8N6M8N6M8M8N6M8M8M8O4M8N6M8N6
16650B1207N6M8N6M8N6N6N6M8N6O4M8N6N6N6O4M8N6O4N6N6N6N6O4N6N6O4N6N6O4N6O4N6O4
16642B3079N6O4N6O4O4O4O4N6O4O4O4O4O4O4O4O4O4O4O4O4P2O4O4P2O4O4P2O4P2P2O4P2O4
16635B5215P2P2O4Q0O4P2P2O4Q0P2P2P2P2P2P2Q0P2P2Q0P2P2Q0P2Q8P2Q0Q0P2Q0P2Q8Q0Q0
16627B7679Q0P2Q8P2R6P2Q8Q0Q0Q8Q0Q0R6P2Q8Q8Q8Q8Q0R6Q8Q0R6Q8J04O4Q0J12Q0Q0J04R6
16620C0423Q8J04Q0J04R6R6Q8J04R6Q8J04R6R6J04Q8R6J12R6R6J12R6J04J04R6J12J04J04
16614C3087J04J04J04J12J04J12J04J04J12J12J12J12J04J20J04J20J12J12J20J12J20J12
16609C5519J20J20J12J20J28J20J12J28J20J20J28J20J28J28J20J28J28J28J28J28J28J36
16603C8247J28J28J36J36J28J36J44J28J36J44J36J44J36J36J44J44J44J36J52J44J44J44
16598D1295J52J44J52J52J44J52J52J52J60J52J60J52J52J68J60J52J60J68J60J60J68J68
16593D4735J68J60J68J76J68J68J76J76J68J76J76J76J84J76J84J76J84J84J84J92J76J92
16588D8623J84J92J92J92J92K00J92K00K00J92K08K00K08K00K00K08K08K08K16K08K08K16
16583E3047K16K24K08K24K16K24K24K24K32K24K32K24K32K40K32K40K40K40K40K40K48K40
16578E8111K48K48K48K56K56K56K56K56K64K64K56K72K64K72K64K80K72K72K88K72K96K72
16573F3943K88K88K88K88K96K96K96L04L04L04L04L04L12L12L12L20L28L20L20L20L28L28
16568G0703L36L36L36L44L36L44L60L44L52L52L60L60L68L60L76L68L68L84L76L84L84L84
16563G8615M00L84M00L92M08M08M08M08M16M24M16M32M24M32M24M48M40M40M48M56M56M56
16558H7935M64M72M72M72M72M80M88M88M96M96N04M96N12N12N20N20N28N36N28N44N44N52
16553I9031N52N60N52N76N68N76N76N92N92O00O00O08O16O16O24O32O32O40O48O48O64O64
16548A12367O64O80O80O88O96P04P04P12P20P20P36P36P52P52P60P68P76P76Q00P92Q08Q16
16543A28607Q16Q32Q32Q40Q56Q64Q64Q80Q88Q96R04R12R28R28R44R44R60R68R84R92J000J008
16538A48647J024J032J040J048J072J072J088J096J112J120J136J144J152J176J184J192J208
16534A67543J224J232J256J256J280J296J304J320J336J352J368J384J392J416J424J448J464
16530A90295J480J504J512J536J552J568J592J608J624J648J672J688J704J728J752J776J792
16526B18031J816J840J864J888J912J936J960J984K016K032K064K096K120K144K176K208K232
16522B52319K264K296K328K352K392K424K448K496K528K560K600K632K672K712K744K792K832
16519B95391K864K912K960L000L040L088L136L184L232L280L336L384L432L488L544L600L656
16515C50527L712L776L832L896L960M024M088M160M224M304M368M440M520M600M672M760M832
16511D22695M920N016N096N192N280N376N480N568N680N784N888O000O112O224O344O472O592
16507E19719O720O856O984P120P264P416P560P720P872Q032Q200Q384Q544Q728Q912R112R312
16503F54455R504R720R928J0152J0384J0624J0856J1104J1368J1624J1904J2192J2472J2776
16500H09063J3096J3400J3744J4080J4432J4800J5176J5560J5968J6392J6816J7272J7736
16497A007535J8208J8712J9232J9760K0320K0896K1504K2120K2760K3440K4136K4856K5624
16494A289103K6400K7232K8080K8968K9896L0864L1872L2936L4032L5176L6392L7648L8968
16491A707567M0344M1792M3312M4896M6568M8328N0168N2104N4136N6288N8552O0928O3440
16488B368423O6104O8904P1872P5008P8328Q1856Q5592Q9552R3776R8256J03032J08128J13544
16485C502375J19352J25560J32184J39296J46937J55127J63952J73448J83688J94768K06736
16482E243423K19712K33800K49105K65775K83976L03864L25648L49569L75871M04888M36961
16480H692592M72488N11983N55984O05152O60288P22289P92279Q71568R61768J064783J182992
16477A7094166J319240J477120J661088J876673K130952K432894K794160L229835L759918
16475C7776046M411026N219214O233993P524325R188035J1366402J4267249J8202559K3649906
16473A37838755L1353148M2483815N8877429Q3276353J19101360J67727778K17357677K19302901
16471A077319216J00332963j00332963k19302848k17357730j67727778j19101360q3276327
16470B70553173n8877455m2483815l1353148k3649906j8202559j4267249j1366415r188035
16468F1164591p524322o233989n219208m411033l759911l229835k794166k432905k130935
16466B3428287j876680j661072j477137j319240j182984j064783r61768q71575p92281p22288
16464A1498479o60280o05159n55985n11975m72497m36960m04887l75873l49568l25648l03864
16461F495783k83976k65776k49104k33800k19712k06736j94768j83696j73448j63944j55136
16459D165687j46928j39304j32184j25560j19344j13552j08128j03024r8264r3776q9552q5592
16456B810479q1856p8328p5008p1872o8896o6104o3448o0928n8552n6280n4144n2104n0168
16453A972791m8320m6576m4896m3312m1792m0344l8968l7648l6392l5184l4032l2928l1872
16450A460527l0872k9896k8968k8072k7232k6408k5616k4864k4136k3432k2768k2120k1496
16447A124647k0896k0320j9768j9232j8704j8216j7728j7272j6824j6384j5968j5568j5176
16444H92591j4800j4432j4080j3736j3408j3088j2784j2472j2184j1904j1632j1360j1112
16441G25599j0856j0616j0384j0160r928r720r512r304r112q912q728q552q376q200q040p872
16437E77327p712p568p408p264p128o984o848o728o592o464o344o232o112o000n888n776n680
16433D64599n576n472n376n288n184n104n008m920m840m760m672m600m520m440m376m296m224
16430C81943m160m088m032l952l896l840l768l720l656l600l536l496l432l384l328l280l232
16426C19543l184l136l088l048l000k952k912k872k832k792k744k712k672k640k592k560k528
16422B71279k488k456k424k392k360k328k288k272k232k208k176k144k120k088k064k040k016
16418B33183j984j960j936j912j888j864j832j824j792j776j752j728j704j688j672j648j624
16414B02599j608j592j576j552j528j520j496j480j464j440j440j408j400j384j368j352j336
16410A77655j320j304j288j280j264j248j240j216j216j192j176j176j160j144j128j128j104
16406A57071j104j080j080j064j048j048j024j024j008j000r92r84r68r60r52r44r28r28r12
16402A38023r04q96q88q80q64q64q56q40q32q32q24q16q00p92q00p76p76p68p60p52p44p52
16397A20007p28p28p20p12p04p04o96o88o80o72o72o64o56o56o40o48o32o32o16o24o08o16
16392A05311o00o00n84n92n84n76n76n60n68n52n60n52n44n36n36n28n28n20n20n12n12n04
16387I3167n04m88m96m96m88m72m80m72m72m64m64m56m64m48m48m48m40m40m32m32m32m24
16382H3007m16m16m24m08m08m08m00m00m00l92l92l84l92l76l76l84l68l76l68l60l68l60
16377G4431l52l60l52l52l44l44l44l44l36l36l36l28l28l28l20l20l20l20l20l04l20l04
16372F7119l04l12k96k96l04k96k88k96k88k88k88k80k88k80k80k72k72k72k72k72k72k64
16367F0839k64k64k56k64k56k56k48k56k56k40k48k48k48k40k40k40k40k32k40k32k32k32
16362E5407k32k24k24k32k24k24k16k24k16k16k16k16k08k16k08k08k16k00k08k00k00k08
16357E0671k00k00k00k00j92j92j92k00j84j92j92j84j84j92j84j84j84j76j84j76j84j76
16351D6519j76j76j68j76j76j68j68j76j68j68j60j68j68j60j68j60j60j60j60j60j52j60
16346D2863j52j60j52j52j60j52j44j52j44j60j44j44j44j44j44j44j44j36j52j36j44j44
16341C9615j36j36j36j36j36j44j28j36j04j52j36j36j20j28j36j12j36j28j28j20j36j12
16336C6743j28j20j28j20j12j28j20j12j28j12j20j20j20j12j12j20j12j12j20j12j12j04
16331C4159j12j12j12j04j12j04j12j04j04j12j04r6j12r6j04j04j04j04j04r6j04j04r6r6
16326C1647j04r6q8j04r6r6r6r6r6r6q8r6r6q8r6r6q8q8r6q8q8r6q8q8q8q8q8q8q8q0q8q8
16319B8703q8q0q0q8q0q8q0q0q0q8q0q0q0q8p2q0q0q0q0q0q0p2q0p2q0q0p2p2q0p2q0p2p2
16311B6087q0p2p2p2p2p2p2o4p2p2p2p2p2o4p2p2o4p2o4p2o4p2o4o4p2o4p2o4o4o4o4o4o4
16303B3815o4o4o4o4o4o4o4n6o4o4n6o4o4n6o4o4n6o4o4n6n6n6o4n6n6n6o4n6n6n6n6n6n6
16296B1831n6n6o4m8n6n6n6n6n6m8o4m8n6m8n6n6m8n6m8n6m8n6m8n6m8n6m8m8n6m8m8n6m8
16288B0079m8m8m8m8n6m8m8m8m0m8n6m0n6m0m8m8m8m8m0m8m8m8m8m0m8m8m8m0m8m0m8m0m0
16281A8543m8m8m0m0m8m0m0m8m0m8m0m0m0m8m0m0m0m0m8m0m0m0m0m0m0m0m0m0m0m0m0m0m0
16273A7167m0m0m0l2m0l2m8l2m0m0l2m0m0l2m0l2m0m8l2l2l2m0m8k4m0l2l2m0l2m0m0l2l2
16266A5951l2m0l2l2m0l2l2m0l2l2m0l2l2l2l2l2m0l2l2l2l2l2l2l2l2l2l2l2l2l2l2l2l2
16258A4855l2l2k4l2l2l2l2l2l2l2k4l2l2l2k4l2l2k4l2l2k4l2l2k4l2l2k4l2k4m0k4k4l2
16251A3871k4l2k4l2k4l2k4l2k4l2k4l2k4l2k4k4l2k4k4l2k4k4l2k4k4k4l2k4k4l2k4k4k4
16243A2983k4k4l2j6l2k4k4k4l2j6k4k4l2k4k4k4k4k4k4k4k4k4k4k4k4k4k4k4k4k4k4k4k4
16235A2175k4j6k4k4k4k4k4k4j6k4k4k4j6k4k4k4k4j6k4k4k4j6k4k4k4j6k4j6k4k4k4j6k4
16228A1447j6k4k4k4j6k4j6k4j6l2j6j6k4j6k4j6k4j6k4j6k4j6k4j6j6k4j6k4j6j6k4j6k4
16220A0783j6k4j6k4j6j6k4j6j6k4j6k4j6j6k4j6j6j6k4j6j6j6k4j6j6j6k4j6j6j6k4j6j6
16213A0175j6k4j6j6j6j6j6j6j6k4j6j6j6j6j6k4qk4j6j6j6j6j6j6j6j6j6k4qk4j6j6qk4q
16205I591k4j6j6qk4j6j6j6j6j6j6j6qj6j6j6j6j6j6j6j6qj6j6j6j6j6j6qj6j6j6j6j6j6j6
16197I031j6qj6j6j6j6j6qj6j6j6j6qj6j6j6qj6j6j6j6qj6j6j6qj6qj6j6j6qj6j6qj6j6qj6
16188H487j6j6qj6j6qj6j6qj6qj6qj6j6qj6qj6j6qj6qj6qj6j6qj6qj6qj6j6qj6qj6j6qqj6
16178G951qj6qj6qj6qj6qj6qj6qj6qj6qqj6qj6qj6qj6qj6qqj6qj6qj6qj6%j6qj6qqqj6qj6
16167G423qj6qqj6qj6qqj6qqqj6qj6%j6qj6%j6qqj6qqj6qqqj6qqqqj6qqj6qqqj6qqj6qqqj6
16156F895%qj6qqj6q%j6qj6q%qj6j6%j6%k4%qj6qqqqqqj6qqqqqqqj6qqqqqqqqj6qqqqqqqq
16143F399j6qqq%j6qqqqqqqqqqqj6qqqqqqqqqqqqqqqq%j6qqqqqqqqqqqqqqq%j6%j6qqq%qq
16129E903qqqqqqqqqqqq%j6qq%qqqqqq%j6qq%qqqq%qqqqqq%qj6q%qqqqqqq%qqqqqq%qqqqq
16115E439%qqqqq%qqqq%j6%qqq%qqqqqq%qqq%qqq%qqqq%qq%j6%j6%qqq%qq%qq%j6%%j6%qq
16100E047qq%qq%qq%qqq%qqq%j6%%j6%qq%qq%qqqq%qq%q%qqk4K4j6k4J6j6%%q%qqqQj6q%q
16087D719qq%q%qq%qq%qqq%qq%q%qq%qq%qq%qq%q%qq%q%qq%qq%q%qqq%qq%q%q%q%qq%q%q%
16072D383qqq%q%q%q%qq%q%qq%qq%q%qq%%j6%%q%qqq%%qq%%qq%q%q%qq%q%qq%%j6%%q%q%%
16057D087qq%q%qq%q%qq%%q%q%q%q%qq%q%q%%qq%q%q%q%q%q%q%q%%qq%q%%qq%q%q%qq%%%q
16042C807%q%q%q%q%q%%qq%%q%qq%%qq%%q%q%%j6%%%qq%%qq%%q%%q%q%qq%%%q%q%q%q%q%%
16026C567qq%%q%q%%q%q%%q%%q%q%qq%%%j6%%%q%%q%%q%qq%%q%%%qq%%q%%q%q%%q%q%q%%q
16011C343%q%%%q%q%%q%%q%q%q%%q%qqQq%%%q%q%%q%%q%q%q%q%%%q%%qq%%%q%q%q%%%q%%q
15996C143%q%%%q%q%%q%q%%q%%q%%q%%q%%q%q%%%q%qQqq%qQq%q%%q%%q%%%q%q%%q%%q%q%%
15981B959%q%%q%%q%%%q%%%q%q%%%q%%q%%q%q%%%%q%%q%q%%%q%%%q%%q%q%%%q%%q%q%%%%q
15965B791%%%q%q%%%q%%qQq%%q%q%%%q%%%%q%q%%%q%q%%%%q%%q%%q%%%q%%%q%%%q%%q%%%q
15950B639%%%q%%q%%%q%%%q%qQq%q%%%qQq%%q%%%q%%q%%%%%q%%%q%%q%%q%%%%q%%q%%%q%%
15935B503q%%%%q%Qq%%q%q%qQq%%%qQqq%%%%q%%qQq%%%q%q%%%%q%%%q%%%%qQq%%q%%%q%Qq
15919B375%%%qq%q%Q%q%%q%qQqQq%%q%%q%%%%%q%%%%%q%%qQq%%q%%%%q%%%%q%%%%q%%%q%%
15904B255%qQq%%%q%%%q%%%%qQq%%q%%%%q%%%q%%%q%Qq%%%q%%%q%%%%q%%%%q%%%%q%%%%q%
15889B143%%%q%%%%q%%%qQj6Q%%q%%%%%%q%%%qQq%%%%q%%q%%%%%%q%%%%q%%%%q%%%%q%%%%
15874B047%%q%%q%%%%%Ql2QQ%%q%%%%%q%qQ%qQqQq%%%q%%%qQ%%q%%%q%%%%q%%%%q%%%%%q%
15858A951%%%q%%%q%%%%%%q%Qq%%%%%q%%%%%q%%%%%%q%%%%q%%%%%q%%%%%q%%qQ%%q%%%%%q
15843A863%%%%%q%%%%%qQq%%%%%q%%%%%%%q%%%%%q%%%q%%%q%%%%%%%q%%Qq%%%qQ%q%%%%q%
15828A783%%%qQq%%%%q%%%%%%%q%%%%%%%q%%%%q%%%%%%%%q%%%%%%%q%%%q%%%%%%%qQq%%%%
15812A711%qQ%q%%%%q%%%%%%%q%%%%%q%%%%%%%%q%%%%qQqQq%%%%q%%%%qQ%%q%%%%qQq%%%q
15797A631Q%q%%%%%%q%%%%%%q%%%%%%qQq%%%%%%%%%q%%%%%qQq%%%%%%q%%%%%%%%q%%%%%%q
15782A567%%%%%%%%%q%%%%%%qQ%q%%%%%%q%%%%%%%q%%%%%%%%q%%Qq%%%%q%Q%q%%q%Q%q%%%
15766A511%%q%%%%%%%%%%qQq%%%%%qQq%%%%%%%qQq%%%%q%%%%%%qQq%%%%%qQ%q%%%%%%%%%%
15751A455q%%%%%%%%%%q%%%%%%%%%%%q%%%%%%qQq%%%%%%q%Qq%%%%%%%q%%%%%%%qQq%%%%%%
15736A399%%%%qQq%%%%%%%%%%q%%%%%%q%%%%%%q%Q%q%%%%%%%qQq%%%%Qq%%%%%%%q%%%%%%%
15720A351%q%%%%%%%%qQq%%%%%%qQq%%%%%%%%%q%Qq%%%%%%%%%q%%%%%%%%%%qQq%%%%%%q%%
15705A295%%%%%%%%qQq%Qq%%%%%%%%q%%Qq%%%%%q%%%%%%%q%%%%Qq%Qq%%%%%q%%%%%%%%q%%
15690A247Qq%%%%%%%%%%Qq%qQq%Q%qJ6qqj6J6qj6J6qJ6%q%qQ%qQqQq%%%%%%q%%%%%%%%%%%
15676A215%%%q%%%%%%%%%q%QqQq%%%%%%%%%%%qQq%%%%%qQq%%Qq%%%%%%q%Qq%%%%%%%%%%%%
15660A175%qQqQq%%%%%%q%Qq%%%%%%%%%%%q%%%%%%%Qq%%%qQ%q%%%%%%%%qQ%%q%%%%%%%%%%
15645A135%q%%%%%%%%%%%%qQq%%%%%%%%%qQ%%qQ%qQq%qQj6K4j6Q%qQ%qQq%%%%%%%%%%%q%%
15630A095%%%%%%%qQ%qQqQq%%%%%QqqQ%%qQ%%q%%%%%Qj6QqQ%%%qQq%%%%qQ%%%%%%q%Qq%Qq
15615A063%%%%%%%%%%qQqQq%%%%%%%%%%%%%%%q%%%%%Qq%%%%%%%q%%%%%%%%%%qQ%q%%%%%%%
15600A031%%%%%%%%q%Qq%%%%%%%%%%q%%%%%%%%%%%%%%%%%qQq%Qq%%Qq%%%%qQ%q%%%%%%Qq%
15585I99%qQq%Q%q%%%%%%%%%%%qQq%Qq%Q%%q%Qq%%%%%%%%%%%q%%%Qq%%%%%%%%%%%%%%%qQq
15569I67%%%%%%%%%%%q%%%Q%qQq%%%%%q%Q%q%%%%%%%%%%%%%%qQ%%q%%%%%%%%%qQ%%%%%q%%
15554I35%%%%%%%%%%%%%%%%%qQqQ%qQq%%%%%%%%%%%%%%q%%%%%%%%%%%%%%%%%%%%%%%%%q%%
15538I11%%Qq%%%%qQ%%%q%%%%Qj6J6q%%%%%%%%%%qQ%%q%%%%Qq%%%%%%%q%Q%%%q%%%%%%%%%
15523H87%%%%%%%%%%%%q%J6qq%Qq%Qq%%%%%%%%%%%q%%QqQq%%%%%qQq%Qq%%%%%%%%%%%%%%q
15508H55%Q%%%%%qQqQq%%%%%%%%%%%%%%%%%%%qQq%%%%%%%%%%%%%%%%%qQq%Qq%%%%%%%%%%%
15492H39%%%%q%Qq%%QqQq%%%QqQq%%%%%%%%%%%%%q%%%%%%%%%%%%qQ%%%%%%q%Q%q%%%Qq%%%
15476H15%%%%%%%%%qQ%%qQ%q%Qq%%%%%%%%%%qQ%%qQ%%q%%%Qq%%%%%%%%%%qQq%%Q%qQqQq%Q
15461G99q%Q%q%Qq%%%%%%qQ%%%q%%%%%%%%%%%%%%%%%%%qQ%%%%%%qQqQ%%%%q%%%%%%%%%%%%
15445G75%%%qQ%q%%%%%%%%%%%%%%%%%%%%%%%%%%%%q%%%%%%%%%%%%%%%%%%%qQ%%q%QqQq%%%
15430G51%%%%%%%%%%%%%%%%%qQ%%%%qQqQq%%%%%%%%%%%%%%%qQ%q%%%Qq%%%%%%%%%%%Qq%%%
15414G35%%%%%%%%q%%Qq%Q%q%%%%%%%%%%%%%%%%%qQqQq%Qq%QqQq%%Q%j6%K4j6J6%qqj6%J6
15400G19%%%%q%%Qq%%Q%%%q%%%%%%%%qQ%%%%q%%%%%Q%q%%%QqqQ%%%%%%%%%Qq%%%qQqQ%q%%
15384F95%Qq%%%%%%Qq%%%%%%%%%%%%%%q%Qq%%%%%%%%%%%%%%%%%%%%%%%%%%%%%%q%Q%q%%%Q
15369F87q%%%%%%%%%%%%%%%%%%%%%%%%%%%qQqQ%q%%%%%%%%%%%%%%%%%%%%%%%%%%%%%%%qQ%
15353F71%%%%%q%%%%%%%%%%%%%%%%%%%%%%%%%%%%%%%q%Qq%%%qQ%%qQ%%%%q%Q%%%%q%%%Qq%
15338F47%%%%%%%%%%%%%%%%%Q%q%%%%%%%qQ%%qQq%Qj6K4j6%Q%%q%%%%%%%%%%%%%%%%%%%%%
15323F39%%%%%%%%qQ%%%q%%%%%%%%%%%%%%%%%qQ%q%%QqQ%%qQ%q%%%%%%%%%%%%%%%%%%%%%%
15307F23qQ%%%%%%qQ%%%%%%qQqQ%q%%%%%%%%%%%Qj6%%Q%%%%%%%%%%%%%q%%%%%%%%%%%%%%%
15292F07qQ%%%%%%%%%%%%qQ%qQ%qQqQ%q%Q%q%%%%%%%Qq%%%Q%q%%%%%%%%%%%%%%%%%%%%%qQ
15276E99%%%qQ%q%Qq%%%%%%%%%%%%%%%%%%%%%q%QqQ%%%%qQq%%%%%%%%%%%%%%%%%%%q%Q%%%
15261E83%qQ%%%q%%%Q%%%%q%%%%%%%Q%q%%%%%%%%%%%%%%%%%%%%%%%%%%%%%%%%%qQqQq%Q%q
15245E67%Q%q%%%%%%Qq%%%%%%%%%%%%%%%%%%%%%%%%q%Q%%%qQ%q%Qq%%Qq%%%%%%%%%%%%%%%
15230E59%qQ%%%qQ%%q%%Q%%qQq%%%%%%%%%%%%%%Qq%%%%%Qq%%%%%%%%%q%Q%%qQqQ%%Qj6Q%%
15214E51qqQqQ%%%%%%Qq%%%%%%%%%%%%%%%%%qQqQ%%%%%%q%%Qq%%%%%%%%%%%%%%%%%%%%%%%
15199E35%%%%%%%%%Qq%%%%%%%%%q%%QqQq%%%%%%Qq%%%%%%%%%%%%%%%%%%%%%%%%%qQ%q%Q%q
15183E19%QqQ%q%%%%%%%%%%%%%%%%%%%%%Qq%%%%%%%%%%%%%%%%%%%%Qq%%%%%%%%%%q%%%%%Q
15168E19j6J6qQqQ%%q%%%%%%%%%%%%%%%%%%%%%%%%%%%%%%%%%%%%%%%%%%%qQ%q%%%qQ%%Qqq
15153D95Qq%Q%%%qQqQ%%q%Qq%Q%%%%%%%%%%%%%qQ%%%%q%%%%Qq%%%%%%%%%%%%%%%%%%%%qQ%
15137D95%%%%%%%%%%%%%%%%%%%%%%%%%%%%qQ%%%%qQq%%%%%%%%%%%%%%%%%%%%%%%%%%%%%%%
15121D87%%%%%%qQ%%%%%%%%qQ%qQ%qQq%%%%%%%%%%%%%%%%%%%%%%%%%%%%%%q%Q%%%qQqQ%%%
15106D79%qQ%qQ%q%%%%%%%%%%%%%%%%%%%%%%%%%qQ%%%Qq%%%%%%%%%%%qQ%%%%%qQ%%%%%%%%
15090D71%qQ%qQ%%q%Q%qQqQq%%%%%%%%%%%%%%%%%%%%%%%%%%qQ%qQ%qQ%%%%%%%%q%Q%q%%%%
15075D55%%%QqQqQ%q%%%%%%%%%%%%%%%%%Qq%%%%%Qq%%Qq%%%%%%%%%%%%%q%%%Qq%%%%%%%%%
15059D47%%%%Qq%%%%%%%%%%%%%%%%%%%%%%%%%%%%%%%%%Q%q%%%%%%%%%%%%%qQqQqQ%qQ%%%q
15044D39QqQqQ%%qQq%%%%%%%%%%%%%%%%%%%%%qQ%%%%%%qQ%%%%%%q%QqQ%%%%%%qQ%%%qQ%q%
15028D31QqQ%%q%%%%Q%q%%%%%%%%%%%%%%%Qq%%%%%%%%%%%%%%%%%q%Q%qQ%%%%%qQ%%%q%%Qq
15013D23QqQ%%%%%q%%%%%%%%%%Qq%%%%%%%%%%%%%%%%%%%%%%%%%%%%qQ%%%%%%%qQ%qQ%%qQq
14997D15QqQ%%q%QqQqQ%qQ%qQ%%qQqQ%qQ%%q%%%%%%%%%%%%%%%%%%%%%%%%%%%%%%%%%%%%qQ
14981D15%%%qQq%Q%%%%%qQ%%%q%QqQ%%%%%%%%%qQ%qQq%%%%%%%%%Qq%%%%%%%%%%%%%%%q%Q%
14966D07%%%%%%%%%%qQ%%%%qQ%%%%%%qQq%Q%q%Qq%%Q%q%%%Qq%%%Qq%%%%%%%%%%%%%%%%%%%
14950C99%%%%%%%%qQ%%%%q%Q%%%%%%%%%%%%%qQ%%q%%%%%%%%%%%Qq%%%Qq%Qq%%%Qq%%%%Q%q
14935C91Qq%%Q%%%qqQ%%Qj6Q%%%qQqQqQ%%%%%%%%%%%%%qQ%q%Q%%q%%%%%%%Q%%q%%%%Q%qQq
14919C83Qq%%qQ%%%%%%%%%%%%%%%%%%%%%%%%%%%%%%%%%%%%%%%%%%%%%%%%%%%qQq%%%Q%%q%
14904C75Q%%%%%%%%%%%%%qQqQq%%%%%%%%%%%QqQ%%qQq%%%%%%%%%%%%%%%%%%%%%%%%%%%%%%
14888C75%%%%%%%%%%%%%%%%%q%QqQ%%%qQ%q%%%%%%%%%%%Q%%%%%q%%%%QqQq%%%%Qq%%%%Qq%
14873C67%Qq%%%%%%%%%%%%%%%%%%%%%%%%%%%%qQ%%%%%%%%%qQ%%%%%%%Qj6QqQ%%%%%%qQ%%q
14857C59%%%%%%Q%q%%%%%%%%%%%%%%%%%%Qq%%Q%q%%%%%%%%%%%%%%%%%%%qQ%%%%%%%%%%%%%
14842C59q%%Q%%%%%%%%%%%%%%%%%%%%%%%%qQqQ%%q%Q%qQ%q%%%%%%qJ6%q%QqQ%q%Qq%%%%%%
14826C51%%%%Qq%%%%%%%%%%%%%%%%%%%%%%%%%%%%%%%%%%%Qq%%%qQ%%%%%qQ%%q%%QqQ%q%Qq
14811C43Qq%Q%%q%%%%%%%%%Qq%%%%%%%%Qq%qQ%%%%%%%%%%%%qQ%%%%%%%%%%%%%%%%%%%%%%%
14795C43%%%%%%%%%%%%%%%%%%%%%%%%%%%%%%%%%qQ%%qQq%Q%%%q%%QqQ%%q%Qq%%%%%%%%%%%
14780C35%%Qq%%%%%%%%%%%%%%%%%%%%%%%%%%%%%%qQ%q%Q%%%%%%%%%%%%%%%%%%%%%%%%%%%%
14764C35%%%%%qQ%%%%%%q%%%Q%qQq%%Q%%qQ%q%Q%qQq%%%%%%%%%Q%q%Q%%q%Qq%%%%%%Qj6J6
14749C35qQQj6Q%qQ%%J6m0%%M8k4qQk4K4q%%%q%%%Qq%Q%%qQq%Q%%%qQ%qQqQ%%%%qQq%%%%%
14735C19%%QqQ%q%%%Q%q%%%%%Qq%%QqQqQ%q%Qq%%%Q%qQq%%%QqQq%%%%%%%%%%%%%%%%%%%%%
14720C19%%%%%%%%%%%%%%%%%%%%%%%%%%%qQ%%%%%%q%%Qq%Q%qQ%%%%%%%qQ%qQqQqQ%%%qQ%%
14704C19%%%qQ%%q%QqQ%qQ%%qQ%qQ%j6J6qQQj6QqQq%Qq%%%%%%Qq%%%%%%%%%%%%%qQ%%%%%%
14689C11%qQ%%%%%%%%%%%%%%%q%Q%%%%%%%qQ%%%%%%q%%Qq%%%%%%%%%%%%%%%%%%%%%%%%%%%
14674C03%%%%Qq%Q%%%%%%q%Q%%q%%%%%%%%%%%%%%%%%%%%%%%%%%%%%%%%%%%%%%%%%%%%%%qQ
14658C03%%%%%%%%%%%%%%%%qQ%%%%%%q%%Q%%qQ%%q%%Q%q%Qq%%QqQ%q%Q%%%q%Q%q%QqQ%%%%
14642C03q%%Qq%%%Qq%%%%%%%%%%%%%%%%%%%%%%%%%%%%%%%%%%%%%%%%%%%%%%%%q%%Q%qQ%qQ
14627B95%qQ%qQq%Q%%%%%%%%%%%%%%%qQ%%%%%%%%%%%%%%%%%%%%%qQq%%%%%%Qq%%%%%%%%%%
14611B87%%%%%%%Qq%%Qq%%%%Qq%Qq%%%%%%%%%%%%%%%Qq%%%%%%%Qq%Qq%%%%%%Qq%%%%qQ%qQ
14596B87Qq%%Qq%%%%%%%%%%%%%%%%%%%%%%%%%%%%%%%%%%%%%%%%%%%%%%%%qQ%%q%Q%%%%q%%
14580B79Q%qQ%%q%Qq%Qq%%Q%%%%qQq%Q%qQ%%q%Qq%Qq%%%Q%qQq%%%Qq%%%%%%%%%%%%%%%%%%
14565B79%%%%%%%%%%%%%%%%%%%%%%%%%%%%QqQq%%%%%%%%%%%%%%%%%%%%qQ%%%%%q%Q%qQ%%q
14549B71%%Q%q%Q%%%%%qQqQqQ%%qQ%%q%%%%%%Qq%Qq%%%%%%%%%%Qq%Q%%%%q%%Q%q%%%%%%%%
14533B71%%%%%%%%%%%%%%%%%%%%%%%%%%%%%%%%%%%%%%%%%%%%qQ%%%%%%%%%%%%%%%%%%%%%%
14518B71%%%%%%%%%%%%%%qQ%q%QqQq%%%qQ%%%%%%Qq%QqQ%%%%%%qQ%%qQ%%%%%%q%%%%%%%%%
14502B63%%%%%%Qq%%%%%%Qq%%%%Qq%%%Qq%%%%%%%%%%qQ%%%Qq%Qq%%%%%%%%%%%%%%%%%%%%%
14487B63%%%%%%%%%%%%%%%%%%%%%%%%%%%%qQqQ%%%%%%%%%%%%%%%%%%%%%%%%%%%%%q%%Q%q%
14471B55Q%qQ%%%%%Qq%%%qQqQ%%%q%qQQq%J6q%Qq%q%%%QqQq%Qq%%Qq%%%%Qq%%%%%%%%%%%%
14456B55%%%%%%%%%%%%%%%%%%%%%%%%%Qq%%%%%%%%%%%%%%%%%%%%%%%%%qQ%%%%%qQ%%%%%%%
14440B55%%%%%%%%%%%%%%%%%%%%%%%qQ%%%%qQqQ%%q%%%Q%qQq%%Q%%%%%%qQ%%%%q%Q%%%%%%
14425B55qQ%qQ%qQ%qQq%%Qq%QqQ%q%%%%%%%%Q%%%%qQq%Q%qQq%QqQ%%qQ%q%%%%%%%%%%%%%%
14409B47%%%%%%%%%%%%%%%%%%%%%%%%%%%%%%%%%%%%%%%%%%%%%%%qQ%%%%%%%%%%%%%Qq%%%q
14394B39Q%qQ%%qQ%%%%%%%%%qQ%%%q%Q%qQ%qQqQq%%Q%%q%Q%%%%%%qQq%%QqQ%qQ%q%%%%%%%
14378B39Q%q%Q%%qQ%%%q%%Qq%%%%%%Qq%%Q%%%%%%qQ%%q%%%%%%%%%%Qq%%%Qq%Qq%%%%%%%%%
14362B39%%%%%%%%%%%%%%%%%%%%%%%%%%%%%%%%%%%%%%%%%%%%%%%%%%%%%%%%%%%%%%%%qJ6q
14347B39%%%%%%%%%%%%%%%%%%%%%%%%%%%%%%%%%%%%qQ%%%qQ%%%%%qQqQ%%%%qQ%%%%%%%%%%
14332B39%qQ%%%q%%%Q%%%%%%%%%%%%qQqQqQ%q%%%Q%%q%%%Qq%Q%q%%Q%%%q%%%%QqQq%%%%%%
14316B31%%%%%Q%%qQ%qQqQq%%%Qq%Qq%%%%%%%%%Qq%%Qq%%%%%%%%%%%%%%%%%%%%%%%%%%%%%
14300B31%%%%%%%%%%%%%%%%%%%%%%%%%%%%%%%%%%%%%%%qQ%%%%%%%%%%%%qQ%%%%q%Q%%qQ%%
14285B31%%%%qQq%%%%Q%%%%q%Qq%Q%qQq%Q%%qK4qq%%qQq%%Qq%Q%%qQ%%%%%%%%qQ%%%%%%%%
14270B31%%qQ%%%q%%Qq%Qq%%%%%%%%%%%%%%Qq%%%Qq%QqQqQq%%Qq%QqQq%%%%%%%%%%%%%%Qq
14254B23Qq%QqQ%q%%%%%%%%%%%%%%%%%%%%%%%%%%%%%%%%%%%%%%%%%%%%%%%%%%%Qq%%%%%%%
14238B23%%%%%%%%%%%%%%%%%%%%%%%%%%qQqQ%%%%%qJ6qq%%%%QqQ%%qQ%%%%%%%%qQqQ%%%%%
14223B23qQ%%%%%%%qQ%qQ%%q%Q%%qQq%%Q%j6%K4q%%k4%J6Qq%%%%%qQ%%%%Q%q%QqQqQ%q%%Q
14208B23qQq%%%%%Q%q%%%Qq%%Qq%%%%%%%%%%%Qq%%%%%%%%%%%%%%%%%%%%%%%%%%%%%%%%%%%
14193B15%%%%%%%Qq%%%%%%%%%%%%%%%%%%QqQqQq%%%%%%%%%%%%%%%%%%%%%%%%%%%%%qQ%qQq
14177B07%Qq%Q%qQ%%%%%%%%q%Qq%%Q%%%%%%%%qQ%%qQ%%%%%%%%%%%%%%%%%%%%%q%%%Q%%%%%
14162B15%qQ%q%QqQq%Q%%%%%q%%%%Qq%%%%Qq%%%%%%%%%Q%qQ%q%Qq%%Qq%%Q%%%qQ%qQ%%%qQ
14146B15%qQq%%%%%%Qq%%%%Qq%%%%%%%%%%%%%%%%%%%%%%%%%%%%%%%%%%Qq%%%%%%%%%%Qq%%
14131B07%%%%%q%Q%%%Qqq%QqQ%%%%%%%%%%%%%%%%%qQ%%%%%%%qQ%%%%%%%%%%qQqQ%%%%%%%%
14115B07%%%%%%%%%%qQ%%%%%%%%%%%%%%%qQqQqQ%%%qQ%%%%qQqQ%%%%%%q%QqQ%%%qQqQq%Qq
14100A99%%Q%%%%qQ%%%%%%%q%Q%%%qQ%%%%%%%%%%%%%%%qQ%%%%qQ%q%%Q%qQqQqQ%q%%%%Q%%
14084B07%qQq%%%%Qq%%Q%%qQ%q%%%%%Qq%%%%%%%%%%%%%%%%%%%Qq%%%%%%%%%%%%%%%QqQqQq
14068A99%%%%%%%%%%%%%%%%%%%%%%%%%%%%%%qQqQ%%%%%%%%%%%%%%%%%%%%%%%%%%%%qQ%%%%
14053A99%%%%%%%%%%%%%%%%%%qQ%%%%%%%qQ%%%%%%qQqQ%q%QqQqQ%%%%%%%%%%qQ%%%%%%%%%
14037A99qQ%%%%%%%%%%%qQ%%qQqQq%QqQqQq%%QqQq%%Qq%%Q%qQq%%%%%Q%%qQq%Qq%%%%%%%%
14022A91%%%Qq%%%%%%QqQqQq%Q%qQ%q%Q%q%%%%%%%%%%Qq%%%%%%%%qQ%%%%%Qq%%%%%%%%%%%
14006A91%%%%%%%%%%%%%%%%%%%%%%%%%%%%%%%QqQq%%%%Qq%%%%%Q%qqQ%%%%%%%%%%%%%%%%%
13991A91%%%%%%%%%%%qQ%%%%%%%%%%%%%q%Q%%%%%%%%%%%%%%%%%%%%%%%%%%%q%Q%%%%%%%%%
13975A91%%%%%%%%%%%%%%%%%%%%%%qQqQq%%%%%%Q%q%Q%q%%QqQ%q%Q%%q%Q%%qQ%%%%%%%%%%
13959A91%%%%%%%%%%%%%%%qQ%qQ%%%%%%%%%%qQ%%%qQ%%%%%%%%%%%%%%%%%%%%%%%%%%q%Qq%
13944A83%Q%q%Q%qQ%q%%%%Qq%%%QqQq%%%Qq%%%%%%%%%%%%%%Qq%%%%%Qq%%%%%Qq%%%%%Q%%%
13928A91%q%%%%QqQj6J6qQq%%%%%%%%Q%q%%%%%%%%%%%%%%%%%%%%%%%%%%%%%%%%%%%%%%%%%
13913A83%%%%%%%%%%%%%%%%%%%%%%%q%%QqQ%%%%%%%%%%%%%%%%%%%%%%%%%%%%%%%%%%%%%%%
13898A83%%%%%%qQ%%%%%%%%%%%qQ%q%%Q%%%%%%%%%%%qQqQ%%%%%%%%%%%%%%%%%%%%%%%%%%%
13882A83%%%%qQ%%%q%%Q%%%%q%%QqQqQ%qQ%%%%%%%%%%%qQ%qQ%%q%%%%%%%%%%%%%%%%Q%%%q
13867A75Q%%%qQq%%Qq%Qq%%Qq%Q%q%Q%q%%%%%Qq%%%%%%%%%Q%q%%%%%%%%%Qq%%%%%Qq%%%%%
13851A75%%%%%QqQq%%%%Qq%%%%%%%%%%%%%%%%%%%%%Qq%%%%%%%%%%%%%%%%%%Qq%Q%q%%%Qq%
13835A75%Qq%%%%%%%%%%%%%%%%%%%%%%%%%%QqQ%%%%%q%%%%%%%%%%%%%%%%%%%%%%%%%qQ%%%
13820A75%%%%%%%qQ%%%%%%%%%%%%%qQqQ%%%%%%%%%%%%%%%%%%%qJ6%qqQ%q%%Q%qQ%%qQ%q%Q
13804A75%q%%Qq%Q%qQ%%%%%%%%%%%qQ%%%%%%qQ%%%%%%%qQ%%%%%%%%%%%%qQ%%qQ%qQ%%%%%%
13789A75%%%%%qQqQqQ%%%%%q%Q%q%%%%QqQ%%%%%%%%%%%q%Q%%q%%%Q%q%Q%%%%qQ%qQ%q%%%Q
13773A75q%%Qq%Qq%%%%%%%Qq%Qq%%Q%%%q%%%%%%Qq%%Qq%QqQ%q%%%Q%%q%%Q%qQq%%Qq%%%%%
13758A67%%%%%%%Q%q%%%%%%%%%%%%%Qq%%%%Qq%%%%%%%%%%%Qq%QqQqQq%%%%Q%q%Qq%%%%%%%
13742A67%%%%%%%%%%%Qq%%%%%%%%%%%%%%%%%%%%%%%%%%%%%%qQ%%%%%%%%%%%%%%%%%%%%%%%
13727A67%%%%%%%%%%%%%%%%%%%%%%%%%%%%%%%%%%%%%%%%qQ%%%%%%%%%%%%%%%%%%%%%%%%%%
13711A67%%%%%%%%%%%%%%%%%qQ%%%%%%%%%%%%%%%%%%%qQ%%%%%%%%%%%%%%%%%%%%%%qQ%%qQ
13696A67%%qQ%%qQ%%%%qQ%%q%%Qq%%QqQq%Q%%%qQq%QqQqQ%q%Q%%qQ%%q%%%%%%%%QqQ%%%%%
13680A67%%%%%%%%%%%%q%Q%%%%q%%QqQqQ%q%%Qq%Q%qQ%%%qQ%qQq%%%%%%%%%%%%%%Qq%%%%%
13664A59%%%Qq%Q%q%%Qq%%Qq%%%Q%qQq%QqQq%%Qq%%%%%%Q%q%%%%%%%%%%%%%%%%%%%%%%%%%
13649A59%%%%%Q%q%%%%%Q%q%%%Q%q%%%%%%%%%%%%%%%%%%%%%%%%%%%%%%%%%%%%%%Qq%%%%Qq
13633A59Q%%%q%%Q%q%Q%qQ%qQ%q%%%%%%%%%%%%%%%%%%%%%%%%%%%%qQ%%%%%%%%%%%%%%%%%%
13618A59%%%%%%%%%%%%%%%%%%%%%%%%qQ%%%%%%%%%%%%%%%%qQqQ%%%%%%%%%%%%%%%%%%%%%%
13602A59%%qQ%%%%q%Q%%%%%%%%%%%%%%%%%%%%%%%%%%%%%qQ%qQq%Q%%%%%%%%%%qQ%%%%%q%Q
13587A59%qQ%%%%%q%%Qq%QqQ%%%%%%%%qQ%%%%qQ%%%%%%%%%%qQq%%Qq%%%%QqQ%q%Q%%%%%qQ
13571A59q%QqQ%q%%%Qq%%%%%QqQqQ%%%%%%%%%%q%%%%%Q%%qQqQ%%%q%%%%%Q%qQ%%qQ%%%%Qq
13555A59%%qQ%%%%%%%%%qQ%%qQ%%qQqQq%%QqQqQ%qQq%%%%%Q%qQ%%q%%%%Q%qQ%%q%%Qq%%%%
13540A51%%%%QqQq%QqQq%%%Qq%%%%%%QqQq%%%Qq%%%%Qq%%QqQ%q%QqqJ6qK4l2%k4j6Q0n6J6
13526A43qQ%%QqJ6qqQ%%%%qQ%QqqQQqQq%Qq%%%%%%%%Qq%%%%%%Qq%%%%%%%%%%%%%%%%%qQ%%
13511A51%%%%%%%%%%%%%%%%%%%%%%%%%%%%%%%%%%%%%%%%%%%%%%%%%%%%%%%%%qQ%QqQq%%%%
13495A51%%%%%%%%%%%%%%%%%%%%%%%%%%%%%%%%%%%%%%%Qq%%%%%%%%%%%%%%%%%%%%%%%%%%%
13480A51%%%%%%%%%%%%%%%%q%Q%%%%%%%%%%%%%%%%%%%%%%%%%%%%q%Q%%%%%%%%qQ%q%%Q%%%
13464A51%%%%%%%%%%%%%%%%%%%qQqQ%%%%%q%Q%%qQ%%%q%%Qj6J6%qQ%%%%%%%%%%%%%%%%%%%
13449A51%%%%qQq%Q%%%qQ%q%QqQ%%%%%%%%%%%%%%%%%qQ%%qQ%%qQ%%qQ%q%QqQqQq%%%Q%qQq
13433A43Q%qQ%qQqQ%%%%%q%%%%Q%%%q%Qq%%Q%qQ%qQq%%%%%Q%q%%%Q%qQ%%q%%QqQq%%%Q%q%
13418A43%%%%%%%%%%%%Q%%qQ%%%%%%q%Q%q%Qq%QqQ%%q%%%%%%%%%%%%%%%%Qq%%%%%%%%%%%%
13402A43%%%%%Qq%%%%%%%Q%q%%Qq%%%%%%%%%%%%%%%%%%%%%%%%%%%%%%%%%%%%%%%%%%%%%%%
13387A43%%%%%%%%%%%%Qq%%%%%%%%%%%%%%%%%%%%%%%%%%%%%%%%%%%%%%%%%%%%%%%%Qq%%%%
13371A43%%%%%%%%Qq%%%%%%%%%%%%%%%%%%%%%%%%%%%%%%%%%%%%%%%%%%%%%%%%%%%%%%%%%%
13356A43%%%%%%%%%%%%%%%%Qq%%%%%%%%%%%%%%%%%%%%%%%%%%%%%%%%%%%%%%%Qq%%%qQ%Q%Q
13340A59k4J6qQq%%%%%%qQ%%%%%%qQ%%%%%%%%%%%%%%%%%%%%%%%%%q%Q%%qQ%%%%%%%%%%qQq
13325A35Q%q%%%Q%%qQ%%%qQ%qQqQ%%%%%%qQ%%q%Q%qQ%%%%%%%%%%%%%%%%%%qQ%%%%%%%%%%%
13309A43%%%%%%q%Q%q%Q%qQ%%%%%%%%%q%Q%%%%q%%Q%q%Q%%qQ%q%%%Q%%qQ%%qQqQq%QqQqQ%
13294A43%%%j6QQ%q%%Qq%%Qq%%%Q%%%%qQqQ%%%%%%%%qQqQ%qQqQ%%%qQ%q%%Q%%q%QqQq%%%Q
13279A43q%qJ6%%q%%%%%%%Qq%%%%%%Qq%Qq%%%%%Qq%Q%qQq%Q%%%%%q%Q%%qQ%q%%%%Qq%%%%%
13263A35Qq%Qq%%Q%%qQ%%q%%%%Q%%%%%%%%qQq%%%%%Q%%qQ%q%%%Q%qQ%q%Q%q%%%%%%%%%%%%
13248A35%%%%%%%%%%%%%%QqQ%q%%%Qq%%%%%%%%%%%QqQqQq%%%%%%%Q%q%%QqQ%q%%%%Q%q%%%
13232A35%%%%%%%%%%%%%%%%%%%%%%%%%%%%Q%q%%%%%%%QqQ%qQq%%%%%%%%Qq%Qq%Qq%%%%%%%
13216A35%Q%q%%%%%%%%%%%%%%%%%%%%%%%%%%%%%%%%%%%%%%%%%%%%%%%%%%%%%%%%%%%%%%%%
13201A35%%%%%%%%%%%%%%%%%%%%%%%%%%%%%%%%Q%q%%%%%%%Qq%%%%%%%%%%%%%%%%%%%%%%%%
13185A35%%%%%%%%%%%%qQ%%%%%%%%%%%%%%%%qQ%%%%%%%QqqJ6j6Q%%%%%%%%%%%%%%%%%%%%%
13170A35%%%%%%%%%%%%%%%%%%%%%%%%%%%%qQ%qQ%qQ%%qQ%qQqQ%q%Qq%%Q%%%%%%%%%%%%%%%
13155A35%qQ%%q%%%%Q%%qQ%%q%%%Q%qQq%Q%%%%%%%%%%%%%%%%%%%%%%%%%%q%Qq%%%Qq%%%%Q
13139A35q%%%Qq%%%%QqQ%%%%%%%%%%%%%qQ%%qQ%qQqQqQqQqQ%%%q%Q%%%%%%%%%%%%%%qQ%qQ
13124A35%%q%%Q%%%q%%%%%%%%%Q%%%%%%%%%q%Q%qQ%%qQ%qQq%Q%q%%%%%Q%q%Qq%%%QqQ%qQ%
13108A35%%%q%%Q%q%%Qq%Q%qQq%%Q%q%%%Q%qQ%%%qQ%qQq%%%%%%%%%%%%%%%%%%%QqQq%%%%Q
13092A35%q%Q%q%%%%%Qq%Qq%%%%%%%%%%%%%%%Qq%%%%%%Qq%%%Qq%Qq%%%%%%%Q%%qQq%%%Qq%
13077A27QqqQQq%QqQ%%%qQq%%%%Qq%Q%q%%%%%%%%Qq%%%%%%%%%%%%%Qq%%%%%%%%%%%%%%%%%
13061A27Qq%%%QqQ%q%%Qj6J6qQj6Q%%%%%%%%%%%Qq%%%%%%Qq%%%Qq%%%%%%%%%%%Qq%%%Q%%q
13046A27%QqQq%%%Q%qQq%%%%%%%Qq%%%%%%%%%%%%%%%%%%%%%%%%%%%%%%%%%%%%%%%%%%Qq%%
13031A27%%%%%%%%%%%%%%%%%%%%%%%%%%%%%%%%%%%%%%%%%%%%%%%%%%%%%%%qQ%%%%%%%%%%%
13015A27%%%%%%%%%%%%%%%%%%%%%%%%%%%%%%%%%%%%%%%%%%%%%%%%%%%%%%%%%%%%%%%%%%%%
13000A27%%%%%%%%%%%%%%%%%%%%%%%%%%%%%%%%%%%%%%%%%%qQ%%%%%Q%q%%%%%%%%%qQqQ%%%
12984A27%%%%%%%%%%%qQ%%%%%%%%%%%%%%%%%%%%%%%%%%%%%%%%%%%%%%%%%%%%%%%%%%%%%%%
12969A27%%%%%%%%%%%%%%%%%%%%%%%%%%%%%%%%%%%%%%%%qQ%%%%%%%%%%%%%Qq%%%%%%%%%%%
12953A27%%%%%qQ%%%%%%qQqQ%qQq%Q%qQqQ%%qQ%%qQ%%qQ%%%%%%%%%%%q%Q%%%qQqQ%%%qQ%%
12937A27qQ%%%%%%%%%%%%%%%%%%q%%QqQ%%%qQ%%qQ%qQqQqQ%q%%Q%%%q%%Qq%%Q%qQ%%%%%%q
12922A19Q%%%%%%q%%%%QqQq%%%%Q%%%%%q%%%%%%%%Q%%%%%%qQqQqQq%%%%Q%%%qQ%q%%%Qq%Q
12906A27%%q%QqQ%%%q%Q%%%q%%%%Q%qQ%%%%%%%%%%%qQ%%%%qQ%q%%%Qq%%%Qq%Q%q%%%%%Qq%
12891A19%%%%%%%%%%%%%Qq%%Qq%%%%%%%%%%%Qq%Q%%%q%%%%%%%%%%%%%%%%Q%%%%%%%%%%qQq
12875A19QqQqQ%q%%QQq%Qk4QJ6%m8M0q%qQQq%%%Qq%Q%qQ%%q%%Q%qQq%Q%%%%%%%qQ%q%Q%q%
12861A19%%%%%%%Qq%%%%%%%%%%%%%Qq%%%%%%%%%%qQ%%%%%%%%%%%Qq%%%%%%%%Q%%%%%%%%%%
12845A27%q%%%%%%%%%%%%%%%%Qq%%%%%%%%%%%%%%%%%%%Qq%%%%%%%%%%%%%%%%%%%Qq%%%%%%
12829A19%%%%%%%%Qq%%%%%%%%%Qq%q%%J6q%%%%%%%%%%%qQ%q%Q%qQ%%%%%%%%Qq%%%%%%%%%Q
12814A27q%%%%%%%Qq%Qq%%%%%%%Qq%%%%%%%%%%%%%%%%%%%%%%%%%%%%%%%%%%%%%%%%%%%%%%
12799A19%%%qQ%%%%%%%%%%%%%Qq%%%%%%%%%%%%%%%%%%%%%%%%%%%%%%%%%%%%%Q%q%%%%%%%%
12783A19%%%%%%%%%%%Qq%%%%%%%%%%%%%%%%%%%%%%%%%%%%%%%%%%%%%%%%%%%%%qQ%%%%%%%%
12767A19%%%%%%%%%%%qQ%%%%%%%%%%%%Qq%%%%%%Qq%%%%%%%%%%%%%%%%%%%qQ%Qq%%%%%%%%%
12752A19%%%%q%Q%%%%%%%%%%%%%%%%qQ%%%%%%%%%%%%%%%qQ%%%%%%%%%%%%%%%%%%%%%%%%%%
12736A19%%%%%%%%%%%qQ%%%%%%qQ%%%%%qQ%%%%%%%%%%%%%q%Q%%%%%%qQq%Qq%Q%q%QqQL2l2
12721A19j6QQ%%qQ%%qQqQqQ%qQq%%QqQ%%%q%Q%%%%%qQ%%%%%%qQ%%qQ%%%%qQ%%%%%%%Qj6%Q
12706A19qQ%%%%%%q%Q%q%%%Qq%%Q%%%%%%%%%%%%%%%qQ%qQq%%Q%%qQ%qQq%Q%qQ%q%Q%%%%qQ
12691A19%%%%qQ%%%%%%%%%%%%%%%%%qQq%Q%%%%%%%%q%%Q%%qQ%qQqQ%%%qQ%%qQ%%%%%%%%%%
12675A19%%%q%Q%%%q%%%%%Qq%Q%qQq%%%%%%%%Q%qQ%%%%%%%%%%%%%%qQqQqQ%%q%Q%%%%%%%%
12659A19%%%%q%%%%%QqQ%%%%%%%%%%%%%%qQ%%%q%Q%q%%Q%%%q%%QQq%%%%qQq%%%%%%%%%%%Q
12644A19q%Qq%Qq%%%%%%%%Q%q%%Q%qQ%%%%%%%%%q%%%Q%qQ%%qQq%%%QqQ%%%qQ%%%%qQ%qQ%%
12628A19%%%qQ%%%qQq%%Q%q%%%Qq%Qq%Qq%%%Qq%%%QqQq%%Q%%%%%%%%qQq%%%%Qq%%%QqQ%%%
12613A19q%%%%%Q%%%%%%%%%%%q%%%%%Qq%%%%%%%%%%%QqQqQ%q%Qq%QqQqQ%%%%%%%%%q%Qq%%
12597A11%Qq%%%QqQq%Q%q%Qq%Qq%%%Q%qQj6QqJ6Ql2K4Q%qqJ6qq%%QqQq%QqQj6J6%q%%%%%%
12583A11%%%%%%%%%%%%%%%%%%%%%%%%%%%%%Qq%Q%%%%%%%%q%%%%%%Q%q%%%%%%%Qq%%%%%%%%
12568A11%%%%%%%%%%%%%%%%%%%%%%%%%%%%%%%%%%%Qq%%%%%%%%%%%%%%%%%%%%%%%%%%%%qQ%
12552A11%%%%%%%%%%%%%%%%%%Qq%%%%%QqQq%%%%%%%%Q%q%%%%%%%%%%%%%%%%%%%%%%%%%%%%
12536A11%%%%%%%%%%%%%%%%%%%%%%QqQj6J6q%%%QqQq%%%%%%%%%%%%%%qQ%%%%%%%%%%%%%%%
12521A11%%%%%%qJ6q%%%Qq%%%%%Qq%%%Qq%%%%%%%%%%%%%%%%%%%%%%%%%%%%%%%%%%%%%%%%%
12506A11%%%%%%%%%%%%%%%%%%%%%%%%%%%%%%%%%%%%%%%%%%%%%%%%%%%%qQ%%%%%%%%%%%%%%
12490A11%%%%%%%%%%qQqQ%%qQ%%%%%%%%%%%%%%%%%%%%%%%%%%%%%%%%%%%%%%%%%%%%%%%%%%
12475A11%%%%%%%%%%qQqQ%%qQ%%%%%%%%%%%Qq%%%%%%%%%%%%%%%%%%%%%%qQ%%%%qQ%%%%%%%
12459A11qQ%%%%%%%Qq%%%%%%%%%%%%%%%%%%%%%%%%%%%%%%%%%%%%%%%%%qQqQ%%%%%%qQ%qQ%
12444A11q%Q%qQ%qQ%%%%%%qQ%qQ%%%%%%%%%%%%%%%%%%%%%%%%%%%qQ%%%%%%qQ%%%%%%qQq%%
12428A03%%%%Q%%%%%%%%%%%%%%%%%%qQ%%%qQ%q%Q%%%%%%%%%%%%%%%%%%%%%%%%%qQ%q%Q%%%
12413A11%%%%%%%%%q%%Q%%qQ%qQ%%%%%%%qQ%qQ%qQ%%%qQ%%Q%%%%qQqq%Q%%qQ%%%%qQ%%qQ%
12397A11%%%%%%%%%%%%%qQ%%%%%%%%%%%%%%%%%%%%%%%%%%%%%%%%%%%%%%qQqQ%%%%%%%%%%%
12382A11%%%%%%%%%%%%%%%%%%%qQ%%%%%%%%%%%%%%%Qq%%%%%%%%%%%%%qQ%%%%%%%%%qQqQ%%
12366A11%q%Q%%%%%%%%%%qQqQ%qQ%%q%%Qq%%%%%%Qq%%%%%%Q%j6Q%J6q%%%%q%QqQqQ%q%Q%%
12351A11%%%%%%%%%qQqQq%Qq%%QqQqQq%QqQ%qQq%%%%Q%q%%%Q%%qQ%%%%%%%%%%%%%%%%%%%%
12335A11%%q%Qq%%Q%%q%%%QqQ%%%%q%Q%%%qQ%qQq%Q%%%%%qQ%%q%%%%%%%Qq%Qq%Q%qQ%%%%%
12320A11q%%Q%%%q%%%%%%Qq%%%%%%Qq%%%%%%%%%Qq%%Qq%%%%%%%%%%%%%%Q%%%qQ%qQ%qQq%%
12304A03%Qq%Q%%qQ%%%q%QqQ%%%%qQq%%Qq%Q%q%Q%q%%%%%Q%%qQ%%%%%%q%%%%Qq%%Q%q%Qq%
12289A03%Q%qQq%QqQ%q%Q%qQ%%qQ%%%%%q%QqQqQqQq%%QqQ%%q%Q%%%qQ%%%%q%Q%q%Qq%%%%%
12273A03%%%%%%%%%%%%%%%%%%%%%%%%%%%QqQ%%%%q%%%%%%%%Qq%%%Q%%q%%%Qq%QqQq%Qq%%%
12257A03%%%%%%Qq%%%%%Q%q%%%Q%q%%%Qq%%%%%%%%%%%%%%QqQ%q%%%%%%%%%%%%Q%qQqQ%%%%
12242A11%%%%%%%q%%%%QqQq%%%%%%%%%%%%%%%%%%%%%%%%%%%%%%Qq%%%%%%Q%q%Qq%%%%Qq%Q
12226A11%q%Qq%%%%%Q%q%%%%%%%%Qq%%%%%%%%%Q%%qQq%%%%%%%%%%%%%%%%%%%%%%%%%%%%Qq
12211A03%%%%%%Q%%%%%q%%%%%%%%%%%%%%%%%QqQq%%Qq%%%%%%%Qq%%%%%%%%qQ%%%%%%%%%%%
12195A03%%%%Q%%%q%%%%%%%%%%%%%%%%%%%%%%%%%%%Q%qQq%Q%%qQq%%Q%q%%%%%Q%%q%%%%%%
12180A03Q%q%%%%%%Qq%%%%%%%%%%%%%%%%%%%%%%%%%%%%%%Q%qQ%%qQj6Q%%%%%%%%%%%%qQ%%
12164A03%%%Qq%%%%%%%%%%%%%%%%%%%%%%%%%%%%%%%%%%%%%%%%%%%%%%%%%%%%%%%%Qq%%%%%
12149A03%%%%%%%%%%%%%%%%%%%%%%%%%%%%%%%%%%%%%%%%qQ%%%%%%%%%%%%%%Qq%%%%%%%%%%
12133A03%%%%%%%%%%%%%%%%%%%%%%%%%%%%%%%%%%%%%%%%%%%%%%%%%%qQQj6Q%%%%%%%%%%%%
12118A03%%%%%%%%%%%%%%%%%%%%%%%%%%%%%%%%%%%%%%%%%%%%%%%%%%%qQ%qQqQ%%%%%%%%%%
12102A03%%%%%%%%%%qQ%%%%%%%%%%%%%%%%%%%%%%%%%%%%%%%%%%%%%%%%%%%%%%%%%%%%%qQ%
12087A03%%%%%%q%Q%%%%%%%%%%%%%%%%%%%qQ%%%%%%%%%%%%%q%%Q%%%%%%%qQ%%%%%%%%%%%%
12071A03%%%%%%%%q%Q%qQ%qQ%%%%q%%%Q%%%%%%%%%q%Q%%qQ%%%%%%%%%%%%%%%%%%%%%%%%%%
12056A03%%%Qq%%%%%%%%qQ%%%%%qQ%%%%%%%%%%%%%%%Qq%%%%%%qQ%%%%%%%%%%%%%%%%%%%qQ
12040A03%%%%%%%%%%%%%%%q%Q%%%%%%%%qQ%qQ%%%%%%%%%%%%%%%%%%%%%%%%%%%%%%%%%%%%%
12024A03qQ%%%qQ%%%%%%%%%%%%%%%%%%%Qj6QQq%%%%%%%%%%%%%%%%%%%%%%%%%%%%%%%%%%%%
12009A03%%%%%%%%%%%%%%%%%%%%%%%%%Qq%%%%%%%%qQqQ%%%%%%%%%%%%%%%%%%%%%%%%%%%%%
11994A03%%q%%Qq%%Q%%%qQqQq%%%%Q%qQ%%%%%%%%q%Q%%%%%%%%%%%%%%%%%%%%%%%%%%%%%%%
11978A03%%%%%%%%%%%%%%%%%%%%%%%%%%%%%%%%%%%%%%qQ%%%%%%%%%%qQqQ%%%%%qQ%%%%%q%
11962I5QqQ%qQ%%%q%Q%%%%%%%%%%%%qQq%Q%qQ%%%%%%%qQqQ%%%%%%q%Q%%qQ%%%%%q%Q%qQ%%
11947A03%%%%q%%Q%qQqQ%%q%%%QqQ%%%%qQqQqQ%%qQ%q%Q%%%%%q%J6qq%%%%%Qj6QQQj6QQ%q
11932A03%q%%%%%Qq%%%%Q%%%qQ%q%%QqQ%%%%q%%%QqQqQ%%%%%%%%%%%%%%q%QqQ%qQqQq%%Q%
11916A03qQ%%qQ%%%%%%qQq%Q%%q%Qq%QqQ%%q%Q%qQ%qQ%%%qQ%%%%%%%qQ%%%%qQq%%%%%Q%qQ
11901A03q%%%QqQ%%%qQ%%%qQ%%q%%Qq%%QqQ%%q%%%Qq%Qq%%%%Qq%QqQ%%%%qQ%%q%%%%%%Q%%
11885A03q%Q%%%%%%%%qQ%qQ%%%%%%%%%q%%%%Q%qQ%%%%%%%%%%%qQ%%%qQ%q%J6q%k4J6QqQq%
11870I5Q%%%%%%%%%%%%%%%%q%%%Q%%%%%%%%q%Qq%%QqQq%%%Q%q%Q%qQ%%%qQ%%%%%%%%%%%%%
11854A03%%%%qQq%%%%QqQq%Q%%%qQ%qQq%%%Qq%Q%%q%%Qq%%QqQ%%%%%%%%%qQ%q%%Q%%%%%%q
11839I5Q%%%%qQ%qQqQqQqQ%%%%q%%Q%%%%qQ%%%%qQqQq%Q%qQ%%qQqQ%%q%%%%%%%%Q%%%q%Q%
11823A03%qQqQ%%%%%%%qQ%qQ%%%%%%%%q%Q%qQqQq%Q%q%QqQ%%%%qQ%qQqQqQq%QqQq%%Qq%%%
11807I5%%%%%%%QqQ%q%%%Q%qQ%%%qQ%%q%%%%Qq%Qq%%%Q%q%%%%%%%%%%%%%%Qq%%%%%%%%Q%q
11792I5%%%%%%Qq%%%Q%%%q%%%%%%QqQq%%Q%qQ%%%qqJ6%q%%%%Qq%%%%%%%%%%%%%%%%%%%%%%
11776I5%%%%%%%%%%%%%%%%Qq%%%%%%%QqQ%qQqQ%q%%%Q%%qQ%%qQq%%%Q%%%qQ%q%Q%%%%%%q%
11760I5%%%%%%%%%%%%%%Qq%%%%%%Qq%%%%%QqQqQ%qQ%%%%qQqQq%%%%%%%%%%%%%%%%%%%%%%%
11745I5%%%%Qq%%%%%Q%q%Q%q%%Q%q%Qq%Qq%%Q%%%%%%%%%qQ%%%qQ%q%%%%%%%%%QqQ%qQ%qQ%
11729A03qQqQ%qQq%%Q%%qQq%%Q%%qQ%q%%%%%%%%%%%%Qq%%%Qq%%%%%%%%%%%%%%%%%%Q%q%%%
11713I5%%Q%q%QqQ%%q%Q%%%%%qQ%q%%%%%%%%%%Qq%%%%%%%%%%Qq%%%%%%%%%%%%%%%Qq%%QqQ
11697A03%q%%Q%q%Q%%%%%q%%%%%Qq%%%%%%%%%%%%%%%%%%%%%%%%%Qq%%%%%%%%%%%%%%%%%Qq
11682I5QqQq%%%%%%%Qq%%%%Qq%%%Qq%%%%%%%%Qq%%%%%%%%%%%%%%%%%Qq%%Qq%%%%%%%%%%%%
11666I5%%%%%%%%%%%%Qq%Qq%%%%%%%%%%%%%%Qq%%Qq%%%Q%q%QqQq%%QQj6qQ%qqQ%J6j6qJ6%
11651I5%%qQQj6%Q%Q%q%Qq%%%%Q%q%%Q%%q%QqQq%%%QqQq%QqQ%qQ%qQq%%%Qq%Q%qQqQqQq%%
11636I5%%%%%%%%%qQ%%%%%%%%%%%%%%%%%%%%%%%%%%%%%%%%%%%%%%%%%%%%%Q%q%Qq%%%%%%%
11620I5qQ%%%%%%%%%%%%%%%%%%%%%Qq%%%Q%q%%Qq%%%%%Qq%%%%Qq%%%%%%%%%%%%%Q%q%%%%%
11604I5%%%%%%Qq%%%%%%%%%%%%Qq%%%%%%%%%%%%%%%%%%%%%%%%%Qq%%%%%%%%%%%%%%%%%%%%
11588I5%%%%%%%%%%%%%%Qq%%%%%%%%%%qJ6%%%q%%%%%%QqqQ%%%%%%%%%%%%%%Qq%%%%%%%%Qq
11573I5%%%%%%Qq%Qq%%%%%%%%Qq%Q%q%%%%Q%q%%%%%%%%%%%%%%%%%%%%%%%%%%%%%%%%%%%%%
11557I5%%%%%%%%%%%%%%%%%%%%QqQ%q%Qq%%Qq%%Qq%Q%q%%%%%%%%%%%%%Qq%%%%%%%%%%%%%%
11541I5%%%%%%%%%%%%%%%%%%%%%%%%%%%qJ6q%%%%%%%%%%%%%%%%%%%%%%%%%%%qQ%%%%%%%%%
11525I5%%%qQ%%%QqQq%%%%%%%%%%%%%%%%%%%%%%%Qq%%%%%%%%%%%%Qq%%%%%%%%%%%%%%%%%%
11510I5%%%%%%%%%%%%%%%%%%%%%%%%%%%%%%%%%%%Qq%%%%%%%%%%%%%%%%%%%%%%%%%%%%%Q%q
11494I5%%%%%%%%%%%%%%%%%%%%%%%%%%%%%%%%%%%%%%%%%%%%%%%%%%%%%%%%%%Qq%%%%Qq%Qq
11478I5%%%%%%QqQq%%%%%%%%%%%%%%%%%%%%%%%%%%%%%%%%%%%%qQ%%%%Qq%%qQ%Qq%%Q%qQq%
11462I5Qq%Qq%%%%%%%%%%%%%%%%%%%%%%%%%%%%%%%%%%%%%%%%%%%%%%%%%%%%%%%%%%%%%%%q
11447H7Q%%%%%%qQ%%%%%%%%%Qq%%%%%%%qQ%%%%%%%%%%%%%%%%%%%%%%%%%%%qQ%%%%qQqQqQ%
11431I5%qQ%%%%%%%%%%%%%%%%%%%%%%%%%%%%%%%%%%%%%%%%%%qQ%%%%qQQqQ%Qj6%%Q%%qQq%
11415I5%%%%%%%%%%%%%%%%%%%%%%%%%%%%%%%%Qq%%%%qQ%%%%%%Qq%%%qQ%qQ%%%%%%%qQ%%%q
11399H7Q%%%%%%%%%%%%%%%%%%%%%%%%%%%%%%%%%%%%%%%%%%%%%%%%%%%%%%%%%%%%%%%%%%%%
11384I5%%%%%%%%%%%%%%%%%%%%%%%%%%%%qQ%%%%%%%Qq%%%%%%%%%%%%%%%%%%%%%%%%%%%%%%
11368I5%%%%%%%%%%%%%%%%%%%%%%%%%%%%%%%%%%%%Qq%%%%%%%%%%%%%%%%%%%%%%%%%%%%%%%
11352I5%%%%%%%%%%%%%%%%%qQqQ%%%%qQ%%%%%%%%%%%%%%%Qq%%%%%%%%%%%%%%Qq%%%%%%%%q
11336H7Q%%%%%%%%%%%%%%qQ%%%%%%%%qQ%Qq%%%%%%%%%%%%%%%%%%%%%%%%%%%%qQ%%%%qQ%%%
11320I5%%%%qQ%%%%%%%%%%%%%qQqQ%Qq%%%%%%%%%%%%%%%%%%%%%%%%%%%%%%%%%%%%%%%%%%%
11305I5%%qQ%%%%%%qQ%%%%%%%%%%%%%%%%%%%%%%%%%%%%%%%%%%%%%%%%%%%%%qQ%%%%%%%%%%
11289I5%%%%%%%%%%%%qQqQ%%%%%%%%%%%%%%%%%%%%%%%%%%%%%%%%%%%%%%%%%%%%%%%%%%%%%
11273I5%%%%%%%%%%%%%%%%%%%%%qQ%%%%%%%%%%%%%%%%%%%%%%%%%%%%qQ%%%%qQ%%%%%%%%%%
11257I5%%qQ%%%%%%%%%%%%%%%%%%%%%%%%%%%%%%%%%%%%%%%%%%%%%%%%%%%%%qQ%%%%%%qQ%%
11241I5%%%%%%%%%%%%%%%%%%%%%%%%%%%%%%%%%%%%%%%%%%%%%q%%QqQQq%%%Qq%%%%%%qQ%%%
11226I5%%%%%%%%%%%qQ%%%%%%%%%%%%%%%%qQ%%%%%%%%qQ%%%q%%%QqQqQqQ%%%q%%%Qq%Q%%%
11210I5%%%%%%%%%%%%%%%%%%%%%%%%%%%%%%%%%%%%%%%%%%%%%%%%%%%Qq%Qq%%QqQq%%%%%%%
11194I5Qq%%%%%%%%qQ%%%%%%%%%qQ%%%%%%%%%%%%%%%qQqqQ%%%Qj6Q%QqQ%q%Qq%QqQ%%%%qQ
11179I5%qQ%%qQ%%%%%%%qQ%%%%%%%%%qQ%qQq%%%Q%%%q%%QqQq%Q%%qQ%qQ%%%%%%%qQ%%%%%%
11163I5%%%%%%%%%%%%%%%%%%%%%%%%%%%%%%%%%%%%%%%%%%Qq%%%%%%%%%%%%%%%%%%%%%%%%%
11147I5%%%%%%%%%%%%%%%%%%%qQ%%%%%%%%%%%%q%Q%%%q%Qq%Q%%%%%%%%%%%%%%%%%%%%%%%%
11131I5%%qQ%qQqQ%%%%%%%%%%%%%%%%%qQq%Q%%%%%%q%Q%%%%%%%%%%%%%%%%%%%%%%%%%%%%%
11115I5qQ%%%qQ%qQQj6Q%%%qQQq%%%qQqQ%%%%%%%%%%q%%%Q%%%%%%%%%%%%%%%%%%%%%%%%%%
11100I5%%%%%%%%%%%%%%%%%qQqQqQq%%%%%Q%%%%qQ%%%%%%%%%%%%%%%%%%%%%%%%qQ%qQ%%qQ
11084I5%%%%%%%%qQ%%%%%%%Qq%%%%%%%%%%qQ%%%%%qQ%qQ%qQq%Q%q%Q%qQ%%%%%%%%%%%%%%%
11068I5%%%%%qQq%J6q%%%qQ%%%%%%%%%%%%%%%%%%%%%%%%%%%%%%%%%%%%%%%%q%%QqQ%%%qQ%
11053I5%%%%%%%%%qQ%%qQ%%qQ%%%%%%%%%%%%%%%%%%%%%%%%%%%%%%%%%qQ%%%%%%%%%%%%%%%
11037I5%%%%%%%%%%%%q%Q%%%%%%%%%%%%%qQ%%%qQ%%%%%%%%%%%%%%%%%%%%%%%%%qQ%%%%qQ%
11021I5%%%%qQqQ%%%%%%%qQ%%%%%%%%qQ%%%%%%%%%%%QqQq%%%%%qQ%%%q%Q%%%qQq%Q%%%%%%
11005I5%%q%Q%qQ%%QqqQQj6%%QqQ%q%Q%Qj6Q%%j6J6qJ6k4K4n6Q8k4j6qj6J6J6%Ql2K4%qQk4
10993G9J6Qj6%%QQj6QqQq%%Qq%Q%%%%qQq%Q%q%%Qq%%Qq%%%QqQq%%%Q%q%QqQqQqQ%%%%%%%%
10978I5%%qQ%%%qQ%%%%qQ%%%%%%%%%%%%%%%%%%%qQ%%%qQ%q%%Q%%%%%qQ%%%%%%%%%%%%%%%%
10962I5%%%%%%%q%Q%%%q%QqQq%%%QqQ%%%%%%%%%%%%q%QqQ%%%%qQqQqQqQqQ%%qJ6j6Q%%%%%
10947I5%q%%QqQ%qQ%%%%%%%%%%%%%q%%Q%%%%%%%qQ%qQ%%q%Q%%%%%qQ%qQ%qQ%q%Q%%%%%%%%
10931I5%%%%%%%%%%%%%qQqQ%%%qQ%%%%%%%%%%%%%%%%%%%%%%%%qQqQ%%qQ%%%%%%%%%%%%%%%
10915I5%%%%%%%%%%%%%%%%%%%%%%%%qQ%%qQ%%%qQ%%qQq%%%%%Q%%%%%%%%%%%%%%%qQ%qQqQ%
10900I5%%%%%qQ%%%%q%%%%Qq%%Q%qQq%QqQ%qQ%%%%%%%qQ%%%%%%%%%%%%%q%%%%%%%Qq%%Qq%
10884H7QqQ%qQqQqQ%%%%%qQ%%%%%%q%Q%%%%%%%%%qQ%%%%%%%%%%%%%%%%%%%%%%%%%%%%%%%%
10868I5%%%%%%%%%%%%%%%%%%%%%%%%%%%qQqQ%%%%%%%%%%%%qQ%%qQqQ%qQ%%%%%%%%%%%%%%%
10852I5%%%%%%q%Q%%%%%%%%qQ%Qj6QqQQqJ6j6Qj6Q%qQ%%%q%%Q%%%qQ%%%%%%%%%%%%%%%%%%
10837I5%%%%%%%%%%%%q%Q%%%%%%qQ%%q%Q%q%Q%qQ%%%%%%%%%%%%q%%%Q%qQ%%%qQ%q%%%%%%%
10821H7%%Q%%q%Q%%%%q%%Q%%qQq%%%%%%%Qq%%%Q%%qQ%%%%%%%%%%%%%%%%%%%%%%%%%q%QqQq
10806H7Q%%q%%Qq%QqQ%qQ%%%%%%%%%%%%%%%%%%%%%%%%qQ%%%%%%%%%%%%%%%%%%%%%%%qQ%%q
10790H7Q%%%qQ%%%qQ%%%%%%%%%%%%%%%%%%%%%%%%%%%qQ%%qQ%%q%Q%%q%%%%%%Qq%Qq%%QqQq
10774H7%%%%%%Q%%%%%%%%%qQqQqQ%qQ%qQ%q%QqQ%qQqQ%%%%%%%%%%qQq%J6qq%%Q%%%%%%%%q
10759H7Q%%%q%QqQ%%%qQ%%%%%%%%qQq%%Qq%Q%%q%Qq%%%Q%%%%%%%%%%%%%%%%%%%%%%%%%%%%
10743I5%%%%%%%%qQ%%%%qQ%%%%qQq%%%Q%qQq%%%%%%%%%%%%%%Qq%%%Qq%Q%%qQq%Qq%%Q%%%%
10727I5%%%%%%%%%%%%%%%%%%%%%%%%qQ%%%%%%%%%%%qQ%%%q%Q%%%%qQ%j6J6Qq%%%qQq%%%%%
10712H7%Q%q%%%Qq%%QqQ%%%qQ%%%%%%%%%%%%%qQ%%%%%q%Q%qQ%qQ%qQ%qQ%%%qQ%%%%%%%%%%
10696I5%%%%%%%%%%qQqQ%qQ%%%%%%%%%%%%%%%%%%%%qQ%qQ%%%%%q%Q%%qQ%q%Q%%%%%q%Q%%%
10680I5%%%%%%%%%%%%%%%%%%%%%qQ%%%%%%%%%%qQ%%%qQq%%Qq%%%QqQ%%%%%%%%%%%q%Q%%qQ
10664I5%%%%%%%%%%%%%%%%%%%%%%%%qQ%%%%%%%%%%%%%%%%%%%%%%%%%%%%%%%%qQ%%%%%%%%%
10648I5%%%%%%%%%%%%%%%%qQ%%qQ%%qQ%%%%qQqQq%Q%%%%%%%%%%%%%%qQ%%qQ%%%%%%%%%%%q
10633H7%Q%%qQqQq%%QqQ%q%%QqQq%Q%%qQqQ%%%%%%%%%%qQ%%%%%%%%%%%%%%%%%%qQ%%%%%%q
10617H7Q%%%%%%%%q%%Q%q%%Qq%QqQq%%%Qq%%%%QqQqQ%%%%%%qQ%%%%%%%%%%Qq%Qq%%%%%%%%
10601I5qQ%%%%qQqQ%qQ%q%J6q%%%q%%Q%q%QqQ%%qQ%%%%%%qQ%%%%%%%%%%%%qQ%qQ%%qQ%%%%
10585I5%%%%%%%%%%%%%qQ%%%%qQ%%%%%q%Q%%q%Q%%qQ%%%%%%%%%%%%%%%%%%%%%qQqQqQ%%%q
10570H7QqQq%%%%Qq%%%%%Q%%%%%%qQ%%%%%%%%%%%%%%%%%%%%%%%%q%Q%%%%%%%q%Q%%q%Qq%Q
10554I5%q%%%Q%%qQ%%%q%Q%qQ%%%qQ%%%%%%qQqQ%qQ%%%%%%%%%%%%%%%%%%%%%%%%%%qQ%%%%
10538I5%%%%%%%%%qQ%%%%qQ%%%%%%%%%%%%%%%%%%%qQ%Qq%Qj6Q%Q%qq%%J6q%%%qQ%%%%%%qQ
10523I5%%%%%%%%%%%%%%%%%qQq%%Qq%%QqQ%%qQ%%%%%%%%%%%%%%%%%qQ%qQ%%%%%%%%%%%%%%
10507I5%%%%%%qQ%%%qQqQ%qQ%%%%%%%%%%%%%%%%%%%%%%qQ%%qQ%%%%Qq%%Qq%%%%%%qQ%%%%%
10491I5%%%%%%%%%%%%%%%qQ%%qQ%%%qQ%%%qQ%%%%%%%%%%%%q%Q%qQ%qQqQ%q%Q%%%%%%qQ%%q
10475H7QqQ%%qQ%%%%%%%qQ%%%%%%%q%%%Qq%qQ%QqJ6k4QqQQ%j6J6j6QQqQq%%%%Qq%%QqQ%%q
10461H7Q%q%Q%%%%%%q%QqQq%Q%%qQ%%%q%Q%%%%%%%%%%%%%qQ%%%%%%%%%%%%%qQ%%%%%%%%qQ
10445I5%%%qQqQqQ%%qQ%%q%Q%%q%QqQ%q%Q%%%%%qQ%qQqQ%%%%%%%%%%%%%%qQ%%%%%%%%%%%%
10429I5%q%%%%%Q%%%%qQ%q%%Qq%%%Q%%%%%qQ%%%qQ%%%qQ%%q%%%Q%%%%%%%%%%%%%%%%%%%%%
10413I5%qQqQ%qQ%qQ%j6J6%%%%%%%%%qQqQq%QqQ%q%Q%qQ%%%%%%%%%%%%%q%%%Qq%Q%q%Q%%%
10398I5%%%%%%qQ%%%qQ%qQ%%%%%%%%%%qQ%%%%%%%%%%%%%%%%%%%%q%Q%%%%%%%%%%%%%qQ%%%
10382I5q%Q%%%%%qQ%%%%%%%Qq%%Qj6Q%%%%%%%%%%%%%%qQ%%%%%%%%%%%%%%%%%%%%%%%%%%%q
10367H7%Qq%%Q%%%%qQqQ%qQ%q%%Q%%qQqQ%%%qQ%%qQ%%%%%qQ%%%%%%%%%%%%%%qQ%%%%%%%q%
10351H7Q%%%qQ%%qQ%%%%%%%Qq%%%qQ%%%%%%%%%%%%%%qQ%%%%%%%q%%%%Qq%%Qq%%Qq%%Qq%Q%
10335I5%%%%%%%%%%%%%%%%%%%%%%%%qQ%%%%%%%%%%%%%%%%%%%%%%%%%q%%%%%%Qq%Q%%qQ%%%
10319I5%%%qQ%%%qQ%%%%%%%%%%%%%%%%%%%%%qQ%%%%qQ%%%%%%%%%%%%%%%%%%%%%%%%qQ%%%%
10303I5%%%%q%Q%%%%%%%qQq%QqQ%%%%%%%%%%%%%%%q%Q%%%%qQqJ6q%%%%%qQ%%%%%%%%%%%%%
10288I5%%%%%%%%%%%%%%%%%%qQq%Q%%%%%%%%%%%%%%%%%%%%%%qQ%%%%%%%%%%%%qQ%%%%%%%%
10272I5%%%%%%%%%%%%%%%%%%%q%Q%%qQ%qQ%%%%%%%%%qQ%%%%%%%%%%%%%%%%%%%%%%%%qQ%%%
10256I5%%%%%%%%q%%QqQ%%%%%%%%%%%%%%%%%%%%%%%%%%%%%qJ6q%Qq%qQ%%%%%%%%%%qQ%%qQ
10241I5%%%%%%%qQ%%qQ%%%%%%%%%%%%%Qq%%%%%%%%%%%%%q%Q%%%%%%%%%%%%%qQ%%%%%%qQ%%
10225I5%%%%%%%%%%%%%%%%%%%%%%%%%%%%%%%%%%%%%%qQ%%%%%qQ%%%%%%%%%%%%%%%%%%%%%%
10209I5%%%%%%%%%%%%%%%%%qQ%%%%%qQ%%%%%%%%%%%%%%%%%%%%%%%%%%%%%%%%%%%%%%%%%%%
10193I5%%%%%%%%%%%%%%%%%%%%%%%%%%%%%%%%%%%%Qq%%%%%%%%%%%%%%%%%%%%%%%%%%%%%qQ
10178I5%%%%%%%%qQqQ%%qQq%Q%Qj6Q%%%qQ%%%%%%%%%%%%%%%%%%%qQ%%%%%%%%%%%%%%%%%%%
10162I5%%%%%%%%%%%%%%%%%q%Q%%qQ%%%%qQ%%%%%%%%%%%%%qQ%%%%%%%%%%%%%%%qQ%%%%%%q
10146H7Q%%%%%%%%%%%%Qq%qQ%qQ%%%%%%%%%%%Qq%%%%%%%%%%%%%%%%%qQ%%%%%%%%%%%%%qQ%
10130I5%%q%QqQ%%%%%qQqQqQ%q%QqQ%%%%%%%%%%%%%%%%%%%%%%%%%%%%%%%Qq%qQ%%%%%%%%%
10115I5%%qQ%%%%%%%%%%%%%%%%%%%%%%%%%%qQ%%%%%%%%%%%%%%%%%%%%%%%%%%%%%%%%%%%%%
10099I5%%%%%%%%%%%%Qq%%%%%qQ%%%%%%%%%%%%%%%%%%%%%%%%%%%%%%%%%%%%%%%%%%%%%%%%
10083I5%%%%%%%%%%%%%qQ%%%%%%%%%%%%%%%%%%%%%%%%%%%%%%%%%%%%%%%%%%%%%%%Qq%%%%%
10067I5%%%%%%%%%%%%%%qQ%qQ%qQqQ%%%%%%Q%q%j6K4%J6l2J6q%%%%%%%%%%%%%%%%%%%%%%%
10053I5%%%%%%%%%q%Q%%%%%%%%%%%%%%%%%%%%%%%%%%%%%%%%%%%%%%%%%%%qQ%%%%%%qQ%%qQ
10037I5%%%%%%%%%%%%%%%%%%%%%%Qq%%%%%%%%%%%%%%%%%%%%%%%%qQ%%%%%%%%%%%%%%%%%%%
10021I5%%%%%%%%%%%qQ%%qQ%%%%%%%%%%%%%%%qQ%%%%%%%%%%QqQ%q%%%%%%%%%%%%%%%%%%%%
10005I5%%%%%%%q%%Q%%%%%%qQ%Qq%%Qq%%%%%%%%%%Qq%%%%%%%%%%%%%%%%%%%%%%%%%%%%%%%
9989I5%%%%%%%%%%%%%%%%%%%%%%%%%%%%%%%%Qq%%%%%%%%%%%%%%%%%%%%%%%%%%%%%%%%%%%%
9973I5%%%%%qQqQ%qQ%%%%%%%%%%%%%q%Q%%%%%%%%%%%%%%%%%%%%%%%%%%%%%%%%%%%%%%%%%%
9957I5%%%%%%%%Q%q%%%%%%%Qq%%%%%%%%%%%%%%%%%%%%%%%%%%%%%%%%%%%%%%%%%%%%%%%%%q
9941H7Q%%%qQ%Qq%%%%%%%%qQ%%%%%%%%%%Qq%%%%%Qq%Q%q%Qq%Qq%%%%%%%%%%%%%qQ%%qQ%%%
9925I5%%%%%%%%%%%%%%qQ%%%%%%%%%%%%%%%%%%%%%%%%%%%Qq%%%%%%%%%%%%%%%qQ%%%QqqQq
9909H7Q%%Qq%%q%QqQ%%%%%%%%%%%%qQ%%%%%%%%%%%%%%%%Qq%%%%%%%%%%%%%%%%%%qJ6j6Q%q
9894H7QQqQq%%%qQ%%%%%%%%%%%%%%%%%%%%%%%%%%%%%%%%%%%%%%%%%%%%%%%%%%%%%%%%%%qQ
9878I5%%%%%%%%%%%%%%%%%%%Qq%%%%%%%%%%%%%%%%%%%%%%Qq%%%%%%%%%%%%%%%%%%%%%%%%%
9862I5%%%Qq%%%%%%%%%%%%%%%%%%%%%%%%%%%%qQ%%%%%%%%%%%%%%%%%%%%%%%%%%%%%%%%%%%
9846I5%%%%%%%%Qq%%Qq%%%%%%%%%%Qq%%%%%%%%%%%%%%%qQ%%%%%%%%%%%%%%%%%%%%%%%%%%%
9830I5%%%%%%%%%%%%%%%%%%qQ%QqQqqQ%%qQ%%%%%Q%%q%Qq%%%%Qq%%%%%%%%%%%%%%%%%%%%%
9814I5%%%%%%%%%%%%%%%%%Qq%%%%%%%%Qq%%QqQqQq%%%%%%Qq%Q%%q%%%%%%%%%%%%%%%%%%%%
9798I5%%Qq%Qq%%%%%%%%Qq%%%%%%%Qq%Qq%%%%%%%%%%%Qq%%%%%%%%%%%%%%%Qq%%QqQq%%%%%
9782I5%%Qq%%%Qq%Q%qj6J6Qj6J6J6j6qK4k4m8N6K4ql2J6qQq%%%%QqQq%Qq%%%%QqQ%q%%%%%
9769I5%%%%%Q%%%qQqQ%qQq%Qq%%Qq%%%%QqQq%%%%Qq%%%%%%%%%Qq%%%%%%%%%%%%%%%%%%%%%
9753I5%%%%QqQq%%%%Qq%%%%%Q%q%%%%%%%%Qq%%%%%%%%%%%%%%%%%%%%%%%%%%%%QqQ%q%%Qq%
9737I5%%%%%%%%%%%%%%%%%%%%%%%%%%%%%%%%%%%%%%%%%%%%%%%%%%%%%%%%%%Qq%%Qq%Qq%%%
9721I5%%%Qq%%%qQ%%%%%%%%%%%%%%%%%%%%%%%%%%%%%%%%%%%%%%Qq%%%%%%QqqQ%%%Qj6QQq%
9705I5qK4j6J6k4J6Qq%j6QQq%%QqQqQ%q%Q%%qQq%%%Qq%QqQ%%%%%q%%%%%%%Qq%%%%%%%QqQq
9690I5%Qq%%%%%%%%%%%%%%%%QqQq%Qq%%%%%%%Q%q%%%%%%%%%%%%%%%%%%%%%%%%Qq%%%%%%%%
9674I5Qq%%%%%%%%%%%%%%%%%%%%%%%%%%%%%%%%%%%Qq%%%%%%%%%%%%%%%%QqQq%Q%%qQ%%q%%
9658I5%%%QqQ%%%qQ%%q%%Q%q%Q%q%%Qq%%%%%%%%%Q%%qQ%q%Qq%QqQqQq%Q%%%%%%qQ%qQ%%%%
9642A03%%%q%Q%%%%%qQq%%Q%q%%%%%%%%%%%%%%%%%%%%%%%%%%%%%%%%QqQq%%%%Qq%%Qq%%%%
9626I5%%%%%%%%%%%%%%%%%%%%%%%%%%QqQqQq%%%%%%%%%%%%Qq%%%%%%Qq%Q%%%qQqQqQqQqQ%
9610A03%q%Q%%q%%%Qq%%%%%%Qq%%%%%%%%%%%%%%%%%%%%%%%%%%%%%%%%%%%%Qq%%%%%%Qq%%%
9594I5%%%%%%%%%%%Qq%%Qj6QqQQk4J6QqQ%qQ%q%Qq%%%%%Qq%QqQq%Q%%q%%QqQ%%qQqQq%Qq%
9579I5Q%%%qQ%%%%%%%%%%%%%%%qQ%%%%%q%%%%%%%Qq%%Qq%%%%%%%%%Qq%%Q%%%%%qQ%qQqQq%
9563I5%Qq%Q%q%QqQq%%%%%Q%%qQq%%%%Qq%%%%%%%%Q%q%%Q%%qQ%qQ%%q%QqQqQqQ%q%%Qq%%Q
9547A03%%q%Q%%%%%%%q%%Qq%%%%Q%%q%%%%Qq%%%Qq%%%%%%%Qq%%%%%%%%%%%%%%%QqQ%qQ%%%
9531A03qQq%%%%QqQq%J6qqJ6q%q%%Q%qQqQ%%%%%%%%%%q%Q%%%qQ%%q%%%%QqQqQqQ%%qQqQ%%
9516A03%%qQqQ%%qQqQ%qQ%%%q%%Qq%%%%%%%%%%Qq%Q%%%%%%%%%%%%%%%%%%%%%q%Qq%%%%%%%
9500I5%%%%%%%%%%%%%%%%Q%%qQ%%%%qQ%%%%%%%qQ%%qQqQq%%%%Qq%%%Qq%Q%qQ%qQq%%%%%%%
9484I5%Q%%%%%%qQ%%%qQ%%%%%%%%%%%%%%%%%qQ%%%q%%%%%%%%%QqQqQ%%qQqQ%%%qQq%%Qq%Q
9468A03%q%Qq%%%Q%qQqQ%%qQ%q%Qq%%%Qq%Q%%%%%%%%%%%%%%%qQ%%%%%qQqQ%%%%%q%Q%%%%%
9452A03%%%%%%%qQq%Q%%%%%%%%%%%%%%%%%%%%%%q%Q%%%%%%%%%%qQ%%qQq%%%Q%%%%%%%%%%%
9436A03%%%%%qQ%%%qQ%%%%%%%%qQ%%%%%%%%%qQq%%Q%%%%%%%qQq%QQj6Qq%%%%%%Q%%%%%qQq
9421I5Q%%%%qQ%%%%%%q%%Qq%%%Q%%%%%q%Q%q%%Qq%Qq%Q%qQ%qQ%%%%%qQ%q%Q%%%%%%%%%%%%
9405A03%%%%%%%%%%%%%%%%%q%%Q%%%%%%%%%%%%%%qQ%%%%%%qQ%%%%%%q%Qq%%%%%%%%%%Q%q%
9389I5%Qq%%%%%%%%%%%%%%%Q%%%%%%%%%qQ%q%QqQqQ%%qQ%%%%%%qQqQ%%%%%%%%%%%%%%%%%%
9373A03%%%%%%%%%%%%%%%%%%%%%%%Qq%%%%%%%%%%%%%%%%%%%%%%%%%%%%%%%%%qQ%%%qQ%%%%
9357A03%%%%qQ%qQ%qQ%%%%qQqQqQ%%%%%%%%%%q%%Q%q%Q%q%%%%%%%%QqQq%Q%qQqQqQ%%%%%%
9342A03qQ%qQ%%q%QqQ%%%qQ%qQ%qQqQqQqQ%%%qQ%q%Q%q%%%%QqQ%%%%%%%%%%%%%%%%%%%qQ%
9326A03%%%%%%%%%Qq%QqqQ%%%%%%%%%%%%%%%%%%%%%%%%%%%%%%%%%%%%Qq%%%%%%%qQ%%%qQ%
9310A03%Qqq%%J6qqQ%%qQQq%%%%%%%%%%qQ%%%%%%qQ%%%%%q%%%QqQqQ%qQ%q%Q%%qQ%%%%%%%
9294A03%%%%%%%%%%%%%%%%%%%%%%%%%%%%%%%%%qQ%%%%%%%%%%%%%%%%%%qQqQ%%%%%%%%%%%%
9279A03%%%%%%%%%%%%%%%%%%%%%%%%%%%%%%%%%%%%%%%%%%%%%%%%%%%%%%qQ%%%%%%%Qq%%%%
9263A03%%%%%%qQ%%%%%%%%%%%%%%%%%%%%%%%%%%%%%%%%%%%%%%%%%%%%%%%%qQ%%%%%%%%%%%
9247A03%%%%%%%%%%%%%%%%%%%%%%%%%%%%%%%%%%%%qQ%%qQQq%%%%%qQqQ%%%%qQ%%%%%%%%%%
9231A03qQ%%%%%%%%%%%%%%%%%%%%%%%%%%%%%%%Q%q%%%%%%%%%%%%qQ%%%%%%%%%%%%%Qq%%%%
9215A03%%%%%%%%%%%%%%%%%%%%%%%%%%%%%%%%%%%%%%%%%qQ%%%%%%%%%%%%%%%%%%%%%%%%%%
9200A03%%%%%%%%%%%%%%%%%%%%%%%%%%%%%%%%%%%%Q%q%%%Q%q%%%%%%%%%%%%%%%%%%%%%%%%
9184A03%%%%%%%%%%%%%%%%%Qq%%%%qQ%%qQ%%qQ%%%%%qQ%%%%%%%%%%%%%%%%%%%%%%%%%%%%%
9168A03%%%%%%%%%%%%%%%%%%%%%%%%%%%%%%%%%%%%%%%%%%%%%%%%%%%%%%%%%%%%%%%%%%%%%
9152A03%%%%%%%%%%%%%%%%%%%%%%%%%%%%%%%%%%%%%%%%%%%%%%%qQqQ%%%%%%%%%%%%%%%%%%
9136A03%%%%%%%%Qq%%%%%%%Qq%%%%%%Qq%%%%%%%%Qq%%%%%%%%%%%qQ%%%qJ6qQ%%q%Qj6QqJ6
9121A11j6J6%qqJ6q%Qj6J6qqQqJ6q%%%%%%%%%%%%%%%%%%%%%%%%%%%%%%%%%%%%%%%%%%%%%%
9107A03%%%%%%%%%%%%%%%%%%%%%%%%%%%%%%%%%%%%%%%%%%%%%%%%%%Qq%%%%%%%%%%%%%%%Qq
9091A03%%%%%%Qq%%%%Q%qQq%%%%%%%Qq%%%%%%%%%%%%Qq%%Qq%Qq%%Qq%QqQqQ%%qQq%%%%%%Q
9075A11q%QqQ%qQq%%q%Q%%%%%%%%%%%%%%%%%%%%%%%Qq%%%Qq%Qq%%%%%%QqQ%%%q%%%Qq%%%%
9060A03%qQQq%QqQ%%%q%QqQq%%%%%%%%%%%%%%%%%%%%%%%%Qq%%%Qq%%Qq%%%Q%q%%Q%qQqQqQ
9044A11q%%%%Qq%%%%%%%%%Qq%Qq%Qq%%%%%%Qq%%%%%%%%%%%Qq%%%%Qq%%%%%%%%%%%%%%Qq%Q
9028A11q%Qq%%QqQqQ%%%%%%%%%%%%q%Q%qQqQ%%%%%%%qQ%%%%qQ%q%Qq%%%%%Qq%%Q%%%%%%%q
9012A03Q%qQq%Qq%%%%%%%%%%Q%%%%%%%%%%%%%%q%QqQq%QqQ%%%qQqQqQ%qQq%Q%%%qQqQqQ%q
8996A03%Qq%QqQ%%qQ%%qQ%q%%%%%%%%%%%%Qq%%%%%%%Q%qQq%%%%Qq%Q%%%qQq%Q%%%%%qQ%%%
8981A11%%qQq%%Qq%%%%QqQ%q%%Q%qQqQ%q%Qj6J6%qqQ%Qj6K4%k4J6%%Qj6%Qq%%%%%%%%%%%%
8966A03%%%%Q%q%Q%qQ%%%%%%%%q%Q%q%%%%%%%%%Q%qQq%%Qq%%%%%%%%%%%%%%%Qq%Q%%qQqQq
8951A03%Q%%%%%qQ%qQqQ%%qQ%qQ%%qQ%%%%%qQqQq%Qq%%%%%Q%q%%Qq%Q%qQ%%qQ%%q%Q%%%%%
8935A11%%qQqQ%%%qQ%q%Q%%qQ%q%%%Qq%Q%q%Q%%qQ%qQqQqQ%%qQ%%%qQq%%%QqQq%%%%%%%%%
8919A03%%%%%%%%%%QqQ%%%qQq%Qq%Qq%%%%%%Qq%%%Q%%%qQ%%%%%%%%%%%%%qQqQqQ%qQqQ%%%
8903A11%%%%%%%%%%%%%q%%%%%%QqQqQq%%Q%qQq%Q%q%%%%Q%%%%%%%%%%%qQ%%%q%%Q%%q%Q%%
8887A11QqqQ%%%Qq%%%%%%%%%q%%Q%%%%%%%%%%%%%%%qQ%%%%%%%%%%%%%%%%%%%%qQ%%%%%%%%
8872A11qQ%%%%%%%%q%Qq%Q%%qQqQ%qQ%qQ%q%%Qq%%%QqQ%%qQq%%%%Q%q%Q%%%%%qQ%%%%%%%q
8856A03%Q%qQ%%%%%qQ%%%%%%%%%%%%%%%%%%%%%%%%%%%%%qQ%%qQ%qQ%%qQ%%qQ%%%%%%Q%%qq
8840A03J6qQQj6%%%Q%q%%%%qQ%%%qQ%%%%%%%%%%%%%%%%%%qQqQ%%%%%q%QqQ%qQ%qQ%%%%%%%
8825A11Qq%%%%%%%%%%%%%%%%%%%%%%q%%%Q%%%qQ%%%%%%%%%qQ%qQqQ%%qQ%%%%qQ%%%%%%qQ%
8809A11%%%%%%%%%%%%%%%%%%%%%%qQ%%%%%%%%%%%%%%%%%%%%%%%%%%%%%%%%%%%%%%%%%%%%%
8793A11%%qQ%%%%%%%%%%%%%%%%%%%%%%qQ%%%%%%%%%%%%%%%%%qQ%%qQ%%%%%%%%%%%%%%%%qQ
8777A11%qQ%%%%%%%%%%%%%%%%%%%%%%%%%%%%%qQ%%%%%%%%%%%qQQqQq%%q%%%Q%%%%%%%%%%%
8762A11%%%%%%%%%%%%%%%%%%%%%%%%%%%%%%%%%%%%%%%%%%%%%qQ%%%%%%%%%%%%%%%%%%%%%%
8746A11%%%%%%%%%%%%%%%%%%%%%%%%%%%%%%%%%%%QqqQ%%%qJ6q%%%%%%%%%%%%%%%%%%%%%%%
8730A11%%%%%%%%%%%%%%%%%%%%%%%%%%%%%%%%Qq%%%%%%%%qQ%%%qQ%%%%%%%%%%%%%%%%%%%%
8714A11%%%%%%%%%%%%%%%%%%%%%%%%%%%%%%%%%%%qQ%%%%%%%%%%%%%%%QqQq%%%%%%%%%%%%%
8699A11%%%%%%%%%%%%%%%%%%%%%%%%%QqQqQq%%%%%%%%%%%%%%%%%%%%%%%%Qq%Q%qQqQq%Q%q
8683A11%%Qq%%%%%%%%%%%%%%%%%%%%%%%%%%%%%%%%%%%%%%%%%%%%%%%%Qq%%%%%%%%%%%%%%%
8667A11%Qq%QqQq%%%%%%%qQ%%%qQ%%%%%%%%%Qq%%%%%%%%%%%%%%%%%%%Qq%%%Qq%qK4k4Qj6J6
8652A11q%Q%%Qq%Q%qQ%q%Qq%%%Qq%%%%%%%%%%%%%%%%Qq%%%%%%%%%%%%%%%%%%%%%Q%%qQ%qQ
8636A19q%%%%%%%%%%%%Qq%%%%%%%%Qq%%%%%%QqQ%%q%%QqQqQq%%%%%%%%%%%Qq%%%%%%%%%Qq
8620A11%Q%q%Qq%%%%Q%%q%%Qq%%%%%%%%Qq%Qq%Qq%%%%%%%%%%Q%qQ%%%q%%Qq%%%%%Q%q%QqQ
8605A19q%%%%QqQ%q%QqQ%%q%%QqQq%%%%%%%%%Qq%QqQq%%%%%%%%%%%QqQqQqQj6K4j6Qj6QQq
8590A11J6qQq%%%%qQ%%%qQ%%q%Qq%%Q%%%qQ%%%%%%qQ%qQq%%%Qq%%%Q%qQ%qQqQ%%%q%%%Qq%
8574A11%Qq%%Q%%%%qQ%%q%%%%%%%%%%%%%%Q%qQ%qQ%%qQqQq%Q%%%%%%%%%%%qQ%qQqQ%%%%%%
8558A19%q%Qq%%%QqQ%%%%%%%%%%%%%%qQ%%%%%%%qQqQqQ%%%%qQqQ%%%qQ%q%QqQq%Q%qQ%%%%
8542A19%%qQ%%%%%%%%q%Q%%%%%%q%Q%%qQ%%qQQq%%%%%qQqQ%q%%Q%qQq%QqQ%%%qQ%%%qQ%%%
8527A19%%%%%%%%%%%%%qQq%QqQq%%QqQ%q%Q%%%%%%%%%%%%%%%q%%Q%%%%%%%%%%%%%%%%%%%q
8511A11Q%%%%%%%qQqQ%%%%%%qQqQ%%%%%%%%qQ%%%%%%Qq%%q%%QqQq%%Q%qQ%qQ%%%%%%%%%%%
8495A19%%%%q%Q%%%%%%%%%%%%%%%q%%Q%q%%Q%qQ%%%%q%Q%%%%%%%%q%Q%%%%%%qQ%%%%%%qQ%
8479A19%%%%%qQ%%%%%%%%%%%%%%%q%%Q%%%%%%%%%%%%%%%%%%%%%%%%%%%%%%%Qq%%%%%qQ%%%
8464A19%%%%qQq%Q%%%%%%%%%%%%%%q%QqQ%%%%qQ%%%%%%%%%%qQ%%%%%%%%%%%%%%%%%%%%qQ%
8448A19qQ%%%%qQqQqQ%%q%Q%%qQ%%%%%%%%%%%%%qQ%%%%%%%%%%%%%%%%%%%%%%%%%%%%%%%%%
8432A19qQ%%%%%%%%%%%qQ%%%%%%%%%%%qQqQ%%%%%%qQqQ%%%%%%%%%%%%%%%%Qq%Qj6J6j6Q%Q
8417A27q%%%%%%%%%%Qq%%%%%%%%%%%%%%%%%%%%%%%%%%%%%%%%%%qQ%%%%qQqQq%Q%%%%%%%%%
8401A19%%%%%%%%%%%%%%%%%%%%%%%%%%%%%%%%%%%%%%%%%%%%%%%%%%qQ%%%%%%%%%%%%%%%%%
8385A19qQ%%%%%%%%%%%%%%%%%%%%%%%%%%%%%%%%%%%%%%%%%%%Q%q%%%%%%%%%%qQ%%%qJ6j6J6
8370A27j6Q%%%%%%%%%%%qQ%%%%%%%%%%%%%%%%%%%%%%%%%%%%%Qq%Qq%%%%%%Q%%q%%%%%%%Qq
8354A19%%%%%Qq%%%Qq%QqQ%q%%%%%%%%%%%%%%%%%Qq%%Q%%%%q%%%%%%%%%%Qq%Qq%Qq%%%Qq%
8339A19Qq%%%%%%%%%%%%%%%%%%%%%%%%%%%%%%%%%%%%%%%%%%%%%Qq%%%%%%%%%%%%%%%%%%%%
8323A19%%%%%%%%%%%%%%%%%%%%%%Qq%%%Qq%%%%%%%%Q%qQ%%%qQq%%%%%%%%%%%%%%%%%%%%%%
8307A19%%%%%%%%%%%%%%%%%%%%%%%%%qQ%%%%%%Q%%q%%%%Q%%q%%QqQq%%%%%%%%QqQq%%%%%%
8291A19%Qq%%%%%Qq%%%%%%%%%%%%%QqQ%%%%%%qQ%qQ%%q%%%QqQq%%Q%%q%Qq%Q%%%%%%%%%qQ
8275A27%%q%Q%%%q%Qq%%%%%%%%%Q%q%%%%%Q%%%%q%%%Qq%%%%Q%%%%%%%%%%%%%%%%%%%%%%%%
8260A27%qQ%q%Q%qQ%%%%%q%Q%q%QqQqQqQq%Qq%%%%%%QqQ%q%Q%%qQ%%qQq%%QqQqQ%%%%%q%Q
8244A27%%%%%qQq%Qq%QqQqQ%%qQ%%qQ%%%%qQqQ%%qQ%%%qQq%%Qq%%Q%%%%%%%%%qQqQ%%%%%%
8228A27q%Q%%%%%%%%%%%%%%%%qQ%%%%%q%Qq%QqQ%%%%%%%%%%%%%%%%%%%%%%%%%%qQ%%%%%%%
8212A27%%%%%%qQ%qQ%%%%%%%%%%%%%%%%%%%%%%%%%%%%%%%%%%%%%%%%%%%%%%%%qQ%%%%%%qQ
8196A27%qQqQqQqJ6q%%qQ%%%%%%%%%%%qQ%%%qQ%%%%%qQq%Q%%%%Qq%%%q%Q%Qj6qQQ%%%%%%%
8181A27%%%%qQ%%%%%%%%%%%%%%%%%%%%qQ%%%%%%%%%%%%%%%%q%Q%q%Q%%%%%%%%%%%%%%%%%%
8165A27%Qq%%%%%%%%%%%%%%%%%%%%%%%%%%%%%%%%%%%%%%%%%%%%%%%%%%%%%%%%%qQQq%Qq%%
8149A27%%%%%%%%%%%%%%%%%%%%%%%%%%%%%%%%%%%%%%%%%%%%%%%%%%%%%%Qq%QqQ%%qQq%%Qq
8134A27Qq%%%%%%%%%%%%%%%%%%%%%%%%%%Qq%%%%%%%%%%%%%qQ%QqQq%%%%qQ%%%%%%%%%%%%%
8118A27%%%%%%%%%%%%Q%qQq%%%%%%%%%%%%%%%%%%%Qq%%%%%%%%%%%%%%%%%%%%%%%%%%%%%%%
8102A27%%%%%%%%%%%%%%%%%%%%%%%%%%%%%%%%%%%Qq%%%%Qq%%Qq%%%%%%%%%%%%%%%%%%%%%%
8086A27%%%%%%%%%%%%%%%%%%%%%%%%%%%%%%%%%%Qq%%Qq%%Q%q%%%%%Qq%Qq%%%%%%%%%%%%%%
8071A27%%%%Qq%%%%%%Qq%%%%%Qq%%%%%%Q%q%%%%%%%Qq%%%%%Q%q%%%%%%%%%%%Q%%%qQq%%%%
8055A27%%%%%%%%%%%%%QqQq%%%%%%%%%Qq%%%%%%%%%%%%%%%%%%%Q%qQqQqQqQq%%Q%q%Qq%%%
8039A27Qq%%%%%%%%%%%Qq%%%%Q%qQQqqQq%%Q%%%qQ%%q%Q%%%%%%%%%%%%q%%%%%%%%%%%%Q%q
8023A27%%%%%Q%%%%%%%qQq%%%%Qq%%%%Qq%%%%%%%Q%%%%%%%%%qQqQ%qQ%%%qQqQ%%%%%%%%qQ
8007A35%%q%Q%qQ%q%QqQq%%%%Q%q%%Qq%Q%%%qQ%%%%%%qQqQ%%%%qQ%%q%%%%Qq%%%%%%Qq%%%
7992A27%%%Qq%%%%Q%%%%%%%%%%%%%%%%%%%%%%%%%%%%%q%%Q%q%%%%Qq%Q%%q%%Q%%%%%%%%%%
7976A35QqqQ%%qQ%%%%%%%%%%%%%%%%%%%%%%%%%%%%%%%%%%%%%%%%%%q%%Q%qQ%qQ%%%%%%%%%
7960A35%%%%%%qQqQ%%%%%%%%%%%%%%%%%%%%%%%%%%%%%%qQqQ%%%qQqJ6qq%QqQqQq%Q%%%%%%
7944A35%%%%%%%qQ%%qQq%%Q%%%%%%qQ%%%%%%%%%%%%%%%%%%%%%%%%%%%%%%%%qQ%%%%%%%%%%
7929A35%%%%%%%%%%%%%%%%%qQ%%qQqQ%%%%qQqQqQ%%%%%%qQ%%%%qQ%%%%%%%%%%%%qQ%%%%%%
7913A35%%%%%%%%%%%%%%%%%%%%%%%%%%%%%qQ%%%%%Qq%%%%j6K4Qqj6J6q%QqQj6Q%%%%QqQqQ
7898A43q%%%%%%Qq%QqQqQq%%%%%%%%%%%%qQ%%%qQ%%%%Qq%%%%%%Qq%%%%%%%Qq%%%%%%%Qq%%
7882A35%%%%%%%Qq%QqQ%%%q%%%%%%%%%%%%%%%%%Q%%qQ%q%%%%%%%%%%%Qq%%%%%%%%%%%%%%%
7867A35%%%%%Qq%%%%%%%%%%%%%%%%%%%%%%%%%QqQqQqQq%%%%%%%%%%%%Q%%q%%%%%%%%%%%%%
7851A35%%%%%%%%%%%%%%Q%%qQqQq%Qq%%%%Q%q%%%%%%%%%%%%QqQqQqQq%%%%%%%%%Qq%QqQq%
7835A35QqQqQq%QqQ%q%Qq%%QqQq%Q%%q%%Q%%q%Qq%%%Qq%%Q%q%Qq%%%%%%%%%%%%%%%Qq%%%Q
7819A43qQqQqQ%q%%%%%%%QqQq%%%%%%%%Qq%%Qq%Q%%qQ%%%qQ%%%%%%%%%%%%%%%%%%%%%%%%%
7803A43%%qQ%qQ%%%%%%qQq%Q%qQq%QqQq%%%%QqQ%%qQ%%%%%%%%%%%%%%qQqQqQ%%%%%q%Q%%%
7788A43%%%%%%%%%%%%%%%%%%%%%%%%%%%%%%%%%%%%%%%%%%%%%%%%%%%%%%%%%%%qQ%%%qQqQ%
7772A43q%%Qq%Q%qQ%%qQ%q%QqQ%qQqQ%q%Q%%%qQ%%%%%%%%%%%qQ%%%%%%%%%%%%%%qQqQ%%%%
7756A43%qQ%%%q%QqQqQqQ%%%%qQ%%%%%%%%%%%%%%%%%%%%%%qQ%%%%%%qQ%q%Q%%qQ%%q%%Qq%
7740A35Q%%%qQ%qQ%%%%%%%%%%%%%%%%%%%%%%%%%%%%%%%%%%%%%%%%%%%%%%%%%Qq%%%Qq%%%%
7724A43%%%%%%%%%%%%%%%%%%%Qq%%%%%%%%%%%%q%Q%%%qK4j6%%%%Qq%q%%Q%qQ%%%%%%%%%%%
7709A43%%%%%%%%%%%%%%%%%%%%%%%%%%%%%%%%%%%%%%%%%%%%%%%%%%%%%%%%%%%%%%%%%%%%%
7693A43%%%%%%%%%%%%%%%%%%%%%%%%%%%%%%%%%%%%%qQ%%%Qq%%%%%%%%%%%%%%%%%Q%%q%%%%
7678A43%%%%%%%%%%%%%Qq%%%%%%%%%%%%%%%%%%%%%%QqQ%q%%qQ%%%Q%qQq%%QqQ%%q%%Q%qQ%
7662A51qQqQ%qQq%%%Qq%%%Q%q%%Qq%Q%%q%%Qq%Qq%%qJ6%q%Qq%%QqQ%qQq%%%Q%q%%%%Q%%%q
7646A43%QqQq%%%%%%Q%%qQ%q%%%%%Qq%Q%%%%%%qQq%%%%%%%%%%%%%%%%%%%%%%%%%%%Qq%%Qq
7630A43%%Qq%%%Qq%%QqQq%Q%q%%%%Q%q%%%%QqQ%%q%%%%%%%%%%%QqQ%qQ%%q%%QqQ%q%%%QqQ
7615A51%%%qQ%%%%%%%%%%%%%%%%%qQq%%%%Qq%%%%%%Q%q%%Q%%qQ%%q%%%%%%%Q%%%q%%%%%Qq
7599A43Q%q%%%%Q%%%%%%q%%Q%%%%%%%qQ%%%%%%%%%%%%%%%%%%%%%%%%%%%%%%%%%%%%%%%%%%
7583A51%%%%%%%%%%%%%%%%%%%%%%%%%%%%%%%%%%%%%%%%%%%%%%%%%%%%%%%%%%%%%%%%%%%%%
7567A51%%%qQ%%%%%qQ%%QqqQ%%%%%%%%%%%%%%%%%%qQ%%%%%%%%%%%%%%%%%%%%%%%%%%%%%%%
7551A51%qQQj6J6q%%%%%%%%%q%Q%%%%%%%%%%%%%%%Qq%%%%%%%%%%%qQ%%%%%%%%%%%%%%%%%%
7536A51%%%%Qq%%%%%%%%%%%%%%%%%%%%%%%%%%%%%%%%%%%%%%%%%%%Qq%%%%%%%%%%%%%%%Qq%
7520A51%%%%%%%%%%%%%%%%%%%%%%Q%qQ%qQ%%%%%q%Qq%Qq%%%%Q%q%%%%%%%Qq%%%%%%%%%%%%
7505A51%%Q%q%%%%%%%%%%%Q%qQq%Q%%%%%q%%%Qq%%%%QqQq%%%%%%%%%%%%%%Qq%%Qq%%%Q%q%
7489A51%%%%%%%%%%Qq%%Qq%Q%q%%Qq%Q%qQ%qQ%%qQ%qQ%%%%%%%%qQ%%qQ%%%%%%%qQqQq%Qq%
7473A51%Q%qQ%%%%%%%qQq%%%%%Q%qQ%qQqQ%%%%%qQ%q%%Qq%%%%Qq%%%%%Q%%q%%QqQ%%%q%Q%
7457A59qQq%%%%QqQ%%%q%%%%%Q%%q%Q%%qQ%%%%%%qQqQ%%%%%qQqQ%%%qQ%%qQ%%%%%%%q%Qq%
7441A51%Qq%%%Q%%%%%q%%%QqQq%Qq%QqQ%%qQ%%qJ6%j6QqQ%qQ%%%%%%%%%%%%%%%%%%%%%%%%
7426A59%%%%%%%%%%%%qQ%%%qQ%%%%qQ%%%%%%%%%%%%%%%%%%%%%%%%%%%%%%%%%%%%%%%%qQ%%
7410A59%%%%%%%%%%%qQ%%%%%%%%%%%qQ%%%%%%%%%%%%%%%%%%%%%%%%%%%%%%%%%%%%%%%%%%%
7394A59%%%%%%%Qq%%%%%%%%%%%%%%%%%%%%%Qq%%%%%%%%%%%%%%%%%%%%%%%%%%%%%%%%%%%%%
7379A59%Qq%%%%%%%%%%%%%%Q%q%%%%%%%%%%%%%%%%%%%%%%%%%%%%%%%%%%%%%%%Qq%%%%%%%Q
7363A67q%%%Q%q%%%Qq%Qq%%Q%%%%%%%q%%%%%%Qq%%%%%%%%%%%%%%%%Q%q%Qq%QqQq%%%%%%%Q
7347A67qQqQ%%%%qQqQ%%qQ%%q%QqQqQq%%%%%%QqQ%%%%%qQ%%%q%%%Q%%%%%%%%%%qQ%%qQ%%%
7331A67%q%Q%%q%%Qq%Q%%%%%%%%%%%%%%qQ%%%%%%%%%%%%%%%%%%%%%%qQqQ%q%%%%%Q%%%qQq
7315A59%%Q%q%Qq%%Q%%qQq%Qq%%%%%%%%Q%%qQ%q%%Q%qQ%%%%qQqQq%QqQqQ%%%%q%%Q%%%%%%
7300A67%%%qQ%%qQ%%%qQ%%%%%%%%%%%%%%%%%%%%%%%%q%Q%%%%%%%%%%%%%qQ%%%%%%%%%%%%%
7284A67%%%%%%%%%%%%%%%%%%%%%%%%%%%%%%%%%%%%%%%%%%%%%%%%%qQ%%%%%%%%%%%%%%%%%q
7268A59Q%%%%%%%%%%%%%%%%%%%%%%%%qQ%%%%%%Qq%%%Qq%%%%%%qQ%%%%%Qq%%%%%%Qq%%Qq%%
7252A67%%Q%q%%%%%%%Qj6QQq%K4k4qQqL2m8J6K4l2L2l2K4j6J6qqQ%%qJ6q%%%%%%%%%%Q%%%
7240A75q%%%%Q%%qQ%q%%Q%%q%%%%%%%%%%%%%Qq%Q%%%q%%%%%%%%%%%%Qq%%%%%%%%%%%%%%%%
7224A67%%%%%%%Q%q%%%%%%Q%%q%%%%%Q%q%%QqQqQ%%qQq%%%%%%Qq%%%%%%%Qq%Q%q%%Q%%q%Q
7208A75qQ%%q%%%%Q%qQq%%%%%%%Qq%%Q%%%q%Q%q%%Q%%qQqQ%%%qQqQ%%%%%%%%%qQ%qQ%%%qQ
7192A75%%%qQ%%%%%%%%%%%%%%%q%QqQqQq%%Q%Qj6Qj6J6%qQqQ%qQ%qQ%%%%%qQ%%%%%%%%%%%
7177A75%%%%%%%%%%%%%%%%%%%%q%Q%%%%%%%%%%%%%%%%%%%%%%%qQ%%qQ%%%qQ%%%%%%%%%%%%
7161A75%%%%%%%%%%%%%%%%qQ%q%Q%%%%%%%%%%%%%%%%%%%%%%%%%%%%%%%%%%%%%%%%%%%%%%%
7146A75%%%%%%%%%%%%%%%%%%%%q%Q%%qQqQ%%%%%%%%%%%%%%%%%%%%%%%%%%%%%%%%%%%%%%%%
7130A75%%Q%q%%%%%%%%%%%%%%%%%%%%%%%%%%%%%%%%%%%%%%%%%Qq%%%%%%%%%%%%%qQ%%%%%%
7114A75%%%%%%%%%%%%%%%%%%%%%%%%%%%%%%%%%%%%%%%%%%Qq%%%Qq%Qq%Qq%%%%%%%%%Qq%Qq
7098A75%%qJ6k4J6QQj6%K4k4Q%q%%Q%%qQq%%%%%%Qq%%%%%%Q%%%q%%%Qq%%%%%%%%%%%%%%%%
7084A75%%%Qq%%QqQq%%%Qq%%Qq%Q%%%%%%%qQ%%qQ%qQ%%qQqQ%%%%%%%%qQ%qQq%Q%%%%qQ%q%
7068A75QqQ%q%Qq%Q%%%%%%%%%%%qQ%%%%%%%%%%%qQ%%qQ%%%%%%%%%%qQ%q%Q%%q%QqQqQ%%qQ
7052A83qQ%%%%%%%%%%%%%%%%%%%%%%%%%%%%%%%%%%%%%%%%%%%%%%%%%%%%%%%%%%%%QqQq%%%
7036A83%%%%%%%%%%%%%%%%%%%%%%%%%%%%%%%%%%%%%%%%%%Qq%%%%%%%%%%%%%%%%%%%%%%%%%
7021A83%%%%%%%%%%%%%%%QqQq%%%%%%%%%%%%%%%%%qJ6qqQQq%Qq%%%%%%%%%%Q%q%%%%%%%%Q
7005A91q%%%%%%%%%%%%%%%Qq%%%%%%%%%%%%Qq%Q%qQ%%%%q%Q%%%qQq%%%Qq%%%%%%%%%%%%%Q
6989A91%%%%%%qQ%%%q%%%Qq%%%%Q%%q%QqQ%q%QqQq%%%%%%Qq%%QqQqQq%%%QqQ%qQqQ%%%%%%
6973A91qQqQ%qQ%qQq%%%%%%%%Qq%Q%%qQ%q%Q%%j6QQj6qK4J6j6K4m0J6%%qQ%%%q%Q%qQ%%%%
6960A91qQ%qQ%%q%Q%%%%%%%%%%%%%%%%qQ%%%%%%%%q%%Qq%%Qq%Q%%%%%%%%%%%%%%%%%%%%%%
6944A91%%%%%%%%%%%%%%%%%%%%%%%%%Qq%%%%%%%%%%%%qQ%%%%%%%%%%%%%%%%%%%%%%%%%%%%
6928A91%%%%%%%%%%%%%%%QqQq%%%%%%%%%%%%Qq%%Qq%%%%%%%%%%%%Qq%%%%%%%%%%%%%%%%%%
6912A91%%%%%%%%%%%Q%%q%%%%Q%q%%%%QqQqQqQqQq%%%%%%Qq%Qq%%%%Qq%%%%%%Qq%%%Qq%%%
6896A91%Q%q%%Qq%%%%Qq%%%QqQqQ%qQ%q%Q%%%%%%qQ%%%%%%%%%qQ%%%%qQ%qQ%%%qQq%%%Q%%
6881A99qQ%%%qQ%%%qQqQ%%%%qQ%%%%%%%%%%qQq%%%%%%%%%%%%Qq%%%Qq%Q%qQq%%Qq%%Q%%%%
6865A99%%%%%%%%%%%%%%%%%%%%%%%%%%%%%%q%%%Q%%%%%%%%%%%%%%%%%%%%%%%%%%%%%%%%%%
6849A99%%%%%qQ%%%%%%%%%%%%%%%%%%%%Q%qQq%%%%%%%%%qQ%%%%%%%%%%%%%%%%%%%%%%%%%%
6833A99%%%%%%%%%%%%%%%%%%%%%%%%%%%%%%%qQ%%%%%%%%%%%%%%%%Qq%QqQ%q%%%%%%%%%%%%
6817A99%%%%%%%%%%%%%%%%%Qq%%%%%%%%%%%%Qq%%%QqQq%Qq%%%%Qq%%%%%%%%%%%%%%%Qq%%%
6802A99%%%QqQq%%Qq%%%%%%%%QqQq%%Qq%%Qq%Qq%%%%%%Q%q%%Q%%%%%%%%q%%Q%%%q%QqQqQ%
6786B07q%%%Qq%%Q%%%%%%%%%%%qQ%%%%%%%%%qQQqj6J6%qQ%%%qQqQ%%qQ%%%qQ%qQ%%%%%%%%
6770B07%qQ%%%%%%qQ%%%%%%%%%%%%%%%%%%%%%%%%%%%%%%%%%%%%%qQ%%%%%%%%%%%%%%%%%%%
6755B07%%%%%%%%%%%%%%%%%%%%%%%%%%%%%%%%%%%%%%%%%%Qq%%%%%%%%%%%%%%%%%%%%%%%%%
6739B07%%Q%q%%%%%%%%%%%%%%%%%Qq%%%%%%%%%%%Q%q%Qj6Q%%%%Qq%%%%%%Qq%%%%Qq%%%%%%
6723B07%%%%%%%%%%%%%%QqQ%q%%%Qq%Q%%qJ6j6J6Qk4%qQ%qQQ%qQ%%%%qQq%%Q%qQ%%%%%%%%
6708B15qQ%%%%%%%q%Q%%%qQ%qQ%%%%q%%%%Q%%%%%%%%%%%%%%%%%%q%%Q%%q%Q%%%q%%%%Q%q%
6693B07Qq%%%%Q%q%QqQq%%%%%%%QqQqQ%%%%%%%%%%%%%%%%%%%%%%%%%%%%%%%%%%%%%%%%%%%
6677B15qQ%q%%Q%%%%%%%%%%%%%%%%%%%%%%%%%%%%%%%%%%%%%%%%%%%%%%%%%%%%%%%%%%%%qQ
6661B15%%qJ6j6%%Q%%%%%%%%%%%Qq%%%%%%%%%%%%%%%%%%Qq%%%%%%%%QqQq%Q%%q%%%%%Q%%%
6646B23%q%%%%%%%%%%%%%Q%q%Qq%%%%%%%%%%%Qq%%%%%%%QqQ%%%%%%q%%%%%%%Qq%%%%%%%%Q
6630B23q%%QqQ%q%J6j6%qJ6%q%%%%%%%%Q%%%%%%qQ%%%%qQ%%%q%QqQqQ%%qQ%%qQ%qQ%%%%%%
6615B23%%%qQ%%%%%%qQ%q%Q%%%%%%%%%%%%%%%%%%%%%%%%%%%%%%%%%%%%%%%%%%%%%%%%%%%%
6599B23%%%%qQqQqQq%QqQ%%%%%%%%%qQ%%%%%%%%%%%%%%%%%%%%%%%%%%%%%%Qq%%%%%%QqQ%q
6583B23%%%%%%%%%%%%%%%%%%%%%%%%%%%%%%%%%%%%%%%%%%%%%%%Qq%%%Qq%%%Q%q%%QqQq%%%
6567B23%%%%%%Q%%q%%%Q%q%%%Q%q%%Qq%Q%%%qQqQ%%qQq%%%Qq%%%%%%%Qq%Qq%%Qq%%%%Qq%%
6552B23%%%%%%%%%%Q%%%%%%%q%%Qq%Q%%q%%QqQqQ%qQ%%qQ%%%%q%QqQ%qQ%%%%%%%%%%%%%%%
6536B31%%%%%%%%%%%%%qQ%%%%qQqQ%%%%%%%%%%%%%%%%%%%%%%%%Qq%%%%%%%%%%%%%%%%%%%%
6520B31%qQ%%%%%%%%%%%%%%%%%%%%%qQ%%%%%%%%%qQ%%%%%%%%%%QqQ%%qQqQq%%Q%q%%%%%%%
6504B31%Qq%%%QqQq%Q%%%q%%%Q%q%Qq%%QqQq%%qQ%%J6qj6QQ%qqQ%%%%%%%%%QqQ%%qQ%qQq%
6489B31%%%Q%qQqQq%%%%Q%%%q%%Qq%%%%%%QqQ%%%q%%%%Qq%%%%%%%%Q%%%%%%%%%%%%%%%%%%
6473B39%%%%%%%%%%%%%qQ%%%%%qQ%%%%%%%%%%%%%qQ%%%%%%%%%%%%%%%qQ%%%%%%%%%%%%%%%
6457B39%%%%%%%%%%%%%%%%%%%%%%Qj6%Q%%%%%%%%%%%%%%%%%%%%%%%%%%%%%%%%%%%%%%%%%%
6442B39%%%%%%%%%%%%%%Qq%%%%%%%%%%%%%Q%%qQq%%Qq%%%%%%Q%q%%%%%%%%QqQ%%%%%%qQqQ
6426B47qQ%q%%%Qq%Q%%%%%%%%%%%%%%%%%%%%%%%%%qQ%%%%%%%%%%%%%%%q%%%QqQq%%QqQ%%%
6410B47%%%%%%%%%%%%%%%%%%%%%%%%%%qQ%%%%%%%%%%%%%%qQq%%%%%QqQqQ%qQ%qQqQ%%%%%%
6394B47%%%%%%%qQ%%%%%%%%%%%%%%%%%%%%%%%%%%%%%%%%%%%%%%%%%%%%%%%%%%%%Q%%q%Q%q
6379B47QqQq%QqQqQq%Q%%%q%%%%Qq%QqQ%%%%%%qQ%%%%%%%%%%%%%%%%%%%qQq%%%Q%qQqQq%%
6363B47%%Q%qQ%qQ%%%%%%%%%%%%%%%%%%%%%%%%%qQ%%%%%qQ%q%Q%%%%%%%%%%%qQ%%%%%%%%%
6347B55%%%%%%%%%%%%%%%%%%%%%%%%%%%%%%%%%%%%%%%%%%%%%%%%%%%Qq%%%%%%%%%%%%%%%%
6331B55%%%%%%%%%%%%%%%%%%%%%%%%%%%%%%%%%%%%%%Q%q%%Q%%q%Q%q%%%Q%q%%%%%%%%%%%%
6315B55%%%Qq%%%%Q%q%%%%%%Qq%%%qQ%%%QqJ6k4Q%Qqj6K4qQ%q%Q%%%%qQ%%%%%qQ%%%%%%%%
6301B63%%%%%qQ%%%%%%%%%%%%%%%%%%%%%%%%%q%Q%%qQ%%%q%Q%%%%%%%%%%%%%%%qQqQ%%%%%
6285B63%%%%%%%%q%Q%%%%%%%%%%%%%Qq%%%%%%%%%%%%%%%%%%%%%%qQ%%%%%%%%%%%%%%%%%%%
6269B63%%%%%%%%%%%%Q%q%%%%%%%%%%%QqQq%QQq%%q%%%%%%%%QqQ%%q%%%Q%%qQ%%%%%%%%%%
6253B71%%q%%QqQqQ%qQ%%%qQq%%Q%q%%%QqQ%q%%Qq%%%Qq%%%Q%%%%%%%%%%%%%%qQq%Q%qQ%%
6237B71%%%%%%%%%%%%%%%qQqQq%%QqQ%qQ%%%%%%%%%q%QqQ%%%%%%qQ%%qQqQ%%%%%%%%%%%%%
6222B71%%%%%%%%%%%%%%%%%%%%%Q%q%Qq%%%Qq%%%%Q%q%%%%%%%%%%%%%%%%%%%%Qq%%%Qq%Q%
6206B79%%q%%%%%%QqQ%%j6QQqQqQq%%Q%%%q%%Q%%%%%%%%%q%Q%%%%%qQqQ%%%q%%Q%%%qQqQ%
6190B79%%%%%%qQ%%%%%%%%%%%%%%%%%%%%%%%%%%%%%%%%%qQ%%%%%%%%%%%%%%%%%%%%%%%%Qq
6174B79%%%%%%%Qq%%%%%%%%%%%%%%%%%%%%%%%%%%%%%%%%%%%%%%%%%%%%%%QqQq%Qq%%Q%%Qq
6159B87%q%QqQq%%%%%%%%%%%%%%%%%QqQ%%q%Q%qQ%%q%%%%QqQ%qQqQq%Q%qQqQqQq%%%%%%Q%
6143B87%%%%qQ%%%%%%%%%%%%%%%%%%%%%%%%%%%%%%%%%%%%%%Qq%%%%%%%%%%%%%%%%%%%%%%%
6127B87%%%%%%%%%%%%%%%%%%%%%%%%%%%%%%%%%%%%%%%%%%Qq%%%%%%%%Q%%qQ%q%QqQqQ%q%%
6111B87Qq%Qq%%%%%%%%%%Q%%%%%%%%q%%%%%Qq%Q%%%%%%%%qQ%%qQ%%%qQ%qQ%%%%%%%%%%%%q
6096B87Q%qQ%%%%%%%%%%%%%%%%%%%%%%%q%%%%%%Q%%%qQ%qQ%%%%%%%%%%%%%%%%%%%%%%%%%%
6080B95%%%%%%%Qq%%%%%%%Q%q%%%Qq%Qj6Q%Qq%%%Q%%q%%%QqQq%%%%%Qq%%%%%%%%%%%%%%%%
6064B95%QqQq%%%%%%%%%%%%%%%%%%%%Q%%%%%%%%%qQq%QqQ%q%Q%%%%%q%%Q%%%%%%%%%%%%qQ
6048C03%%%%%%%%%%%q%%%%Q%%%%%%%qQ%%%%%%%%qQ%%%%%%%%Qq%%%Qq%%%%%%%%%Qq%%%%%Qq
6033C03%%%%%Qq%%%%Qq%qJ6j6K4qq%j6J6ql2M8j6J6Ql2L2qq%QqQqqQ%%%%Q%q%QqQqQ%qQ%%
6019C11qQq%%%Q%qQ%q%%Qq%%%QqQq%%Q%%qQqQqQqQq%%%%%Q%%%%%%qQ%qQ%%%%%%%%%%%%%%%
6003C11%%%%%%%%%%%%qQ%%%%%%%%Qq%%%%%%%%%%%%%%%%%%%%%%qQ%%%%%%%%%%%%%%Qq%%%%%
5988C11Qq%Q%q%Qq%Qq%%%%%%%%%%Q%qQ%q%%Qq%%%%%%Q%q%%%%%QqQq%Q%%%%%%%%%%%%%%%qQ
5972C19%%%%%%%%%%%%%qQ%%qQ%%%%%%%%%%%%%%%%%%%%%%%%%%%%%%%%%%%%%%%%qQ%%%qQqQ%
5956C19%Q%q%qJ6qqQqQ%Qq%qQ%%%%%Qq%%%%%%%%Qq%%%%%%%%%%%%%%Qq%%%%%%QqQq%%%%%%%
5941C19%%Q%q%%%QqQqQqQ%%%%qQ%%qQ%%%%qQqQqQ%q%Qq%%%Q%%%%%%%%%%%qQ%%qQ%%%%%%%%
5925C27%%qQ%%%%%%%%%%qQ%%%%%%%%%%%%%%%%%Qq%%%%%%%%%%%%%%%%%%%%%%Qq%%QqqJ6q%%
5909C27%%%%Qq%%%%QqQq%%%%%%%%Qq%%%%%%%%%%Q%%qQ%%%%%qQqQ%%%%%%%%qQ%qQq%Q%%%%%
5893C35%%%%%%%%%%%%%%%%%%%%%%%%%%%%%%%%%%%%%%%%%%%Qq%%%%%%%%%%Q%qQq%%%%%%%%%
5878C35%%%%%%%%%%%Q%qQq%%%QqQq%%%%%%%%%%%%Q%%q%%%%%Q%%%%%%qQqQ%%%%%%%%%%%q%Q
5862C43%q%QqQqQqQqQ%%%%%%%%%%%%%%%%%%%%%%%%%%%%%%%%%%%%Qq%%%%%%%%%%Qq%%%%%%%
5846C43%%%%%%Qq%%%Qq%%%Qq%Qq%%qJ6q%%qJ6q%%QqQq%QqQ%%%qQqQqQqQq%%QqQq%%Q%%qQ%
5831C51%qQ%%%%%%qQqQ%%%%%%%%%%%%%%%%%%%%%%%%%%%qQq%Q%%%%%%%%%%%%%%%%%%%%%%%%
5815C51%%%%%%%%%%%%%%%%%%%%%%%%%%%%%%%%Qq%%%%%%%%Q%%%%q%%Q%%%%%%%%%%%%%%%%%%
5799C59%%%qQ%%%%%q%Q%%%%%%%%%q%Q%%Q%j6QqQ%%%%%%%%%%%%%%%%%%%%%%%%%%%%%%%%%%%
5784C59%%%%%%%%%%%%%%%%%%qQQq%%%Qq%Qq%%%%%%%%%%%%%%%%%%%%%%%%%Qq%%%%QqQ%%%%%
5768C67%%%%%qQ%%%%%%%%%%%%%%%%%%%%%%%%%%%%qQ%%%%%%%%%%%%%%%%%%%%%%%%%%%%%%%%
5752C67%%%%%%%%%%%%%%%%qQ%%%%%Qq%Qq%%Q%%%%%%%%%%qQqQqQqQ%%%%%q%%QqQ%%%%%%%%q
5736C67Q%qQ%%%qQqQ%qQqQ%%qQ%%%%%%%%%%%%%%%%%%%%%%%%%%%%%%%%%%Qq%%Qq%QqQq%Q%q
5720C75Q%q%Q%q%%%%Qq%%%%%%%%%%%Q%qQ%qQq%Q%qQqQq%Q%%qQq%%Q%qQ%%%qQ%%%%%q%%Q%%
5705C83%%%qQ%%%%%%%%%%q%Q%%%%%%%%%%%%%%%%q%Q%%%%%%%%%%%%%%%%%%%%Qq%Qq%Q%%%q%
5689C83%%%Q%%qQ%%qQ%%%%%%%%%%%%%%qQ%%%%%%%%%%%%qQ%%%%%%qQ%%%%%qQq%%Qq%Q%%%%%
5673C91%%%%%%%%%%%%%%%%Q%q%%%%%%%%%%%%%%%%%%%%%%%%%%%%%%Qq%%%Qq%%Qq%%%%Q%%%%
5657C99%%%%%%qQq%Q%q%Q%%%%%%%%%%%%%%%%%%%q%Q%%%%%%qQ%%%%%%%%%%%%%%%%%%%%%%%%
5641C99%%%%%Qq%%%%Qq%%%%%Q%%qQ%%%%%%qQ%qQ%%%%%%%%%%%%%%%%%%%%%%%%%%%%%%%%%%%
5626D07%%%%%%%%%%%%%%%%%%%%%%%%%%%%%%%%%%%%%%%%%%%%%%%%%%%%%%%%%Qq%%%%%Q%q%%
5610D07%%%%%%%%%%%%%%%%%QqJ6q%qQqQ%qQ%%%%%%%%%%%%%%qQ%%%qQ%%q%Q%qQ%%%qQ%%%%%
5594D15%%%%%%%%%%%%%%%%%%%%%%%%%%%%%%Qq%%%%%%%%%%QqQq%Q%%qQq%Q%%q%%%%Q%q%QqQ
5578D23%%%%%%qQ%%%%qQqQ%qQ%q%%Q%%%%%%%%%%Q%q%%%%%%%%%%%%%%%%%%%qQ%%%%%%%%%%%
5563D23%Qq%%%%Q%qQ%qqQ%%Q%j6%K4q%qQ%%%%q%Q%%%%%%%%q%%Q%%qQ%%%%%%%%%%%%qQ%%%%
5547D31%%%qQ%%%%%%%%%%Q%qQqQ%q%%%%%%%%%%Q%%q%%Qq%%%Qq%%%%%%%%%%%%QqQ%%%%qQ%%
5532D39%%%%%%%%%%%%%%%%%%%%%%%%%%%%%%%%%%%%%%%%%%%%%%%%%%%%%%%%%%%%%Qq%%Qq%Q
5516D47q%%%%Qq%%%%%QqQ%%%%q%Q%%q%%Q%%%qQ%%qQ%%%%%%%%%%%%%%%%%%%%%%%%%%%%%%%%
5500D47%%%Qq%%%%%%%%%%%%%%Qq%%%%%%Q%q%Q%%%%%%%%%qQq%%Q%q%Q%%qQ%%%%%%%%%%%%%q
5484D47Q%%%%%%%%%%%%%%%%%%%%%%%%%%%%%%%%%%%%%%%%%%%%%%%%%%%%%%%QqQq%%%%%%%%Q
5468D63q%Q%%%%%%%%%%%%%%%%%%%%%%%%%%%%%%%%Qq%%%%%%%%%%qQ%qQ%%Qj6J6q%%%%%Q%q%
5453D63Qq%%%Q%qQ%qQq%Q%qQ%q%%%Qq%%Qq%Q%%%%%%%%%qQ%%%%%%%%Qq%%%%%%%%%%%%%Qq%%
5437D71%%%%%%%QqQ%qQ%qQ%%q%Q%qQqQq%%%QqQqQq%%Q%%q%%Q%qQ%%%%%%qQ%%%%%%%qQ%%%%
5421D79%%%%%%%%%%%%%%%%%%%%%%%%%Qq%%%%%%%%%%%%%%Qq%Q%q%Qq%Q%%%%%%%%%%%%%%%%%
5406D87%%%%%%%%%qQ%%%%%%%%%%%%%%%%%%%%%%%%%Qq%%Qq%Qq%%%%%%%Q%qQ%%%%%%%%qQq%Q
5390D95%%%%%%%%%%%%%%%%%%%%%%qQ%%%%%%%%QqQq%%%%%%%%%%%%%%%%%%%%%%%%%%%%%Qq%%
5374D95%QqQqQ%%j6QQJ6m0J6qJ6%Qq%%%%%Qq%%%%qQ%%%%%%%%Qq%Qq%%%%%%%qQ%%%%%%%%%%
5359E03%%%%%%%%QqQ%%qQ%%%%%%%%%%%%%%q%Q%%%%%%qQ%%%%%%%%%%%q%%Q%%%%%%%%%%%%%%
5344E11%%%Q%%qQ%%%q%%%%%QqQqQ%q%QqQ%%%qQ%%qQq%Q%qQq%Q%%%%%%%%%%%%%%%%%Qq%%%%
5328E19Qq%%%%Q%q%%%%%%%%%Qq%Q%qQqQq%Q%%qQ%%%%%%%%%%%%%%%%%%%%%%%%%%%%%%%%qQ%
5312E27qQ%%Qq%%%%Q%%%q%%%%%%%%%Qq%%%QqQ%%%qQ%%%%%%%%%%%%Qq%%%%%%%%%%%%%%%%%%
5296E35%%%%%%%%Qq%%%Qq%%Q%qQq%%%%%%%%%Q%qQqQq%%%Q%%%%%%%%%%%%%%%%%%%%%%%%%%%
5280E43%%%%%%%%%%%%%%%%%%%Q%qQ%%%%%%%%%%%%%%%%%%qQ%%%%%%%%%%%%%%%%%%%%%qQ%%%
5265E51%%%%Qq%%%%%%%%%%%%%%%%%%%%%Qq%%%%%%%Q%%qQ%%%qQQq%%%%qQ%%%%%%%qQ%%%%%%
5249E59%%%%%%%%%%%%%%%Q%%q%%%%Qq%%Q%%%%%%%%%%%%Qq%%%%%%%%%%%%Qq%Qq%Qq%%%%%%%
5233E67%%%%%%Q%q%%%%%%%Q%%%%%qQ%qQqQqQqQ%%%%%%Qj6Q%Qq%qJ6%k4Q%%K4%j6%%%%%%%%
5218E75%%%%%%%%%%%%QqQ%%%%%%%qQ%%qQ%%%%%%%%%%%%%%%%%%%%%%qQ%%Qq%%Qq%%Q%%%q%Q
5203E91qQ%q%%%Q%%qQ%qQ%%%%%%%%%%%%%Q%qqQ%%%%%%%%%%%%%%%QqQqQ%q%%%%%%%%%%%QqQ
5187E99%%qQqQ%%%%%%%%%%%%%%%%%%%%%%%%%%%%%%%%%%%%%Q%%%%%%%%%%%%%qQq%Q%%%qQ%%
5171F07%%%%%%%%%%%%%%%%%%%%%%%%%%%%%%Qq%Qq%%QqQqQ%%q%%Q%%%%qQ%%%%qQ%%%%%%%%%
5155F15%%%%%%%%%%%%%Qq%%%%QqQ%%%%%%%%qJ6j6%%%Q%%%%%%%%%%%%%%%%%%%%%%%%%%%Qq%
5140F23%%%%%%%%%%Q%%Qj6%Q%%%q%%Q%qQqQq%%%%QqQ%%%%%qQ%%qQ%%qQ%%%%%%%%%%%%%%%%
5124F31%%%Qq%%%Qq%Q%%%%%%%%%%%%qQ%%%%%%%%%%%Q%qQ%%%%%q%%%%%Q%%%qQ%%%%%%%%%%%
5109F47%%%%%%%%%%%%%%%%%%%%%%Q%q%%Q%%%%%%%%%%%%%%%%%%%%%%%%%%%%%%%%%%%%%%%%%
5093F55%Q%%q%Q%qJ6qQj6%K4j6Qj6%qJ6%qQqQqQq%Q%qQ%%%%%qQ%%%qQ%Q%%qQq%%Qq%%%%%%
5078F63%Q%%qQqQq%Q%%%%%%%%%%%%%%%%Qq%%%%%%%%%%%%%%%%%%%%Q%qQ%qQ%%%%qQqQ%%%%%
5063F79%qQqQ%%%qQ%%%%%QqQq%%%Q%%%%%%qQ%%%%%qQ%%q%%Q%%%%%%%%%%%%%%%%%%%%Q%%%%
5047F95%q%Q%q%Q%q%Q%qQ%%%%%%%%%%%%%%%%%%%%%%Q%%%%%%%%%%%%%%%%qQ%%%%%qQ%%%%%%
5031G03%%%%%%%%%%%%%%%%%%%%%%%%%%%Q%%qQ%%%%qQ%%%%%%%%%%%%Qq%%%%%%Qq%%%%%qQQ%
5015G19q%Q%%qQqQqQqQ%q%QqQqQ%%%%%%%%%%%%%%%%%%Qq%QqQ%%%%%%%%%%%%%%%%%%%%%%%%
4999G27%%%%%%%%%%%Q%%%%%%%%%%%%%%%%%%%%%%%%%%%%%%%%%%%%%%%%%Qq%%Qq%Qq%%%%Q%%
4984G43%%%%%%%%%%%%%%Q%q%%%%%%%%%%%%%%%%Q%%qQ%q%Q%%%%%%%%%Qq%%%%%%%%%%%%%Qq%
4968G51%Q%qQ%%%%%%%%%%%%%%%%%%%%%%Q%q%Q%%%%%%%%%%q%Q%%%%%%%%%%%%%%%%Qq%%%%%%
4952G67%%%%%%%Qq%%%%%%%%%%%%Qq%%%Q%%%%%%%%%%%%%%%%%%%%%%%%%Q%%%%%%%%%%%%%%%%
4936G83%%%%%%%%%%%%%%%%Q%q%Q%%%q%QqQ%%%%%Qq%%%%%%%%%%Q%%%%qQ%%%%%%%%%%%%%%%%
4920G99%%%%%%%%%%QqQqQ%%%%qQqQ%%%%%%%%%%%%%Q%q%%%%Qq%%%%%%%%%QqQ%%%%qQ%qQ%%q
4905H07%%%Q%%%J6qq%qQqQ%Q%qQ%%qQ%%qQ%%%%%%%%%%%%%%%%%%%Qq%%%Qq%Q%%%%%qQ%%%%%
4889H31%%%%%%%%%%%%%%%%%%%%%QqQ%%%%%%%%Q%qQqQ%q%%%Qq%%%Qq%%Q%%%qQ%%qQ%%%%%%%
4873H47%%%%%%%%%%%%%Q%qqQQq%Q%qQ%%%%%%%%%%%%%%%%%%%%Q%%%%qQ%%%%q%%%%%%Q%%qQ%
4857H63%%%%%%%%%qQQqQq%Q%qQqQ%qQ%%%%%%%%%%%%%%%%%%%%%QqQq%%%%%%Q%qQ%%%q%Q%%Q
4842H87q%QQqq%qJ6%%%qQ%%%%%%%%%%%%%%%%QqQ%%%%q%%Q%%%%%%%%%%%%%%%%%%Qq%%Q%%%%
4826I03%q%%%Q%%%qQ%%%%%%%%%%%%Qq%Q%%%%%%%%%%%%%%%%%%%%%%%%Q%qQ%%%qQq%%%Q%%%%
4810I19%%%%%%%%%%%%%Q%q%%Q%%%%%%%%%%%%%%%%%%%Q%q%%%%%Q%%%%%%%%%%%%%%%%%%%%%%
4795I35%%%%%%%%Q%%%%%%%%%%%Qq%%%%%Q%%%%qQ%%%%q%Q%%%%%%%%%%%%Qq%%%%%Qq%%Q%%%%
4779I59%%%%%%%%%%%Qq%%QqQqQ%%q%%Q%%%%%%%%%%%%%%%%%%%%%%%Qq%Q%%%%%%%%%%%%%%%%
4763I75%%QqQqQ%%qQ%%%%%%%%%%%%%%%%Qq%Q%qQ%%%%%qQ%%qQ%Qq%%%%%%%%%Q%%%%%%%%%Qq
4747I99%%%Q%qQqQ%q%Q%%qQ%%%%%%%%%%Qq%%Qq%%%%%Q%Qq%%%%qQ%%%%%%Qq%%%Qq%Q%%%%%%
4731A023%%%%%%%%%%%%%Q%qQ%%%%%%%%%%%%%Qq%%Qq%QqQ%%%%%%%%%%%QqQqQqQ%%q%%Q%%%%
4716A047%%%%%%%%%%%%%%%%%%%%%%QqQ%%%%%%%%%%%%%%%%%QqQqQ%%%%%%%%%%Q%%%%%%%%%%
4700A071%%%%%%%%%%%%%QqQqQq%QqQ%%%qQ%%%%%%QqQq%Q%%%%%%%%%%%%%%%%%%%%%Qq%%Q%%
4685A095%%%%%%%%%%%Qq%QqQq%Q%%Qj6Q%%%%%%%Q%qQqQ%%%%%%%%%%%Q%q%%Q%%%qQ%%Qq%%Q
4669A127q%Q%%q%%%%%QqQ%%%%%%%%%Q%qQq%Q%%%%qQ%%%%%%%%%%%%Q%%%%%%%%%%%%%%%%%%%
4654A143%%%QqQ%qQ%%%%%%%%%%%%%Q%%%%%%%%%%%%%%%%%%%Q%%%%%%%%%%%%%%%%%%%%%Q%qQ
4638A175%%%%%%%Q%q%Q%%qQ%Qq%%%%%%%%%%%%%%%Q%%%%%%%%%%Qq%%Qq%Q%%%%%%%%Q%q%%%%
4623A199%qJ6%q%Q%qqQQ%%%qQ%Q%q%QqQqQqQ%%%%%%%%%%%%%Q%%%%%%%%%%%%%Q%q%Q%%%%%%
4607A231%%%%Q%q%Q%q%Q%%%%%%%%%%%%%%%%%Q%%%%%%%%%%%Q%%%%%%%%%%%%%%%%%Q%qQ%%%%
4592A263%%%%%%%%%%%%%%%QqQ%%%%%%%%%%%Q%%%%%%%%%%%%%%%%Q%%qQqQ%%%%%Qq%%Qq%Q%%
4576A295%%%%%%%%%Q%%%%%%%%%%%%%%%%%%Q%%%%%%%%%%%%%%QqQ%%%%%%%%%%Q%qQ%%%%%%%%
4561A327%%%%Q%q%Q%qQ%%%%%Q%%%%%%%%%%%%%QqQqQq%%Q%%%%%%%%%QqQq%Q%qQ%%%%%%%Qq%
4545A359%Q%qQ%%%%%%%%%%%Q%q%Q%%%%%%%%%%%%Q%%%%%%%%%%%Q%qQ%%%%%%%%%QqQ%%%qQ%%
4529A399%%%%%%Qq%Q%%%%%%%QqQqQqQ%%%%%QqQq%%Q%qQqQ%%%%%%%%Q%q%Q%%%%%%%QqQ%%%%
4514A439%%%%%%%Q%%%%%%%%%%Qq%%%Q%%%%%%%%%%%Q%q%Q%q%Q%qQ%Q%%%q%Q%%%%%QqQ%%%%%
4498A479%%%%%Q%%%%%%%%%%%%%%%Q%qQ%%%qQ%%%%%%Q%%%%%Qq%Qq%%Q%%%%%%%%%%Q%%%%%%%
4483A519%%%%%%QqQ%%%%%%%%Q%%%%%%%%%Qq%Q%%%%%%%%%%%%Q%%%%%%%%%%%%%Q%%%%qQ%%%%
4467A559%%%Q%%%%%%%Q%q%Q%%%Qq%Qq%Q%%%%%%%%Q%qQqQ%%%%%Q%qQ%qQ%%%%%%%%Q%%%%%Qq
4452A607%Qq%QqQ%%%%%%%%%%Q%%%%%QqQqQ%%QqQq%Q%%%%%%%%%%%%QqQqQ%%%%QqQ%%%%%%%Q
4436A663%qQq%Q%q%J6%%%%QqqQ%qQ%%%QqQ%%%qQ%Q%%%%%%%%%Qq%%%%%Q%%%%%%%Q%%%qQ%%%
4421A703%%%QqQ%%%%%%Q%%%%%%Qq%%Q%%%%%%%%%%Q%%%%%%QqQqQ%%%%%%Q%%%%%%%%%QqQqQ%
4405A759%%%%%%%Q%%%%%%%%Q%q%Q%%%%%Q%%%%Qq%%%%Q%%%%%%%%%QqQ%%%%%%QqQ%%%%%%Q%q
4390A807Q%%%%%%QqQ%%qJ6j6QQ%Q%q%Qq%%Q%%QqQ%%qQ%%%%%%Qq%Q%%%%%%%Q%%%%Q%%%%Qq%
4375A871%%%%%QqQ%%%qQQqQqQ%%%%Q%%%%%%Q%%%%%%%%%%Q%%%%%%QqQ%%%%%%%%%%QqQ%%%%%
4359A927%%Q%%%%%%Q%qQ%%%%%Q%%%%Q%%%%%%%%%%Q%%%%%%%QqQ%%%%%Q%%%%%%QqQ%%%%%%%Q
4343A999%%%%Q%%%qQ%%%%%%%Q%%%%%%%Q%%%%%%%Q%%%%%%%Q%%%%%%%%Q%%%QqQ%%%%%%%Q%qQ
4328B063%%%%%Q%%%%%Q%%%%%%Q%%%%%%%%Q%qQ%%Q%%%%%%%Q%%%%%QqQ%%%%QqQ%%%%%qQQ%%%
4312B135%%%QqQ%%%%%Q%%%%%%Q%%%%Q%%%%%%%QqQ%%%%%QqQ%%%%Q%%%%%%Q%%%%%Q%%%%%%Qq
4297B207Q%%%%%Q%%%%%%%Q%%%%%%%Q%%%%%Q%%%QqQ%%%%%%QqQ%%%%QqQQj6Q%Q%qJ6qQ%qQ%%
4282B287%%Q%%%QqQ%qQ%%%%Q%%%%%Q%%%%%Q%%%%%Q%%Qq%Q%%%%%Qq%Q%%%%J6q%%QqQ%Q%%%%
4266B375%%%%%%Q%%%%%Q%%%%%Q%%%%%Q%%QqQ%%%%%%Q%%%%%%%Q%%%%%Q%%%Q%%%%%%%Q%%%%Q
4251B463%%%%Q%%%Q%%%%%Q%%%%%QqQ%%%QqQ%%%Q%qQ%Q%%%%Q%%%%%Q%%%%%%Q%%%%%Q%%%%%Q
4235B559%%%Q%%%%Q%%%%Q%%%%%%Q%%%%QqQ%%%Q%%%Q%%%Q%%%qQ%%Q%%%%Q%%%%Q%%%%Q%%%%%
4220B655%Q%%%%%Q%%%%Q%%%%Q%%QqQ%%QqQ%%%Q%%%%Q%%qQ%%Q%%%Q%%%Q%%%%%%Q%%Q%%%QqQ
4204B767%%Q%%%%Q%%%Q%qQQq%Q%Qj6QQ%Q%%%%%Q%%%%%Q%%%Q%%%Q%%%%Q%%Q%%%%%Q%%%%Q%%
4189B879%Q%%%%Q%%%%%Q%%%Q%%%%Q%%Q%%%%Q%%%Q%%QqQ%%%Q%%%%Q%%%Q%%%%Q%%%QqQ%Q%%%
4173B999Q%%%Q%%%%Q%%Q%%%%Q%%%QqQ%%QqQ%Q%%%QqQ%Q%%%%Q%%Q%qQ%Q%%%%Q%%%Q%Q%%%Qq
4158C127QqQQ%%QqQ%QqQ%%Q%Q%qJ6%qK4qk4J6L2m0QJ6qQ%J6j6Q%Q%%%%%Q%Q%%Q%%%%Q%%Q%
4144C255%%%Q%%%Q%Q%%Q%%%%%Q%QqQ%Q%%%Q%%Q%%%Q%%%Q%Q%%%%Q%%%Q%%Q%%Q%%%Q%%Q%%%%
4128C399Q%Q%%%%Q%%%%Q%%Q%Q%%Q%%Q%%%%Q%Q%%%Q%%%Q%%Q%%Q%%Q%%Q%%%%Q%%Q%%Q%%%Q%Q
4113C567%%%Q%%Q%%Q%%%Q%%Q%%Q%%Q%%%Q%%%Q%Q%%%Q%%Q%%Q%%Q%%Q%Q%%Q%%%Q%%%Q%Q%%Q%
4097C735Q%%Q%%Q%%%Q%%QQqQ%%Q%%Q%Q%%%Q%%Q%%Q%%Q%Q%%Q%%Q%Q%%Q%%Q%%%Q%%Q%Q%QqJ6
4082C927%qQQ%Q%%Q%%%Q%%Q%%Q%Q%%Q%%Q%%%Q%QQqQ%Q%Q%Q%%%%Q%Q%%Q%%Q%Q%%Q%%Q%Q%%Q
4066D119%Q%Q%%Q%Q%Q%%Q%Q%Q%%%Q%%%QQ%%Q%Q%Q%Q%%Q%Q%%Q%Q%%Q%Q%Q%Q%%%Q%%Q%Q%Q%%
4051D335Q%Q%Q%Q%%Q%Q%%%QQ%%Q%Q%Q%%Q%%Q%Q%Q%Q%Q%Q%Q%%Q%Q%%Q%Q%Q%Q%%Q%Q%Q%%Q%Q
4035D575QqQQQ%%%Q%Q%QQ%Q%%%QQ%%QQ%Q%%Q%Q%Q%%J6%%Q%Q%%Q%%QQ%Q%%J6%%Q%%Q%Q%QQ%
4020D823%QQ%Q%Q%Q%Q%Q%Q%Q%Q%Q%Q%QQ%%%Q%QQ%QQ%Q%Q%Q%Q%Q%Q%Q%Q%Q%Q%Q%%QQ%Q%Q%Q
4005E103Q%Q%Q%Q%Q%Q%QQ%Q%QQ%Q%QQ%Q%Q%QQ%Q%Q%Q%QQ%Q%QQ%QQ%Q%%QQ%Q%Q%Q%QQQ%%QQ
3989E415%%QQQ%Q%Q%Q%QQ%QQ%QQ%%QQ%QQQ%Q%Q%QQ%%QQQ%QQ%QQ%Q%QQ%QQ%Q%QQ%Q%QQQQ%Q
3974E751QQ%Q%QQQ%Q%Q%QQ%QQ%Q%QQ%QQ%J6%QQ%Q%QqJ6J6qJ6%%QQQQ%Q%QQJ6qQQQ%QQ%J6%
3959F087QQ%Q%QQQQ%Q%QQQQ%Q%QQQ%QQQ%QQQ%QQQ%QQQ%QQQQQ%QQ%QQ%QQQQ%QQQQQ%QQQ%QQ
3944F495Q%QQ%QQQQ%QQQ%QQQQQ%QQQQ%QQQQ%QQQQQ%QQQQQQQQ%QQQ%J6%QQQQQ%QQQQQQ%QQQ
3928F935%QQJ6%QQQQQQQ%QQQQQQQQ%QJ6%QQQQQQQ%QQQQQQQQQ%J6%K4qQQQQQQQQQ%J6QQQQQ
3914G399%J6%QQQQQQQQQQQQQQQQQQQQQQQQQQQQQJ6Q%QQQQQJ6%QQQQ%K4J6%%J6QQQQQQQQQJ6
3900G903QQQ%QJ6QQQQQQQQQJ6QQQQJ6QQQQQQQJ6%J6QQQQQQJ6%J6QQQQQJ6%J6QQQJ6%J6QQQ
3887H407QJ6QQQQJ6%J6QQQJ6QQQQJ6QQJ6QQQJ6%J6QQQJ6QQQQJ6QQQJ6QQJ6QQQJ6QQQJ6QJ6
3875H935QQQJ6QQJ6QJ6QQJ6QQQJ6QQJ6QQJ6QQJ6QQQJ6QQJ6QQJ6QJ6QJ6QQJ6J6QQJ6QJ6QQJ6
3863I487QQJ6QJ6QJ6QJ6QJ6QQQJ6J6QQJ6QJ6QJ6J6QQJ6QJ6J6QJ6QQJ6J6QJ6QJ6QQJ6QJ6QJ6
3852A0039QJ6QJ6J6J6QJ6J6QQJ6J6QQJ6J6J6%K4J6QQJ6J6J6QJ6QJ6J6J6QQJ6J6J6QJ6QJ6J6
3843A0583J6QJ6QJ6J6J6QJ6J6QJ6J6QJ6J6J6QJ6J6J6QJ6J6J6QJ6J6J6J6J6J6QJ6J6QJ6J6J6
3834A1127J6QJ6J6J6J6J6J6QK4QJ6J6J6J6J6J6QJ6J6J6J6J6J6J6J6QJ6J6J6J6J6J6J6J6J6
3825A1671J6QJ6J6K4QJ6J6J6J6J6J6J6J6J6K4J6J6J6J6J6J6J6J6J6J6J6J6K4J6J6QJ6K4J6
3817A2239J6QK4J6J6J6J6J6K4J6J6J6J6J6K4J6J6J6K4J6J6K4QK4J6J6J6J6K4J6J6K4J6J6J6
3809A2847K4J6J6J6K4J6J6J6K4J6J6K4J6J6K4J6J6K4J6J6K4J6K4J6J6K4J6K4J6J6K4J6K4J6
3802A3487K4J6K4J6J6K4K4J6J6K4K4J6K4J6K4J6K4J6K4J6K4K4J6K4J6K4J6K4J6K4J6K4K4J6
3794A4175K4J6K4K4K4J6K4K4J6K4J6K4K4J6K4K4K4K4J6K4L2J6K4J6L2J6K4K4J6K4L2J6K4K4
3786A4927J6L2J6K4K4K4K4K4K4K4K4K4K4J6L2J6K4K4L2J6L2J6K4K4K4K4K4K4K4K4L2K4K4K4
3778A5735K4L2K4K4K4K4K4K4K4K4K4L2K4K4K4L2J6L2K4K4L2J6L2K4L2K4K4L2K4K4L2K4K4K4
3771A6607L2K4K4L2K4L2K4L2K4K4L2L2K4L2K4L2K4L2K4L2K4K4L2L2K4L2K4L2L2L2K4L2K4L2
3763A7567K4L2L2L2K4L2L2L2L2K4L2K4L2L2L2L2K4L2L2L2L2L2L2K4L2M0K4L2L2L2L2L2L2L2
3755A8607L2M0K4M0L2K4M0L2L2L2L2L2L2L2L2M0L2L2L2L2M0L2L2L2M0L2L2L2M0L2M0L2L2L2
3747A9743M0L2M0L2M0L2M0M0L2M0K4M0M0L2M0M0L2M0M0L2M0L2M0M0M0L2M0M0L2M0M0M0L2M0
3739B0999M0M0M0M0M0M0M0L2M0M0M0M0M0M0M0M0M0M0M0M0M0M8M0M0M0M0M8L2M8M0M0M8L2M8
3732B2375M8M8M0M8M0M0M0M0M8M0M8M0M0M8M0M8M8M8M0M8M8M0M8M0M8M8M8M0M8M8M8M8M8M0
3724B3895M8M8M8M8M8M8M8M8M8M8M8M8M8M8N6M8M8M8M8M8N6M8N6M8M8M8N6M8M8N6M8N6M8N6
3716B5583M8N6M8N6N6M8N6N6M8N6N6M8N6N6N6N6N6M8N6O4M8O4M8O4M8N6O4N6N6N6N6N6N6N6
3708B7447O4N6O4N6N6O4N6O4N6N6O4N6O4N6O4O4N6O4N6O4O4O4O4O4O4O4O4O4O4O4O4N6P2O4
3700B9543O4O4O4O4P2N6P2O4P2O4P2N6P2P2P2O4P2O4P2P2O4P2P2P2O4P2P2P2P2P2P2P2P2P2
3693C1879Q0P2P2P2P2Q0P2P2Q0P2P2Q0P2Q0Q0Q0P2Q0Q0P2Q0Q0Q0Q0Q0Q0Q0P2Q0Q8Q0Q0Q0Q8
3685C4519Q0Q0Q8Q8Q8O4R6Q8Q8P2Q8Q8Q8Q0Q8Q8Q8Q8R6Q8Q0Q8R6Q0R6Q8R6Q8R6Q8Q8R6R6Q8
3677C7495R6R6Q8R6R6R6R6R6R6J04R6R6R6R6J04R6J04R6J04R6J04R6J12R6J04R6J12R6J12
3671D0367J04J04J04J04J12J04R6J12J12J12J04J12J12J12J04J12J12J12J12J12J12J12J20
3665D2879J12J20J12J20J12J20J20J12J20J20J20J20J20J20J20J28J20J20J28J20J28J28J28
3660D5647J20J28J28J28J28J28J28J28J36J28J28J36J36J28J36J36J28J36J36J36J44J36J36
3655D8679J36J44J36J44J44J44J36J44J44J44J44J44J52J44J52J44J52J52J52J44J52J52J52
3649E2031J60J52J60J52J60J52J60J60J60J60J60J60J68J60J60J68J68J60J68J68J76J60J76
3644E5759J68J76J76J68J76J76J68J76J84J76J76J84J84J84J76J84J84J84J84J92J84J92J92
3639E9903J92J92J92J92J92J92K00K00J92K00K00K00K00K08K00K08K00K08K08K08K16K08K16
3634F4527K08K16K16K16K16K24K16K24K16K24K24K24K32K24K32K24K32K32K32K40K32K40K40
3628F9711K32K48K40K48K40K48K48K48K48K48K56K48K56K56K64K56K56K64K72K64K64K64K72
3623G5551K72K72K72K80K72K80K80K80K88K80K88K88K88K88K96K88K96K96L04K96L04L04L04
3618H2167L12L12L04L12L12L20L20L20L20L28L20L28L28L36L36L28L44L36L44L36L52L44L52
3613H9711L44L60L52L60L52L68L60L68L60L76L68L76L76L84L84L84L84L84M00L84M00M00M00
3607I8335M00M08M08M08M16M16M16M24M16M32M32M32M32M40M32M48M48M48M48M56M56M64M64
3602A08279M64M72M72M72M80M80M88M88M88M96M96N04N04N12N04N20N20N20N28N20N36N36
3597A19279N44N44N44N52N52N60N60N68N68N76N76N84N92N84O00N92O00O16O08O16O24O24
3592A32063O24O32O40O48O48O48O64O56O72O72O72O88O88O88O96P04P04P12P20P28P28P28
3587A47023P44P44P52P52P68P68P76P84P76P92Q00Q16Q08Q24Q24Q24Q40Q40Q56Q56Q64Q72
3582A64703Q72Q88Q96Q96R04R20R12R36R28R52R52R60R68R76R84R92J000J008J024J024J032
3577A84727J048J056J056J072J080J096J096J104J120J128J144J144J160J168J176J192J192
3573B03759J216J216J232J248J256J264J280J280J304J312J328J336J352J368J368J392J400
3569B25911J408J432J440J456J464J488J496J512J520J544J552J568J592J592J624J632J648
3565B51879J672J688J696J704J744J752J768J784J808J824J840J864J880J896J928J936J968
3562B82631J976K000K032K040K064K096K112K136K152K184K200K232K256K280K304K328K352
3558C19375K384K408K440K456K496K520K552K576K608K640K672K696K736K760K792K832K872
3554C63815K896K928K976L000L040L080L112L152L200L240L264L312L352L400L448L488L528
3550D18231L576L624L664L720L760L816L864L912L968M024M072M128M184M240M304M360M416
3546D85863M480M544M608M672M736M800M872M944N016N080N168N232N312N392N472N544N632
3542E71367N720N808N896N984O072O168O264O368O456O568O664O776O880O992P112P216P336
3538F81647P456P592P704P832P968Q104Q240Q384Q528Q672Q824Q984R128R304R464R632R808
3534H27271R984J0168J0344J0552J0736J0936J1144J1360J1568J1792J2024J2256J2496J2736
3531I85367J2992J3256J3512J3792J4064J4360J4656J4952J5272J5592J5920J6256J6616J6968
3528A193575J7336J7728J8112J8520J8928J9360J9800K0256K0728K1208K1704K2224K2752
3525A452231K3296K3872K4448K5056K5672K6320K6984K7672K8384K9120K9888L0672L1488
3522A805103L2336L3216L4120L5064L6040L7056L8112L9200M0328M1520M2736M4016M5336
3519B304183M6720M8144M9648N1208N2824N4520N6280N8128O0056O2056O4160O6352O8648
3516C042927P1056P3576P6208P8976Q1880Q4920Q8120R1480R5016R8720J02640J06768J11104
3513D203391J15704J20536J25648J31056J36784J42832J49264J56080J63312J70992J79176
3511E794775J87888J97168K07056K17648K28945K41055K54016K67936K82889K98960L16287
3508H494623L34968L55160L76992M00656M26328M54256M84664N17824N54112N93832O37441
3505A3630856O85422P38328P96801Q61615R33608J013849J103520J204047J317113J444743
3503B3729902J589344J753808J941665K157198K405681K693594L029037L422160L885835M436470
3501E1044694N095217N889712O856314Q043627R517407J1367877J3720817J6754660K0726957
3499A49017282K6016733L3192918M3126303N7173372P7470490J07364746J51856919K17184785
3497H62403548L05856555L96358145L99905040J82960359j82960359l99905146l96358145
3495A168259997l05856502k17184732j51856866j07364799p7470463n7173372m3126330l3192891
3494A75034042k6016747k0726957j6754647j3720843j1367857r517407q043633o856314n889720
3492E6139917n095213m436467l885831l422167l029041k693584k405680k157198j941674j753808
3489B5319254j589336j444744j317111j204041j103528j013847r33616q61601p96807p38329
3487A4316294o85415o37440n93832n54103n17833m84663m54249m26336m00647l76993l55159
3484H829624l34969l16295k98960k82889k67928k54016k41056k28944k17640k07064j97160
3482E982703j87888j79176j70992j63320j56072j49256j42848j36776j31056j25648j20536
3479D319135j15688j11119j06761j02640r8728r5016r1472q8120q4920q1880p8976p6208p3576
3476C114031p1056o8640o6360o4160o2056o0048n8120n6288n4520n2824n1208m9648m8144
3473B350959m6720m5336m4016m2736m1512m0336l9192l8112l7056l6040l5064l4120l3208
3470A837511l2336l1496l0664k9888k9120k8384k7672k6984k6320k5680k5048k4448k3864
3467A475607k3296k2752k2224k1704k1208k0728k0256j9800j9360j8936j8512j8112j7720
3465A210999j7336j6976j6608j6256j5920j5592j5264j4960j4656j4352j4064j3792j3520
3462A011703j3248j2992j2736j2496j2256j2016j1800j1568j1352j1152j0936j0736j0544
3459H57871j0352j0168r984r800r632r464r296r136q976q824q680q520q384q240q104p968
3455G12343p840p704p584p456p344p216p104o992o880o776o664o560o464o360o264o168o072
3451E94895n984n888n808n720n632n552n464n400n312n240n144n088n008m944m880m800m736
3447E04295m672m600m544m480m424m352m304m240m184m128m072m024l960l912l864l816l768
3443D32951l712l664l624l576l528l488l440l400l352l312l280l232l192l152l112l080l040
3439C75767l000k968k936k896k864k832k792k768k728k696k672k640k600k584k552k520k488
3435C29231k464k440k400k384k352k336k312k264k256k232k200k184k152k136k112k088k064
3432B90855k048k024k000j984j960j936j920j896j888j856j840j824j808j784j776j744j736
3428B58831j720j696j672j672j648j632j616j600j592j568j552j544j520j512j496j480j464
3424B31847j456j448j424j408j400j392j376j360j344j336j336j304j304j288j280j264j256
3420B08871j240j232j216j208j208j184j176j168j160j144j136j128j120j104j104j080j080
3416A89183j072j064j056j040j040j024j016j008j000r92r84r76r68r60r52r44r36r28r20
3412A70303r20r04q96q96q80q80q64q64q56q56q40q40q24q24q16q16q08p92p92p92p76p76
3407A51791p68p60p60p52p44p36p36p28p20p20p12p04p04o96o88o88o80o80o72o64o56o64
3402A36159o48o48o40o40o32o32o24o24o08o16o08o00n92o00n92n84n76n84n68n76n60n60
3397A22847n60n60n44n52n36n44n36n28n36n20n20n20n12n12n04n04n04m96m88m96m88m80
3391A11407m80m80m80m72m64m72m56m64m56m48m56m48m40m48m40m32m40m24m32m24m24m24
3386A01503m16m16m08m08m16m00m00m08m00l84m00l84l92l84l84l84l76l76l76l68l76l68
3381I2879l60l68l52l60l52l60l52l52l52l44l44l44l36l44l28l44l28l28l36l20l28l20l20
3376H5007l12l28l12l12l12l12l12l04l04l04l04l04k96k96k96k88k96k88k88k88k88k80k80
3371G8103k80k80k80k72k80k72k72k64k72k64k72k64k64k56k64k56k56k56k56k56k48k48k56
3366G2015k40k48k48k40k48k40k40k40k40k40k32k32k40k24k32k32k32k16k24k32k16k32k16
3360F6631k24k24k08k16k16k16k16k08k16k08k08k08k08k08k08k08k00k00k00k00k00k00k00
3355F1831j92j92k00j92j92j92j92j84j92j84j84j92j84j92j84j76j84j76j84j84j76j76j84
3350E7543j76j68j76j68j68j84j68j76j52j68j92j52j68j60j68j76j44j76j60j60j60j52j68
3345E3703j60j52j60j52j60j52j52j52j52j60j44j52j44j52j52j52j44j44j52j36j52j44j44
3339E0239j44j36j44j36j44j44j36j36j44j36j36j36j36j36j36j28j36j28j36j28j28j36j28
3334D7111j28j28j28j28j28j28j28j20j28j28j20j20j28j20j20j20j20j20j20j20j20j20j20
3329D4271j12j20j12j20j12j20j12j12j20j12j12j12j12j12j04j12j12j12j04j12j04j12j12
3324D1687j04j04j04j12j04j04j04j04j04j04j04r6j04r6j04j04j04r6j04r6r6j04r6r6r6
3318C9143r6r6j04q8r6r6r6r6q8r6r6q8r6r6q8q8r6q8r6q8q8q8q8q8q8q8q8q8q8q8q8q0q8
3310C6135q8q8q0q8q0q8q0q0q8q0q8q0q0q0q8q0q0q0q0q0q0q0p2q0q0q0q0p2q0p2q0p2q0p2
3302C3399q0p2q0p2p2q0p2p2p2p2q0p2p2p2o4q0o4p2p2p2p2p2o4p2p2o4p2p2o4o4p2o4p2o4
3295C0975p2o4o4o4p2o4o4p2n6p2o4o4o4o4o4o4o4o4o4n6o4o4o4o4o4n6o4o4n6o4o4n6o4n6
3287B8815o4n6n6o4n6n6o4n6n6n6o4n6n6n6n6n6o4m8o4m8n6o4n6m8o4m8o4m8n6m8n6n6n6m8
3279B6895n6n6m8n6n6m8n6m8n6n6m8m8n6m8m8n6n6m8m8m8n6m8m8m8m8n6m8n6m8m8m0n6m8m8
3271B5159m8m8m8m8m8m8m8m8m0m8m8m8m0m8m8m8m0m8m0m8m8m0m8m0m8m8m0m8m0m8m0m0m8m0
3264B3615m8m0m8m0m8l2m8m8l2m8m8l2m8m0m0m8m0m0m0m8l2m0m0m0m8m0m0m0l2m8l2m0m8l2
3256B2207m0m0m0m0m0l2m0m0m0m0l2m0m0m0m0l2m0l2m0m0l2m0l2m0l2m0l2m0l2m0l2m0m0l2
3248B0935l2m0l2m0l2m0l2l2m0l2m0l2l2m0l2l2l2l2l2m0l2l2m0k4m0l2l2l2l2l2l2m0k4l2
3240A9783l2l2l2l2l2l2l2l2l2l2l2l2l2l2l2l2k4l2l2l2l2l2l2l2k4l2l2l2l2k4l2k4l2l2
3232A8727l2k4l2k4l2l2l2k4l2l2k4l2l2k4l2k4l2k4k4l2k4l2k4k4l2k4l2k4k4l2l2k4k4l2
3225A7767k4k4l2k4k4l2k4k4l2k4k4k4l2k4l2j6l2k4k4k4k4l2k4k4l2k4j6l2k4k4k4k4k4k4
3217A6895l2j6l2k4j6m0j6l2qk4m8qk4j6l2l2ql2k4k4k4k4k4k4j6l2j6k4k4k4k4j6l2j6k4
3209A6063k4k4j6l2j6k4k4k4j6k4k4k4j6k4k4k4j6k4k4j6k4k4k4k4j6j6l2j6k4j6k4k4j6k4
3201A5319j6k4j6k4k4j6k4k4j6k4k4j6j6k4k4j6j6k4j6k4j6k4j6j6k4j6k4j6k4j6j6k4j6k4
3193A4639j6j6k4j6j6k4j6j6k4j6k4j6j6k4j6j6k4j6j6k4j6j6j6k4j6j6j6j6k4j6j6k4j6j6
3186A4015j6k4j6j6j6k4j6j6j6j6j6j6j6k4j6j6j6j6j6j6j6k4qj6k4j6j6j6j6j6j6j6j6j6
3178A3439j6j6j6k4j6j6qk4j6j6j6j6j6j6j6j6qk4qj6j6k4qj6j6j6j6j6j6qj6k4j6qk4qj6
3169A2855j6j6j6j6j6qj6j6j6j6qj6j6j6j6qj6j6j6j6j6qj6j6qj6j6j6qk4qj6j6j6j6qj6j6
3161A2303qj6j6qj6j6qj6j6j6qj6j6j6qj6qj6j6qj6j6j6qj6j6qj6qj6qj6qj6j6qj6qj6j6q
3151A1767j6qj6j6qj6qj6qj6qj6qj6j6qj6qj6qj6qj6qj6j6qj6qqj6qj6qj6qqj6qj6qj6qqj6
3141A1223j6qqj6j6qqj6qqj6qqj6qj6qj6qqj6qj6qqqj6qj6qj6%j6qqj6j6%j6qj6qqj6qqj6
3130A0703qqj6qqqqj6qqqqj6j6%j6qj6qqqj6qqj6q%qj6qqqj6qqqj6qqqqj6qqqj6%qj6qqqq
3118A0191j6%j6qqqj6qqqj6%qj6qqqqqqqj6qqqqqqqqqqj6qqqqqqqqqj6qqqqqqqqqqqqj6%q
3105I679qqqqqqqqqqj6%j6q%qqqqqqqqqqqqqqqqqqqqqqqq%qj6q%qqqqqqqq%j6q%qqqqqqqq
3090I183q%qqqqqqqqqqq%qqqq%j6q%qqqqq%qqqqq%qj6%qqq%qqqq%j6%qqqqq%qqqq%qq%j6%
3075H751qqq%qqq%qqqq%qqq%qqq%qqq%qqqq%q%j6%q%qqqq%qq%qq%qqq%q%j6%qq%qq%qq%qq
3060H359q%qq%qqq%q%qqq%qq%qqq%q%qq%qq%q%qqq%qq%qq%q%qqq%%j6%q%q%q%qq%q%qq%q%
3045H015q%q%qq%q%qq%q%qq%qq%%qq%q%%j6Qqqq%q%qq%q%q%q%q%qq%%qq%%q%q%qq%qq%%qq
3030G711%%qq%%j6%q%q%qQq%j6%%q%q%q%q%%j6Qqq%q%q%q%%q%%q%qq%%q%q%q%q%%q%qq%%q
3015G463q%%q%q%%q%q%q%q%q%q%%q%q%q%q%%q%q%%q%%q%q%%%q%q%q%q%%q%%qq%%q%q%%q%%
2999G239%qq%%%q%%q%%q%%q%q%qQq%q%q%%q%q%%%q%%q%q%%q%q%%q%%q%%q%%%q%%q%%q%%q%
2984G047%%q%%q%%%qq%%%qQ%qq%qQ%q%%q%q%%%q%q%%%q%%%%q%%q%%%q%q%%qQ%q%q%%%%j6Q
2968F895%qQj6%J6k4%J6k4M0l2j6L2j6qq%%qQ%%qqQq%%qQ%q%%%q%q%%%%q%%qQq%q%%%q%%%
2955F783%q%%%%q%%%%q%%%%%q%%%%q%%%%q%%%q%%%q%%%%%q%%%%%%%q%%%%qQq%%q%%%%q%%%
2939F679%%q%%%%%%%%%q%%qQ%q%%%%q%%%%%%%q%%%%%%%q%%%%%%q%%%%%%%%%q%%%%q%%%%%%
2924F607%q%%%%%%%%qQqQ%q%%%%%%q%%%%%%%%%%%q%%%%%%%%%qQqQq%%%%%%qQq%QqqJ6j6Q%
2909F559%qQq%Qq%%%%%%%%%%qQ%qQ%%q%Qq%%%Qq%%%%%%%%q%%%Qq%%%%%%%%%%%%%%%%%%%%%
2893F535%%%%%%qQ%%qQ%q%%%%%%%%%%%%%%%%Q%%%%%%%%%%%qQ%q%QqQ%q%%Q%%qQ%%%%QqQq%
2878F535%%Qq%%%QqQqQ%%%%%%qQ%%%%%%%%%%%%%%%Q%%%%%%%%%%%%%%%%%%Q%%%%%%%%QqQ%%
2862F567%%%%%%%%%%%%Q%q%QqQ%%%%%%%%%Q%%%%%%Q%%%%%%QqQ%%%%%%%%QqQ%%%%%%Q%qQ%%
2847F615%%%Q%%%%%Q%%%%%%%%%Q%%%%%%Q%qQ%%%Q%%%%Q%qQ%%%%Q%%%Q%q%Q%Qq%Q%%%%QqQ%
2831F695%Q%%%%%%%Q%%%%Q%%%%Q%%%%%Q%Q%q%Q%%Q%%%%%%Q%%QqQ%%%%Q%Q%%%%%Q%%%Q%%%%
2815F799Q%%%Q%%Q%%%%Q%%Q%%%%%Q%%QqQ%%Q%%%%Q%%%Q%%Q%%qQQ%%%Q%%%Q%%Q%%%Q%%Q%%Q
2800F943%%QqQ%%Q%Q%%%%Q%%%Q%%Q%%%QqJ6qJ6qQ%%Q%Q%%%%QQ%%%Q%%%Q%%%QQ%%Q%%%Q%Q%
2785G103%Q%%%Q%%%Q%Q%Q%%Q%%%QQ%%%Q%Q%%Q%%Q%%Q%Q%%%Q%Q%Q%Q%%%Q%%Q%Q%Q%%Q%%Q%Q
2769G303%%Q%%QQ%%Q%Q%Q%%Q%Q%%Q%%Q%Q%Q%%QQ%Q%Q%%%Q%Q%Q%%QQ%Q%%Q%Q%Q%%QQ%%Q%%Q
2754G535%QQ%Q%%Q%Q%Q%Q%Q%Q%%QQQ%%Q%Q%%J6qJ6j6J6J6qQ%Q%Q%Q%%J6%%Q%Q%QQ%Q%Q%Q%
2739G783QQ%%QQ%Q%Q%Q%Q%QQ%%J6qJ6%%J6%%Q%QQ%QQQ%Q%Q%QQ%Q%Q%Q%%J6%Q%QQ%QQ%Q%QQ
2725H087%QQ%Q%Q%QQQ%Q%Q%QQQ%QQ%Q%Q%QQ%QQ%QQ%Q%QQQ%QQ%QQQ%Q%J6%%QQQQ%Q%QQQ%QQ
2709H439Q%Q%J6%QQ%QQQ%QQ%QQQ%QQ%QQQQQ%QQQ%QQ%J6%QQ%J6%Q%QQQQ%QQQ%QQQQQ%QQ%QQ
2695H831QQQQ%QQQQQQ%QQQQQ%QQQQQ%QQQQQQQ%J6%QQQQ%QJ6%QQQQQQQQ%QQQQQQ%J6%QQJ6%
2680I279QQQQQQQQQ%J6%QJ6%QQQQQQQQQ%J6QQQQQQJ6%QQQQQQ%J6QQQQQJ6%QQQQQQQQQQQQQ
2666I767QJ6Q%J6QQQQQQQJ6%J6QQQQQJ6%J6QQQQQQQQJ6QQQQQQQJ6QQQQQQJ6QQQQQQJ6QQQQ
2652A0287QJ6QQQJ6QQQJ6%J6QQQQJ6QQJ6%J6QQJ6J6%J6QQJ6QQQJ6QQJ6%J6QJ6QQJ6QQJ6QQ
2641A0791QJ6QQJ6QQQJ6J6QQQJ6QJ6QQJ6QJ6QQJ6QQJ6QQJ6QJ6QJ6QQJ6QJ6QJ6QJ6QJ6QJ6Q
2630A1327J6QJ6QJ6QJ6%K4QQJ6QQJ6J6QJ6J6QJ6QQJ6QJ6QJ6J6QJ6J6QJ6QJ6QJ6QJ6QJ6J6Q
2620A1863J6J6QJ6QJ6J6J6QJ6QK4QJ6QJ6QJ6J6QJ6J6QJ6QJ6J6QK4QJ6J6QJ6J6J6QJ6J6J6J6
2611A2423QJ6J6QJ6J6J6QJ6J6J6QJ6J6J6J6J6J6J6J6QJ6J6J6J6J6J6QJ6J6J6J6J6J6QJ6J6
2602A2959J6J6J6J6J6J6J6J6QK4J6J6QK4J6J6QK4QK4J6J6J6J6J6QK4J6J6J6J6J6J6J6J6J6
2594A3535K4J6J6J6J6J6J6J6J6J6K4J6J6J6J6J6J6J6J6J6J6K4QK4J6J6J6L2J6J6J6J6K4J6
2586A4127J6J6J6K4J6J6J6J6K4J6K4J6J6K4J6J6J6K4J6J6K4J6K4J6K4J6J6J6K4J6J6K4K4J6
2578A4759J6K4J6K4K4J6J6K4J6J6K4K4J6K4J6K4J6K4J6K4J6K4J6K4J6K4J6K4K4K4J6K4K4J6
2570A5447K4J6K4K4K4J6K4K4K4J6K4K4J6K4J6K4K4K4K4K4J6K4K4K4J6K4K4K4K4J6K4K4K4K4
2563A6199K4J6L2J6K4K4L2J6L2K4J6K4K4K4K4K4J6O4j6M0QL2K4J6M0J6K4K4K4K4L2J6L2K4
2555A7015K4K4K4K4L2K4K4K4L2J6L2K4L2K4K4K4K4L2K4K4L2K4K4L2K4K4K4L2K4K4L2L2K4K4
2547A7903K4L2L2K4K4L2L2K4L2K4K4K4L2L2K4L2K4L2L2K4L2K4L2L2K4L2L2L2K4L2L2K4L2L2
2539A8879K4L2L2L2K4L2L2L2L2K4M0K4L2L2L2L2L2L2L2L2L2L2L2L2L2K4M0K4M0L2L2L2L2L2
2532A9943L2L2L2M0L2L2L2M0L2L2L2L2L2M0L2L2L2M0L2M0L2M0L2L2L2M0L2M0L2M0L2L2M0L2
2524B1111M0L2M0M0L2M0L2M0M0L2M0M0L2M0M0M0L2M0L2M0M0L2M8M0L2M0M0M0M0M0M0M0M0M0
2516B2407M0M0M0M0M0M0M0M0M0M0M0M0M8L2M8M8L2M8M0M0M8M0M8L2M8M0M0M8M8M8L2M8M0M8
2508B3831M0M8M8M0M8M0M8M8M0M8M0M8M8M8M0M8M8M0N6M8M0M8M8M8M8M8M8M8M8M8M8M8M8M8
2500B5407N6M8M0M8N6N6M0N6M8N6M0N6M8N6M8M8M8N6N6M8N6M8N6M8N6N6M8N6N6M8N6N6N6M8
2493B7159N6N6N6N6M8O4M8N6N6N6O4N6N6M8O4N6N6N6N6O4N6N6O4N6N6O4N6O4N6N6O4O4N6O4
2485B9119N6P2N6N6O4O4O4N6O4P2N6O4O4O4O4O4O4O4O4O4P2O4O4O4P2O4O4O4P2O4P2O4P2O4
2477C1311P2O4P2P2O4P2O4P2P2P2O4P2Q0O4Q0P2P2P2P2P2P2P2Q0P2P2Q0P2O4Q8P2P2Q0P2Q0
2469C3775Q0Q0P2Q0Q0P2Q0Q0Q8P2Q0Q0Q0Q0Q0Q8Q0Q0Q0Q8Q0Q8Q0Q8Q0Q8Q0Q8Q8Q8Q0Q8Q8Q8
2462C6567Q8Q8Q8Q8Q8Q8Q8Q8Q8R6Q8Q8R6Q8R6R6Q8R6R6Q8R6R6R6R6R6R6R6R6R6R6J04R6R6
2454C9631R6J04J04R6R6J12R6J04J04R6J04J04J04J04J04J04J12J04J04J12J04J12J04J12
2449D2127J12J04J12J04J12J12J12J12J12J12J12J20J12J12J20J20J12J20J20J12J20J20J20
2443D4751J20J20J20J20J28J12J28J20J20J28J28J28J20J28J28J28J28J28J28J36J28J28J36
2438D7639J28J28J36J36J36J36J28J44J36J36J36J36J44J36J44J36J44J44J44J36J44J44J52
2433E0823J44J44J44J52J44J52J52J52J44J60J44J52J60J52J52J60J60J52J60J60J60J60J60
2427E4343J60J60J60J76J60J68J60J68J68J76J68J68J76J68J68J76J76J76J76J76J76J76J84
2422E8263J76J76J84J84J84J84J92J84J84J92J84J92J92J92J92J92K00J92J92K00K00K00K00
2417F2631K00K00K08K08K00K00K08K08K16K08K16K08K16K16K08K24K16K16K24K16K24K24K24
2412F7519K32K24K24K32K32K24K32K40K48K32K32K56K32K40K40K40K48K40K56K40K56K56K48
2406G3023K56K56K56K64K56K64K64K64K64K64K72K64K72K80K72K72K80K80K80K80K88K80K96
2401G9247K88K88K88K96K88K96K96L04L04L04L04L04L12L04L20L12L12L20L20L20L20L28L28
2396H6303L28L28L36L28L36L44L36L44L52L36L60L44L52L52L60L60L60L60L68L68L68L68L76
2391I4367L76L76L84L84L84L84L92L92L92M00M08M00M00M08M08M16M16M16M16M32M24M24M40
2385A03639M32M32M40M40M48M48M48M56M56M64M56M72M64M72M80M80M80M80M88M96M88M96
2380A13855N04N04N04N12N12N20N20N28N28N28N36N44N44N44N52N52N60N60N68N68N76N76
2375A25695N84N84N92N92O00O00O08O08O16O16O24O32O32O32O48O48O48O56O64O72O64O80
2370A39495O80O88O88O96P04P04P20P12P20P36P28P36P44P60P52P68P68P68P84P84P92P92
2365A55719Q08Q16Q08Q32Q24Q40Q40Q56Q56Q56Q72Q80Q88Q88Q96R12R12R20R28R36R44R52
2360A74983R60R68R76R84R92J000J008J024J024J032J040J056J056J080J080J088J096J112
2356A93559J112J128J136J144J160J168J184J184J200J208J216J232J248J256J264J280J280
2352B13959J304J312J320J336J352J360J376J392J400J408J432J440J448J472J480J496J512
2348B37799J528J536J552J576J584J600J616J632J648J672J680J696J712J736J752J768J784
2344B65871J808J824J840J864J880J896J920J936J968J976K000K024K048K064K088K112K136
2340B99255K152K184K200K232K256K272K304K328K360K376K408K440K464K488K520K552K576
2337C39367K608K640K672K696K736K760K792K832K864K896K936K968L000L040L080L120L152
2333C88159L192L232L272L312L352L400L440L488L528L576L616L672L712L768L816L864L912
2329D48311L968M024M064M136M184M240M296M360M416M480M544M608M664M736M808M872M936
2325E23647N024N080N160N224N312N400N464N552N624N728N800N896N984O072O176O256O368
2321F19767O456O560O672O768O880O992P104P216P344P456P584P704P840P968Q104Q240Q384
2317G45039Q528Q672Q824Q976R136R296R464R632R808R984J0160J0352J0544J0736J0944J1144
2313I01239J1352J1576J1792J2016J2256J2496J2736J2992J3248J3520J3784J4072J4360J4648
2310A082087J4960J5264J5592J5920J6264J6608J6968J7344J7720J8104J8520J8928J9360
2307A303639J9808K0256K0720K1208K1712K2216K2752K3304K3864K4448K5056K5672K6320
2304A600975K6976K7672K8392K9120K9880L0672L1488L2336L3216L4120L5064L6040L7056
2301B013007L8104L9200M0336M1512M2736M4016M5336M6712M8152M9648N1200N2824N4520
2298B607303N6288N8128O0040O2064O4152O6360O8656P1048P3576P6208P8976Q1872Q4920
2295C509591Q8120R1480R5016R8729J02631J06768J11104J15704J20528J25657J31047J36784
2293D833159J42840J49256J56080J63312J71000J79176J87880J97168K07064K17640K28944
2290F833519K41048K54016K67937K82880K98967L16280L34984L55152L76993M00656M26327
2288A0388759M54256M84656N17833N54103N93832O37448O85416P38320P96807Q61601R33624
2285A7646655J013856J103504J204056J317103J444744J589344J753817J941657K157208K405677
2283C3577621K693584L029024L422170L885848M436457N095220N889706O856334Q043620R517407
2281H6446991J1367870J3720830J6754647K0726944K6016733L3192918M3126303N7173372
2279C08526608P7470490J07364746J51856919K17184732L05856502L96358145L99904933J82960572
2277B147483647j82960359l99905040l96358251l05856555k17184679j51856919j07364746
2275C85997098p7470463n7173372m3126317l3192931k6016733k0726957j6754660j3720817
2273I7814848j1367877r517387q043633o856328n889699n095230m436457l885848l422176
2271C9300213l029021k693594k405671k157208j941665j753815j589337j444743j317121j204039
2269A9763999j103520j013849r33624q61599p96809p38320o85422o37441n93839n54096n17833
2267A1327647m84664m54248m26336m00656l76984l55159l34977l16287k98969k82880k67936
2264G328551k54024k41040k28952k17640k07064j97168j87888j79176j70992j63312j56080
2262E125215j49256j42840j36784j31064j25640j20544j15696j11104j06768j02640r8720
2259C784159r5016r1472q8120q4928q1872p8984p6208p3568p1056o8656o6352o4160o2056
2256B781711o0056n8128n6280n4520n2824n1200m9656m8152m6712m5336m4016m2744m1512
2253B130575m0336l9200l8104l7056l6040l5064l4128l3208l2336l1488l0672k9880k9128
2250A683935k8384k7672k6984k6320k5672k5056k4448k3872k3288k2760k2216k1712k1208
2247A364343k0720k0264j9800j9352j8936j8520j8112j7720j7344j6968j6608j6256j5928
2244A127815j5584j5272j4960j4648j4360j4072j3784j3520j3256j2992j2736j2496j2256
2241I47879j2016j1792j1576j1360j1144j0936j0744j0544j0352j0160r984r808r632r464
2238G98367r296r136q976q832q672q520q384q240q104p976p832p712p576p464p336p224p104
2234F59983o992o880o776o664o568o464o360o264o168o080n976n896n808n712n640n544n472
2230E54719n392n312n232n160n088n016m936m880m800m736m672m608m544m480m416m360m296
2226D72791m248m184m128m072m024l968l912l864l816l760l720l664l624l576l528l488l440
2222D07775l392l360l312l280l232l192l152l120l072l040l008k968k936k896k864k832k792
2218C55327k768k728k704k664k648k608k576k544k528k488k464k440k408k384k352k328k304
2215C12391k280k256k224k208k184k152k144k104k088k072k040k032j992j984j960j944j920
2211B76807j904j880j856j848j824j808j784j768j752j736j712j704j672j672j648j632j616
2207B46991j600j600j568j552j536j528j512j496j480j472j456j440j416j416j408j400j368
2203B21743j352j360j336j328j312j296j288j280j264j256j240j232j224j216j192j192j184
2199B00191j168j152j144j144j128j112j112j096j096j080j064j072j048j048j032j024j024
2195A81647j000j008r92r76r84r68r60r52r44r36r36r20r12r04r04q88q80q80q72q64q56q56
2190A61255q40q40q32q24q16q08q08q00p92p84p84p76p68p68p52p52p44p44p36p28p20p20
2185A44119p12p04p04o96o88o96o80o72o72o72o64o56o48o48o40o40o32o32o24o24o16o08
2180A29591o08o00o00n92n92n92n84n76n76n68n68n60n60n52n52n52n36n44n36n36n28n20
2175A17159n20n20n20n04n04n12n04m88m96m96m88m80m88m72m72m80m72m64m64m56m64m48
2170A06447m56m48m48m40m40m40m32m32m32m24m32m16m16m16m16m08m08m08m00m00m00m00
2165I7135l84l92l92l84l84l84l84l68l84l68l68l68l68l68l52l68l52l60l52l52l44l44l52
2160H8663l44l36l36l44l28l36l28l28l28l28l20l20l20l20l20l12l12l12l12l04l04l04l12
2154H1255k96k96l04k88k96k96k88k88k88k88k80k88k80k80k80k72k80k72k72k72k72k64k64
2149G4751k64k64k64k56k64k56k56k56k56k48k56k48k48k40k56k40k48k32k48k40k40k40k32
2144F8999k40k32k32k32k24k32k24k32k24k24k24k24k24k16k16k16k16k16k16k16k08k08k08
2139F3895k16k00k16k00k08k00k00k08k00k00k00k00j92k00j92k00j92j92j84j92j92j92j84
2133E9335j92j84j84j84j84j84j76j84j76j84j76j76j76j76j76j76j76j68j68j68j76j68j68
2128E5255j68j68j68j60j68j68j60j60j60j68j60j60j60j52j60j52j60j60j52j52j52j52j52
2123E1583j52j52j44j52j52j52j44j44j44j44j44j52j36j44j44j44j36j44j44j36j36j44j36
2118D8263j36j36j36j28j36j36j36j28j36j28j28j36j28j28j28j28j28j28j28j28j20j28j28
2112D5263j20j20j28j20j20j20j28j20j20j20j20j20j20j20j12j12j20j20j12j12j12j20j12
2107D2535j12j12j12j12j12j12j04j12j12j04j12j04j12j04j12j04j04j04j04j04j04j04j04
2102D0055j04j04r6j12r6r6j04j04r6j04r6r6j04r6r6r6r6r6r6j04q8r6r6q8r6r6r6q8r6r6
2095C7127q8r6q8q8q8r6q8q8q8q8q8q8q8q8q8q8q8q0q8q8r6q0r6o4q8q0q8q0q8q8q0q0q0q0
2087C4191q8p2q8p2q0q8p2q8p2q0p2q0q0p2q0q0p2q0p2q0p2q0p2p2p2q0p2p2p2q0p2p2p2o4
2079C1599q0p2p2o4p2p2p2p2o4p2p2o4p2p2o4p2o4o4p2o4p2o4o4p2o4o4p2o4o4o4o4o4o4p2
2072B9279n6o4o4o4o4o4o4o4o4n6o4o4n6o4o4n6o4n6o4n6o4n6o4n6o4n6o4n6n6n6n6o4n6n6
2064B7223n6n6n6o4n6n6n6n6n6m8n6n6n6n6m8n6n6n6n6n6m8n6n6n6m8n6m8n6m8o4n6m0m8n6
2056B5375m8n6m8m8n6n6m8m8m8n6m0n6m8m8m8m8n6m8m8m8m8m8m8m8m8m8m8m8m8m8m0m8m8m8
2048B3711m8m0m8m8m8m0m8m8m8m0m8m0m8m0m8m0m8m8m0m8m0m0m8l2m8n6m0l2n6l2m8m0m8l2
2040B2215m8l2m8m0m0m8m0m0m0m0m0m0m0m8l2m8m0m0m0m0l2m8l2m0m8l2m0m0l2m8l2m0m0m0
2033B0847l2m0m0m0l2m8k4m0m0l2m8l2l2m0l2m8l2l2m8k4m0m0m0k4m0l2m0l2m0l2l2m0l2l2
2025A9615l2m0l2l2m0l2m0l2l2l2l2m0l2l2l2m0l2l2l2l2l2l2l2l2l2m0k4m0l2l2l2l2l2k4
2017A8487l2l2l2l2l2l2l2l2k4l2l2l2l2l2l2l2l2k4l2l2l2k4l2l2k4l2l2k4l2l2k4l2k4l2
2009A7455l2l2k4l2k4l2l2k4l2k4l2l2k4l2k4k4l2k4l2k4l2k4k4l2k4l2l2k4k4l2k4k4k4k4
2001A6511l2k4l2k4k4k4l2k4l2k4k4k4k4k4l2k4k4k4k4l2k4k4l2j6k4k4k4l2k4k4k4k4k4l2
1994A5631j6l2j6k4l2j6l2j6k4l2k4k4k4j6k4k4k4k4k4k4k4k4k4k4k4j6k4k4k4k4l2j6k4k4
1986A4831j6k4k4k4k4j6k4l2k4j6j6k4k4k4j6k4j6k4k4k4j6k4k4j6k4k4j6k4k4k4j6k4j6k4
1978A4095k4j6k4k4j6k4j6k4j6k4j6k4j6k4k4j6j6k4j6k4k4j6j6k4j6k4j6k4j6j6k4k4j6j6
1970A3415k4j6j6k4j6k4k4j6j6j6j6k4j6j6k4j6k4j6j6k4j6k4j6j6j6k4j6j6k4j6j6j6j6k4
1963A2775j6j6j6j6k4j6j6k4j6j6j6j6k4j6j6j6j6j6k4j6j6j6j6j6j6j6k4j6j6j6j6j6j6j6
1955A2191j6j6j6j6j6j6k4j6j6j6j6j6j6j6j6j6j6j6j6j6j6j6j6j6j6j6j6j6j6j6j6j6j6j6
1947A1639j6qk4qj6j6j6j6j6j6j6j6j6j6qj6j6j6j6j6j6j6qj6j6j6qk4%j6k4j6qk4qj6j6j6
1938A1071j6qj6j6j6j6j6qj6j6j6qj6j6qj6j6j6j6j6qj6qj6j6qj6j6j6qj6j6qj6j6j6qj6j6
1929A0527qj6j6qj6qj6j6qj6j6qj6qj6j6qj6j6qj6qj6j6qqj6j6j6qqj6qj6j6qj6qj6j6qj6
1920I991qj6qj6qj6qj6j6qqj6j6qj6qj6qqj6j6qqj6j6%j6j6qj6qqj6qj6qj6qj6qqqj6j6qj6
1909I447qqj6qj6qqj6qj6%j6j6qqj6qj6qqqj6qqj6qqj6qj6qqqj6qqj6qj6qqqj6qqqj6qj6q
1898H911qqqj6qj6qq%j6qj6qj6qqqqj6qqqj6qqqqj6qqqj6qqqqj6qqqqj6qqqqj6qqqqj6qqq
1885H375qqqj6qqqqj6qqqqqqqqqj6qqqqj6qq%j6qqqqqqj6%j6qqqj6qqqqqqqqqqj6q%j6qqq
1872G855qqqqqqqqqqqqqqqqqqqqqqqj6%qj6%qqj6%qqj6qq%qj6qq%qqqqqqqqqqqqqqqqqqqq
1858G351qq%qqqqj6%j6%q%j6qqq%j6qq%j6%j6%qqqq%qj6%j6%qqqqq%qqqq%j6qqq%j6%qqqq
1844F927%qqqqqq%qqqqqqq%qj6%qqqq%j6%q%qj6%qqq%qqqq%qqq%qqq%qqq%qqqq%qqqqqq%q
1829F503qq%qqqqq%qqq%j6Qj6%qqq%qqq%q%j6q%qqqq%qqq%qq%qqq%q%qqqq%qqq%qqq%q%qq
1814F111q%qqqqQj6q%qq%qq%q%q%qj6%qq%j6%%q%%j6%j6%q%qqq%q%qqq%q%qq%qq%qq%qq%q
1800E767q%q%qq%qq%q%qq%qqq%q%q%qqqq%q%%qqq%qq%qq%q%q%qq%%qqq%q%q%qqq%qq%%qq%
1785E431q%q%qq%%qqq%q%qq%q%q%q%qqq%%q%q%q%qqq%q%qq%q%q%qq%q%%qqq%%q%q%qq%qq%
1769E119q%q%%q%qqq%%q%qq%%q%q%q%qq%q%q%q%q%q%q%%qq%q%q%q%q%q%qq%q%%q%qq%%q%q
1753D839%q%q%q%q%qq%q%%q%qq%q%%q%%qq%%q%q%qq%%q%q%q%q%q%%qq%%q%q%%qq%%q%%%qq
1738D583%q%qq%%q%%q%q%q%q%qq%%q%q%%q%q%%q%q%%qq%%q%q%%q%q%q%%qq%%q%q%q%%q%q%
1722D343%q%q%q%%q%%q%q%%q%%q%q%q%%q%q%q%q%%q%%q%q%q%%q%%q%%q%q%%q%q%%q%%%q%%
1707D135qq%q%q%%q%%q%q%%q%%qq%%%q%%q%%q%q%%q%q%%%q%q%%q%q%%q%%q%q%%q%%%q%q%q
1691C919%%qQqq%%q%q%%%%q%q%%q%%q%q%%q%%%q%q%%q%%%q%%q%%q%q%%q%%%q%q%%%q%q%q%
1676C735%q%%%q%%q%%q%%q%%q%%q%%q%%%q%%q%%%q%q%%q%%q%%%q%%q%%%q%%q%%q%q%%q%%%
1660C567q%%q%%%q%%%q%%q%q%%%q%%q%%%q%%q%%%q%q%%%q%%%q%%q%%q%%%%q%qQq%q%%%q%%
1644C407q%%%%q%%%%q%q%q%%%q%%q%%%q%%q%%%q%%%q%%%q%%%q%%%%q%q%%%%q%%%q%q%%%q%
1629C255%%q%%q%%qQq%%q%Qqq%%%q%%%%%qj6J6k4K4j6q%%J6j6Qq%qQj6%%%%%q%%qQq%%q%%
1615C135%q%%q%%%q%%%qQ%q%%q%%%%q%%%q%%%q%q%%%qQq%%qQq%q%%%q%%%%q%%q%%%%%q%%%
1600C007%q%%q%%%q%%%q%%%q%%%%q%%%q%%%%q%%%%q%%%q%%%q%%%%q%%%q%%%%%q%%q%%%%q%
1584B879%%%%q%%q%%%%q%%%q%%%%%q%%%%q%%%q%%%%q%%%q%%qQq%%%%%q%%%q%%%%q%%%q%%%
1568B767%q%%%q%%%%%%q%%%%qQq%q%%%%%%%qq%%%%%q%%q%Qq%%%%q%%%q%%%%%qQq%%q%%q%%
1553B655%%%q%%%%q%%%%%q%%%%%q%qQq%%%%q%%%%%%q%%%q%%%%%q%%%%%qQ%q%%%q%%%%q%Qq
1537B559%%%q%%%q%%%q%%%%qQ%q%%%q%%%q%%%%qQq%%%%q%%%%%%%q%%q%%%%%%q%%%%%%q%%%
1522B463%%%qQq%%q%%%%q%%%%%%q%%%%%q%%%%%q%%%%%q%%%%q%%%%%%q%%%%%q%%%%q%%%%%%
1506B375q%%%%%%q%%%q%%%%%q%%%%%%qQ%q%%%%%q%%%q%%%qQ%q%%%%%qQq%%%%%%q%%%%q%%%
1491B287%%q%%%%q%Qq%qQ%q%%%%%qQq%%%%%qQq%%%%%%q%Qq%%%q%%%%%%q%%%%q%Q%qqQ%q%%
1475B207%qQ%%qQj6J6%qqQk4O4o4j6Q0m8k4J6qQJ6j6%j6Q%%%%q%%%%%%%%q%%%%%%%q%%%%%
1462B151%q%%Qq%%qQq%%%%q%%qQqQq%%%q%Qq%%%%%%%%%q%%%%qQq%%%%%%q%%%%%qQq%%%%%q
1447B071%%%%%qQ%%%q%%%%%q%%qQqQ%q%%%%q%%%%%%%%%%q%%%%%qQq%%%%%%q%%%%%%qQq%%%
1431B007%%qQ%%q%%%%q%%%%%%%qQq%%%%%%%q%%%%%%%%%q%%%%%%q%%%%%%%q%%%%%%%q%%%%%
1416A943%%%q%%%%%%q%Qq%Qq%%%%%q%%%%%%%qQ%q%%%%q%%%%%%%%%%q%%%%%%%qQq%%%%q%%Q
1400A887q%%%%%q%QqQq%%q%%%%%%%%%%%q%%%qQq%%%%%%%%%%%q%%%%%%q%%%%qQ%%%q%%%qQ%
1385A823q%%%%%%%%%qQ%q%%%%%%%%q%%%%%%%%%qQq%%%%%%%%%q%%%%%%%%q%%%%%%%%q%%%%%
1369A767%q%Qq%%%%%%%%%%qQ%%q%%%%%%q%%%%%%q%%Qq%%%%%%%%q%%Qq%%%%%%%q%%%%qQ%%q
1354A711%%%%%%%q%%%%%%q%%Q%q%%%%%%qQ%%qQ%q%%%%%q%%Qq%%%%%%%q%Q%qqQ%QQj6qqQQq
1338A663qJ6q%%%%qQq%%%%%%%%%q%%%%%%%%%q%%%%%%%%%q%%qQ%%Qq%%%q%Qq%%%%qQqQq%Qq
1323A615%%%%%%%%q%%%%%%%%qQq%%%%%%%%%%%%q%%%%%%%%q%%%%%%%%%qQ%%q%%%%%%%%%%%%
1307A575%%%%%q%%%%%%qQq%%%%qQ%%q%%%%%%%%%qQqQq%%%%%%%q%%QqQq%Qq%%%%%qQq%%%%%
1292A527%%%%%%qQq%%%%%%%%%%qQq%%%%%%%%q%Qq%%%%%%%%%%%%qQq%%%%%%%%%q%%%%%%%%%
1276A487%%%%%%q%Qq%%%%%qQ%qQ%q%%%%%%qQq%%%%qQ%%%%%%%%q%Qq%%%%%%%%%%q%%%%%%%%
1261A447%%%%%%%%q%%%%%%qQ%q%%%%%%%%%%%q%%%%Qq%QqQq%%%%%%q%%%%%%%%%%%%q%%%%%%
1245A407%%%%q%%%%%%%%%%%%%%%qQ%q%%%%%%%%%Qq%q%QqQq%%%%%qQ%%%q%%%%%%%%%%%%q%%
1229A367%%%%%%%%%%qQ%%q%%%%%%%%%%qQ%%%%%q%%qQ%%%%%qQqQq%%%%%%%%%%%%q%%%%Q%q%
1214A335%%%%%%%%%%%%%qQqQq%%%%%q%%%%%%%%%q%QqQ%%q%%%%%q%%QqQq%%Qq%%%%%%%%%%%
1198A303%%%%%%%qQq%%%%%%%qQ%%q%Qq%%%%%%%%%%%%%%%%%%%%%q%%%%qQ%q%%%%%%%%%%%%%
1183A271%%q%%%%%%%%%%%qQq%Qq%QqQq%%%%%%%%%%%q%Q%%q%%%%%%Qq%%%%%q%%QqQ%q%%%%%
1167A239%%%%%%%q%%%Qq%%%%%%%%%%%qQq%%%%%%%%%%%%%%%q%Q%%%qQ%q%%q%%qJ6%%j6%Q%Q
1152A215j6%J6q%%qQ%%qQ%%%%%%%q%%%%%%qQq%Qq%QqQq%%%%%%%%%%qQ%q%%Q%%%%%%q%Q%q%
1137A183%%%%q%%%%%%%%%qQ%%%%%%%%%%q%%Qq%%Qq%%%%%%%%%%q%%%%%%%%qQ%%%%%%qQ%%qQ
1121A159%q%%%%%q%Q%%%q%%Qq%%%%%%%%%%%%%%%%q%QqQq%%%%%%%%%%%%qQ%qQqQq%Qq%Qq%%
1106A127%%%q%%Q%%%%qQ%qQq%Qq%%%%%%%%qQ%%%%%qQ%qQ%q%%%%qQ%%qQq%%%%QqQq%%%%J6q
1091A111qQj6QQj6Q%qQq%Qq%Qq%%%%%%q%%Qq%%%%Qq%%%%%%%%%%%%%%%qQq%%%%%%%%%%%%%%
1075A079%%%%q%Q%q%%%%%%%%%%%%%%%%q%%%Qq%%%%%%%%%%%%%%%qQq%%%Qq%%%%%%%%%%%%%%
1060A055%%qQ%qQ%%q%%%%%%%%%%%%%%q%%%Qq%%%%%%%%%%%%%%%qQqQ%%qQq%%%%%qQ%%%%%%%
1044A031%%%%%qQq%QqQq%%QqQq%%%%%%%%%%%%%%%%%q%%Qq%%%%%%%%%%%%%qQ%qQ%%q%%%%%%
1029A007%%%%%%%%%%%%%%%%%%%%%%%%%%%q%%%%%%%%%%%%qQ%%%%%qQqQ%q%%%%%%%%%%%%%%%
1013I91%%q%%%Q%q%%%%%%%%%%%%%%%%%%%%qQq%%qQ%%%%%QqQ%q%%%%%%%%%%q%%%%%%%%%%%%
997I67%%%%qQ%%q%%Qq%%%%%%%%%%%%qQ%q%%%%%%%%%qQ%%%%%%%%%%%%%%%%%%%%%%%%%%%q%%
981I43Qq%%%%%%%%%%%%%%%q%QqQq%%Q%q%%%%%qQQq%%%%%%%%%%%%%%qQq%QqQq%%%%%%%%%%%
965I27%%%qQqQ%%%q%%%%%%%%%%%qQ%%%%%qQ%%%qQ%qQ%%%q%%%%%%%%%%%%%%%%%%%%q%%%%%%
949I03%%%%%%%%%%%%%%%%%%%%%%%%%q%%Qq%%%%%%%%%%%%%%%%%%%%qQ%%%%q%%%Q%qQq%%%%%
933H87%%%%%%qQq%Qq%Qq%%Qq%%%%%%%%%%%%%%%%qQ%%%%%%%%%%%%q%%%Qq%Qq%%%Qq%%%Qq%q
917H63%Q%%%%%qQ%%%%%%qQ%q%%%%%%%%%%%%%%%%%%%qQ%%q%%%%%%%%%%%%%%%%%%%%%%%%%%%
901H55%%%%qQ%%%%qQq%Q%%qQq%%%%%%%%%%%%%%%qQqQqQ%q%%Qq%Qq%%%%%%%%%%%%%%%%%%%%
885H39%%%%%qQq%%%%%%%Qq%%%%%%%%%%%%%%%%%%%%%qQ%%q%%%%%%%%Qq%%%%%%%Qk4K4%q%q%
870H15%Q%%%%q%%%%%%%%%%%%%%%%%%%%%%%%%%%%%%%%%%%qQq%%%%%Qq%%%%qQ%%%%%%%%%%%%
854H07%%%%%%%qQq%%%%%%%%%%%%%%%%%%%%%%%%%%q%%%%%%%%%%%%%%%%%%%%%%%%%%%qQ%%%q
838G83%QqQ%q%%%%%%%%%%%%%Qq%%%%%%%%%%%%%%%%%%%%qQ%%qQqQq%%%%%%%%%%%%%%qQ%%%%
822G75%%%%q%Qq%Q%q%%%%%Qq%%%%%%%%%%%%%%%%%%%%%%QqQq%%%%%%%%%%%qQ%q%Q%q%%%%%%
806G59%%%%%%%%%%%%%q%Q%qQ%qQ%%%q%Qq%QqqQ%%%%%%%%%%%%%%%%%%%%%%%%%%%%%q%Q%qQq
790G43%Q%q%%Qq%%%%%%%%%%%%%%%%%%%%%%%%qQ%qQq%%%%%QqQqQq%%%%%%%%%%%%%qQ%%%%%q
774G27Q%%%%%%%%qQ%%%qQ%%q%Qq%%%%%%%%%%%%%%%%%%%%%%%%%%%%%q%Q%qQ%%q%Q%qQq%%%%
758G19%Qq%%%%%%%%Q%q%%%%q%QqQ%%q%%Qq%%%%Q%%q%%%%%%%%%%%%%%qQ%%%qQ%%%qQ%qQ%%q
742G03%Qq%%%%%Q%q%%%%%%%%%%%%%%%%%%%%%%%%%%%%%%%%%%%%%qQ%%q%%%%%%Q%qQq%%%%%%
725F95Qq%%Qq%%%%%%%%%%%%%%%%%%%q%Qq%%%%%%%%%%%%%%%%%%%%%%%%%%%%qQ%%%%%qQ%qQ%
709F87q%%%%%%%%%%%%%Q%qQq%%%%%%Qq%%%%%%%%%%%%%%%%%%%q%%%Qq%%%%%%Q%%q%%%%%%%q
693F63Q%%%%qQ%%%%%%qQ%%%qQ%%%%%qQ%%qQqQq%Q%%%%%qQ%q%J6k4QQ%q%%Qq%%%%qQ%%%%%%
678F63%q%QqQ%qQq%Qq%%%%%%%%%%%%%%%%%%%%%%%%%%Qq%%%%%%%%%%q%Q%%%%%%qQ%q%Qq%%%
662F47%%%%%%%%QqQq%%%%%%%%%%%%%%%%%%%qQ%qQqQq%Q%%%qQqQ%q%%%%%%%%%%%%%%%%%%%%
646F39%%%%%%%%%%%%%%%%%%%%%%%%%%%qQ%%q%%%%%%%Qj6Q%Q%%%q%%%%%%%%%%qQ%%%%%%%qQ
630F31%%%%%%%%q%Q%qQq%%%%%%Qq%Qq%%%Q%q%%Qq%%%%%%%%%%%%%%%%%%%%%%%%%qQqQ%%%q%
614F15%Qq%%%%%%%%%%%%%%%%%%%%%%%%%%%%%%qQ%%%%%qQ%%%%%%%%%%%q%%%%%%%%%%%%%%%%
598F07%%%%%%%%%%%%%%%%%%%%%%%q%%%%Q%qQ%%%%%%%%%%%%%%%qQqQqQ%%q%%%%%%%%%%%%%%
582E99%%%%Qq%%%%%%%%%%qQ%%%%%%%%%%%%%%%%%%qQqQq%%%Q%%q%%%%%%%%%%%%%%%%Qq%%%%
566E91%%%%%%%%%%qQ%%qQ%%%%%%%%%%%qQ%%%%%%%%%qQq%%%%%%%%%%%%%%%%%%%%%%%%%%%%%
550E83%%%%%%qQq%%%%%%%%%%%%%%%%%%%%%%%%QqQq%%%%%%%%%%%qQ%%%%%%qQ%%%qQ%%%%%%Q
534E83%q%q%Q%%%%%q%%%%%%%%%Q%qQ%%q%Qq%%%%%%%%%%%QqQ%q%%%%%%%%%%%%qQqQ%q%%Q%q
518E59Q%q%Q%qQ%q%Qq%%%%%%%%%%%%%%%%%%%%%%%%%%%qQ%qQ%%%%%%%%%%%%qQ%%%%%%%%%qQ
502E59%q%%Q%q%%Q%q%Q%%%q%%%%%%%%%%%%%%%%qQ%%%%%%%%%%%%%%%%%%%qQ%%qQ%%qQqQq%%
486E43%QqQq%Qq%%%%%%%%Qq%%%%%%%%%%%%%%%%%qQ%%%%%%%qQ%%%qQ%%%%qQ%%%%%%%%%%q%%
470E35%%%Q%qQqQ%%%%qQq%%Qq%%%%%%Qq%%%%%%%%%%%%%%%qQ%%%qQ%%%%%%%%%%%qQ%q%%%%%
454E27%%%%%%%%%%%%%%QqQq%%QqQ%q%%%%%%%%%%%%%%%%%%%%%%%%%q%Q%%%%%%%%%%%%%%%q%
438E19Q%%%%q%%Qq%%%%QqQq%%%%%%%%%%Qq%%Qq%%Qq%%%%%%%%%%%%%%%%%%%%%%%%%%%%%%%q
422E11Q%qQ%%q%%Qq%Qq%Qq%%%%%%%%%%%%%%%%%%%%%%%%%%%%%%%%%%%%Qq%%qQ%%%Qq%%qQ%%
406E11qQ%%q%QqQ%Q%j6qQL2m0qJ6%K4j6qQq%%QqQqQq%%Q%q%%%%%%%%%%%%%%%%%%%%%%%%%%
391E03%Qq%%%%%%%%%%qQ%qQq%Q%%q%Q%%%%q%Q%q%%Qq%%QqQ%q%Q%qQ%q%%%%%%%%%%%%%%%%%
375D95%%%%%%%%%%%%%%%%%%%%%%%%%%%%%%%%%%%%q%%%%%%%%%%%%QqQq%%%Qq%%%%%%%%%%%%
359D87%%Qq%%%%%%%%%%%%%%%%%%%%%%%%%%%%%%%%%%%%%%q%%%Qq%Q%%%%qQ%%%%%q%%Q%%q%Q
343D87%q%%%%%%%%%%%%%%%%%%Qq%%%%%%%%%%%%%%%%%%%%%qQ%qQ%qQ%%%%%%%Qq%%q%Q%%%%q
327D71Q%qQqQq%Qq%%%%Qq%%%%%%%%%%%%%%%%%%%%%%%%%%%%%%%%%%Qq%%%Q%qQq%%%%%%%%%%
311D71%%%%%%%%%%q%%Qq%%%Q%qQ%qQ%%%%%%%%%%%qQq%%%%%%%%%%%%%%%%%%%%%%%%%%%%%%%
295D63%%%%%%%%%%%%%%%%%%%%%%%%%%%%%%%%%%%%%%%%q%%%Q%%%%%qQq%%%Qq%%%%%%%%%%%%
279D55%%%%%%%%%%%%%%%%%Qq%%Qq%%%%%%%%%%%%%%q%Q%%%qQq%Q%%%%%%%%%%%%%%%%%%%%%%
263D55%%q%%%%%%QqQ%%qQq%%%%%%Qq%%%%Qq%%%%%%%%%%%%%%%%%%%%%%%%%%%%%%%qQ%%%%%%
247D47%%%%%%%%q%Q%%qQ%%%%q%Q%q%%%Qq%Q%q%%%%%%%%%%%%%%%%%%%%%%Qq%Qq%%%%%%%%%%
231D39%%%%%%%qQ%%%%%%%%QqqQ%qQ%%%%%%%%%%%qQ%%qQ%%qQ%%%%%qQ%%%%%%q%%%%QqQq%%Q
215D39qQqQq%Q%%%%%%qQqQq%Qq%%%%%%%%%%%%%%%%%%%%%%%%%%%%%%%%%%%%%%%%%%%%%%%%%
199D31%%%%qQ%%%%%qQ%%%%q%%%%Q%%%%q%Q%%%%q%Q%qQqQqQ%q%Qq%%%%%%%%%%%%Qq%%%%%%%
183D23%%qQ%%%%%%%%%%%%%%%%%%%%%%%%%%%%%%%%%%%%%%%%%%%%%%%%%qQ%%q%Qq%Qq%%Q%q%
167D15%%%%%%%%%%%%%%%%%%%%%%%%%%%%Qq%%%%%%%%qQ%%%%%qQQq%%%Qq%%%Qq%Qq%%%%Qq%%
151D15%Qq%%%%%%%%%%%%%%%%%%%%qQq%%Q%q%%%%%%%%%%%%%Q%%%%q%%QqQq%%%%%%%%%%%%%%
135D07Qq%%%%%%%%%%%%%%%%%%%%%%%%%%%%%%%%%%%%%%%%%qQ%%%%%qQ%%%%%%%%%%%%%%%%%%
119D07%q%%Q%%%%%%%%%%%%%%%%%qQ%%%qQ%q%%QqQq%%%Q%qQq%%%%%Qq%%%%%%%%%%%%%%%%%%
103C99%%%%%%%%%%%Qq%%%qQ%%%qQq%QqQ%q%%%Q%qQ%q%%%%%%%%Q%%qQq%Qq%Q%q%%Q%q%Q%%%
87C99%q%%%Qq%%%%%%QqQqQ%q%%%QqQq%%%%QqQq%%%%%%%%%%%%%Qq%%%%%%%%%%%%%%%%%%%%%
70C91%%%%%%%%%%%qQ%%%%Qj6%Q%qQqQqQqQ%qQqQqQ%%%%%%qQ%%%qQqQ%%%%%%qQ%%qQq%QqQq
54C83QqQq%%%qQ%%Qq%%%%%%%%%%%%%%%%%%%%%%%%%%%%%%%%%%%%%%%%%%%%%%%%%%%%%%%%%%
38C83%%%%%%%%%%qQqQ%qQq%Q%%%%%%%qQ%%%%%%%%qQ%qQ%%%%%%q%%QqQq%%%%%%%%%Qq%%%%%
22C75%%%%%%%%%%Qq%%%%%%%%%%%%%%%%%%%%%%%%%%%%%%%%%%%%%%%%%%qQ%%%%%%%%%%%%%%%
6C75%%%%%%%%%%%%%%%%%%%%%%qQ%%%%%%%qQ%%%q%Q%q%QqQqQ%qQqQq%%Q%qQq%Qq%%%%%%%%%
-11C67%%%%%%%%%%%%%%%%%%%%%%%%%%%%%%%%%%qQQq%%%qQ%%%%qQ%%%%%%%%%%%%%qQ%qQ%%q
-27C59Q%%%%%%%%%%%%%%%qQ%%%%q%%QqQq%%%%%%%%%%%%%Qq%%%%%%%%%Q%q%%%%%%%%Qq%%%%
-43C59Qq%%%%%%%%%%%Qq%%%%%%%%%%%%%%%%%%%%%%%%%%%%%%%%%%%%%%%%%%%%%%%%%%%%%%%
-59C59%%%%%%%%%qQq%Q%%%%%%%qQ%%qQQq%%%q%%q%Q%%QqQq%%Q%%%%qQ%qQq%%%%%Q%%%qQqQ
-75C59q%Qq%%%%%%%%%%%%%%%%%%%%Qq%%Q%q%%%%%%%%%%%%%%%%%%%%%%%%%%%%%%%%%%%%%%%
-91C51%%%%%%%%%%qQ%%%%%qQ%q%Q%%%%%%%%%%qQ%%%%%%%%%%%%%%%%%%%%%q%Q%qQ%q%%%%Q%
-107C51qQ%q%%%%%Qq%Qq%Q%q%%%Q%q%%%%%%QqQq%%%%%%%%%%Qq%%Qq%%%%%%%%%%%%%%%%%%%
-123C43%%%%%%%%qQq%Q%%qQ%%q%%Q%%%%%%%%%%%qQ%q%%Q%q%%Q%%q%Q%%qQ%%%qQ%%%%%q%%%
-139C35%%Qq%%Qq%%%%Q%%q%%%%%Qq%%%%%%%%%%%%%%%%%%%Q%q%%%%%%%%%%%%%%%%%%%%%%%%
-154C35%%%%%%%%%%%%%%%%%%%%%%%%%%%%%%%%%%%%%%%%%%%%%%%%%%%%%%q%Q%%%%%%%q%QQq
-170C35%%%%%%%%%%%q%Q%qQq%QqQ%q%%%%%Q%q%%%%%Q%%%q%QqQq%QqQqQqQ%%qQ%q%Qq%%%%%
-186C27%%%%%%%%%%%%%%%%%%%%%%%%Qq%Qq%%%%%%%%%%%%%%%%%%%%%%%Q%q%%%%%%%%%%%%%%
-202C27%%%Qq%%%%%%%%%%qQ%%%%%%%%%%%%%%%%%%%%%%%%%%%qQqQ%%%%qQ%%q%Qq%Qq%%%%%%
-218C19Qq%%%Q%%%%%%%%%q%QqQ%q%%%%%%%%Qq%Q%%q%%%%%%%Qj6J6q%%%%%%%%%%%%%%%%%%%
-233C19%%%%%%%%%%%%%%%%%%%%%%%%%%%%%%%%%%%%%%%%%%%%%Qq%%%%%qQ%%%%%Q%q%%%%%%q
-249C11%Q%Qq%qJ6j6J6q%qQqQ%qqQq%L2m0J6k4L2%qJ6%qQj6Qq%Q%qQq%Q%qQqQq%Q%%%q%%%
-262C11Qq%Qq%%%%%%%%%Qq%%%%%%%%Q%q%%%%%%Qq%%%%%%%Qq%%%Qq%%%%%%%%%%%%%%%%%%%%
-278C11%%%qQ%%%%%%%%%%%%%%%%%%%%%%%%%%%%%%%%%qQ%%%%qQ%%%%%%%%%%%%%%%%qQqQ%%q
-294C03%%%%%%%%Q%%%%%%%%qQ%q%%%Qq%%Qq%Q%qqQ%%%%%%%%%%QqQ%%q%%Q%%%%%%%%%q%%%%
-310C03%%%%%Qq%%%%%QqqQ%%%%%%%%%qQ%%%%Qq%%%%%%%%%%%%%%%%%%%%%%%Qq%%%%%%%%%%%
-325C03%%%%%Q%qQq%Qq%Qq%%%%%%%%%%%%%%%%%%%%%%%%%%%%%%%%%%%%%%%%%%%%%%%%%%%%%
-341C03%%%%%%%%%%%%%%%%%%%%qQ%%qQ%%qQq%%Q%%%%%%%%%%q%%%%%%%%%QqQ%%q%QqQq%QqQ
-357C03qQ%%%%q%QqQq%Qq%%%%%%%%%%%%%%%%%Q%q%QqQqQq%%%%%%Qq%%%%%%%%Q%q%%%%%%%%
-373B95%%%Qq%%%%%%%%%%%%%%%%%%%%%%%%%%%%%%%%%%%%%%%%%%%%%qQ%%%%%%%%%%%%%%%%%
-388B95%%qQ%%%%%%%%%%%%%%%%qQq%%QqQq%%QqQqQq%%QqQ%%q%Q%%q%Q%qQq%%%%%QqQ%%qQq
-404B87%%%%Q%qQq%%%%%%%%%%%%%%%%%%%%QqQq%%Qq%%%%qQ%%%%%%%%%%%%%%%Qq%%%%%%Qq%
-420B87%%%%%%%%%%%%%%%%%%%%%%%%%%%%%%%%%%%qQ%%%%%%%%%%qQqQ%%q%Q%%%%qQ%qQ%%%q
-436B79%Q%%%%qQ%%%%q%QqQq%%%QqQ%qQ%%%%%q%%Q%q%%%%%%%%%Q%qQ%%%qQ%q%%%%%%%%%Qq
-452B79%%%%Q%%q%%Qq%Qq%%%%%%%%%%%%%%%Q%%%%%q%%%%%%%%%%%%%%%%%%%%%%%%%%%%%%%%
-467B79%%%%%%%%%%%%%%%%%%%%%%%%%%%%%%%%%%%%%%%%%qQ%%%%%%%%%%%%%%%%%%%%%%%%%%
-483B79%%%%%%%%%%%%%%%qQ%q%%Q%%%qQ%%%%%%%%qQq%Q%%%%%%%%q%%Q%%q%QqQq%%Qq%Qq%Q
-499B79%%%%%%%%%qQ%%%%%%%%%%%%%%%%%%%%%%%%%%%%%%%qQ%%q%%%%%%%%%%%%%%%%%%%%Qq
-515B71%%%%%%Qq%Qq%%%%%%%%%%%%%%%Qq%Qq%%%%%%%%%%%%%%%%%%%%%%%%%%%qQ%%%q%Q%%%
-531B71%%%%%%%%%q%Qq%qJ6%qJ6%%q%%%%%q%Q%%%%%%%%%%%%%%%qQ%%%qQ%%%%%%%%qQq%Q%%
-546B71qQq%Qq%Q%%%%%%qQ%q%Q%%qQq%Q%%q%QqQ%%%qQ%%qQ%%q%Q%%%%%%%%%%%%%%q%Q%%%%
-562B71q%%%Qq%%%%%%%%%%%Qq%Qq%%%Q%qQq%%%%%Q%q%%%%QqQqQq%Qq%%%%%%%%%Qq%%%Q%%q
-578B63%%%%%%%%%%%Qq%%%%%%%%%%%%%%%%%%Qq%%%%%%%%%%%%%%%%%%%%%%%%%%%%%%%%%%%%
-593B63%%%%%%%%%%QqQq%%%%%%%%%%%%%%%%%%%%%%%%%%%%%%%%%%%%q%%%%Q%%%%%%qQqQQq%
-609B63qQ%%%%%%%%%%qQ%%%%q%%Qq%%%%%%%Q%%%%%q%%%%%QqQqQ%%%%q%%%%QqQq%%Q%q%Qq%
-625B55%%%%%%%%%%%QqQq%%%Q%qQ%q%%Qq%%%%%%%%%%Q%qQq%%%%Qq%Qq%%%Q%%q%%%%%%Qq%%
-641B55%%%%%%%%Qq%%%%%%%%%%%%%%%%%%%%%%%%%%%%%%%%%%%%%%%%%%%Q%q%%%%%%%%%%%%%
-657B55%%%%%%%%%%%%%%%%%%qQ%%%%%%%%%%%qQqJ6q%%%%%%%%Qj6%%Q%qQ%%%%%%%%%%%%%%%
-672B55%%%%%%%%%%%%%%%%%%qQq%Qq%%QqQ%%%%%%%%q%QqQ%q%Qq%Q%%q%QqQq%Qq%%%%Q%%qQ
-688B55%qQqQqQq%Q%qQq%%%Q%q%%Qq%%QqQq%%%Qq%Qq%%%%QqQ%%q%%%%%Qq%%Q%%%q%Qq%Qq%
-703B47Qq%QqQq%%%%%%%%%%%%%%%%%%%%%%QqQq%%%%%%%%%%%%%%%%%%%%%%%%%%%%%%Qq%%%%
-719B47%%%%%%%%qQq%QQ%%q%%qQ%%%%%%%qQ%%%qQ%%%%%%%%%%%%%%%%%%%%%%%%%%%%%%%%%%
-735B47%%%%%%%%%%%%%%%%%%%%%%%%%%%qQ%%%%%%%%%%%%%%%%%%%%%%%%%%qQ%q%Q%%%qQ%%%
-751B47%%%q%Q%%q%Qq%%%Qq%Q%%%%%%%qQ%%%%%%qQqQ%%%%%%qQ%%%%q%Q%%%%qQqQq%%%Q%%q
-767B39Q%%qQq%Qq%%qQ%Q%%q%%%%Q%qQq%QqQq%%%%%%%%%Q%q%%%%Qq%%%Qq%Q%q%%%Q%%%qQ%
-782B47qq%K4k4J6%J6j6qq%Q%Qq%%%%%%%%%%%%%%%%%%%%%%%%%%%%%%%%%%%%%qQ%%%%%%%%%
-797B39%%%%%%%%%%%%%%%%%%%%%%%%%%%%%%%%%%%%%%%%%%%%%%%%%%%%%%%%%%%%%%%%%%%%%
-813B39%%%%%%%%%%%%%%%%%%%%%%%%q%Q%qQq%%Qq%Q%qQq%%%%Q%%%%%%%%%%%%%%%%%%%%qQq
-829B31%Q%%qQqQ%qQ%%q%Q%%%%%%%%%%qQ%q%Qq%%Q%%qQq%Q%%q%%%%%Qq%Q%q%%Q%q%Q%qQqQ
-844B39%%q%%QqQ%%q%Q%%%%%%q%%%%%%%%%%%%%%%%%%%%%%%Qq%%%%%%%%%%%%%%%%%%%%%%%%
-860B31%%%%Qq%%%%%%%%%%%%%%%%%%%%%%%%%%%%%%%%%%%%%%%%%%%%%%%%q%Q%Qq%%%%%%%q%
-876B23%Q%qQ%%%%%qQ%%%%%%%%%%%%%%%%%%%%%%%%%%%%%%%%%%%%qJ6q%%%%%%%%%qQ%%%%%%
-892B31%%%%%%%%%%%%%%%%%%%%qQ%%%%%%qQqQ%qQ%q%Qq%%%%Q%%qQ%qQ%%%%%%%%qQ%q%Q%%%
-907B31%%%%%%%q%Q%%%%%%%%%%%%%%%qQ%qQ%%%%%%%qQ%%%%%%q%Q%%qQq%%%Qq%Qq%%%%Qq%Q
-923B31qQq%%%%%%%%%%%%QqQq%Qq%Qq%%%%%Q%q%Qq%%%Q%qQ%%%%%%qQ%qQq%Q%%%qQ%q%%%%%
-939B23%QqQ%q%Qq%%%%%Q%%q%%%%%%%%%%%%%Qq%%%%%%%%%%%%%%%%%%%%%%%%Qq%%Qq%%%%%Q
-955B31qQ%%q%qJ6q%qQ%QqQq%%%Qq%Q%q%%%%%%%%%%%%%%%%%%%%%%%%%%%%%%%%%%%%%%%%%%
-970B23%%%%%%%%%%%%%%%%%%%%%%%%%%qQ%%%%%%%%%%%%%%%%%%%%%%%%%%%%%%%%%%%%%q%%%
-986B15%%Q%%%%%%%%%%%%%%%%qQqQ%%%q%Qq%Q%%%%qQ%%%%%%qQqQ%qQq%%%%QqQq%%%Q%%%%%
-1002B23qQ%%%%q%%QqqJ6QqQq%%%%%%%%%%%%%%%%qQq%%Q%%%q%%Q%%%%%%%qQ%%%qQq%Q%qQ%
-1017B23qQ%qQq%%Q%q%%%Q%qQq%Q%%%%%%%%qQq%%%%%%%%%%%%Q%%%%%%%%%%qQ%%%q%%%%%%%
-1033B15%%%%%%%%%%%%%%%Qq%%%%%%%%%%%%%%%%%%%Qq%%%%%%%%%%%%%Q%%q%%%%%%%Q%%q%%
-1048B15%%%%%%%%%%%%%%%%%%%%%%%%%%%%%%%%%%%%%%%%%%%%Qq%%%%%%%%%%%%%%%%%%%qQ%
-1064B15%%%%%%%%%%%%%%%%%%%%%%%%%%%%%%%%%%%%%%%%%%%qJ6q%%%%%%%%Qq%%%%%%%%%%%
-1079B15%%%%%%%%%%%%%%%%%%%%%%%%%qQ%%%%%%%%%%%%%%%qQq%Qq%Q%%qQ%qQ%%%%%%%%%%%
-1095B15%%%%%%%%%%%%%%%%qQ%qQ%%%%%%%%%%%qQ%%%q%Q%qQqQ%%%%q%QqQq%%Q%%q%%%Q%q%
-1110B07%Qq%%%%%%%%%Q%qQq%Q%%%qQ%%%%%%%%qQqQqQ%qQ%%q%%%%QqQqQ%q%%QqQq%%%%%%%
-1126B07%Qq%%%%%%%%%%%Q%%%%%qQ%q%%Qq%Q%%%%qQq%%%%%Q%q%Q%q%%%%%%%%%%%%%Qq%%%%
-1142B07%Q%q%%%%%%%%%%%%%%%%%Qq%%%%%%%%%%%%%%%%%%%%%%%%%%%%%%%%%%Qq%%%%%%Qq%
-1157B07Qq%%Qq%%%%%%%%%%%Qq%%%%%%%%%%%%%%%%%%%%%%%%%qQ%%%%%%%%%%%%%%%%%%%%%%
-1173B07%%%%%%%%%%%%%%%%%%%%%%%%%%%%%%%%%%%%%%%%%%%%%%%%%%%%%%%%%%%%%%%%%%%%
-1188B07%%%q%Qq%J6qqQQqj6J6%%Qq%%qQ%%%%q%%Q%%%%%%qQ%qQ%%%qQ%%%%%%%%%%%%%%%%%
-1203B07%%q%Q%%%%%q%%QqQ%%qQ%%%%%%%%%%%%%%qQqQ%%%%%qQqQ%%%%%%qQq%%%QqQqQq%%Q
-1219B07qQ%%%%%q%QqQ%qQqQ%%%%q%Q%%qQq%%%%%%%QqQ%qQq%%QqQ%qQ%%%%%%%%%%%%q%%%Q
-1234B07%qQq%%%Qq%%%%%%%QqQqQqQq%%%Qq%%%%QqQqQ%qQq%%%Qq%%%%QqQ%%q%%%%%%%%%%%
-1250A99
##$OBSERVED MULTIPLETS=	(I, X, Y, Hs, Vs, An, H, C, N, (J))
$$ I: Multiplet Index
$$ X: Strt Coordinate
$$ Y: End Coordinate
$$ Hs: Horizontal Chemical Shift
$$ An: Normalised Integral Area
$$ H: Hydrogens
$$ C: Category
$$ N: Name
$$ (J): Coupling Constants
(1, 197.59176023138007849, 197.71295375590852927, 197.65235699364430388, 0.47169790545606216092, 0, s, 2)
(2, 143.67957987928156172, 143.80077342833226339, 143.74017665380691255, 0.80188675347969418095, 1, s, 5)
(3, 131.72330864055814459, 131.8445021780068771, 131.78390540928251085, 0.80188674907184709362, 1, s, 3)
(4, 27.911230123295119654, 28.032423678623089813, 27.971826900959104734, 1.4622643343789094583, 1, s, 1)
(5, 18.156128745011844927, 18.2773222939774449, 18.216725519494644914, 1.4622642576134872172, 1, s, 6)
##$OBSERVED MULTIPLETS AREAS=	
(1, 0.50491751296078291045)
(2, 0.85836010836575171723)
(3, 0.85836010364747927781)
(4, 1.5652451759182701707)
(5, 1.5652450937465971492)
##$OBSERVED MULTIPLETS PEAKS=	(I, X, Y)
$$ I: Multiplet Peak Index
$$ X: Peak x Position
$$ Y: Peak Intensity
(1, 197.65235699364430388, 0.048570238053798675537)
(2, 143.74017665380691255, 0.082569420337677001953)
(3, 131.78390540928251085, 0.082569427788257598877)
(4, 27.971826900959104734, 0.15056778490543365479)
(5, 18.216725519494644914, 0.15056778490543365479)
##$PREDICTED PEAKS=	(X Y T A)
(27.968563507227038656,  , 3.2000000000000001776, <1>)
(197.63104756228790393,  , 3.3399999999999998579, <2>)
(131.76939396073794342,  , 5.7999999999999998224, <3>)
(143.72419108983763181,  , 5, <5>)
(18.215513720292310751,  , 3, <6>)
##$PREDICTEDCOUPLINGCONSTANTS=	J(A,B)	$$ (Hz)
128.17(1, 1)
4.73(1, 3)
1.24(1, 5)
6.09(2, 1)
4.2(2, 3)
5.95(2, 5)
1.45(2, 6)
4.73(3, 1)
165.35(3, 3)
4.23(3, 5)
5.96(3, 6)
1.24(5, 1)
4.23(5, 3)
157.97(5, 5)
5.94(5, 6)
5.96(6, 3)
5.94(6, 5)
125.75(6, 6)
##END=		$$ NMR SPECTRUM
##TITLE=	Predicted 13C NMR Spectrum
##JCAMP-DX=	6.0	$$ MestReNova 17.0.0-41178
##DATA TYPE=	NMR PEAK TABLE
##DATA CLASS=	PEAK TABLE
##BLOCK_ID=	4
##ORIGIN=	Mestrelab Research S.L.
##OWNER=	ctheodore
##CROSS REFERENCE=	NMR SPECTRUM: BLOCK_ID=3                                     
##.OBSERVE FREQUENCY=	125
##.OBSERVE NUCLEUS=	^13C
##NPOINTS=	5
##FIRSTX=	18.216725519494644914
##LASTX=	197.65235699364430388
##XFACTOR=	1
##YFACTOR=	1
##FIRSTY=	0.15056778490543365479
##XUNITS=	PPM
##YUNITS=	ARBITRARY UNITS
##PEAK TABLE=	(XYW..XYW)
18.216725519494644914,0.15056778490543365479,0.012119354896559820026
27.971826900959104734,0.15056778490543365479,0.012119355532797346231
131.78390540928251085,0.082569427788257598877,0.012119353744873906722
143.74017665380691255,0.082569420337677001953,0.012119354905071577297
197.65235699364430388,0.048570238053798675537,0.012119352452844707815
##$MNOVA/PEAK_DATA_TABLE=	(T,F,A,ST,SP,APT,APC)
$$ Complementary to PEAK TABLE
$$ T: Type
$$ F: Flags
$$ A: Annotation
$$ ST: Shape Type
$$ SP: Shape Parameter
$$ APT: Attached Peaks Type
$$ APC: Attached Peaks Count
Compound,None,,0,0,0,0
Compound,None,,0,0,0,0
Compound,None,,0,0,0,0
Compound,None,,0,0,0,0
Compound,None,,0,0,0,0
##END=		$$ NMR PEAK TABLE
##END=		$$ LINK
