##TITLE=	Document 50
##JCAMP-DX=	6.0	$$ MestReNova 17.0.0-41178
##DATA TYPE=	LINK
##BLOCKS=	4    
##ORIGIN=	Mestrelab Research S.L.
##OWNER=	ctheodore
##$MNOVA/METADATA=	(DOCUMENT,BASE64)
eyJuYW1lIjoiRG9jdW1lbnQgNTAiLCJwYWdlcyI6W3siaXRlbXMiOlsiMSIsICAgICAgICAgICAgICA
gICAgICAgICAgICAgICAgICAgICAgICIzIiAgICAgICAgICAgICAgICAgICAgICAgICAgICAgICAgIC
AgICBdfV19
##TITLE=	
##JCAMP-CS=	3.7	$$ MestReNova 17.0.0-41178
##BLOCK_ID=	1
##ORIGIN=	Mestrelab Research S.L.
##OWNER=	ctheodore
##$MNOVA/METADATA=	(ITEM,BASE64)
eyJhbmdsZSI6MC4wLCJwb2ludHMiOlt7IngiOjU3MDMuNDQ4MjQ4OTIxMTU5LCJ5Ijo2MDY3LjAzODA
xNDQxMzMxMX0seyJ4Ijo2MTM3LjE0NzU0NzEzNDA2NywieSI6NjA2Ny4wMzgwMTQ0MTMzMTF9LHsieC
I6NjEzNy4xNDc1NDcxMzQwNjcsInkiOjYzMzAuNDc1MDU3NzMyMDE0fSx7IngiOjU3MDMuNDQ4MjQ4O
TIxMTU5LCJ5Ijo2MzMwLjQ3NTA1NzczMjAxNH0seyJ4Ijo1NzAzLjQ0ODI0ODkyMTE1OSwieSI6NjA2
Ny4wMzgwMTQ0MTMzMTF9XSwieiI6MS4wfQ==
##NAMES=	
##ATOMLIST=	
$$ AN	AS	NH
	1	C	3
	2	C	 
	3	O	 
	4	O	 
	5	C	2
	6	C	3
##BONDLIST=	
$$ AN1	AN2	BT
	1	2	S
	2	3	S
	2	4	D
	3	5	S
	5	6	S
##MAXRASTER=	32768
##XY_RASTER=	
$$ AN	X	Y	Z
	1	7497	4008	0
	2	7497	-5717	0
	3	15921	-10580	0
	4	-925	-10580	0
	5	24344	-5717	0
	6	32768	-10580	0
##END=		$$ JCAMP-CS
##TITLE=	Predicted 13C NMR Spectrum
##JCAMP-DX=	6.0	$$ MestReNova 17.0.0-41178
##DATA TYPE=	NMR PEAK ASSIGNMENTS
##DATA CLASS=	ASSIGNMENTS
##BLOCK_ID=	2
##ORIGIN=	Mestrelab Research S.L.
##OWNER=	ctheodore
##CROSS REFERENCE=	STRUCTURE: BLOCK_ID=1                                     
NMR SPECTRUM: BLOCK_ID=3                                     
##.OBSERVE FREQUENCY=	125
##.OBSERVE NUCLEUS=	^13C
##NPOINTS=	4
##XUNITS=	PPM
##YUNITS=	ARBITRARY UNITS
##PEAKASSIGNMENTS=	(XYWA)
(20.961778451879688134, 0.15056785941123962402, 0.0060596802621848411263, <1>)
(170.72373566561071812, 0.048570238053798675537, 0.0060596757333257755818, <2>)
(60.368579020254735212, 0.11656857281923294067, 0.006059675632471339668, <5>)
(14.332631276940471565, 0.15056784451007843018, 0.0060596807277821795878, <6>)
##END=		$$ NMR PEAK ASSIGNMENTS
##TITLE=	Predicted 13C NMR Spectrum
##JCAMP-DX=	6.0	$$ MestReNova 17.0.0-41178
##DATA TYPE=	NMR SPECTRUM
##DATA CLASS=	XYDATA
##BLOCK_ID=	3
##ORIGIN=	Mestrelab Predictor
##OWNER=	ctheodore
##NUMDIM=	1
##$MNOVA/METADATA=	(ITEM,BASE64)
eyJhbmdsZSI6MC4wLCJheGVzIjp7IngiOnsibWF4IjoyMzAuMDI1MzAyNzgzMzA2MTYsIm1pbiI6LTk
uOTk5MjY4ODY0ODg3NjM4fSwieSI6eyJtYXgiOjAuMTY1NjI0NjQ1NTM4NjI4MSwibWluIjotMC4wMT
UwNTY3ODQ1OTYwNTA5NzZ9fSwicG9pbnRzIjpbeyJ4Ijo1MzIxLjAsInkiOjU4MzUuMH0seyJ4Ijo4N
zIyLjAsInkiOjU4MzUuMH0seyJ4Ijo4NzIyLjAsInkiOjgyMDguMH0seyJ4Ijo1MzIxLjAsInkiOjgy
MDguMH0seyJ4Ijo1MzIxLjAsInkiOjU4MzUuMH1dLCJ6IjowLjB9
##.OBSERVE FREQUENCY=	125
##.OBSERVE NUCLEUS=	^13C
##.SOLVENT NAME=	DMSO-d6
##.PULSE SEQUENCE=	
##.ACQUISITIONMODE=	SIMULTANEOUS (DQD)
##$ORIGINAL FORMAT=	Predictor
##$MNOVA/SCALES_VERSION=	9
##$PARAMETER FILE=	(parameters, ASCII, , 0)
$$ <?xml version="1.0" encoding="utf-8"?>
$$ <PredictorParameters>
$$     <Title>Predicted 13C NMR Spectrum</Title>
$$     <Origin>Mnova: NMR Prediction</Origin>
$$     <Name>Mestrelab Predictor</Name>
$$     <Version>1.7</Version>
$$     <Nucleus>13C</Nucleus>
$$     <Solvent>DMSO-d6</Solvent>
$$     <From>-10</From>
$$     <To>230</To>
$$     <Frequency>125</Frequency>
$$     <LineWidth>1.5</LineWidth>
$$     <Size>131072</Size>
$$     <DEPT>0</DEPT>
$$     <ProtonatedCarbons>0</ProtonatedCarbons>
$$     <ExcludeLabile>false</ExcludeLabile>
$$     <FastPrediction>0</FastPrediction>
$$     <ProtonDecoupled>1</ProtonDecoupled>
$$     <Reference/>
$$     <Options>
$$         <Settings>
$$             <Predictor Name="Mestrelab Predictor">
$$                 <Settings>
$$                     <Model>/Applications/MestReNova.app/Contents/Resources/data/13C.mbst</Model>
$$                 </Settings>
$$             </Predictor>
$$         </Settings>
$$     </Options>
$$     <MoleculeID>{b0797809-d0e7-491a-925e-811e060fddd2}</MoleculeID>
$$ </PredictorParameters>
$$ 
##XUNITS=	HZ
##YUNITS=	ARBITRARY UNITS
##FIRSTX=	28750
##LASTX=	-1249.7711181640625
##DELTAX=	-0.2288818359375
##XFACTOR=	1
##YFACTOR=	7.0113623273257753412E-11
##FIRSTY=	1.7204001778736710548E-08
##MINY=	1.5313375012482310922E-09
##MAXY=	0.15056785941123962402
##NPOINTS=	131072
##XYDATA=	(X++(Y..Y))
28750B45kK%%jMnKkJJj%kKjKpKOj0RqONrKjKKKKkJmJ%Kl%lKKjJjJ%jmJL%J%lK%j%MljJJmj
28735B39LMk%J%lKKmK%kK%lLj%JjkJ%jK%lKJj%jK%JmKJkJLljJjj%kKKlL%JJjjJmLjJj%j%J
28719B41kMk%jKjjjKJkNnLk%%lM%JjkJJJ%jLlkKjK%jLjlKj%J%jJkjKKk%%kj%k%JL%kkJKk%
28704B38jJjjLKkJKJjj%kLmJjKkKjJlLljK%%lJKjjJ%kK%LoNjjjKkJjL%kMkJmMlMk%jJjJlM
28688B40JklLJlJJjJJKmjLjkKjNpKJkjjK%nMJ%lLkLkjjjNkjJ%JkKjkJJJj%KkjL%jKkjLlKj
28672B37LkkLkjLj%%jjj%KlLj%%mKJ%JJJlJkjKlKMkJklLJmKkJJk%k%K%LkJJkJKmM%jjJmMK
28657B37klKJ%jJJ%j%LjkLllJ%%lLkJ%J%%Kn%NJjjJnK%kKjKjMq%JLk%JkKlN%%kLmJNlLkjJ
28641B34KkLmjOrRrRpOjJqQkl%NpJNMj5LjMOojKkMm%JlKJkK%jJjkJL%mLkJJJj%lNk%JpNK%
28626B32kk%JKlJ%%%jKJlJKlKJ%jJJk%jJJk%JkjL%j%JkkLjKjjjKkjJ%K%jJnMoM%%jjJMjjK
28610B29J%jJjjJ%JlJJkMj%JjKmJ%jkJkJmMj%JjjK%%J%J%jLkLkJjlMlkJNpM%J%mLj%KjKk%
28595B28l%NmK%jJjJJjJ%kj%%k%LkJj%%KJjJJkJ%j%j%%JjJ%Jj%%jLl%%%%Jlj%LjLmJKmLkj
28579B23JjkKjJkLjjlLKkLkN%mLjKk%KmKmJKjKj%jJmL%kK%kjJlNoPjjjJJk%L%mKJ%%kJJjj
28564B22%%%jKjKjjjMl%Jk%JjKjJjjJJkJjJjJ%%mMJ%kJKj%K%jkJKjlJ%J%JmJjLj%k%Mjkkj
28548B18K%LkKkjLjjJJ%kJj%L%%%kjjJjJ%%%jjMjKjkM%mJkJJK%kJj%JJJlLkklKk%JLkLkj%
28533B20%KJjjk%%K%jKKlkJJj%jKkj%Kk%K%lJjNlk%Kk%KjjjMmjLkJ%%LjlLjkOmjMJ%nNpKK
28517B19KkjjjjLlMMjkkJjjK%%kjNl%nOo%PJ0j3%jRlp%MkkLk%Jl%PoJjJKJjkJj%jKK%ljKj
28502B16KmJ%J%%KlJ%jJ%J%J%kjLmJjKkJMkLmJK%jl%%JkJjLlMjj%JjJ%%j%%jKkMk%jJKk%l
28486B14kOljJmOk%%%JJjj%JlK%lOjnJjK%KljJL%jj%%KlMlKlMjk%JjlkPk%J%kJJ%JjJjjJj
28471B14jKmL%lJj%JjK%KjlLJkj%jKkjJKkLjK%kjM%%J%k%KkkMlLoQ%jk%jLmL%mMo%LlK%jJ
28455B13%kK%kL%kJ%jMj%nlOKnLk%%%jJkL%j%KkJkJjJkKj%%lKKJjkKkkKJJjjJJ%%LlkJJ%M
28440B15m%Jj%MnJjKjkNljJjK%jJjJ%KmK%%JjjK%%%jkKJmLkLJnK%%J%lLjkJKkk%KjJk%JJk
28424B08JlKJkjL%JJl%lMkJJJj%%%lJ%kKJJj%%jJJJl%%JlK%kLjJlK%j%JjjJJ%kMjlL%%j%L
28409B10kL%l%%KkjkJ%J%JjJJoRqNnjLoMLJNj0oJ2llOKkJ%mKmL%O%l%JnJJjJJmjKjL%%mJJ
28393B06jOmKn%mKMKkkjkMkLJjJk%jKjJjMnMklKKkJkLlKlKLmJ%jJJJkJ%jKkkJJljM%lKjJ%
28378B04%J%kL%%KmLkjLjjjKl%jKJkjNmlK%NlJmKkOKlKoKJ%lJMmjKlLlLJmNllMkjKMlKKl%
28362B05J%kKjjK%%mJ%JJkjJj%KjjnOkj%J%jJjKJkM%Jkj%KkKjjjK%LmKkkKjJJk%%jjKjkMl
28347B00LpLNmKmJMjkMkjkKKljNo%JKkK%JjkJKkJjJJ%Jj%kK%lKkLkKK%kKk%JjJk%lKMnLLj
28331B04lLk%%%%mjJKkLkK%%Jjj%kMlKk%JjkMkJj%jJJ%jLjjKklKlJKjlKK%mLJk%JL%jKl%%
28316A99KjkJJJl%%JJ%JjKjkKjKm%MjkJkjLjjjKjk%JJjJjMnlNjjL%%jk%LmK%JjKkKlLJkKk
28300A98JJmK%l%KmKJkJjKKlJjL%%%jJlK%%JJlKlKjMl%JjlJKJ%kJJ%%kLlLnO%lk%lOjmJNk
28284A97qQ%klkOKKnKlKlMlKkKkJJk%OnLlJlKKmJ1q%MMj4RjJo%MjkMl%kKKmMljNmNnJ%lKJ
28269A95J%jlJJJkkLJjkJjK%%kL%JkKk%KlK%%kKjL%kk%kKJ%Kj%Mlkj%jMjkJKk%JnLjJJJnM
28254A94%kJ%jkJKjJjJkkLJkLkKj%JKlJJ%JmJKnK%KkjJ%kLj%%%K%jjKkKl%%KjLmJJk%J%Kl
28238A91KKlLjJJkjJjJJlJJj%jJj%JJl%LlLk%kL%%J%lJ%jMmKjkK%j%JjlJNnMmJjKjjkLjMm
28223A89JLjjKkKjk%jMkJnMkK%kkLKkJKkkJkKj%KlJK%jj%Kj%jJJlMlKKljJJLm%jJJjKJlJj
28207A90%KlLkjKkK%kJ%LnLJlJKlL%mLKk%%%jj%LkjLkjLlJk%lRmm%MkK%kjK%%JkJJj%JJmK
28192A89JJj%j%J%jLk%JjOmmJ%Lkk%LkLmjKKj%kK%lkM%%kLj%lMjJlL%jjJ%JJmLJjj%LoLj%
28176A88mJJ%%Nm%KJnJMkLnNnJOj7NJ3j5PNjMj0qMJ7nqmJ0rJ2lmMlmJLJ%KkJL%nLkjKMl%j
28162A89JkkMj%JnO%oNlKjoLKjjjJJJl%J%%JKk%KJmK%kKKl%KKkkLkjJjkLlJJjJ%j%JjKmKJ
28146A86k%%JLk%jJlN%j%Jm%jJJ%lMJjKkjjLjjjkLKjjKlj%K%jlLJjJMmjK%%lKJ%k%K%kJJ%
28131A86jLjjj%Lmj%K%kKmLjk%KkjJLlJjjLkJkKJlKkLk%%%KlK%J%JlLjkK%%jKjjJLmJKjJJ
28115A86kl%Ljj%jLmLlkLMjl%Kj%kJJJKoMl%%LlJ%LnKjMj%JjkjkM%%KjlLj%K%JKljJKj0Qn
28100A79NljMk%LJjnJLmLlMklKKjLm%JJkK%%kJKjkKl%JjJjJlK%jJ%jJkJKJj%%%%j%jK%j%l
28084A77KLk%%MllLjlLkJjlKKjkNLj0PljLjmM%kJkMjjLkMkjjJJlMkJj%lKJ%%%%JlKkJJKmL
28069A81%jKnJjMlkKk%jL%jJ%%k%kLjLkjj%KJjKmJ%%JJ%J%jMlMnLklMkJjJJnMkJjLkJ%mLk
28054A76LjJlKj%j%lKPj0LJj0J3NoJLmjLJmK%KlPrJNJKnkMLj3J1mj1J2Lmj4L0n4K0J7J4m5
28041A47K0jlK0k5J9pRrJ2lmKqJMlKKJKnMKpJ1rPkkqPMnJKKlK%nOmJkJjK%kjjL%%jnNLqMk
28027A72NklJKkK%lJJKkL%kLmJjL%LlKjjLKJllkLJ%kjKJpPklL%Jk%jJkKKlKlK%n%KkPmkJj
28011A72JKj%j%JkKKjjLkLlJKjmN%%jJj%KjJj%lJ%%kKkJjK%%%MkkjKjk%jJJjK%jmKJj%LkK
27996A76kKjKjlLklLJjMk%%MmJJlOolLj%kNkl%%KjkL%j%k%Lj%L%mLj%JkMKnkJMmKMmj%%JJ
27980A76%jJnKjKJkk%%Jk%jJKlLjJ%lJjK%jJJJjJlJ%JjJk%jjKjJKk%%%kK%MmK%J%j%KmMjj
27965A72KlJKJnKJjkjjKKj%JjkMJk%kJL%jKkJ%j%%%kJLJjjLmKjK%%%kJKkJlJKjjJkKlKjJ%
27949A74k%jK%%JjMl%%lKk%kKjkK%JlJLkjKkJjjLj%%LkKl%%M%mmO%m%JLoJ2j1%OJlJn%MJl
27934A69j1J1j3J7Mqj2J4%%KKmjjoOoJ1nK%JnOljPpJ%LjMljKnlPJJjM%olMjjKJl%lNnM%%k
27920A70MlJjJkj%kMkjJMklJKjjkJLlKj%kK%%%%jJkJ%k%JKkjjL%jJ%KJmLlKlMkKmKj%jLlk
27905A64jLJLnLLlj%j%jLOkpLnRllOKpj%OlKJjjlJjKk%KkjN%lj%%Lk%jj%JJJkLkJjJ%%Jjj
27889A68%kJjk%K%lNkJjLjj%%JjJ%%%mLJkK%%jJkMmMjjKkkLj%j%K%j%KmJJ%jJmLjkKLlMkl
27873A65JkMmKJJlKj%jK%JmJkM%%j%Jjk%MjjjJ%mMLjl%JJkJJ%jKlLmJK%mMkJ%jlL%Jjk%%K
27858A65%jKjKk%Kj%%j%KkMjkjKjjj%J%%jJkjJjKj%%%jK%JKnMl%JjKjkjNj%jJLlNo%KjKjl
27842A63JJkMkJJkJJlJjL%j%lJJ%j%jKJlKkjjKJ%kjKJlMmK%KkjKjJKKkk%LkkJ%KjJlKjkj%
27827A61L%jKkjKlK%kLj%JJjmKLmNkJJmMLnJlNl%NooMKjKKkmkNJmPnKl%RqjJmLMjkJkMj%l
27811A61LjkLm%LkLjJmLjm%OJ2k1OM%lLjMlmLk%kLLmj%J%kJ%%jLkjjNlK%lK%lJJj%KlKJ%J
27796A63nKKk%J%%j%KJ%jKKmKjJjkLjjJkj%JkjKJkkLjJKjJkJjj%LlkKJJmLMn%KJkJ%j%K%k
27780A60JjJ%jKKk%lLjlL%jLl%%%KmMjj%LkKjJkjJ%J%kKJmJJjjJJJk%%kJJ%jJkLk%jJjMKm
27765A60%K%%lJjNmJJl%Lj%%%NqKJmNjJjjJJk%mPl%Lm%KjJl%%KkJLmLJJ%k%Jj%j%Kj%LkjL
27749A64lkOmJLlJkKj%kJLmjkM%l%KKjkKJklKLkjKkJkOo%KkjLj%%%Kj%%j%jKKkkJ%KkJjjJ
27734A59%%JlK%JmNk%jjLjkL%JkJjJjjlLjjM%mLkLj%Kk%%kKj%jKlJJKkjL%jjjJKkKJljKl%
27718A56%LJj%K%Jj%kjjJj%kjLllNkjLJlJJkLkJKjkK%jJ%KkkKKnK%k%L%Oj0jLlNmMjkLkJ%
27703A56LJJqLoLJ0qPoLlKKLpPj4J1nJLkMrOkJJJnJMjjjJ%K%%JmjKjjkLKkkOkLo%jJKkJn%
27688A51MKk%KKljMlLk%KlKlJJJlJkJLkj%jKkJ%KjJjJjjJ%jJkJJk%%lLkK%%%%lMkJlKlLjK
27672A54%kJJ%%JjK%jJJlKjJlK%kJJK%%%jJ%%jmLjJJj%%j%KJjJlkOjmMlmPpOJ%%lJ%%%Jjl
27657A52JJ%JJj%jJmK%JJ%j%jKkk%JJ%jKkJJjJKk%j%%KjJkJj%%KJjlKjjK%j%nNKpPjlJjKJ
27641A54lLkKjJKoK%L%lJLmKj%lL%lLKk%JKKlj%JljOljlMlKjJMjlK%jKmKK%mOk%j%%jJjjK
27626A55lJJ%jJjjK%lK%KmKJjJ%KkkLl%%KkJkJ%%JjjkMj%kLmKlKjKjJjJKjJJkJjkMk%JkKm
27610A49JJjjKkJjjJKkkkML%kkNlJKjk%KK%mlNJknKNlk%Kj%kMmJjLjJJ%jMj%%kjJ%J%%lJJ
27595A51kJJjJjMkjLk%%%%j%J%kJkJJkK%%lLJljM%kKkMkLpM%%%jLnKmKNmKLllkO%oM%%lJ%
27579A49MkjlLlLJ%J%%JlKJkKmJLkKljOJ1j7jQmqQmlNjjKjJlMnJKlLKk%jkJJkjlLJJKljK%
27564A47JlK%kJLjkJ%Jj%KjJnKKoMj%Njk%%Kl%JjKl%L%%kKjj%LlNrMJjKJKjLl%J%KjmJjJj
27548A48KJl%KJJlK%%lJ%j%%kLJjmKMJnK%%JlJ%Jj%JlLk%J%jj%Ml%jNm%K%l%J%%jLlJLmJ%
27533A47LjlKjKj%%JlJJjjLl%%jMm%JLjJkMnKMJn%J%%j%kMjKnMmKKmKJKkkJK%l%Kk%kj%Kk
27517A44%JkK%J%JkMmjMjljlOjJlJJJlLkjJJKkJkKjjLmLjjJLkKj%Jk%%JjjKmNj%kjKj%K%J
27502A48lK%Jjk%jjL%%k%JkKKlK%kLJkK%%JlJ%KlJKnJLJjjjKkK%l%JKk%JmJLmJ%jJKjjJ%k
27486A43MkjJJkK%lK%LlJ%KljjKkK%Jjj%j%JKjjkMlkJKkMnJLlJkN%jjk%%LjLj%%%jkM%kkL
27471A46l%LjkjOoPmnQKj0J3j3P%mKJmKkMKkjJ7qj7PKpkRljOkoLlL%%JJJJl%J%k%K%kJ%jP
27456A50kjrRKjpMkkJJJ%kKjJjKKjk%JKljjJ%Jl%JkKJjJjJlKKj%Kjj%JJ%Ml%%k%JJ%KlkJk
27441A42KJ%j%KJjjJ%JjklLjJKmKJkjjLLnLKn%jMlnMMnLkMjkLkKJj%K%jjJJmMk%Kkm%NlLk
27425A44%kLj%nKJJjkJKkjJJlMjjjMmKjKLm%LkkJ%JjjJJ%kLklKJ%jjLkkLnNmKjLlLJ%jj%K
27409A43mKKjJKl%lJKjJJkMlk%kJ0oJ%J%jkKlJJj%KjjJLkKmMjjmLlKmMkLl%MJmmMkNm%%%J
27394A40jkLjKlKjJLj%Jj%lLjJjJ%%jJkJ%%K%Jjj%jJkJLlJjJljKJjKJ%%kJ%Jjj%Kjk%JJ%L
27379A45m%%JkJj%kMkNmJlLjjKkkMKjj%kJ%jJJ%jjKjJjJkjJkLJjkLl%MKlk%%%JjkJJkjJLk
27363A39kL%j%J%KkJkjJjjL%%K%kJlL%kJkK%jJ%K%k%kK%jKLmJ%j%jJJjj%nPJnN%mNlKJJ%m
27347A40jJJMoPpKpNKj%Kl%JJkKJlJ%JKjJnLkJmPmJ%lJ1nRj2MmKkLkLoL%%KlKlKJk%JJlJk
27332A38Nl%JJlmLkLlMj%jkj%JKjJjjJJjKKmJ%jKkJMljkK%kMJmJJk%jK%LlJJkLl%J%j%jJj
27317A37kMlL%jlKLk%%jLj%lMJkJ%JkJkKkJ%jjLlJJ%%KlMkKk%%JjkJkKk%JJjkJ%Ljj%l%Kj
27301A36Jj%J%jK%jlKjJ%jJjjKJjJ%%jJ%%l%JjK%j%KjjLkJkKkj%L%kjJKoNmjOjNknMJmKjJ
27286A37kjjJ%LljJJkJjKlLLlk%K%kOLj1OkKjkLj%NjjmOk%JkJjkLjjJ%k%kNnK%%%JkKkKj%
27270A36jJkJK%%jkKkKLkKj%%jKkJJj%%kJkKkMkk%%JjjkLjJjKJlLmKJ%JjLKp%LjkKJk%J%j
27255A35j%jLj%%jJjjjMoL%kLklM%LlKJjK%kJkJj%%%jJjJJlOkkLmLj%k%%jKmNkJJjkLKjkM
27239A38lmL%JJjjKoKJJoPoPlNj%JKJ%k3J4%LMj3RKm%nOoQjNj0jNlJRolNKlljLjKoJ%LjJj
27225A33kJjK%JKKnJJJKoLl%MkkK%JjJLmK%j%jJJJnLljNlL%jJjKkLnMkLlkJlJJ%JJjLn%KL
27209A37k%J%kjLl%jJ%JlMJ%j%jk%%LlL%jjJJjjJkKjMmj%JlMkLjkkKKnLKkLKm%%KJ%j%lLJ
27193A36lKJoMlL%K%kkJjJMjlL%JKlKKkJm%%%jkKkLj%nNj%%jjLl%KkKJlLkj%jLkJkL%%kJ%
27178A32K%mLjJJjJkJJk%mN%KlJJ%%JkMl%MllJjJk%MJnKLl%JjLnKjJjJKkKj%J%kKklMnK%N
27162A36%kjJlJ%Jj%%J%%k%JkKKoN%kJLjJk%%jLkjKk%%Kj%jJkJJKkJlK%jJJjJKkKkkjMmL%
27147A34%KnjJjLlJKkjk%%%JLlJMllKJjK%%kkNljLlLjJ%KnPkkLlJk%lLkJ%jKmNjj%j%%%%%
27131A29JkJLm%%LmJKJkJlNlJjJJ%%%J%%Lj%j%KkkM%%kjjjj%MmKJ%JJj%LlJJlMljLJKk%k%
27116A34kJkM%kmN%LmJkmLKjjm%%J%%%JlMjJLlJKk%LoRnlJKq%KJ5Lj9kK7k2j6J9pJ5lnOml
27102A30Mjl%KkJ%Ml%%JkkKjKlJjKk%mMkJkLJkjJkJjJKlNl%JJk%K%kLk%JK%JkMjnKjJjJJK
27086A34nKkJJkmK%MlKmNl%LkjkMkJKj%kMjlKKlJkMmJ%%%JmMk%Onk%KlJ%jKJkKKjJnKNnLJ
27070A32%kMlKkkJmKL%JmKLmJKlJ%jkK%jKJnL%KkjLJljkMpM%jj%Ml%%%KjKj%%LoNJkKjKlJ
27055A30%%lK%MpN%%kKlMpMLjkKkkJJJjjjjKjjMmKjLllMjmKJkOoK%%MmJKkkMlj%LkLjLk%k
27039A27JKkJkJ%J%J%k%%LkjLkjKjjjKj%jJjj%JKkJj%JkKmMlKjJlM%k%JKJ%lKk%jKkKnJ%k
27024A22MjjKjKjjLlKJKJjjKmKmMjjlKJkKJmOkJjkL%lLkJ%jMkJkMmKl%jJjJKj%Jjj%jLjjJ
27008A28mNmMlkjNk%Km%%kMJjmKKjJkMkJk%kPnjLkKkLkm%Qor%J0LlRpqJ1lNJj3Rk5J4J4Rj9
26994A22lMlRmKlnQpQ%%J%oNnJ0p%J%jKlRnjJo%MkMoRlpKj%NjKkLnJk%LJj%jJlLlLJlJ%%K
26979A28KljJkMlJMjjJl%Jj%%j%jKjKoPn%KKJkjJJjj%M%jljLmkKLk%jJLKmkNlLkl%NknPmK
26963A27rJO%%%l%NmJJ%jKkOn%k%JKlMlkMpLKjJJ%JlJ%J%J%j%%jKjkLjKm%KNljlJ%kM%%jj
26948A24KjjKjkLj%%JKkJ%%kjNkl%J%%JkJjk%Oo%MlLlK%JkK%KmKkQqjJJ%kLmLjKjmJMljjL
26932A24KjjKmLkLlJ%JkLk%lMKjkL%%JmMkLJll%LmKJ%l%KkjKkMjjKmKjkMjlKmMjjjJ%Lk%K
26916A24lJ%JJkmMlMjjN%lMk%%j%J%kKmMk%K%jj%JkJKJnK%JJmLKkjKkmMMkj%j%Ljj%%JjJk
26901A23Kl%KJmK%JjMl%J%KoLKkJkMmKjJ%jjKKjlKlNmJlLJjmLKjKl%JkKjLl%KlJJ%k%j%Km
26885A19J%jMKmlMjjNmMj%lKMo%Nl%KjJJoMJ%kNjrOkmLJ%%KjJKl%%JJkKj%l%MlLJnLJpKJl
26870A18J0llkJNnlNkKkK%JjK%kKj%jkJ%JkjJKj%J%%JkjLmKJJmjJjL%%jJ%%J%%jjjMljMlK
26854A23jj%%JjJ%Kjj%jJJJlK%Jjk%LmNmLJ%JmJK%l%KlJJ%KkkJjKjJJlkKK%jKjkKJl%MJmk
26839A20Lj%%Jk%%Jk%KKJjkJJ%jJmJ%Jk%%Nlj%jj%kMl%KjjKjKJ%jKkK%%JkJj%KlL%m%Mjj%
26823A22JKkLKk%nL%kj%K%jMj0M%JJkjL%jLl%j%Kk%KlkMkjMkJjJKknOjKjNoJ%KkkKkKJjjL
26808A24kkkK%KkKkJkJ%jKjKj%KJkj%jJJjjL%j%Jj%kJjj%J%KjK%jjLmL%kJk%JjkJ%LnKJJ%
26792A21LmJJjmKLkKJkJKkJkK%jjJJjjKjJlLJ%%kkjMkjLmK%%nLmOJkLk%%%%Lk%KlmPl%%%%
26777A21l%JKj%%KKlMjjjJlLnK%%JjKjjLjjJ%kJ%lKJ%JJjmL%nJMjpPj%%j2QMokOLljMNm%j
26761A20KPj0jpPLKKjjk%lLLl%LlJ%Jl%kJjL%%lJ%nLJlJMKkKk%mLJJJkKk%J%kJkM%kjmNKk
26746A20LjmLLlj%J%%%%KlkKJjK%%kjKKl%kjLk%JkJkJjJ%KjJ%MkkjK%kKmK%jLJnJ%JjjMjj
26731A18%%%jjJLkjJ%JJ%kJ%Jj%JkMlLjJlJlLLqJLKjjlMkjMk%%kLlLJj%JlKKj%jjkJjJJ%K
26715A21jkKjJkjKkKjKkJjKkJkLkJj%K%KmJKkkJJJkjKlJKljMkkJ%Kkj%J%J%KlNj0OjOjm%%
26700A17%JjMmJK%kjjL%jJ%JljJLjl%JKkoMMmM%lKKlJlKjKjJlLjjK%lKkNl%JlJkKMl%LkkJ
26684A17Jj%%KjkKJjj%JjjJKKmKjLkkKjjJK%k%Om%%KoMj%%kL%kKjJjjJnL%kjj%KkOk%lJNm
26669A16jK%J%kjK%k%Lj%J%jjj%JLkKkK%%%%%j%jjkJ%JjKj%j%Kk%%KjJ%jJ%%JkL%jJlLjJj
26653A18kjKj%Lk%kkOkjJjkLmLNnkJ%Jl%JRnmKKJ%oNMllJ0pkmPnJKkKmK%%KjLjjoOlMk%lL
26638A17pJ1moJ2nOmmNpj0RJ2kknOkJoLkPmlLkjJMn%KJk%MlKl%%Kl%kJLlJjKjJlJ%jK%Kkk
26623A14KjkK%j%MnOkJJjnM%JlKlJJKkLoJKj%lLKkKlJLJmJKlkM%KmMj%%K%j%lJkLjJlJKkk
26607A14MjJjJJnNl%LmNlJJkJ%jJkj%J%JjJkLjjkLkkKJj%%JKJk%jKjj%lLj%lLk%Kj%JkLkj
26592A13OmJJjlNkjjLkJjMjkKkj%%%KjkMnkKRkmJ%Kl%kJJJk%KlLjjJj%%J%jjJkKkMkjNnjJ
26576A14OpKkkLKlJK%lL%lK%%Kjkj%JjLjkjMJjjjKlJjJJjJ%%%JJjjKk%jJ%KmLlNnjL%jjKk
26561A13J%jKk%%NJl%JlK%jmMkJlL%mJMjlM%jkJJ%mJLlKjJ%jKj%jKkjkJJjJJKkLjkJ%k%%J
26545A12%%kJJjJ%J%kJKJljKKnMjlLJ%%KlJ%JJkjKkJJjjkLKlNjj%%%lK%jLl%JJ%J%kLKqQ%
26530A20JpNpKJmJPkKj5K2j3mNlJLojKKjLpRllNlK%kJjLJJlJkNnJLpP%%j1OLJLl%%mLjJk%
26515A13KJoKMnMkJLmLjLljJkjK%JKlJjjKkJJJmJKj%%jJ%kjLJJJljNkJjJ%mjL%k%KjJ%lKK
26499A16jlMlKlKKlMkj%LnKjLmkNj%mNlNl%LkKmjJJkJjJJjKjm%%OkjkLkjJJj%JKlJlKKj%J
26484A14jKmMnKKkKk%%%Klj%KlKLl%JjJjK%jj%JJkL%l%K%j%%jJJJjJjLJm%%Mm%K%mjK%k%k
26468A08%MKlJmNmK%%kL%%%J%%%jj%JkJLlKjLk%kJJkKJLoJkJjLJk%LlKjKJmjJjJJ%J%nNjj
26453A12KmLjl%%JjL%kJlMk%%JkJ%%LkJjJkLjJkKmjMJljjJJ%KljLKjjK%nL%JJlLJLnJK%jk
26437A12LljJ%jjjJKJkJ%%mLjLjjNm%kKJjkjKKkK%k%%kKKj%LoJLjjLkJlK%kJKk%%L%lJkJj
26422A10LmLKlK%k%jjJKj%kJjJJJ%jJlKjjJKJlJMlJkkKOpMJkjKm%kJM%LqJ0nk%kKLk%J%nM
26406A12%KkNoMmKjNoKJkjKk%mJJkJpPkMkMj%%Mp%JLJoLjJ%jjKkJKl%JmJ%%KlJKJ%Kkk%Ml
26391A08kKJJj%%Lj%kLjlLJ%kL%lKJKkkKkJkKmLJjJjkKkJjj%Kk%JLkjLj%l%Nk%Lk%%Kkjjj
26375A09Lk%jJjjJJJjLmJJm%KJj%l%L%JjMkJ%jk%%LlJJKklJKklLJKkkLKk%jKjKjkj%%%J%%
26360A10jJ%kJkLj%%%lLkKJ%mL%lOnKKjkLkjKj%K%%JpkRjnOnJJKJJkjKnLKlLjJl%JkJ%Kk%
26344A09%JjKLklJKlMmKkJJj%Kl%K%kjKj%jL%lJMo%K%KmjM%jJJjjKJlKm%LkKj%%LlJjLJmK
26328A11jlLjJK%kJ%%%KkjMjjk%KjkLmKk%KkJjLKl%KjJj%%jKJmL%kjJlNmJj%Jj%LlKLkJ%K
26313A14oLjkK%JKl%k%Kj%JkJkKkJJJmjPl%jL%klMJljNk%jlMJlkJkJLjmMKmMLoOLq%kJ%J0
26298A17qkQr%mkMJ0NJl8J6Pj6K1mj0KLPjO%OqoJ7j4lPmMm%JjlJKNmlJMjLpKKkKlj%JLJJk
26284A10jLrJ%j%KKJ%%JkJLJkKkKJmJkJMnK%jjK%%JkL%kl%jJKlKKlKj%%%jLkKlKlLl%JjL%
26268A09jKkkJ%%%LoKJjLkJ%jJJKkLjj%%%jlN%ljOpJKNll%%KkJJj%j%MklLk%JjJKkLnjLj%
26253A08JkJ%jKJjkMj%jKkLm%Kj%MmLkkkK%J%Lkk%MjkKljJ%L%jkKLn%j%J%LjkLkKljNm%K%
26237A10mOlKnJjK%JlKmLlJLPojJmMjKk%jlKjKJkJKk%%JjLjkKkJlMLkL%nlM%k%KJ%JkkLmM
26222A10Mml%J%%%JkKj%LmJKljKjkLjJJkjJ%KkLkkJjjJKlKkjJKoN%kKKjkJ%jjNk%JJNqJkK
26206A07%jKKkjMo%L%%l%%MjkjOnKkJkLjjkL%k%J%Lk%jjLlJJjLnJjMkJ%%%lMjKkJj%jK%J%
26190A09j%jKLlkJLlkM%Jkk%LkjJ%Ljk%jk%j%J%JjkK%MjJklKMmKl%K%LJpMJLkkJJmLLnLLo
26175A07kLnKJPqQkKoMjKmNKmlmLMmJ0j5J2nPj4Nk1M3k2mnJ5PJ4l3kNlNPmjMlJj0NMmKOlm
26162A06Kj%MnJLjjnOKlj%JKjjKnKj%JjJljJkOmNmJJKkjkK%kLKkJjjjjJJJNrJJKj%jkKkKj
26146A04KKjjJmK%kMmJJJjjJK%%J%kJJkKkK%JkLj%kkkMnOlKKlK%%jK%%kkjMmJ%JmKjLj%%k
26131A03JjJJlKJj%K%kJKk%JJJk%jJ%J%jKkJ%%JjL%lJjJ%kjKKkmMJKlKJj%KmJJ%ljLkoN%J
26115A06jkK%kKJJKlKKo%Lkj%MJk%jLkJJJlJjJ%kj%MnKKjjKJjl%%%kLkKlJjKjKJljjJLkJk
26100A03MmjK%%jKKmkM%J%jKk%KkJJmLkK%LnMkKlMmkK%%jkJK%%%JJJj%%LojNkjJ%JjjjLJk
26084A06jK%kKj%LlJmL%jJjKJkJnMMoJj%Jk%J%JjKmK%jM%jj%JJ%kMnMjjjMkj%kKKjKnKLlj
26068A05L%jJ%mK%%jj%lOlLlJkKkLKKpM%JlNrJ0ojQJj7J0Nj2J8noJ5ooj1MMk0J2J7pl%Jl%
26055A03QloKkPmNk%jJKmjMnKmNoOpMlKJJoQjnKKk%%LnMK%%nNkJ%lLj%lLLJkkLjlJKlJjjJ
26040A04%Jj%jLk%JjJ%jj%%%mPjJJl%lN%kJKmJJJlMjjkLkjLjlL%jjJjKmQknOkjlNmMlJ%jk
26024A02KKlKJkjJMk%JmMKoNmLkjJKlLJlJKJlkkLjKj%%lKJ%JmMlJJlJ%Kj%j%%%J%kKkK%%j
26008A03K%%%kKJJlJm%LJjMl%jjJJ%L%mKnJK%kLkjJLmKJL%n%Nl%jKJ%oQoLjkKJjKjjkMklj
25993A01Mk%kLkkL%jK%j%KkLmLj%jkJ%%LjjjjLjkMkjJJk%jLjjj%%Jk%JK%kL%kLmKj%LjmOj
25977A05kKjK%ljKkJJjKj%lMlJkJkKJ%JKkJkJ%lMl%J%JLk%kJ%LljJJkKKj%%JkJjjjLjJJjj
25962A05kL%kJ%JlMkj%%jkMkLkJ%KlJ%lMlM%j%k%%jKkjKk%JJKlJlKJ%J%%jj%%kKKjkLjJlk
25946A00KJjJ%lKJj%KmMjJkJ%%nLMKjnJqNLjLkK%%JjkJKk%JkLjKJkmMkJkNjMjkrQkKj%kOr
25931A00OljK%k%Lj%%J%%%kMjLljlMj%JkKjlJMj%%%jJlK%%lJ%KljJJjKjlMm%KJJK%l%JJkJ
25915A04J%j%%%k%JKj%LlJjLklMjJk%%ljMj%Kj%k%J%LljkKkNj%l%Lj%KkJlMk%KKlk%%J%J%
25900A04%kKk%%j%JjK%kJJK%Jkj%LkK%kMmlKjKkJJjjJ%%%J%jKJnL%jK%jL%jjjLjlJjLj%%K
25884A07JmKjkJlJOnoML%KmJjJjJJjjjK%kJJkKmNj%lOmLl%JjKKqNjJ%k%JJJjJlKkL%%jKlJ
25868A03%LoJkLKkjJJ%jKjjjL%lJKj%jMnK%jJjJJj%j%jjMmMkk%%JJkM%kKnLjLj%%j%%jJ%%
25853A02Jj%J%Llj%%JlNlJ%KkJjJj%jLk%jMjk%Mn%%JnNJ%k%k%K%kJjJLlJJ%lL%jjJlLmLJJ
25837A03%mKjJj%KkKkJJjJlJK%k%%LkKjJjJKjkJjlJKMjkLoNokOj%%%J%%mLmNnNmnP%mPLmj
25822A02%lJ0nj%jkKj%JjJJj%lJ%JJkJlPmJOnNnKkJnK%jJLJJk%k%JJjj%JJjKkjK%jJkJ%Jj
25806A03J%%%mL%%JkLjJj%%j%%JjLmJJlLjl%Jj%%jKJlL%JkJkKjJlJJ%KkKLo%jOmJJk%Ll%l
25791I8K%L%kJk%jjJ%%%jJKJK%kkMkjLk%jM%kKjKmL%%mMkJjJ%kJMnMmJJjkLlLjJjj%j%JjK
25775A03%jjJ%J%jKk%%JkKkJ%j%%%MjkK%mLJkjJk%%LKlkkLKlLn%NoJMJnL%kJKJkKjlKLlLk
25759A02J%kLjjmMKJnJMklKlkM%K%j%j%k%K%JkKjLkjjjKjJ%KJnMkJk%LjJjjJjkNlj%J%j%%
25744A00jJ%Jj%JJmM%ljJKl%K%jLj%LnKKkJjKmKlJJ%K%j%Kk%jJKmL%j%jjKJjKlKlJK%kKkk
25728I8NjLmMkKjmLjkLkJ%%J%j%jKk%%%JkjJKJ%%jjK%%K%%%jjJkjJ%k%jK%jjJ%LlMkMmMoK
25713A02jK%jlK%JmOlj%KkO%mkK%lJJKJjlkJ0mpNLj%%lJ%kJJJkJ%jKlMnJ%K%KoLoQj0M%Pj0
25697I4J5jj2OjJk%JKk%Jk%k%MlK%%jjkkKNmLkJmLJKlJjJkKj%LkjJ%k%KJjkJJ%jkkMk%JKj
25682I9JkK%kkLlMkK%JjkMlJk%JjjPjmMkjJKk%JJlLj%%lLkJJ%kKkJkKjjJJlJM%%lNljjLJm
25666A00L%jkJKLkkJJlJ%%jkK%LoKjJjLkLlkKj%J%JkKl%K%%%jL%lJ%kMmJk%LjjjKJjlLJlL
25651A00lKJ%KkKk%kLLpJ1okkLMjoJKj%%LnJK%kLJmKKkK%KkjJ%llKLmLpO%KkK%kJj%%Jj%%
25635A00JjkL%Kj%j%%JLl%KlkK%j%kK%%kjLJ%KkjJK%%%JlJ%%%JlLJlK%JkkJJnKJjKkK%J%%
25620A02jJJlL%kmMk%JjKjJmLkLJkjJJKlLjMmKkJ%%mPmjKjjlLJnKk%JJ%KjKk%JlLjj%JkJK
25604A01lJKjKkKlLj%jMjk%JlJjJ%lMj%lNlJ%kJlPmjL%lMjJljJj%mNlKJJ1mrPmLjjklNLpp
25589I0NqJ6Kj3OmJ1omLJMjmJJLmLkJlL%j%KkjLKoj%LKlnNK%jKKlj%%lOm%%JkJjLkKl%LkL
25574A02kjjjKKlJmMkj%J%Jj%%%LjK%KlKj%lKjK%j%K%%Jl%jJkK%m%J%%jJKJl%NnKlKKK%Kk
25558A02kjLpO%m%NKkjK%JlJk%JjLkKkkLmJ%%JJlJKljMjKm%JKkK%%lJKjlM%jJ%mMj%KmKlK
25543I9kJLm%JjjKkLjjJJjLmMmMnMmJJJ%JnN%%jL%%jLpLJk%%jLkKJjmLlJjMmNkmMKKkJ%Jk
25527A02%KlJJlKnKkM%%jLmJJKlkJ%jMpPkJlJjKlKJKkkKkkKkLjJl%NJljjJjJjJkLlJJ%JJl
25511I7Nj%kK%kJjJjj%JJJl%JJKkJjjJj%%%Jl%%Om%%jkLjKjl%JjkNjjLkL%kKlKKmLlLk%Lj
25496A01%%%jl%j%%LJmljO%JjKkKj%J%JjjLJkk%lK%JJlMk%%%KjJj%kK%jJJ%%lM%jkLmLl%%
25480I8kKJjK%%lJKJkj%KlJj%J%jJJmOKmmLKjLklLJ%oK%K%k%Jj%%%NmjJ%lK%jMKmLmKJpJQ
25464A02lkkMMJqNKoMlJkLlNjlLKjjK%klMkKljJ%L%jlMkj%jjKJJkjlL%%kJjK%KjKjkK%L%j
25449A02l%KjJ%%%KlJkjLjlJKk%%J%jLl%O%l%J%kjJk%J%J%lJKlKjKJkjJK%jjjKjj%JKKmMo
25433I7L%Jl%JJk%%JJjJJlKjJj%l%kJjKkJJ%%%JL%k%LJkj%%JkJjkK%jKJj%%j%jlNkJkL%jj
25417I7K%jJj%kKmMlJKjJjk%KlLKk%JKkkLkJjJK%kKJk%Jjk%Jj%%JjJKmNllOJjmMJkLnL%k%
25401I9L%mK%k%%%jL%l%KjLkkKkJL%jJJmKkKkKKl%JjJjJjk%mKMmJJj%LlKK%%k%JjjJJ%Kll
25386I5JLkJKkJk%JJLmKkKlJjJkKjLmKj%Jj%kLJj%J%Lm%jKKj%%jJjK%kKJjKkJjJK%k%l%%K
25370A01JllK%kJ%JJJJkMmkLlKjKKjLl%k%JKJmJJ%%kMjkLoLKJmlR%lOqNqOpKlKLJkkQj1Qq
25355I4Pjj1J1Prjl%NjkJJKkkMJkkJLkjJj%JJJKmmPr%JKkjMJKljKLkl%MmJ%JJJlJJjk%kjO
25339I9lKLm%JJ%JJ%k%JKk%J%kKjKjJJjKjjJmLjjJj%jjKkKk%jj%jKKmMJJjjJjkMjmNnOjkJ
25323A00jLl%KjJj%kKkLklMl%Lk%%%MmJ%lLKl%%%kJ%K%kJK%%%j%jJKlLnKmMlK%%jJJ%JjKJ
25308A01k%%JJl%JkJ%kLj%JKk%%jk%LlKJ%J%kJLjjK%kQrLLklkNl%%%JnKKjjlLJM%kl%JJk%
25292I8JjJ%jJKkJkKljKLk%lJKnMjK%%jkLjlM%kK%%k%LKnJJl%jNjklM%kKjK%%%kKkJJjKkk
25276I6K%J%J%j%JLl%%kL%jjKjjjKl%%JjLk%jKl%jJ%j%Ml%jLjkLJ%JjkLkJk%JjJj%KjkLjm
25261I4KjOk%kLk%%kKLnK%%%K%%%%KmjLjJj%LkjjJKmOl%JlJkKjJkKjLj%lKj%Kj%%%KkJKm%
25245I8LkjMljlN%j%j%kKJ%%mRrPkkjKjjjKKPj2PklJjnMoQjlJ%JJLjKoRnJlJlPjnNLnj0J4
25230A03Qkj0j4J5Kj2J9j1%%M%lKmJjLjjn%PkjK%k%jNnL%KlJj%k%MkJk%MkJJlKk%KlkMj%j
25216I7%K%kL%lk%K%%j%jJjN%mJJmMJjkLkJjjJlL%LlMjmM%Lk%jj%%J%%KkjlK%%JKmKkJJLm
25200I8MklOmJmL%kJKKkkJJk%J%k%Lj%%KmNkLjmJ%J%kJ%%Kjjj%LjjkJkJkKLj%jJjjJ%%%JK
25184A01jj%lMkJkPo%JJ%JoMkKklNkK%K%%kjLJlLjmKJJjnLk%Jj%JjLKmJJJ%jKjjlKKkJkKm
25168I5Kj%KjLj%j%JJJk%jKmLJjJkj%K%lKJ%lMkJkJjKjK%jjkKjK%%jjkNjjK%kJlJJLjmLl%
25153I6JJjMnMljL%kJ%jLk%LmKJk%jJK%J%jKlk%LlJJjKJl%JjJ%%kKlN%JJ%lL%lLjkjjNJnJ
25137A00jLkkLmMjJj%%J%lkNk%LJjpLk%%KLlmMKlk%KmLKLo%KkJ0pLLrLLRj6OlPorJ7nOMmj7
25122I0J3JnJL3j2j2m0M4m0K8J9%m4L2lj6ROqOnP%j5J2OljqMKknMJnNJjljNp%J%jPnJ%jKk
25109I5MpKLJljNlJjJKkkMmLj%KJkKJlkjKkLkL%l%%Mj%%jJjJ%kKjlMlK%%jkjL%jMkLoKJj%
25094I7%jJjMmMkmKKJLn%LjnQjnMnNJ5j4MoLkm%K%Ll%jL%JJlMmkKjlMJ%mM%jJJlLlJj%J%%
25078I9kJkJLkkMlKjlJJJkLjJJjl%JjjL%JkJ%jJjMJmKkjJkJNkm%J%J%%jjNpLJKj%jlMkLlK
25062I9JkKmKKjKJm%%KjKl%JKlJmLKj%j%%jKkj%Kj%kJNoOkoQmNmKjkJ%%K%jlK%KJj%lLJk%
25047I9jjJKkJ%lMm%L%%jJ%jkKJJk%jJJ%%jlJKkk%Lj%jKkJjMJkkK%mNKm%L%lK%%%JkLljL%
25031A00jlLk%jjKj%%%%KKkjJJjKkJJ%KnKj%%KmJLlKkKKl%lMj%%J%Jl%%%j%JMoMjj%JL%l%
25015I8Jj%LkJj%kjjKjJ%Jk%K%kK%jj%MJkKjkKKk%%qPjKk%KlJJ%jjMnMpJ0qLKnJjOjlJMnJ
25000I8pQlKjNnKkNkkJMklKk%o%RqjlJ0MkKklLlkLjJLkj%J%kL%%lkKJ%kL%kJj%kLjL%%%%k
24984I9%kJjJK%j%%LlLlkJJ%%J%j%JjMm%Jlj%Nm%jKkKjK%lNk%j%kK%KlJ%%kJjNkjJKlj%JJ
24968I9l%JJjLkJkJJJjKJm%JKjJjJjJKk%KkKl%J%jJlJJjj%jJk%%Lj%%KkjKLj%kjJKjjJkJk
24953I7L%kkKjK%%%Kjk%J%%JJknPoRmKklM%kJk%kjJ0j0Nk%JlKKk%J%l%JKkK%jjJJk%KJk%m
24937I4JLljkM%KlL%JNj%%kjj%KkkOljk%Kj%Lk%kJ%jJKjlMj%%KlJJj%KJ%%%%jJk%J%%lK%K
24921A02m%JJkJjJJjJ%%lJLkKl%LlJ%%Lj%lJkMmJL%kJjkLkJ%%%kK%%%k%JJjjjKKjkMmMjjK
24906A01kkMlMkkKlJK%j%Jj%%LjllMkKjMklL%k%J%Jk%JlLkKmLjJMnJJjk%OkjMnkJLJ%mMmJ
24890I8MrMkRj5JJ0MloNnLjJjNLo%kMkjjMkJjlLlJ%JJlLkJjK%%k%PmLkkjKnRj1OmOnkNjjK
24875I9l%%J%KkK%kjjL%jj%pQlJJlMjJ%%%jKJJ%JkJ%jJJ%%JjjjJj%%KkMoNn%%LjJjjJ%JlL
24859A00jjKJkjK%jJjKJJj%mJJJ%lKJmkL%JlJJJjJJjJj%k%JJN%l%%kJLljLk%lKkLjjJ%jKj
24844I9JJkJj%JlMk%JJkjJjj%jJKkMkKj%j%KjjKl%j%KjKlJJ%%%jJlMlJLk%J%j%KJlJKkJnJ
24828I7NmkQmk%JLmNnLlLJkKjjj%JJk%j%JJJ%jKm%jMlPkJolOkKk%jJ%%JJMjl%JJjjKk%%jK
24812A02mMjJkJjJjkJmJK%j%MJkK%%JkJjj%KkjJ%jLljM%lKkJ%%JlL%jJKjjjK%JlKKnLLk%%
24797A03j%kKkKljJ%KjlK%KmM%l%KjjJKjkKoKNkLkKkjj%LjKn%jLJkJjjJ%JJkJ%kJjK%J%Kj
24781A01kJ%K%%mJk%JjK%KkJk%KMlJJJmj%Lk%j%MlKJmJoJ1mjjJ%kJJk%JJKlJ%rJ0mkJLmRo
24766I8LlJjjMkJjKJ%JKlnLNmmMjL%Kj0QmpNKlJjNJkOj1PkJjKkjNlJjmKmKJJ%kJKjK%kMjn
24751I7L%LkJk%%Llj%KKkjjLkkM%kKjKk%%kjjMkjNk%LoNkJkMk%j%kMklLlKJJ%j%jjJjkK%%
24735I9kJK%Jl%kJJk%KkkKJNkkJJ%J%j%%jJJKk%jKj%KjkjJJnLj%%%kKjjJjJ%JL%k%%jJKlJ
24719I9%kK%JJJJmMkoN%%%ljLjMjKmOjpMJKmjJKKljkLjLjLJmJJm%%%K%Jjj%%kLjkKmLl%M%
24703A01%KnjNlJj%LkL%lmKKj%KkJLmK%kJjKJkKl%KJ%jkKl%JJj%jJ%KkJJj%KkjJK%%jKkk%
24688I9JMkKlKk%%Kk%JlKJl%%%KmJKJkjjKmPjJmLjJ%KmLLlkK%KlkjNl%k%MmLjk%%jKJlJNj
24672A02JJJkjJj%lJ%KlKjj%J%%jJlK%JjjJMlkMkjkKkL%Jk%JJlLJjj%Kk%J%%JJjjjj%%%%k
24656I7OlPj0KNjkpMJLjL%lk%kJ%qJ0kNqMlLJkmLJkOkL%k%k%Pm%jKpL%Ljj%NnKoJ1pKjjJl
24641I8K%kL%jJmQl%j%%jKKjJl%JkJ%jJ%j%Mk%%jJkjJJj%KjLk%%kJJkLjJkJKjjkK%kkMjjJ
24626A01jJ%%%lJlJKJljKJlMNnJK%KqJPoKJk%kK%jkMJ%jkJJkJ%JkjMnLlKJ%jlNl%LkKl%Lm
24610I7K%%Jj%J%lMlKjJKjj%MmjK%k%K%JkjJ%jjLlK%Jk%K%k%JK%%lkJJ%J%jjNjKlJJklJ%k
24594I7LK%JjmOl%KjjKkLm%Lljj%KjLjj%kLjlLjk%KJk%M%lKKnLmN%jJLjkjKkjKJkjMmJmRm
24578A02Jk%JKlKjKk%%JJj%%LkjKlJk%%Kk%jJjJJKmLkJKlMJl%Mj%j%%lkKk%JjKjjM%%kjLl
24563A01JKk%KkLjjjjKJjkJ%Ll%jjLjjKlKjk%%LlKk%%jJKJk%KlKKj%jLjkLjjJjKjJjjJjjj
24547A00%Lj%%%JlJJKkkNlJjK%kLj%jJjkLj%jJ%%%jjMkKkn%PlMjmK%LkJjnMoOLrJ1pkKKkj
24532A00K%jMnKJl%KkJ%KJlJJLnjjlKJOj4RKMmjJkNjkKkLlKmMljLJlKjjMkoMKj%jL%J%Jj%
24517A05kK%jjJjkKJjKlK%jJjjkJJKlKlLjjKk%J%%M%%mNm%%JJJlK%kj%jKLkjjMlJjJ%%%Ln
24501A02KJjkKk%JkjLl%jMjJlJMkkLkjKmJJK%%lKkJ%KJkJ%jJlLjlKlLKk%JmM%lJjKkJj%JL
24485A03%jKkKj%JKk%jkjJ%jK%lNlJ%%JjjLmLmKJJmLjKJ%lJ%LlJjLlL%k%jJJ%Kk%kJlLk%%
24470A01KlKJ%%k%%LkKJlkKMklJKj%Jj%j%L%%JlJ%j%K%Jkm%KJjKjj%JJJJl%%JjJjJJjkJkJ
24454A02JjL%%kkNljKKkKlKJlLkNojlL%Kl%JKkMjlj%%%%JJKk%KkkLjJ%lKkjLjJ%lJJj%%%K
24439A03%kJkLLkMnLm%K%lLmJJkMk%JjLlLkLk%kKlOkjLjkMlNlnLKlkMkkLlKKnNJJNplL%j%
24423A05LKklLlqjQJ5k0NNj9L0rj5J1j1MKkKNLj4Ojj1RkPnQ%kkKnKJ%kJ%MmJ%KllLKlNljK
24410A04%kMllRqPlKmMjjl%%KmM%k%KJjlLjkLKjkjKLnLJlJ%%jjLk%LkJjJjj%jkLj%kJ%Lj%
24394A03JkK%mK%LljKKkJJ%%kj%JkK%K%LmKjJjKpKJMkkJK%lM%k%%jKjJl%%LkKl%KK%mLj%%
24379A05mM%%%LljjKJj%%jk%LkkJ%%%KjkjMk%J%JKkLjkkNl%%%jlL%kK%Kk%LlJjOmkJJjkKj
24363A03%jOmkM%kLnMjKJkMkl%KJjLlljKLjjjJpOkj%LlLlJ%%JjkLjK%jKJ%JljMn%JJLljJJ
24347A06mJKk%%lJ%KjLjkJKjjJkKj%jK%kLJj%kKJk%j%Kj%%%JjKl%JJJ%kJK%mJJ%kkOlkOjm
24332A03MJ%ljKkJMljLkjJ%%JJKjlKkJJl%jKkJjJk%K%jj%J%jMkLm%JLlJ%jJkJJ%J%%KkLl%
24316A07kM%%%j%nKKkMlMl%jlN%j%jKljL%jk%%JjmOMn%kKjkjMj%LlKkKjKLj4J0mMJLkkJjJ
24301A07lKKj2QKkmOpPnPjo%KkOojMNjojnJ3j0J2j5J1lJ1NpKj4J9k9PM3j7k5j4N3l5lKJ3j3
24290A02J2qj4%J1KnMnQNj3lPknROpP%pOklLkLmJlMjj%JLkjMkLlk%Kjj%L%%jkJlLJmK%jkJ
24275A04KmJL%kkLJ%mL%jOnNmjKkKjMpNk%lMlJKk%lJLjLJmJJjKmJLK%%mK%%KKoJJJljKljK
24259A05jjMmKk%%LjKjLjjjjKlJKJ%Jj%lJKKl%J%%Kj%jJ%kjKjjj%%JkJJj%Kk%J%Jjj%JKnJ
24244A04LjK%kKKkJjJNnLoJj%J%jK%kjJlK%KjJjJjK%%Jj%JlM%kKjJ%kL%jJk%jjMmOj%lj%K
24228A10jJkjKk%kKjJlL%kJ%J%Kj%kKJ%kj%%JKkK%kJjJ%J%Jl%KjKjJ%k%%%JkMjjk%%JjjjK
24213A07%K%jjJmNJmK%JlKkL%KJlJjJKlJkLkJkjKkLKmkLJjlLlL%ljjMjl%KjJKJkK%j%JlLk
24197A07KJmNkl%j%KjMkjJj%JJK%mJJ%Jk%J%Jm%QmkjMj%nMKkNmLmLmJjL%klOj1OJ1kj0k6J9
24182I9K1j6kQoNqORoj%j%Kkj%jKjJkjLjMmkKLl%kKk%O%nLJK%kkJ%J%lJjLj%kLjJK%jjkjL
24167A10lJjJ%J%%%%Jjj%J%%kKjJjJjJlKJlLj%%LmJJ%JjJkJKljKLJjmLMm%KmK%%KkJ%%mJK
24152A11MKqN%ljqRlPrP%kjjjK%lJK%J%mLjLKjmKJ%jMoKJk%KK%l%jJJl%KjjjjJkNlJ%j%j%
24136A07KjkLk%LKkJjJlKjJjKkKj%kMjJjj%KJkl%MjkNl%%Lm%KmK%jjLLj%KnJJj%J%jJJJkl
24120A09JKjkJ%%kKkKjJjjLjkJ%J%%%jKJmKKjjLkKkJkKkJjKjLlJjJ%k%LnL%%%jJJjj%%Jj%
24105A10j%KkKjjKjjJk%JJ%%J%Kjk%JjJjKnNoKLJkjKkKmLjLl%JJKljJJjMkjjJJk%KjJ%j%j
24089A10LkKmKJjj%jK%j%kMJnJKjMn%KlkJKj%JJJjjKJ%kJ%%jjJKjKljKkKj%JkjMnMjkLjKj
24074A11k%K%%lNklLJ%Kj%%mP%jqPpRjk%jkLJoOjOqMkKpKJ%jKL%mMkKllJ%Ml%%kJK%l%LJK
24058A15lmJ0rPklNnQjm%mKjKkK%jkJJ%mMJjlKkJ%%jJlJ%J%JK%jKj%jKjkJKlkJMjjKjmOlJ
24043A12LnMmJ%jKlKJjJ%jlMj%%%%%j%KjKMn%jNmlKJjK%JJ%jJJkj%%J%kLj%%%j%%kMl%L%j
24027A14jk%KkLj%JKkkL%j%jJJ%jkJJ%%JkJ%JjmMlJj%j%%JkMlJJ%%Jk%%%jKLnKJ%jKlk%K%
24012A11%LlJJjK%%kKLkKoL%kJJjJoLJ%jKjnNlK%jLmKjL%Jjj%JJk%%kL%kJ%kj%OljKjk%%J
23996A11%JK%%lJJmLJkjKjJJjM%lKk%L%kj%J%kJJjKJJmLkJjLkJ%jJ%kMlJlLkLnLk%%K%JmK
23981A14kK%J%JjJ%%jkMkMlkjJjKJ%JkLlLk%jJJk%kj%JJjjKjj%jJlOlL%l%LKkJljJkJKk%L
23965A15%ljJKjJKkjLnJLk%J%%JkJ%%L%klLJ%kKjKl%Kk%Lj%kMjLnkNlQmNqlRqLKo%LNoM%j
23949A18%Jq%llJ3njKMnLKmL%JjjKj%jKmLkKkkJJ%JnMNj0NMknN%oMKnL%kjJ%K%j%Lk%%jK%
23934A16%j%%jNkjJ%%ljK%mJKJkM%%j%jLlKjj%%KkjJjK%kLljKjKJjjJ%%lJjJj%LlOmJmL%K
23919A17l%%lNmKjJLlK%lMj%JjlMjJjJKkJjJ%Kk%Mjl%j%kKLjlJKJnLJjjKkjKkJ%J%LlkKJ%
23903A19k%kMk%KkKlJkK%KkLk%LkLl%Jj%k%KkJ%kjKjJ%JlLKK%mkMnJJJjJk%kjOmJKnLkLJl
23888A15KjjMmKJ%%kJJJj%j%%lLJkKjLllLMnLKnLnNjJkjKkKlKJJ%k%JJkKk%jLlK%KkjJ%jJ
23872A18jKl%LjkjMj%%%lKkKj%K%JJlL%J%jmKJJjjLjjJnNmJKljKjKkJLo%JMnMjjj%JjjLjK
23857A18J%lLJk%%Jj%%KkJlLlJLlJjlLlNlKjJ%JjLljjLKmNknNjK%j%J%JkjJkKk%J%jK%%%j
23841A19K%%jLl%%J%k%J%KlKKk%lJKk%Ook%OmK%k%jJJKJ%mNOj3jLNjJk%%kJj%Lj%%kNoKJK
23826A24jlPpjoJ0j%kllRpMmNnQnjLMnj%MlLmjL%%mK%kOmKkJjK%JlL%kK%jJmM%%kLjjJjKl
23810A20%%JmOk%m%kKkLj%KkjNkLmLj%JjJj%jK%%KkJK%mJLmKmM%%lK%kJjLljK%jKlK%kJJK
23795A22lJjlPlLnKL%mMkJJ%%lLJJ%j%JkKjjMkJnL%%k%%KmK%jjKJk%%K%kJKl%LklLj%kKJJ
23779A23l%kLjjK%jOl%JJkkjKKj%JkJJmj%OmkOlKlKKjlMklOl%jKl%kMkj%%KKlJJ%kKkJL%J
23764A26l%JkOk%J%mJ%%J%J%kjKl%KlMnJ%%KkJMl%JkKj%%Jkk%KK%%%Jjj%%JjjLmJJJjK%%%
23748A25jl%MlkLjjKk%K%JJlkjLkN%LklJKjJJk%%J%j%J%j%Jkj%J%lL%%%oNjJj%JJj%K%k%L
23732A26lJJjJKlKjlLjLjjK%KlkLlJjjj%JJ%jlJjK%%JJjJJj%KljkNJpNJKlLmkL%JJlMlkNq
23717A19J3lJ%oL%mNkOjnlJ1lj0J3omPq%JjKJ%nM%KnNjJmKJ%jl%LKloMPqjMJjlNLo%Nkj%K
23702A27j%Lk%Lkj%jJlJ%%Kjk%KjjJKJkjJKl%%Jkj%L%JkKkMjk%MnLJ%JklK%j%kLJjj%%%kL
23687A27%jkLlKJMmjJjJjLjk%kNn%NJlk%LjjKjLlJ%%jKJkLnP%%kmJ%J%mjKJjjjKJjJ%lKJl
23671A24J%jKkKK%JjkJ%%J%j%KlJJ%j%%%jK%%%%%%KkJmLKkj%j%KJkjJ%JJKnLkj%KlMmL%kj
23656A25JK%%KlJkKkJ%L%jKj%j%Kk%KjjjLlLjkLJ%lQqJNoKj%mL%J%%%%JjKJlKklMKljkNl%
23640A29JJmNmjKjLkKjJlLklKjJJ%%lL%JjjKkJjMn%KjJjJ%Jj%%JJl%KmLlLJkJKlJj%jKkKK
23624A31%k%JlLJmKKJlJJmKJJlJ%%LJmKjlLKkk%Kjk%KkKKkMkjj%jJJ%%J%mKkKjLjjKj%KkK
23609A32JlM%%JjlJJ%%k%JJlKjKlKjjJkLkK%%k%%Ln%KKKlJ%%j%kNpN%jnOjlOkkMm%KMlk%J
23593A32JKkkjKKmMkjJKjMplKJ0qlJ1klKjJNnk%kLk%kkMlL%%kK%JJ%kJnJKj%JjJjMjJkJJ%
23578A35kJj%Jjk%JlK%kM%jkK%JJKJnLjJk%kJJJnNmJKKmKkJjlLlKj%KJJ%%Jkj%%kOkl%JJJ
23563A33%Jk%j%J%lM%kJJ%jMmNllJLlJJjk%JLm%KKjJkJj%Kj%jJJ%KmKlJKJjJk%%%j%K%l%K
23547A34JJjJJ%lMk%lMjl%%%Kj%%JJjK%k%jkL%kMj%%%%LJLmKkkJ%nMjKlKJjkLkj%lJJJj%K
23531A36nKkNn%Mm%KlLlMLjk%JJJlKJ%kkKjK%%jkjLjLljLJkKkJ%jjjJ%KK%mJkLjK%k%%JJJ
23516A38mLj%JlLJJk%J%%Jm%%%JJ%j%%kJJkKNknMKjjk%Jj%jKjjKkJMlJjK%lK%jJJJ%lNjJJ
23500A43llMlJLklOkkJjJjjKkkKmM%%JjjOkKmLkKjKoKKjk%%%jjLkjKjK%JkK%%mNmNKjJkKl
23485A41km%Mk%j0LRrJNJ3j2LKqRj3J4qQKj2KmKMM%pO%lMjKllKJlLjLjj%JkJMjJ%nnQJjJL
23471A46rkO%LlJK%kJ%lJ%%jJ%K%mMmLjjjLlK%JJkKjlK%%%%kKjJ%lL%kMk%JkKjkJj%LJkjJ
23455A41jk%LlKjKjKjjLlJKkOnJJlMoOj%k%jLmMpKJjLl%%%%%K%j%Mj%j%L%k%jkJ%J%LKkjl
23439A41KkJjj%LjJkJ%Jj%LjLoL%JkJJjj%%jKLlJlJJmL%l%J%%%%%j%KKlJjNlJj%KkMJmLlj
23424A43L%JlKlKj%jlJKlOKjljJJ%%Jl%kMkjLkJKkj%KkJJkjJjNm%JjjNl%KjjlKLkJMmKKl%
23408A46J%jJkkjMlJJkNlJjjKk%K%j%%KkJJmJJjK%%%J%lKKmJ%KjJjjJkLkjjMkkJK%kJJjJJ
23393A47j%jL%lMkkk%j%JJKmKjkLJlM%jK%jJ%jlKJJJ%JkQj0%K%JJ%JjkLJkjK%%Jj%jjjJJk
23377A47jJ%KlKjJ%lLkJ%KkJJJmJJJjJJkJ%Jj%JjjKj%j%M%l%lKlNkjKMpK%%kN%mK%JMmkKj
23362A49OknLkOljk%%LjkJJjJk%KKJNlrMJjLJrpJ6kPnnkKk0K6qlMlNl%LnKMmJk%jKKm%KKl
23347A47NljkjKJjKJjMmJK%%Kj%j%lKk%J%kLl%%%K%lMk%%KlL%kLl%JJ%ljMJlKJjK%jLk%%l
23331A50JMmjLkk%jKlKKJk%JJjJJjjJjLjm%MJjjJKkL%%jjj%kjNjJkkLJkJlLkJmM%JmLKl%J
23316A53%KkJKk%J%mKJJjjLjkK%JmjJj%kOl%kJ%jMoQokMkJkNkjK%JkJJMnOkjJlLmLkJljJK
23300A54JmMmL%kL%kkjLjK%%%jMnKMlJ%mLkNlJmL%jKkJJmMjjjJJjK%JjmKKlMkjJ%kMKmj%M
23285A58kJ%%%%%KlJ%%kLoNlKj%LjjKkjJJjKkJ%JJjj%J%JjK%kkkLjKmjLJkJjlLKjjKNnKJk
23269A58%LmKlKj%%JjJKjjlLjkMkKkKj%%Om%j%K%j%%%%%KmkOnJkNJj%J%lJjKk%KJl%Kj%Jk
23254A59jKK%kMnLnJOj0J1ojNnM%rLkJ0qjNKJpJJ0j2J2mj0J2k3J3oK8k3KLK2k0L%rRnnJ2p
23242A59KkPmjkKkLljMl%%kJLjKoO%KoPkjKljKjlLlNk%klM%LJnKMk%jJ%%kJJJjk%%LkLJj%
23226A65JlLmKjJLnKjmKLlMkj%JJJlKLnKjkJKlJ%KKmJJ%MpPnNmlJL%l%oQqLLjMj1LMkMkMl
23211A62%MllKJJkJKl%M%jJmK%jjJj%LKmNl%JlKJJ%Kj%kJlJK%jJJjJjKlKlLjkJJjJJj%lK%
23195A66K%kjjLkjKkkOlKjjNmkMkKmPjj%JkJjjlKJnL%%mPjKkjKjkLkK%JkKjlLJkj%kLjJ%l
23179A64JkMLmlNkKjKlKJJj%Kl%J%%%jMlJj%%J%%%jkNJ%lMmjKlKj%Jk%j%J%kKjKj%LmJ%Kj
23164A69%j%LkjJ%j%%%jJ%OnJk%JJjK%kJkKjJk%Nn%J%jJLkkKjKl%jJJJj%jjJJjK%j%lJ%Jj
23148A67L%%JKjlJLjJKkjJjjK%JkjJLmMjl%JkK%lMjJkJ%JlLjJj%%JmLKkJkJ%JLljJkL%kMk
23133A74JkJkjNnKjKkKj%Mkj%jNLj0PoOo%L%j%L%kJj%kLlL%lL%j%jKj%kNlMqJ0j1lJ1JoKK
23118A77j0J1mK%%%%jjKm%%MjJk%KKlkjLjJkK%%KkKkJkKlLjKj%J%lMkJLJm%KJnMkKkJkL%J
23103A80k%lLmJJKmmM%%%LkjKjJjJKjj%JjLjJlKjjJKKkJ%k%%kK%jLlkJLJlLjk%JjKJJjjKJ
23087A82jKllLjJ%jKkJkKk%%JJJjkJjKjjMlKkJJjMkkJ%lLk%KjjJ%kjMk%kJ%%KKkKkkMl%jJ
23072A79jL%j%jlNLjkMoLjkJK%JJkKj%jJK%%%k%JlK%JlJ%jjNm%jjlRkmNKk%JjJjLjKm%JjJ
23056A85JkjJJjJlJ%j%JkKkL%kLkJJ%JjJlLj%j%K%lJ%JkKjK%%jLljKJjljPljJ%Jl%LkJjJj
23041A85JJjkNn%%JkJkLn%KJ%jKJ%jJMlJJlLjkLjjJlJLJljJJkL%j%MmK%kJK%klLkjjOnLJk
23025A87JLjKm%%kkJLk%%JJK%l%%JJjLkK%k%JJmKlNJlKjm%NK%mK%j5J5%nOOokjOpKKoJlMm
23010A84NKmljQkKjkKLkJJkJ%jLk%jkKMklKKjjkKjlPlLpMLjlJjKmJK%jLnKKkJjJLljJ%%kK
22995A92jMlJ%j%LkJjJjKjjJKlJ%kLjKjjKlJMkk%KjJj%JkLjkkMjJ%J%%jjJjjlOklN%K%joP
22979A99kkjL%lJKjJjKKk%jKLl%%lkLKmLKnKJlM%jJjlJKJj%%KmMkJ%kjJkMkJ%KJjkK%Jj%K
22963B02kkkL%kK%%%kKJlLkMj%%%jJj%jMk%kLjkJjkNl%JJmJj%LJ%mLJKJk%%KmJJmMk%jLkK
22948B02jjK%K%%%JmKjJJnKPlkkkNjk%%LkJJKk%%LkjJKljJJmMkKmJK%lJ%JJ%%KkjJJlJkJJ
22932B03J%J%jj%%JlNm%Ll%Nj%%kJmN%mjPnJL%%jLk%JJ%kl%%%Nl%%LkkjLmLkK%lKLlKjJJm
22917B04%JjMm%KkK%j%%Nj%%%j%JKmL%lKj%%J%ljK%MoJKKjLlJKjJk%%KjkJ%JjK%kkLlMJk%
22901B11%kK%KlLlLnJJJjjJKkLjkJKJoNkJjMoJJQj1OlPlKklKKkJk%JJlK%lLMKqKNjklK%oJ
22886B10jJ0OqMrjPlmjOkkOoJLnKLkJJk%%%JJ%%jkJL%jjJkK%lKJ%%JJkJ%lL%jj%%%lKjNjk
22870B15JKjkJLlJjJkLj%JkKJJmKJljJjLkKkjM%kKjLlJj%lMmL%Lk%Jj%%lL%jj%LmLKjkLjJ
22855B21jjMm%JLlLj%lMkj%LjjjLkjLk%J%JkMkJl%J%kKJjkKjJjJjLlMkjL%%KkkKkkKjkKJ%
22839B23lMOqLl%MmJLkkLlLk%%LjjJNoL%JkJkmKKj%kMJj%jKkJjJkKKmKjMjLnJ%MpOjK%%jj
22824B29lJ%KlLkKkJJ%kjKJkj%%%JjK%lKKjJKJk%Jj%Kkjj%%%J%%JJj%kKKmKJjjkKkMjLmJL
22808B33lLkKjlLkLjjKmJlL%kJKj%%KkjKjlPn%KkJKkLkJ%jJJlOkjk%Jj%LjjJ%jjKJ%jj%kL
22793B33JJ%%%%%JlLjjj%KjkJJ%kJ%JjK%%kJLjLj%j%JJjKllKLm%LkNjjLjnKjKj%NpNJJj0l
22777B30J4klJJPpNpMljJ%kLlK%LlJl%J%jKNmKn%Nj%JpNNooOLmM%%Jj%j%jkMoM%J%KjkKJ%
22762B44lM%lkNj%j%J%kMkjKmJJkKJlL%kLmJJjJlPkJjkjLkJLj%%kJ%MmL%jJnLljKKjLlLkj
22746B45JjOmKJlKKKnLJjljLl%LjKmJKkKJj%jLkJKmJ%l%K%kKjkNmLjjK%kK%JkJjKkJLkkKk
22731B49K%jjKjkKJJk%LjjJkKJ%%jjjL%LlKjj%jjMlJkNoKkJJLlJK%k%JKoKjJLk%LlKmLJjk
22715B52JJJjKmLKm%KkMlJJlJjM%lKKkLlNm%JjKkkLl%JJMk%KkKk%jKjJk%KJk%%%jKjJjKj%
22700B60jJJ%%L%kj%jjLjKkkLkJJ%%%k%jkLJJj%JlLLjlMk%%j%JjjJJjjJljOk%jKlLKKl%Jk
22684B63%JJkJKkk%NjkKj%KJmLlK%lKJjJlJ%JKlK%%JkLjjjNpLK%KlK%lLk%J%kLkJj%%JkL%
22669B69jkL%j%LkKj%%KnNkKlJjLjjjJLljM%kKkjKlOmJn%K%NjkLlJ%jLKnKkKlJjJKKk%jMj
22653B75jKnQlJJmMkJrKPpL%Nj%JJ%j%Kk%kJjMkJjJlMoNkJjJ%%JKk%%kJjJ%kJJMmK%KJk%j
22637B80lLk%NlK%%lKJ%%k%KjkKJ%JlKJmK%JjLoMLkKjlKJmMkl%OkjLk%J%MmMm%J%%JjJ%lL
22622B86lN%pOkJlM%jjLJk%jJjlK%KjJK%jjjLkKJ%lJ%J%%j%LjJjjKJjK%j%%JjKJklJ%Mkj%
22606B92%%j%%%LoN%kJkjJLKoLJKjoKOlLk%KlMjkKjK%%%kLlLkkMoLjJ%kL%JkMmKJm%MjlN%
22591B99jJkMmjLjjLj%k%JJ%j%%kMnJNlLJKjkLmLk%%JkMkKj%kL%jJ%jKmkMkKkJKjKJkKj%J
22575C06kjLkMnjKkMkLjk%JlNmPnKjJj%KjJkjK%%LlMjlNj%JkKkkkJ%JnNkKJ%KmLJjjlPm%%
22560C09KjK%%%JjlKK%jlNmNmJ%%jJkJKmPoJJK%%J%lMlJlkJ0j0MMMjlqJ2njJ1j5NOj0PmM5
22546C60ko3O1j4k2oKjkK3k3LllJ0j2PJmJ7j2%JJ0j2LK%lJ%KmL%mOl%KjjjMmNj%nLLLjLpL
22533C24%%jKLoOmjJKmKKJk%jJ%jJ%l%KJjNm%jkLjJjJj%%%%Jkk%KJJK%jLKmKKlJjKl%KLlJ
22517C30KoKLkJkKJjJ%jjLkkJ%KLoLjMqO%jlJK%jJJLoNkK%kMpLJJk%%JkKL%%KjK%kjLkK%l
22502C36%%%kK%j%jKj%J%JlLK%kKlLJkKj%jJj%Lj%KJj%%%JKmKk%JkjKKKkJ%JKmJkMjK%j%l
22486C43%%kMlK%JjJJKlkOmKjJlJKj%JJ%lJj%jJLjJKkk%JkL%%%j%OqPkjmMKl%LJ%jJJj%jJ
22471C52%j%JJj%%KlkPmJkLmjMjJJ%jMj%%J%%kJjJjJKjLkLm%JlJ%K%jj%Nj%j%jJLk%KkJ%k
22455C59MlLnNm%KJKjkj%Mk%JjjK%J%K%jjKjjLjJ%kKLn%jLJjLjmMlKJ%kLk%j%L%%jJk%K%L
22439C73oNjJlKlJLkjKkjLjKJjLkkKjJLj%k%JLm%NnJJlKlLJJ%mLMLllkkjPkKlL%njQ%%nJ0
22424C85j0LJ%%JKkLnLkJmNjjKnjMOLj0kJJJ3k6jK2pM%qJ4Pj9OJ1n%JlJjKmoQ%%%LJoNjlj
22410C85QjrRojJLkjkJMjJkLjJ%J%k%jK%jJNkjJlLJkjLlL%kMjlLk%K%jK%kMmNk%KmKkK%lM
22395C98%%%J%LkjKjl%jJJJ%KJk%%kKJJkMj%kMkjLlOoK%JkjKKkKJmKjjjL%KJj%kL%lJjKJk
22379D06KjjJjJ%%%JkJJ%KlLjJJ%kJ%JJ%jKlL%j%%LjLjLnkJjJkKKj%jLJjjKjjkKJJnOj%%%
22364D17Mk%Lj%j%NnJKjJmJJ%jlL%KLnK%M%kJj%%jJJJmLLmJ%JjK%JMljKkJLkJlMkKkJjJkK
22348D31j%%%JKkLj%%Jk%jJ%kJJ%JjJJKjkLlMlkLJkLKk%%jKkKkKklNjJ%K%kOlkJJJJ%J%%K
22333D46mLlLkjLkLlL%lkKmO%LljJJlN%nLj%jJLjJJjJ%k%JjLjJ%Kjj%JLj%KKmjM%l%KjJ%n
22317D50OkK%lNkkJ%LmJMklM%kLmlO%lKMjpMlNJJmoJ1KlJJ0qj0Mj0QMJ4j1OmlOqJ0llNmMk
22303D67JK%jkKk%Klk%%LMQj3LJkNnJKjJj%KKnOjJJl%%KjJL%%kL%mjMkKjJJmLkOjl%KKjjJ
22288D81JJk%jjK%j%JkMkJ%%%%Lj%KjjMj%%%kkMJl%LmKJKljJJ%KJnL%%J%klNjKMjjJlLJlJ
22272D92K%l%K%kLJjJjKK%jLk%J%JkLJ%%jJjkNljNoJJMnMJlMlJKlKKjj%jJj%NlJkJJkKJ%L
22257E11nJkKKLkJ%%%LkK%K%kjlO%%KlLjJkJjjK%nMKJ%kKjJkJLk%KjKmKJjK%jkJL%jL%%lL
22241E25NljJjKKLnKJ%JJk%JKnJJ%JjJJkjLjJKmKkMjj%JKjkMj%kLJlJKJJJ%%%lNLmKkK%lK
22225E43K%lNjjKk%JJmLJkJjjK%%Kk%JJMpKLk%LKlJL%kjMjLk%%jKJjJ%jKlKkLKmL%Jj%%jJ
22210E59%lKJk%JJKK%%%j%KjJ%%j%jLkKKjJLljLlJJkMjJlKL%j%%J%Jj%%%jLKjKkKJmNlJL%
22194E80LljQojKLlJJk%KJj%KKlLqNK%%%%%%NmKkj%JLJk%Kk%kLKkL%omQmPkQj5NJJ0nKjlK
22179E97jKLlLJJ%%kLlMmJMk%KjkLjKk%JJ%%jLmKjLkLj%JKj%Ml%%%k%LjJJkLLjlNlKJJj%M
22164F23%jLl%LjJJj%jkKkNljKjJ%KlMJlKKmJ%Lj%%%LkjNk%JJkKKlLlK%KJjlK%jJJLjK%kK
22148F41%JjJJKj%lM%JkMkK%J%k%KkjKLjK%KlKjLJJl%Lj%j%JJkKJJjL%%j%%KmL%%J%KjmKL
22133F64lMLJnNJ%kKkLjJ%jnM%%jMKlKjJMl%Kk%%J%%kMqOjLj%MJkKMmLjNlJJlKLlLjj%%%j
22117F86L%jKJjkL%Kj%Jj%J%L%jK%%%LjkJLmKKJk%JjL%j%JJ%jJ%JMkJ%k%LjK%MoMkK%Lk%M
22101G17lKLlLkMjkMjj%Jj%K%%KkLKk%%Mk%KKlMkkKKJjKjJ%J%%MkjKJ%jJjkKKjLljMKk%jJ
22086G42KJ%J%KJJnJJKJ%%J%kMj%JMmJ%MmJj%OjJMlpOlQplKjONoJKlPmMqJ2Mj0PmnQlKj%j
22071G69LLlKJJj%%LkK%JJ%lM%KJlJMlKkKJLlJLjjjMkJjLkMjKjJJJ%jKjjKJKj%jL%%j%KJk
22055H02JLkjMJJ%%%JJjJJJ%JLklMJkK%JlN%%kMmNklLJLlJ%JK%%jJkNKmKkMjjJKjM%jK%JJ
22040H38KlJJLj%kNl%jNlOJmJKK%kJMkJkJMkM%Jj%jMkJJ%JKljLjLLjmL%J%%NkJjM%kJKjjJ
22024H73%Kl%L%%JJjJJj%KKK%JJJKlK%JkMK%J%kLjKkNoOkOoJJK%JJJJJ%KmMK%kLKjJ%JkLK
22009I16%JlL%NmoPJ%mM%MjJk%LkM%J%JLJKjJJj%J%lMJlKLjkKJ%KJ%JJJLjjJLmKKj%%K%Jk
21993I51M%KKlJJKJJJl%LkK%LjLlMJJ%K%JK%%Kl%NjLoRmKJ%KJjjLjjKLlJkOmKLj%LJ%LkJ%
21977I99M%JkjMkJK%J%K%%Mj%j%KJJ%jKJKlM%j%KJKLkLJjLkK%KjL%%K%jK%%L%jMkKjOnL%M
21962A051kK%JKJJjkPnO%k%KKlLjL%LjOnJJmMKKjK%%J%lMKl%MKjNJkJM%lNKjkkRJ0k5K9qj0
21947A094%JNjQnJLJ%J%KJkJKKJl%KLjJKkL%%KL%J%Lj%%J%JKJjL%jKJKjJKjM%jLj%LkLJKj
21932A151KJjJJkMjOlL%%JkKKkMKkKkJNkOJmOjJK%jJK%%%NkKL%%LJ%MkmN%M%jKkJM%Lk%KK
21917A212%KjJL%lNkLkKMlJOlK%LlN%JKKkL%JjL%K%L%K%jJL%%LKjKKkNkKKjkNLJ%LkK%KjK
21901A276NjkOpKMLjJjLkKjN%%L%lMKjKKKJlLKJ%JkO%JK%jKLjKJLNkLkjJMljMKJjOj%jLjN
21886A345kKKJLJLjJL%jLJJ%KjMjK%L%%KJ%%JMJ%MjLjMJjM%JK%%KMlkKKMJjjM%KJJJ%Ql%K
21870A420JLj%KKKJJJj%MLLJ%jLJL%KJ%%LJkMJ%MkLJ%KL%JJJNmM%NJkKjNkJN%%%%L%KJM%L
21855A504jKL%JkMKJK%%LKjN%KK%%MmP%LkLLJ%%LK%jMLK%jKkOkjNMJnPk%OkLLjjOOl%MLJJ
21840A595lMrJ2PqJ1lk%PjMjJNjJKLKLkjOoOJ%MKNoM%OkMMLpM%NJLKjKKLmMJjM%OkL%LJMj
21825A689JKLJK%MLLjKLK%%JLjLL%LJKKLL%JL%jJ%LMJJKJJKJL%L%%OjLKJNjLJJJLMjMKJL%
21810A800OkKMlK%OKkLKN%JLlNLjMjJM%L%MK%JMJKkNJ%NJKKJKL%MjN%LJ%KJMM%LMjLOjK%O
21794A923kKKKJLKK%KKMJMJLKJKKKKJMlPjMkKO%Lj%KKKKKLNJJ%JOJnOOJKLKLkO%N%lPNkLN
21779B053JMKjKN%KLMkLMK%LM%JMNkNjJJPjPnORoPJK%OjNK%MJ%LJO%JKNKJOjLkOKKNJL%LM
21764B200JJNK%OjP%JMKKJKNJKL%K%NKKKN%MKM%M%NMjMMLLKJLKLLLKKLKLOkJLLNjNJLJMMK
21748B362LJO%OjOJjO%KLJNMLjOjOLL%N%OMN%LJP%MLKMKMjKNJLLKM%KNJKLKMJLN%MMLKMKL
21733B542NKLMMKKLNL%LLNNKKMMLJOKLKJLMKM%PjLRKKLMQlKLMKJMLKJ4Kj0NMMOKMLO%OJMO
21718B746KKNMkNOJMKOL%OMP%MQJ1nJL%NMJMJLOMNKMMKNLNOJLOJNNKOKJMLJPJOJQLMjOLNJ
21703B971LMOMNKOLKLMNNJOMK%J3jRkLOJMLKMOLPJOMjOMP%ONPjJ2jOKNLKPNMNMMKKOJPMNM
21688C227NLLLOLLNMLPNLLMOOJOLQKLNONMLRJPLMMNNQLLONOLM%J0KMOMLPLLPMMONKOOMPLO
21673C523LONMOKNOKPOLMOMMPQJOMNNQjNOJ0KNQMMP%J0NMNNOONJORLOMOLONPNNORKQONOMM
21658C852PLOMQLQONNOLQjJ0J1MNKQNLOQOLOQMMOJ0PMQLPMPNQMNOPNPMJ0ONNPPMOPNPRMPP
21644D219OJ0NOQMJ0jJ3LPNQMRNOPPMOPPMRNQRMOPRRLRRLJ1MPQJ1MNJ0OOQQPOQNRMQOPQQP
21630D630PNROQOJ0ONPQPQOPJ1NRJ1MQJ0NOQPORQROQQQPJ2MPRRRPQJ0J0NJ1RNNJ0PJ1MQQP
21617E063J0RRQRQRRJ0POJ2PJ0J0PQRQJ0QRORQJ0J1QOJ1PJ8MLlL0%J0J7QOJ1OJ1J1KJ7OOR
21605E503J4QJ4NJ4KJ0J2J2NJ3RJ0PJ1RJ4PQPJ1J2J1J2RJ1PJ4QJ2RJ0J1J0J2J1J0J4%MJ8J3
21596E923J0RJ4QJ1J0J3OJ6OJ6J0J0RJ2J1J0J1J2J2J2RJ0J2RJ3J1NJ4J0J6J1RJ5J0J0J3J1
21587F339J4RJ4RJ1J4J1J1J2J2J4J1J1J2J2J5J1J3J1J2J3J5QJ1J2J4J2J3J4J1J5QJ8J3J5J1
21579F781RJ6J3J2J6RJ2J5J2J5J1J8J0J3J4J3J3J5J4J2J6RJ4J5J5J5QJ6J6J3J4J1J7J4J5J1
21570G262J6J6J3J4J3J7J4J2J6J6J3J8J6J5RJ9J5J5J3J7J5J2J6J7J3J8J4J8J1J8J4J8J5J7
21563G775J6J3J5J7J8J5J5J9J6J5J7J9J5J4K1J5J7J5J7J4J9J7J4J9J8J7J7K0J4J9J6J7J9J7
21555H341J7J8J8K0J5K1J7J8J5K1J3J9K0K0J7K0J6J9J8J9K1J8J5J6K1K3J8J5K1J9J8K3J8K0
21547H968K1J9K1K1J3K3K2J7K3K0J8J9K1J6K4K0K4J9K2K1J8K4K1K1J9K4K0K2K2K4J9K3K1K1
21539I671K3K3K0K4J9K6K0J6L0K2K0K4K3K6K3K1K4K4K4K2K7K0K6J9K7K4K3K5K4K4K3K5K4K3
21532A0459K6K4K7K4K5K4K6K6K6K3K9K4K7K7K4K2L2K4K7K7K6K6K8K6K6K9K7K6K6K9K7K7K8
21524A1324K5L5K4K9K6K8L1L0K7K9K8K9K7L0L0L1L1L0K6L2L1K8L0L2K9L2L2K9L4K8L3L3L0
21516A2303L1L3L1L2L1L3L0L3L1L2L2L8L2L5K8L6L7L2L3L6L3L3L3L6L5L3L7L5L3L2M0L8L3
21509A3410L5L7L7L8L4L9L9L3M1L6L8L8L7L6M0L5L7M0M0L8L8L9M2L8L9L9M1L8M2L9M1M2L8
21501A4674M1M1M2M5L9M0M5M0M5M3M2M3M5M1M3M5M5M6M1M3M7M8M4M3M3N1M6M4M8M4M8M5M6
21494A6126N2M5N0M7N0M9M9M9M9N0N1M5M9N6M8N4N0N2N1M8N3N4N1N0N3N2N5M8N0O5N0N3O0
21486A7814N8N3N2O0N5N5N5N5O1N8N4N6N9O1N9N7O2N9N9O0N7O7N1O7O0O0P6N7N3P1N6Q2N0
21479A9769Q0N8N9P5N2P8O4O5O4O9P1P1O6O9O8O5P4P1O6P1P2P6O5P1P2P6P3P3P6P4P3P3P8
21471B2077P6P8P8P8P8P8P6Q2P9Q1P9P8Q2Q1Q0Q2Q3Q6Q4Q3Q4Q4Q6Q8Q2Q8Q9Q6Q7R0Q8R1Q6
21464B4808R4Q8R3R3R3R2R6R3R5R6R7R7R7R4J01R9R8R9R6J04J00J03J01J03J01J07J09R8J10
21457B7655J08J08J10J06J14J07J10J11J11J10J12J18J15J14J16J19J15J17J20J21J20J21
21452C0158J19J25J21J26J24J28J20J24J31J28J31J27J34J33J30J35J34J32J40J34J39J38
21447C3011J40J38J37J46J43J45J44J46J45J46J53J48J50J51J52J56J52J55J57J53J61J61
21442C6290J60J64J61J65J64J66J68J70J69J71J70J70J77J74J78J77J77J80J81J84J82J87
21437D0085J88J88J88J92J91J91J94J97J97J95K01K01K06K01K09K06K07K14K10K19K11K20
21432D4511K14K22K21K23K26K25K32K30K29K33K39K33K43K35K44K41K51K45K47K55K55K53
21427D9707K56K61K63K63K63K68K70K73K77K74K80K80K81K87K87K90K93K95K97K99L02L03
21422E5869L11L10L11L16L19L21L18L25L27L35L31L35L41L42L45L47L55L52L60L61L63L67
21417F3261L68L74L79L78L83L92L88L95L96M03M07M05M11M17M21M23M27M33M36M36M45M46
21412G2224M50M57M60M67M66M75M78M85M85M95M94N02N04N11N17N23N26N33N37N44N45N56
21407H3234N57N67N69N79N78N90N92N99O11O14O18O26O32O40O41O58O57O70O70O81O90O96
21402I6969P05P10P21P27P32P45P53P58P73P74P86P96Q02Q13Q21Q31Q42Q53Q59Q72Q79Q92
21396A14413R05R12R25R34R46R61R66R84R91J005J015J031J042J054J073J081J097J105J129
21392A33569J134J158J165J184J198J211J234J243J264J281J296J319J330J348J371J386J408
21388A55099J425J444J462J490J509J528J548J570J596J618J640J664J690J711J739J763J795
21384A82291J812J842J876J902J929J962J984K023K053K088K112K149K188K219K260K290K327
21380B17307K370K405K445K489K527K569K618K658K706K744K801K848K896K945K999L052L103
21377B63482L172L220L275L334L414L457L527L596L656L740L810L867L950M049M093M192M275
21373C26109M370M438M540M641M723M819M911N044N131N243N379N445N631N722N804N982O105
21369D14037O280O350O544O685O835P016P163P335P523P679P904Q079Q282Q485Q706Q932R152
21365E42987R397R638R894J0156J0435J0715J1005J1312J1621J1954J2294J2645J3010J3390
21362G00453J3794J4194J4621J5067J5538J6015J6520J7040J7584J8157J8749J9375K0011
21359I17118K0700K1403K2148K2919K3734K4586K5478K6410K7391K8430K9508L0645L1851
21356A252321L3116L4435L5841L7321L8885M0532M2274M4124M6077M8149N0348N2678N5164
21353A811265N7798O0605O3602O6795P0206P3853P7760Q1943Q6427R1252R6442J02028J08055
21350B848031J14570J21611J29240J37527J46535J56340J67043J78742J91558K05629K21101
21347D617927K38168K57033K77937L01169L27047L55973L88400M24877M66045N12691N65746
21345H733013O26340O95875P76022Q68902R77107J103923J253496J431119J643616J899909
21342B0009322K211710K594724L070126L667054M426067N404726O686115Q392498J0707385
21340F7169727J3911701J8443013K4990473L4633779M8986045P0059587R8663367J27857406
21339E04715098J29001555N9019449n9019449j29001555j27857433r8663340p0059587m8986059
21337A59148679l4633765k4990473j8443013j3911701j0707391q392492o686115n404726m426067
21335C1552936l667054l070128k594719k211713j899908j643616j431117j253495j103927
21333A2677259r77101q68902p76022o95876o26344n65744n12691m66045m24876l88401l55975
21330F019282l27048l01166k77935k57036k38170k21106k05625j91558j78744j67041j56342
21328C497511j46533j37526j29243j21611j14567j08058j02025r6440r1256q6429q1941p7756
21325B204126p3856p0207o6792o3602o0607n7801n5160n2682n0345m8152m6076m4120m2277
21322A472449m0530l8885l7320l5843l4439l3110l1849l0649k9510k8423k7398k6407k5478
21319A052608k4585k3733k2922k2141k1408k0696k0017j9375j8749j8155j7586j7041j6519
21316G89681j6014j5533j5068j4627j4196j3791j3391j3010j2643j2293j1956j1622j1311
21313F14226j1007j0711j0434j0158r894r640r395r153q927q707q487q286q079p890p696p517
21309D68245p337p168p003o838o690o531o388o245o109n972n843n717n593n475n360n246n136
21305C63594n026m928m826m723m635m535m445m364m275m188m112m031l952l875l803l734l664
21301B90478l593l532l464l400l336l283l219l163l111l054k999k948k893k850k796k750k703
21298B37384k662k612k570k528k490k442k407k368k329k288k258k219k185k151k113k085k054
21294A97623k021j990j958j930j900j872j846j816j793j765j738j714j685j667j638j617j599
21290A67074j569j551j527j507j486j464j444j428j406j387j369j350j330j316j294j283j261
21286A43102j251j228j214j197j185j168j153j136j127j111j095j083j067j058j041j033j018
21282A23937j004r87r86r67r59r45r34r24r15r00q91q80q71q62q51q42q30q21q14q04p97p84
21277A04369p76p71p60p49p45p34p30p16p12p07o94o89o82o70o70o58o53o46o37o35o21o24
21272H9090o15o05o00n93n93n79n76n71n64n60n54n49n43n38n29n28n24n14n11n05n01m98
21267G6940m90m90m84m75m75m70m65m59m56m52m49m42m38m37m32m26m25m20m15m10m09m07
21262F7114m03l96l97l87l89l81l82l74l75l68l69l65l60l55l54l51l51l47l40l40l37l38
21257E9055l27l29l26l18l20l17l18l11l11l04l08k98l02k98k93k93k84k97k83k77k88k77
21252E2376k77k76k72k66k72k66k60k64k60k57k57k53k50k51k48k44k48k44k35k41k39k34
21247D6762k31k32k30k26k28k23k26k18k16k31k16k14k13k11k06k09k14k06j99k02k03k00
21242D2008k00j97j96j91j95j92j89j88j92j81j86j83j85j81j82j77j78j77j74j71j77j70
21237C7946j72j68j69j66j67j63j67j64j61j61j59j60j58j55j56j54j52j53j50j51j51j47
21232C4442j50j46j45j43j47j38j42j45j38j39j36j38j38j33j37j33j35j32j31j29j33j29
21227C1405j27j28j24j29j26j22j26j24j23j24j17j21j21j20j14j18j18j11j16j15j14j12
21222B8755j12j13j10j14j08j09j09j09j07j06j09j03j06j05j03j03j04r9j04j02r7j02r9
21216B6322j00r3r7j01r5r5r4r7r5r4r1r5r0r1r3r3q7q9q9r0q8q6q8q6q6q6q8q4q2q5q5q4
21209B3425q2q0q3q3q0q0p8p9p9p9p8q1p5p9p7p5p8p4p6p5p6p4p4p3p3p3p2p1p5p0p1p0o7
21201B0915p1o8o8p2o7o8o9o2p1o7o5o5p1o3o4o1o8o5o3o2o7o0o7o0o2o2o2o0o1o1o3n3o4
21194A8783n9o1n7n7n9n7n9n9n6n5n7n7n8n4n7n7n3n2n6n7n0n6n1n6n1n5n0n6n0n1n4n2m9
21186A6965n1m7n3n2m9m7m9m9n0n0m8n1m7m8m9m6m7m9m7n0m3m8m7m4m4m6m7m6l9m9m8m2m3
21179A5400m6m4m5m0m9l7m5m1m5m3m2m0m3m1m2m1m2l6m5m0m1m0l9m2m1m0l7m2l6m2l8m0l7
21171A4038l8m0l7l7m0l7l8l8l2m0l7l5l5l8l6l8l2l7l6l3l8l5l5l7l1l7l5l4l3l2l5l7l2
21164A2853l5l2l6k9l5l3l4l0l3l2l4k9l3l2l1l3l2l1l2l3k8l3k9l1l1l1k9k9l2k5l6l2k6
21156A1812k9k8l2k8k9l0k8k9k9k6l1k4l1k6l3k3l3k6k7k7k9k7k8k4k9l0k4k4k8k8k6k7k7
21149A0892k4k6k6k6k6k7k4k8k5k7k4k3k8k6k5k4k4k5k5k3k5k4k2k9k2k1k4k7k4j8k6k2k4
21141A0078k4l0j7k2k7k5k0j5k6j9k8k3k3j9k6j3l4j3k0k5j5k6j8j9l2j4k9k1k5j4k3j8k4
21133I351k0j9k1j9j9k5j9k2k1j7k3j9j9k1k0j9k2j6k2k2j8j7k5j7k1j4k3j7j7j9k1j5j8k5
21126H679j3k2j8k2j5k4j5j5j9j4j9j9k0j6j7j9j7j7j8k1j4j7j9j9j6j4k0j6j7j8j5j9j5j9
21118H081j6j9j6j4j7j8j6j5j8j7j7j5j8j6j7j7j4j5j5j5j8j3j7j5j5j6j7j3j3j5j9j4j4j9
21110G538j2j4j5j6j6j4j3j6j3j9j2j3j7j4j4j7j1j7j4j3j3j6j1j6j4j8j1j3j6j3oj8j2j5
21102G056j2j4j3j5j3j6j3j3j3j4j4j3j5j3j1j5j4j2j2j1j8j0j2j2j3j3j0j6rj3j0j6j1j2
21095F615j0j6j2j2j0j5j4j0j2j4j1j0j2j3j1j1j3j2j3qj5j0j3j2rj3j6rj3rj1j3j1j2j2j1
21086F187j1j2j1rj3rj1j0rj3j3qj0j5rj1j0j1qj0j5j1oj3j0qj2j3rj0j2rj0j1nj1j0j0j4
21077E775oj0qj4qj2j2rroj3j0rqj1j2qj0j2pj0rj1pj2oj2qj1qpj1j0j3qj3pj3mj3nrj1oj1
21067E346pj0pj0qoj2nj0qj3qpj0rj0nj1poj2qj0pj0pppj1nrrj0roqqj0oj0pj0poqpj2pqq
21056D928pqrroqrj1lpqqrmj1oj0nrnqoj0rqpppporpqqpoopj3Jj3noj1mrj2lnroqpqpmqoq
21042D492qpormopqoppooqoqpkj0nmqppnprlrmrmqnj0kqopqnpqmqmpopmqonooromoqlqmpn
21027D078mornmj0lononqrljj0lqqmLj5korp%j0oj1Jnnlj1nmj4%nNj5nlrpkoomlqkqnnmpo
21014C747%nqJj0opmmoj8J3j4%m%j4kj1lnJj2%pqnJj0jonlonopkonpmmpkomoplomlmpmknp
21000C456mmoknmnmpkmmplmpnonkpjoo%npjnlpnm%j1Jj0Jonlonlrj%qmjom%qokmmpkmlnkn
20985C177nmmokpnjomklnnjomooLqr%njlnlpkmokjpjnlnnkllonjjkqlmlmmkmlojnlmmmklm
20970B922knmkmoklnllnmnljrJnmllkkmkpjkkr%JrmkkqJokjpjkpl%nmn%q%lmolklmmkljol
20955B693jokplJklmm%lJrl%npjn%lklnklmjlkllnnlkkojmJnmnJmmjlmlkko%lmjmlkm%mkl
20939B497mmkllljmmljok%mnm%kmllml%kmlklmkl%m%nljlkmlJnlllnJllllJnkllkmjlm%lk
20924B317knjmjJnmkljmJnlJoknKo%pJllljllmJm%m%k%omljjm%ojjmkl%jnjmmJoJmkjkpjJ
20909B157nkkKqkJlqOo%mnllrJ4rqPkJrjknL%j0J3j2j1LoLnQomrOoMqKnkjmjjnj%jjjljjn
20895B024jjpKlo%kKjqKnjjloKnJ%lmJlkjk%kmnJkkl%lklJmjm%kkl%jmkjkmJm%lkljk%oKn
20879A892%knJkkmk%nKljkjl%m%k%mk%lklJmKml%mkLpKlkjjrMKnJ%nlkJnlMnkk%kkknjj%n
20864A773kkkKm%%klkjkjlkkKlkkl%nJkjjkmlMjl%Jnjkkjm%jlkjjlkjJkkjjlkjkk%kl%llM
20849A672nJl%knJnNmj0PlklkJmj%lkKjo%Jm%lJlJmJlk%jkjm%kjkjjmJ%kjl%jjljJkoLq%J
20833A572jjmjj%k%m%KmnJ%jkJlkj%nKl%kkj%ljJljlkKoJjklk%Jk%mKmKmKn%lknKkLlljj%
20818A483kJklLpLkm%jJJmmLnjNnkj%lmMnj%klK%kJnJllJj%kjjjlkl%%kKnKkkkklJjk%j%l
20803A401%mLnkkKmJl%kKnJmKmLJmJl%%kJmjjmJJkjnKlJkjJlkKmJmJjkmLlL%n%k%nJlKlmM
20787A328%%nkJjjknNmLrPrLLllmLLmmkMkk%jkKo%%k%%jl%j%LlJmJmjOj2OjmJmlklPn%Jjl
20772A260jk%mMjjmjj%jl%jJmJjj%%kkjkkJj%j%jmk%j%JkJm%%lk%LpKKn%JlKnKlKmKj%n%%
20757A196%%kjjlKmJlOnJkjk%klK%l%kKjkkKmJjlJm%%JnKMmjjMoJ%nKjlj%l%jjjkLnLlkj%
20742A137%kmLjJkj%mMjlJ%mJJml%%%JmKkjjkj%lLlkL%k%mJlNmk%jkJjlKjnkLjmjJ%%kjLk
20726A084ojPoLlJjjJj%mjKkkJ%lk%Ln%%jkkLlkKkkLmkJJ%kKnkJJjJmKmJjJ%jjjkj%Jkkjk
20711A032MkjlJJnLljJkl%J%k%%jjj%j%jlkJj%Ln%Jl%nJJj%j%Jkl%kLjmKJlKlKm%%mLjlMm
20696I86Kjjk%%kkjj%%kkKn%KkJkj%KmK%k%%%kMn%JnLjmKKmKlJ%kkKKlpNkjJ%%kjKoLoMjl
20680I41%Jkjk%J%kjJjkjL%lklQj0%Mp%MjoPrPK%jlj0KmmRj0J1kMNpjj2J3pMoKLoqNPq%J1
20666I13n%njqNkJJ%jjJ%lLkJoNm%KjjJlKm%JpMj%Ko%%Kl%lKjJlKjJkJlLmKl%jj%%k%k%JJ
20651H68kjKkLjmKlj%%jj%kjJjJoMjKnJjlK%%JljjjJjJjkKk%jj%J%jjKnJlOmk%%kjLo%kOo
20635H27JJjJJ%%JjmKk%kk%%KkjkJjKkJnLJjljj%%kMkk%Kkk%J%jkLlKlLoK%j%jkKkKl%%jJ
20619H00jKl%lKl%%%lLljmLJmJKkkmJMkk%%k%kJJ%jJ%%nMkjjKJkk%lJ%Km%%%lKKmJjkKkKn
20604G62Mjkj%K%ljKl%KnkKL%lLmKlJ%%%k%kJjJjkK%%Jkj%jmK%%Jlk%%lKkJJlj%KJmKkJ%K
20588G39nJmL%jj%JJj%l%%jlMl%Jjk%JJljKkJkjMmJjK%mJ%j%Jjl%jLlLmjlKKl%jjKlMmJjj
20573G07%JkKl%Mkk%jj%%%j%mJk%JKjlK%kjJ%%k%jJkKkmL%LmkjJjjKjjjLJlKLknJj%%%%l%
20557F81jMn%%KllKjpQl%kMmJJlOqKKJlLlKjJoJ1m%nnKjKmMMqMjlmQj1PJmkMqOmOj2QmJ4j6
20543F52j4P%J0kJ9j6JkJ1Pk0RKj9mNRon%MkkNmMojRqmJJ0j3NjOojJ%jjKjkKk%JjLjj%%jk
20529F36J%oMLj%j%%jkjLkkKjk%KjmMKmJk%K%jKjkkkJMlJmjJ%jKlKnL%%kJjJ%mMlkJKjjJk
20513F15Kjl%%Kn%K%k%KJnJ%kJ%k%JJkjKJj%J%KrMjjJkLm%%jKkJjj%%%lJKjmMlJjJ%kJ%%j
20498E94Mm%%lJjlKjLJJj%oOokNnMjj%JnjNkJJkmKkLlkL%JkL%mjLJkjJK%n%JJk%NqjMJkJm
20482E74Lm%jLkjJkKljLjk%%KkjJj%Jkj%kLjlJJkJkL%%jjJjjKjnK%lJJ%jjJmjN%l%JjjKjJ
20467E56Jk%lkOlkLkkKJjJ%K%jmNjoLmMjj%kKjjK%mJ%jJjKlJ%kj%LkmMlkKJJ%%j%lKJjk%J
20451E39jkjJLmJjKjjJjjkKJk%jNl%jjJj%Lm%j%JjjJljJjkK%j%J%k%jLLkjlJLJmm%JKKq%l
20436E14QnQj0OqQkjKj9K6j9oJ1J1qqOlRmOr%oLNmJjMlLlJlLlLl%KoNmLMllMnj%%LjK%n%L
20421E08lLk%jkJlJKlJl%jKLkjjLJm%JJ%kJl%JmJKlKJmMkJKkj%J%l%JJkJjJ%k%jJKoLJmJ%
20406D89%Jl%JjlN%JmJkNmJ%LmK%n%%MlKkk%lKJ%kJ%Kk%jKlK%%nK%%kKlMJklLKm%JkK%Llj
20390D76JJ%lKlLljjK%kJjJkjjjJJ%Kk%kJjKkJ%%jJkL%lKjJk%KkkKkLl%%KmMpL%kKj%j%jk
20375D58LlKQljkjJmN%kj%kJjj%LjnMk%J%%%%kJJl%%Klk%MlJkKlJLlJjkLmJj%Lk%%%JljKK
20359D50mKjJjK%kJJk%lJkLklMjJkJlKjJLj%LkjjJlLkK%k%jlJ%KoNlkLlJMkJlKjjjlJLjmJ
20344D33KjKkJjkKJjMmJjlJKkjJ%%kKjkJ%kPpLLoKkMlJK%j%J%jlKkmLJmJ%Jk%J%lkJJ%JlK
20328D22%JlL%jjLmJ%%jKlJ%Jk%%KkjKLmJJlKjLm%jKJ%lL%kkMlkmMjLmOoPqLmMlJjLmKJkL
20313D15llKJkLJkmKJJ%jLmnNllOnjRj5PJNoPkkj%ljLJKljJk%LkJkl%KjKlK%kKlK%KmM%jk
20297D01KnMj%jj%JkMj%JjlLlJlLkJKjj%%kj%JMlKllMk%LjjmMkKmKLoKkjL%%kLk%k%JJl%J
20282C90j%%JJKjJ%nJ%JjjLmLKkKjkLlkMJjmM%l%lKkKkK%lJkKJjk%mKkMk%KjLjJjk%%%J%j
20266C82Jj%%%jjJJnJjMpKjKlJJjKjLJmmMkJ%lL%jKj%jkRmlNpL%%mOJl%jNmjKk%jj%KlJ%J
20250C73k%KmKLl%K%mNjn%%JJj%%jJljKkJ%j%JKkjKLljJ%mL%lJjK%kjMklKj%%jJKk%J%JlK
20235C63kMkLl%KJoMlKlLlJkJKlKlJKk%%jJJj%klNjlMjkjJ%KkJkkLjJKjJlKjkJjjJkJjMpL
20219C52l%%JJ%KlKKlkJ%JjJ%j%kKJ%%LlKnJLk%JlL%%mJkKkKkLjjLlJJlJl%Nl%lLlKjL%%%
20204C47JknMrOJKj1nLNLN%lkKKpKQqRqOlkmPoLKj%m%jK%KmJKjkjJkL%jjlJ%kMMljoPmJkJ
20188C33lNLkJlJj%kLkKkjKKkk%%jKJkjJJjJk%KkLJmjKKlKkk%%jMmKJJKJlJjJl%KKkjjJJ%
20173C32l%%kKlKJjkLjJjlMjjjKjmJjkjJJLjKn%JL%ljJ%%jJk%KjMljLJkKlJKJljLj%%Ll%j
20157C23%JkJLnJJk%Ll%mOoLKjkkjJ%kKJk%kJj%J%%JKk%JjJ%kJJK%jkK%%jj%%%%lkOnMKkl
20142C13%KlJJjjMlJlKKjlLkkLjJjlKJ%%j%JjlKK%k%mLjlNlljPljNkKjjL%%nOoLlJ%kJj%l
20126C03L%JJlJjJKk%J%kJJJlLlkLlLjlLkL%%kKmKjKm%KlJlK%K%lJMmKjnLMmjJNlkMlkMk%
20111C00jLJjNklKjKkLJlj%%kjKJJnK%lKJ%jjJJm%kKklLKmNm%%KJj%Kk%%j%%JkJ%%jJKm%L
20095B96%lJj%jJj%J%JKj%ljKjL%jj%%jjJkjKjJkJlJjLj%JKloKM%JMn%jJJNlnKOlkoNmM%m
20079B85MkLmKkjjKlK%jjLmJJKjmP%oOpNjLJjpKnOmQpRmmMmJMnMk%jMj%jkKklJJJkKlKj%%
20064B81j%%%jj%KJJk%%kJkLJk%%%KKkm%KlMnMkjNlkK%jjMlJk%JjKjjnPlj%KjKLlKJmLk%j
20048B76jJ%kLmLjJ%jl%KJkJkLk%jjjJLlLkK%Jj%jJ%j%jJ%jj%K%jjNlJjjj%lLJjk%KjlJ%%
20033B68%KjkKK%kJKmLjjJkJJ%JmKjJJmMKrMJJkk%KkOmJ%%kLlk%JjkKkkM%JJkLmJlMLjlJk
20017B63MJl%%j%l%JMjlKLo%%LkjOljk%j%%jJKJjJKj%JJj%%kKjJ%Lm%%jJjjJkJk%jJk%j%%
20002B57%jJKjmLJkL%kJ%MkKk%Km%Lmj%KKmJlMj%kLjkK%Jj%j%jjKjLjJjkj%%%kLjkK%jJ%L
19986B57jj%Jk%%KjlJ%LmLm%%J%jK%jKkjJKmJ%JlKJj%KjlJkMk%%kK%%%j%KlJjKkMlj%LmMk
19971B49kjKkMKkKmLoPjkj3J4KmJJ%%MrkLQj2lqkJ7Mj0RLpjLlL%lOkJkLnLK%jkJj%kkMmNm
19956B44JJkLkk%jNkJkjKjLjlMj%l%Lm%KJkjjkL%kMj%k%%%JJ%kKjJ%J%kKkKkjJjKlK%k%jJ
19941B40%MkJkLlKmKmKMmJ%lLjjKkLpPkJj%kJpMLKkLJjkjKmMlJjlLJjJ%jJjnMkM%Jl%JpLN
19925B38kj%%kMjkLkJ%KlJ%%jKkJ%%j%jkLJ%J%mM%kKlMlj%j%%lKJ%jkJJKjLjkLjjJk%j%Kj
19909B33nOkJkjjLkLkJlJLmlPLpJnJ0m%kKjkLkKkJjjJKklLjkKjLkk%LkkK%lKLoO%jJJjj%k
19894B26KkLkJkJ%JkJJJlJKlJKkJkJJj%KjKkK%kKJj%jkJKl%kLljLj%LJkJJkmKj%%j%jKmJj
19879B21LjjLkkkMm%jMMlK%%kJjJJ%jmKjLkjjOkkJKm%JJjJK%mlLJKljJJjkLjJ%%LmkKlKJj
19863B20Mj%kK%lkMmKkLKlkjJ%KlKlJj%JjK%%jLkjK%Kj%lJjjKJJkJKl%%%nLjPljPmmjkKKk
19847B16knQL%mpNJKkJlkLjKJljLkKlLJl%LjKkJjjkNKoNJrRj1J0%Jn%kMj%klLjlKKkJKjJl
19832B11JLjj%JkLlJ%k%MmMkkJjJ%jjjJ%j%LlJ%jJKjJjKjkJjJ%%JkjKkJ%%Jj%LkLn%L%JmJ
19817B10%%kNj%l%K%lM%l%KjkL%%j%J%jk%JlJL%lK%nNnLkJJk%J%j%JJjjJ%%lJj%JlMJ%kJJ
19801B06kMl%%jJjKj%JkJJkKJjKlJjJJj%JlJkj%JJj%J%JlJjOmnLKjk%K%KjJk%%Kj%%l%KJj
19786B03JJJlKKj%k%%Jl%%%kJ%%mLmLKLjJj%k%kOjmKkJKjkKjjJLjljLj%%%j%JjlJKJjjlKj
19770A97%kKKk%Lk%jKJj%%lKJJKjnMJ%nJJkJkjJJKkjNlJk%Jj%K%ljJklMK%kLj%k%jJjMlKj
19754A95Kj%J%lKJMoM%JnMk%JJ%jKmL%oKj%kNmKJjk%%%J%Km%NoM%%j%jJ%mNkKlMlJkJKjjL
19739A96l%jJLlJkj%OkmMkk%JkOnPko%KpJ1jPj7J0kJrQNloJ1ppPl%%jMjjjKKJmkMk%JkJ%K
19724A93jkJlK%LKjmj%KJoOLk%kk%KjJlJjJlJJlM%jJJJj%kL%j%kjJjKlLJkLj%JkJ%jJ%kKl
19709A87KmJjJlMlJJJk%M%mJjjMklLLj%J%kJj%J%%ljNkk%jNj%JnM%nNjlJLjLlJjJjjjjjLl
19693A83KKlkQnMnJLl%%kJJjJj%kLmMKlJ%j%LljjJJ%lKJkK%j%KmM%%jK%l%jJkK%jKjKkJ%k
19678A82k%K%k%JkKmLKJmj%MlK%JJJpLjLnOLnlK%j%KLmKJmLkK%k%KkJ%%%%JJlKqONnLlLnJ
19662A79mO%%jk%L%kJ%%j%MkkJKlLlLJnjMkjj%KkJJkK%Jj%jKk%k%J%JJ%j%%jKj%j%JKmkKJ
19646A77%Jj%Kjm%MlK%%JkKJJlKkjJ%kjK%jK%%k%J%jjKkKjKj%J%%kMj%lLjJkkKnK%J%jLjJ
19631A76jjJkJ%%mMlMkKj%%%ljLKlKmK%JjJjKklKJlKjj%jK%j%%%jKJ%kJLlLK%nLKlLjKl%N
19615A78rK%jKKkJJ%j%n%jLK%pPKlJJjj%oP%kjjKjjNkqJ0KrJ2qkRj1mJ3mrkJK3pnoNojR%n
19601A68%JJKl%JlLj%jKkkNKj%jj%jKj%%jJ%JkJjLmLkjLkjJ%jJJjL%nOjjJjJJljk%mOl%mO
19585A68jjjLJJmLklNJjjljKJKjjKjkJjKJl%jjJJkL%KjJjl%ljMKmjNjj%%LmjLkJJkKjkJ%J
19570A65Jj%j%JJ%l%LkjKkJJl%JK%lKKkMj%%jjKjKlJJk%%LJmLk%%KlJJk%JmMmKJKmMj%Kk%
19554A66Kl%JnLkJKnLLjk%KmNjjlJjKjK%k%K%MmmMJjKnJJ%KJkJnNl%%%KlMl%J%KjlKkKJkJ
19539A63kJLjjjKk%jkKjkKlMl%JkJJjLjj%LjKkjkNnKkKkL%%%jJLmjjLlJJJjkJKjmLJJkKj%
19523A60JjKlKkJ%jj%JJ%k%%%jKjKlK%KkLjjjMoK%JjkJ%jJjjJmM%J%JkLnKjj%JlLkjJMlK%
19508A57jJJ%jj%kLkJ%kK%kJKkJ%jJ%JKnkKJ%NqQmkMmjKlJ3j8QOMkp%rQJJ4l3J2J7K3m8J2
19494A53JNmMj2J1pMkJLkkpQnOKljJ%mOnOJoKjMnJ%kkN%j%kKjNJlJjkKnPlkjMkJjJ%lLLoL
19479A54%kK%Jkj%LkjkJkJ%KjjK%%J%%kKjl%MlJ%KkKjkLkMjjlK%kjjjLkJKMmLnOnJjLmjO%
19463A54J%lMkLqPkjkjJ%JJJmjLJ%kkMlkMLkkKmLm%MlLj%jjKJkJjkK%Kk%kKJljKjKj%KjkJ
19448A49JJlJKl%kMmK%KkJkJJ%%%KlJ%JmL%jKJljJK%%kJKjkj%JnOmLJ%l%%jP%nlLjKlKKk%
19432A47J%jJkJk%K%JJm%LKMoKl%%kMj%JJ%kJjLjlKJm%%JjMllPm%KmKkLk%%jLkKjjJjjk%M
19417A47lK%Kk%jjJ%J%Jl%LmkMjJkKjjLLllK%kK%JlLjLnNmMkj%jMjmJKkj%J%kLJlJkKK%%%
19401A46jJJkKJqMkK%%J%LjlK%jjjJLm%%JjJ%JjjKj%JK%k%jJkJ%%%Lk%j%K%%%jJjlMkJjKJ
19386A47%mL%kJjkJ%%lOkkJllLnRnlNKk%mLJmJkLLkKlJJjKkKlJJJjJj%KkK%jjKJkkJKKplJ3
19370A48pmQnJkKMljJl%kLLjkkL%lJjKlKjLlLjl%%KKKnKJj%lKkJLjJkjKJ%kJJnJKk%KkNlj
19354A38MjjJ%jj%jKjJ%JkjJ%%kKjJ%kMjJkKJkLmLl%NnKjm%MlKK%jk%LmJJJlkNmkNlK%KkJ
19339A39jkKlLK%k%lK%lJ%J%%jJkkNjJ%jjjJjKJJj%%JkJ%%%%JjjJ%%%jJnKMjk%%K%jj%JkN
19323A39lKkjMl%KkJj%jjLjnJNMlklNnNjj%%%%Jj%kLlJJ%%JJkJlKjj%LNjmmJJJkJ%JLlj%%
19308A35K%l%%L%m%JkJ%Jj%kKjKkLLmJLlJnM%kK%K%lLmKjLkkjNlj%LmlKLj%%%Nlk%jNnLk%
19292A33JKjkJj%LkLlLlkL%jjKk%K%jKj%JjkJKkkJJ%%JJnN%kklRnKjJjJkNjkkjLjKoM%jkL
19277A34KkjjJjjjKKk%jj%%KjJkLj%jLkKmj%%LkLkJlJjOmNm%%lJLlk%lRlLkJjJkmN%nKlkL
19261A27mPlN%lKlJJk%JjJKl%JJKkKkj%kNlMkKKnjkMm%MKoMjK%jlJj%Kj%%LlkKJ%jjkLk%%
19245A27JKlMjkK%j%%KjJjJjJkL%%mNk%jk%J%kK%oM%%JJjjLkKjj%jMkJjJjJJJmM%kJjjjkL
19230A29mKK%K%nLJ%Jj%KmKmJKlNkjjJ%%jLoJLmMjJjLjkKj%jKjjJJJj%JjKjJnL%lNkjjLkK
19214A30KkjJjKl%J%JkJkLkJk%%jjMmLkKjJk%JJjJk%lM%jLjkjOnLl%KjlMoQlmL%%KnJ%%jJ
19199A24k%LmLjKMmKlKj%JkLqKKJkJKKrLJ%J%L%jkMJl%%jJkJ%%kLjJjMoM%%k%JJlL%Jk%Jk
19183A24K%J%%%kLj%%%%%j%J%k%LJkk%JjKkKk%JlLlj%KkKk%K%lKkjN%k%KkJJjjLkKkJJkJ%
19168A25KnK%j%jJkJLjKjj%lMl%J%kLk%jjKJ%jJ%kK%%%L%j%jjJJjmKkKLlLmKJ%jJ%Kl%Llj
19152A22JlOm%KkJjjLJmJJKk%lMlK%LlKnJ%MnMNj2%jOLn%LjmKJ%KkkJlKjJjJK%Ml%MoKmJK
19137A21KnlNrL1j9qJMKkKJmJ%%KkLoNj%%KK%nKJ%JKKo%lJkLJk%j%K%%%JK%kLkjJ%lK%kJj
19122A20kJkJ%lJJKlMkkK%JjjJLkKlK%%NmKmKKkjLl%jkMnLLjl%jMlMjJk%j%%JJkJJkLjj%J
19106A21nKkJ%LjjjL%j%KKmK%j%K%jjJ%%jK%k%kjKmJK%jjK%MkkLjjkKJj%%kKlK%JmMkj%K%
19090A18kKj%K%lLLmKkkLkKlKjJ%j%Kj%%K%mJKk%J%k%%%JjK%lJMkkjJKmjLMjlJlKjKj%mM%
19075A16kJJJ%mKKJl%Kkj%%JJk%MlKJJlKkKkkJ%%J%JJKlJ%j%%j%%JKlKjkOlJjJmMl%J%Kmj
19059A14LnM%JkJ%Kk%JmKLmJKkKkj%J%kLkjJjL%jkLkkJ%%KkKJLm%K%kK%k%%Jj%Lkj%jKJnK
19044A14JKjlMjJj%Llk%Jo%PlMmJjMmK%LmK%jJjnLKkOnK%JJ%kkjMlLll%JJMml%NJklKRljo
19028A12jk%KJ%mJ4rJQpNrQpNjmLl%JMJkKlNmlLJm%J%%jnQnm%Qjn%MKkJjJk%JJj%%Jk%%Nm
19013A13%%jLlJ%KJjk%LnKJjk%%L%lJKJkJ%jkj%%KjKKjJ%jjjL%%k%JJk%J%mLjK%%kKj%Knj
18997A09KlMkKkL%l%%KjJkJNm%%jkLjlM%%KjNlJ%%J%jmKkjLmMJmJKJkjLl%%jjjLjjkJj%K%
18982A10JjjLjJJ%JlJjj%jkJKlLkKk%jKjjKjkjL%JJJkk%JKjjJMoLjLlK%mM%lMlKmLlmMLmL
18966A09KJljjNjKlJ%JjJJj%jJ%jkkKMljLjLkl%%lMljMl%%Ml%JLklJj%jKJjJkKj%KKkJ%jJ
18951A11jJ%j%Kjk%J%k%%JjkLJj%JJj%jjj%J%%KkjMlMlkKL%JmJKjj%%JjkKKnKJkjJKjj%lJ
18935A06%KjJjj%jjJjKmO%j%l%OkJLmjJ%%J%JjKkjjLjj%K%k%Ll%j%KlkNjjJjJkMk%%%jJJk
18920A07K%kJ%%%lKJJjjjLlKkj%jJ%JJjMlKjnPLpJJjLojQpLnOjLmmJ1mmkLMk%%jJkLmNjjK
18904A10jmKJj%kPmkPjKkLrJLlJlJJ%jjJkK%jjKjJjkL%%jMmLJjjkK%JlJjLjKj%Kl%Mkjk%j
18889A05%JjJkK%jL%KnNmJ%Kk%%jKnLjJjj%JjjJKjkKmL%J%%jjkM%k%KmJMjjjK%JjjJjKjjK
18873A06oMJjJJkKkKKmJJJkJJ%oMJmKk%Kk%jJK%KJkjJJljJKjjJJj%%KjkKkJJj%%Jkj%Kj%K
18857A05jmKJK%kMlJLoKJ%LnNk%kLkk%m%NKkjJkOoLJmL%kjLj%KmKjK%%K%jKmKjjKkjMm%jk
18842A00j%jLK%jKlKkMkjjjLmL%jM%%jjJ%jKk%MoJJjkKjkJ%jL%kJJ%jK%%JkLmJjJJkLJkLl
18826A03jJj%KlKmjMkj%J%lL%J%%%MlJJkjMkjjJ%%jJJKkJk%J%jjJ%kKJjkjNnKkNmKJjjkLl
18811I9JNnJJJjjJJ%%JnM%%%K%Jo%KLkmJ%Lk%%MnJLJJ%kljNpPlmN%p%J0pOqkRKqMjj1%JOJ9
18795A16l3K8l4M2m3L9j8LLJ0Kj3lLp%J4pj0J4jJmmNk%jKjlkJPoJK%%j%%kjKMo%NLn%OoNm
18783A01JjJkkJJ%J%KJlKJoLjJKjkJJLpMkJ%j%JlLj%JlLLm%%j%jJKkK%j%JJj%k%Lk%JjKKm
18767A00LmJ%JjL%kLkjkL%%jjLJljMpLJkJjJKjKlJ%kjLklNkLk%jjKKk%nKNoKjMjKjjJ%jK%
18752A02jKj%k%JlJ%%K%kJjMnJJj%JlKj%%j%j%LkLljLjkJjJjJJ%%KkjMljJKk%lLkL%j%NqK
18736I7JJ%%LJnMKmjjjmLjL%lJKlNlJkKkKmJjLjjkL%%kLjkMmKOMrkMlLkKjkK%%JjLkjjKJk
18720I8Jj%KmMl%MkjLl%%JkJjLjjjMnKk%KjKJl%LoKJJ%j%%j%Lj%j%kJK%jKkKmK%jKkJ%Kkj
18704I6KlKJ%%mM%%mM%%%JkJl%%Kk%K%lKj%KmN%jlK%JkLJk%Jk%JlJJJkLjjkJjJ%jJK%jLlK
18689I8k%%%%jJkK%kLj%jkJjKjJJkJJk%Mk%%k%%JkkKJj%Ll%MjjLoNoKKJkJjmJ0o%LLokNmK
18673I5mJJjMKmPqL%%mjLNjpJ6qpPJQj0nj6%k%M9l6RJ0j9NkkLLlLPoKJ%mMmjKkLjJpJK%Km
18659I1MkKJm%LkJk%JjjQkjkK%KJk%lLJlJJKkjjkJkNl%j%%KKjkLjj%JjJJLmKpPoJJ%lMjjm
18643H9NlKj%Lj%Kkj%kL%lLlKkNkjLmJ%kOmkJJkJjLjLkKj%kKj%jKmK%Kk%kjJjJKJj%K%Kl%
18627I4%KkJJkJLk%j%%kjjOllJJJJkKlKKJ%kmN%jm%%jJ%j%LoNlKJOl%mlMJkJ%J%JJ%lJKjJ
18611I5jJj%JjjkJLJKlJlJ%lNjj%%%J%jJkk%KkKKkJkLkJlJJJ%%l%KkL%%JjlJ%J%%jkKkjLl
18596H9%Mj%mJJjJLlJJjKkkM%J%%%%kKk%JjkLkJJjJ%jjMJnJjkLLlMoKJJmL%l%JjjLjj%JmN
18580I2k%KmLJlLjJjjJJ%KlJKJ%%kKkjJJk%%J%l%%J%%JmKjj%JJ%%%kPnMkJ%KlJ%JkLljLjj
18564I2LmLloNLkMlKpmJ2lJkjJlmQnnLlkjLMLJ7j2Qj2jLOrLj%j%mO%lkNlnMlKJ%J%%%mOKm
18549H9jOoMKjlKJJ%pOlM%kJ%%jJJmJLjLmJjlJKJjJ%%mLJJjKKnjKj%%JkJmMlLkKjkJj%K%l
18533H8L%j%%jKK%jkMj%JpMkKkkLkkLKjJ%LlJKkj%%JjKj%j%LlKj%%JlJJjjjjJoOJ%jJJljK
18518H9MjkJjLlJkL%%kJKmKlKkjkMjK%%JjjK%jJJjkKjKjJ%kLlK%kJkjJjlJjMlJKk%KmNkM%
18502I2l%%lLkJ%%KkkLlLN%nK%l%JjlKjJjJ%KjmL%%KkjNJlmPlkJLjLJjkk%LmJLjKjjl%%Kk
18486H8JKm%LkK%J%jmL%k%Kk%%jJJlMjLl%J%jJ%%%jjJL%j%j%%lMj%jjJlJkJKKl%J%K%kjNJ
18470I2mkLLmLjmJJKk%lL%JJl%KmL%j%KjkJjKKmMjlKlNl%K%jjJj%JJLm%jJJKkJ%%Jjj%JkK
18454I0k%Jjj%%%%LkjjkLJljkL%KjLj%jj%%%JjLlKJk%nMLkmLjl%KMkLmMkKmL%mMmjN%MpLk
18439H6Nkl%MkkJkL%%lJKJ%jlKLljL%NojoNpO%MkkKlJJkLjJJ%LkJKlJmKjJk%j%%JjMmJ%%%
18423H6jKkLk%LmKLl%J%k%J%%lJKljKLlLk%jJJ%kK%lKj%M%lJJMnJ%jKl%%jKlJJlLj%%%JJK
18407H9%Jl%%%Mm%%jKkjNkkjJkM%J%mKLjmJ%Jk%K%jJJjkKKjj%jKlKJj%%lNjJJkKJnLkJJJj
18391H9%kj%Lkj%MkjjKkL%%kJ%jK%kLlkOlMmjJ%lLl%l%lRLqLjlJjJJJ%jJkMlLJJmJkJKkJJ
18375H7KJrN%%Lkn%KJk%JK%%LmJkJJjJJlLm%LlJjMlj%L%JmJlKjKkKj%jK%JJjkJ%%JjJjJJm
18360H2JNmLkLmKjJjJ%%JmOkkkKJjjJ%jJkKpQkKlLkjLJkjk%JKlKjjJjKjkK%JjjJJJkLoJPp
18344H1%M%%%JJJk%j%jKkKkMljjLjjkLkLklN%lKKmK%j%jKjkK%KkjKJlKj%JlJJlMJLkjmJNl
18328H5KKln%Mj%JlMn%OlL%llLL%lMo%K%lK%LmmMNm%%JjkKJ%jJKkJkjOnjLMoMnL%%KljjLl
18312H2LlKjjJ%nM%J%%K%j%lNj%%J%jlOmJmMKkj%lMk%kJ%%j%K%lL%LnMlKlNlMlKlK%jk%JK
18297H5lJJjkKK%kJ%JjkkLjk%MmMk%MmJJlLMmkKk%jLlJJkkKLLokL%M%l%Kl%jjJMkJ%%%jJj
18281H3JkJ%JkjLJj%Kl%JJlK%jJ%jJKl%lJ%Jjj%KkKJjL%JlKjjlKJ%Jk%J%%%JJjj%%kKKlkP
18265H7kK%njJ%NmJl%%jLmMkkJ%%jKK%%KmMm%MkpQkLk%%jlMMnjKjMoJKkjLj%J%%%kL%j%%l
18249H0KKkJJjjlKJJ%kJJlMjkKLnJ%J%jlJjKlKJ%J%JjJ%jj%jMl%KlL%%%jKKlK%mjJJ%%%j%
18233H1kKkMjKkJkJ%%jLkKlLjJnN%JlK%mN%jkJ%jjj%KjKlKljKJJjJ%%%JkJLpLLl%k%%LkjJ
18218H0JkKjJjJ%jjJKkJJ%kjKjlLK%KllNjk%%KkmNkNlj%KJJjJmKjNj2QOpmOoK%LklMKjlK%
18202H1Nj%%%JlkKmKkM%mMpjJ7poj2PKPmJKMj%oJkLj%JKkjLjlJjJjKKmJjKk%JJ%%kJjJ%%%
18187H0%j%JKJlJkJJj%Ook%KJJjKmJjMjkjL%jkJkMkJj%KkJOpLJlkkM%JjJjj%J%kLjkjKJjj
18171G9J%JjKkJJ%JjKkjkJJkKjJmLJk%Kj%jKjJ%jKj%jK%jkKjJ%kjMjmKJJjlNl%lNkjL%kjK
18155H0MmkL%%l%MjlM%kMnlM%kK%nMjLnKjKlJKMnj%Mm%KjjKjJ%jKjj%jJJlJJ%%LjlKJ%jjJ
18139G9%NqNkjJJk%KkJk%MlJ%JjjJ%jJ%KjLjjKmjLj%jkLjj%JJmL%%kJK%jjKKnKJkPmjjJkK
18123H0kj%J%kJJJjjJJkjK%KjkJ%K%kLJ%%lJkKmMoOkJ%Nn%LkjJJj%kK%%kLljOqPnkNk%Kj%
18108G9jKj%%LmJ%Kjk%%JkJj%JLnMm%Kl%jKLk%lM%KkjkK%kJkK%jKkjMlNkkLljKKqMLmNJp%
18092G3%Oj%MllLJmMLnj2J0Om%%%LmJ%%jnOkJJjJkKmMjKmNjJoRnJjKpLNjkkJJKjj%KkJkmM
18077G7KjJkjJ%J%JjJJk%%Ml%jlLJjJ%jk%JKlJJJkj%J%%Lk%%KjjjKJjjKmK%KJljlN%j%JJj
18061G9J%lLjlL%lK%jNjkjJ%JlKkl%MKjkKjkPoK%j%%lPoJKJkLmj%%%jMm%jKL%mKKlKk%KnM
18045G7Ll%jJkKjjKkLJj%k%jJLm%%JJjK%lKjLjmNJkKl%JJJ%lJJ%Mn%Jj%%%%JmL%%klNjjKJ
18029G9mKKlMkkJ%%kJMmLkjKjJj%%JlMl%%LlJKjk%kNJjkJjjjK%j%%Jj%LkjJ%jjKlLjJ%kK%
18013G7jJK%k%jLjlKKkj%J%KjLjkKJlJLoNlJj%mKj%j%j%%LkjNlLmKjkNmjJLlLkKj%Kl%Kjj
17998G5%jJjK%nMJjjJ%JkJjkLJkK%Jl%KJjJl%KjkMlKJkL%%jjjLkjJ%jKlLJ%Kj%kJ%%JkJJk
17982G7K%Jjjjj%%%%JkJJKlK%JoJ%MkjJkMl%KlLjlLKljLkLqjN%JkKJLlLlkKmJ%JjjKjjJ%l
17966G0NkK%KnMjNqOLmj2J5mMm%NlJnMkj%%Mm%mK%Kk%LjkKlLkjMj%%kJJmMj%MkJjJljK%j%
17951G4jJkK%KklMjjJLljKk%KnNJkJKlMmMl%%KJl%JLjjJKkjj%MmJlMkkMjkjJLkjKKlkJJjj
17935G4L%Ko%Mk%Jj%JkKJl%LjJlMjl%KJ%Kl%jKjjKkJ%jjKjjM%Jjk%J%lJJlJj%LmKjJJmkO%
17919G5J%Jk%JJnMJmMmOm%LmMjlKKk%lMqNM%pKKkkMkJj%%Jk%NlL%jLmLjjJjm%NknLL%JlJJ
17903G6jLl%jLjJk%JJjJjKjj%%JJmlMlj%JMkJ%%jKjlKJ%kj%J%%KKm%K%%%JkJKJjJjl%jK%k
17887G3L%jj%%jJj%kLjjKjLkLl%%j%JlKjKl%M%KkjJjjKk%JkNkj%JkjLJpPjkL%jl%L%JjJ%K
17872G8l%j%%jJkMjJm%JJ%l%K%kJ%j%J%MlJLk%%KkjjJk%KLjljkLMm%kLnkQkjJLnMj3MMJ0q
17856G2MrJ0joJjkKOnKnJ%LkKKKjkJKKkkJJmKlLkLl%LoRnkK%M%pJ0kjkjlK%%%%%lK%%KjlK
17841G2kMkmLjLl%%%LkLlJK%kmM%KjKk%J%jKJ%j%%JkMjmJJKlKlMjKkjkKKk%%kKJmJjJjLnL
17825G3kLlMlL%Jk%JljLmJMj%jj%%%KJJmMLmjKk%KpJJKj%k%J%JjKKkLkjKl%J%jjj%Jjj%NJ
17809G5nKKkjjKjJjMlJJKlKJkKkj%%jjjJjK%ljLlMjkLkL%lkLjMlJ%%kNj%%lJKlLkLnL%lKj
17794G1jKJjLmM%l%jKkjLJjjk%jNkKkNqMnKK%KmKj%KlKJ%kJ%jjKJ%%lMjKkJ%Jj%jKk%%JjJ
17778G4jj%Jk%Kj%%J%j%%kKjkJJkkKKK%jkJjJjLj%JkJjjMjkKj%kJNlK%lK%lJjLlLlj%LoLJ
17762G1kNl%%jJ%jJjkNk%JLn%J%%Jk%%jLjjKJjJkJkj%%KkjMkkJ%jKjLkJKmNkkQnJlM%ljLk
17746G2%k%jLJljMl%K%%%mJ%LlJkNkJjkkPkljLJJJKlJKm%PpMoKkNoMjjjkLjK%K%lJ%PmJml
17730F9MlLj3J8j8K2pRploPo%%OmJJKlLmjNnK%jKkJMrMKnPkkJjKj%KlK%lLl%L%Lm%K%jjLk
17716G3J%mNm%Mjl%JLmjK%JkLkkLjJj%KlJjKk%LJl%lMkKJlJl%%JlNm%JJL%jJkKjjK%JlJKJ
17700G5%oLLkkkLmMlNm%JkKlK%jJLjkJJJjlKjKlOmj%KKj%%kJJmJKjJ%K%k%MnJ%JlJmJkN%%
17684G1%JlNj%jjKjJkKoNkKoMKjMqL%jKKmNkJ%j%%mJjJKjLl%LlJJJ%JnjNjl%%jKmK%%JKj%
17668G0jLj%JJjjKJmJjj%KJlK%%%L%kkMkJlMljKkKjkLjjK%%%lMkkNmKjlJlNJJkmPk%kl%K%
17652F9JjkLlNm%JJkLjlKJLnJjjNjkLlK%k%Kk%jJ%Jk%%jKlL%jNk%JnJjN%l%J%JKljkJJj%J
17637F9Jk%JLm%LKjmlMMkjJ%kKj%KoKLJLjoKKJnMlmLmLO%nOj0J1jrJKMj1OLmLOplj8K1jJ0
17622G7k0K6j6L7j8K2l8k5J6M3Q0j2j22nJ1J5qK2pk2K1j6JJ0rMlNPj0nRKrQLjkpjLKKj0Rj0
17612E9RjjOj1JNmL%Jk%kLMkLjj%JkLk%jJj%jKLlKjkJjJ%kJjj%RlmNjmJkL%kJKl%N%k%%jJ
17596G1%%JJkjKjkjLjkjK%mOJjkJMn%jk%MJj%PpnJ3j2JJJlQjoPoKJ%mL%%LpKKKKj%l%Lm%j
17581F8%mKJj%LmN%jKjKjkJJjjjJkJ%%JlJj%%jL%%%%Jj%Ll%%%JJjKk%JljLJ%jJlL%j%LJ%l
17565G0jK%%%LkmMj%kKJlJoLKjMmJjJJLkKkLmK%j%jJkJjJkJkJJkL%ljJK%Klj%KkLjMjkKl%
17549F9%KJj%JlK%%%kJlKJk%l%K%KjjJJmLjJJkKjjJ%%Kjk%j%KkjL%JjkKjLoL%KmMjjK%%j%
17533F8kJL%k%KKj%lJj%jKlLjjKkKk%J%j%%%JkL%kkLjLkKjKmMjJmKKmJMmJkJJmLJj%JkKlN
17518G1nNlkLjjLJkj%JJkKj%%j%KlK%kkNkj%KjjKJlj%MjkKKmKl%Rn%mNjjKlJKlNpJLjjJJj
17502F9J%jKjlJkLljOl%jNkjk%Ml%j%jlJ2j0KnNqJ3o%%%%LlKmM%lKMlJ%jjkJ%KkKjKkJkKj
17487F7%JkJJk%%Jj%KJj%jjMmkK%LmK%lK%JJKk%jJ%JlNnKjl%NlJjLkJ%Lk%%KmKj%j%JLoLJ
17471F9jJj%KlKkK%jjJjjL%jk%K%kJKl%Kjk%KLjl%J%KjK%KlJjk%JjLnMlKkMnJjLjJkJLjjJ
17455F9JkkLklK%k%K%kK%jKJjjJJlKKkMmLjkJkLkJ%j%%KkJMmkNn%mN%k%MoL%NoMjjjjKLjk
17439F7LlJ%jKjL%jKklLjLLll%%jL%pNjjjK%jK%%j%%J%mLlKjLjJ%jJkKjK%JJjnKjKjjJ%Jj
17424F8kKjJ%KmMjJ%Jk%KljJ%%kNjlJjJ%KKoJMjlj%KJrNMmJ%jKjJk%j%J%%%Jj%Ml%jK%%%K
17408F9k%J%%jJJ%jjJK%lJJJlMkJJlJ%j%KmLjjKjJ%%%%jjJ%%kKkJjJJmjM%%KJk%j%%N%mjL
17392G0mKjkJJJrJ6loKjMjmOkmmLJkNljOKqj2RJkJ0JpLkLmKJKnJjLmKkLlLjjKlNpNKJjj0Q
17377F7KJjJjkJjJ%jj%JkJkK%JkNoLlKkL%JJkJJlNkkJ%J%jkLjJlJJ%JljJJJk%%kjOnJ%j%j
17361F3JLkJKkJjkjKKlJ%JjJJJkkJMnJ%LlKmNjlLkKk%KlKJjjjK%JJJljLjKkk%Kl%%KjKkKk
17346F5Ljj%J%jKJjjJ%%KmLKlK%lKjJjKjjjKkjJ%%%J%%lJ%J%%%%%JJJmNkJkjKkKJkknNJnK
17330F4%%K%jLmLk%LlKKnKkLJlj%%KkLkJ%lLjmPkkJ%Ll%J%Km%P%m%%%jjjL%lMk%kjJKk%Kj
17314F5%KjjOn%L%jj%KjjJ%%kkJKjlJL%kJ%KkjKKnKJkJkNmJKJjJ%%jjJJlKkLjkJ%%%klK%j
17298F3JJKk%JJk%Jk%KJkKkjKj%JlLkLk%JjKJ%lMkkJ%k%J%jMjKlJkJjJ%jJJj%JlKJkjKjLl
17282F5Kj%KlJ%kJJl%MljJjMjkKnMJ%mNjMmKlJlLJl%%%JjJnP%n%LJkjMJnjOmJlJLJjJJlKJ
17267F8l%jMJm%JjJlkMjMkMlkjOqJ0jnKJ1nppLOqLOjjoOlLkkmNmM%jkjLjKjjNoJNmK%%Jk%
17251F5jJkJ%%jKkJjKJ%kj%%KmMj%jLjLmKJl%%MlJJLnJ%%%lLjJkNlJkKkJk%KjkMj%ljJ%kN
17235F6kjlKMJlLJjkK%%jJJljLjj%jKk%JjkJJLkkLJk%KjJmJ%Jk%jKKk%KkLlJJjJjJJkjLkL
17220F8j%Jj%J%KkJkjJ%Kjj%KnMjKjJkKk%KoLJjkjMkjj%JO%JmJ%mJ%%JLlkLJ%lLJmkKJlJ%
17204F4%mPljOlJ%kJlQkkLm%j%kJkJMmK%MmKjJ%%mMk%J%Jl%KJ%%KjjjJkjKJjjLlJj%J%jlM
17188F6j%jLl%J%J%JkJlK%%%j%JjjM%kjkJjJJkKk%JKJjLlKjjJMmKjkKJkKj%%kKjkK%lLNn%
17172F6jJlLj%jjJKJmLlJJJkjJJ%lK%kNoMmKLj%jJJKjkJ%KklLk%jLjj%K%jNmmL%JlkLmLKj
17156F4%MoKJlkJLmOKLnLlkKKklnJ6lJj2KLLolLLlJMoLkJ%kMkjKjJjkL%kK%jJKKoL%jjkLJ
17141F5mJ%JjK%LlLjKlJJoLJkKJkKlJjJJljOkkK%lKkLkJ%J%jLkjJJj%k%JKk%kKjjLjJ%k%K
17125F5lLJ%jJ%LkjJkJ%K%JlkJkJLnM%j%kJK%%jJkj%LjkLjKlkLlJkMJlJ%Lk%kKkLjjJjj%J
17110F4KnKKllKKjmNjJjkL%k%JJlKjLjjJJ%kJKkjK%%jjJ%MlKlMjjKkLk%j%MJnKjjKnMkmJJ
17094F2jKjJkLnNlMj%JlLkMkkKjJkJKmKJJ%%KJkJm%JJMkmKjmL%lMk%LmOmJjJ%%j%%Jk%LlK
17078F5JjKjJJjlL%kKl%jjJkJJJkK%jK%JkJJJJlJJmK%%%k%KkJj%JJJ%%mKKmKJJjKkJkMljJ
17062F5Kk%jKj%jNnJkJKoL%J%Jjjj%K%%K%%oLLkjjMm%JKkKlLjlNjk%JjJKkJ%j%lKJj%%%jK
17046F4mLKjjLlJKKlLk%%jJjKk%mL%%LnKjKmK%jL%mkQlj%j%%Mjk%jJQmjmPj0MKlNjJmN%mj
17031F3JKmLlL%J%MkmKkJkjKKKp%lLkPllKlOnPj%k%kLlJLlJlKLlJkMmKMoKKj%Jj%%%%%%%l
17015F2%LJk%J%kKlMljJjkKkLk%%jOnJ%%KKlLJk%%kJ%kLKmkMkLkk%K%%K%kj%%JjjM%j%j%J
16999F5lJjMl%%%%JkLjJjKjmKkKjJ%%mLjJ%jNkKk%j%kK%kNlkMlKkJjKkJkMj%Jjk%JJJjj%%
16983F3Jj%%KjjjkLlNj%kLjjj%JLlLkKj%JkLn%K%%mMmJLkjK%jjMkJmLjLjjKlkKkLkjKjjJJ
16968F2%KlLmjKJJ%j%JjLl%jjJ%jMlKjKjKlKl%%KJlL%j%j%jJJL%nMJ%jj%KkKmMk%KkkJJ%%
16952F4J%%kK%jkKkKKkJ%lMk%kMl%jKnMLkkjJjJJJ%kJ%J%%%Ljjj%Jj%j%%kJ%J%kKKnLkLk%
16936F2JmM%%%J%jKmKj%J%%k%PnJkLjl%MlJ%KlJJlKLoM%JlJjLlL%mJ%pNJNnJMjqKMLnQnQl
16920F9Nk2KoJ2QjkpOnMKKonJ0j2J0rOjNnKkLkjK%NqMK%%J%%nM%k%KkkRoQj0jKNljKmjK%%
16906F3JjJkKkKJj%LkLmMkjjKj%kJkMmLKkKkjMkjj%jKkjJj%JjK%kKlKkJlLJ%%jj%jJ%jKKj
16890F3%jjjKJ%M%nkNJk%Jl%%JkLJ%kJj%JKlL%kLlkJKjLn%L%kj%jKMmjKKj%JJmKkJj%kMjj
16874F3J%jKkkJK%klLlLj%KkJLkJljKJj%JJjJj%%%Jk%%kMjJ%klKLJ%jJKlJ%jlJkK%kJLlKL
16858F6lNpnNnO%JJj%KjJJj%jj%jJJ%%jjkLK%nLOl%k%%JKJjkJJ%ljKkMj%%kKjmJJ%jK%%Kk
16843F4KmKLk%kJj%kMjjKk%J%K%lJ%jKjLkJlJ%jjK%kJ%Jjj%%jJJjKkjMJkk%%J%kjNmJjJ%k
16827F0%kjL%K%kLkmOJn%%%LkjJjJjkKKJl%J%lLjLLoOlkLm%J%K%kJjj%N%j%KkjJlKKlKLnj
16811F0%jLmJjJ%jMlLlOmLjJJlJLklOnMoLJknRoRolPnmOmkJLJNoKmmmJ3lJpPKoONj0M%qJ1
16796F7op%PjnPqmJ4%K3%l0J0Rk3NO5N7n3n5n0K0LJ3J4j6jjK2j2JMj2J0KlMk%j2J6rk%KJj
16785F3J%jmNkLnKlNkjMnkOkKlMjkjMmKlKjLk%oNJJjlKjkNlMkjkJ%%%KjjLkK%%%LmjMJpKL
16769F4pKL%mLLj%lKJkLmJK%lLl%JjjMjjMmkKKJkKJmJjkJK%jJkJjJLkjlN%kKkKJoKJ%jJJl
16753E9JK%lJJkJLlKJk%KkLk%%jJ%lNj%kkK%jJ%jNojMkKMoKjKk%KkLlJ%kMjJlLlJkkJJLmL
16737F2kLJmJ%KlJKjj%JJJj%KjmKJk%j%LJmMlLLjljjKj%%JkK%j%jJjLlKjLkj%jKk%K%mJJ%
16722F1K%%jkJlLkKjJJnO%lJJj%KkK%%Nlk%%%kkJ%KjJj%L%nNljKkLjLJlJ%k%Jk%MnLj%JkJ
16706F2%JjK%Jk%jK%KkjK%j%Jkj%Jn%J%J%jKlK%LKkKnMmNj%kJj%J%k%JjKkKkJJjJkJ%KljK
16690F2kJMnKklKKLkKljNmlOojNKqNkpQpJ8j2Rj1QLnJ0qjj0J0njJ0lmjKl%MmMj%mNoKKkK%
16676F1j%LjJKJlLmlPk%jj%JLlKkJJljKj%kK%kKjLkJkJ%jJJJkMlkMm%KkLmJ%jJkK%kjMlj%
16660E8NklL%jjJ%%J%JjKk%KmLkjjLKj%JjkmQJok%KLmKjKjKlLmPnJ%JkLmLkkL%kLlNklMkk
16644E9LlLlMjjkMk%jKkK%Jj%K%l%JJkKKjj%%%%jjLjj%JlL%kJJk%%%%J%%J%%LnLJ%lJj%JJ
16628F4%%LmkNqNjnMj%J%%lNmnJ1o%JKJlLk%%JjKl%JJk%%LkjJ%%KkJjJjrQJmPnJJJjlNnKj
16613E9jlOjlLkK%kJ%jKj%kJKkLJjLk%%KjkLjJnKkLjJ%kJJ%jlL%LnKLkj%Jj%J%jK%kJjJj%
16597F1KJnJJ%%lLOqKK%mL%%jkJLmKKmKkJ%%kKlL%%JJj%%KjJmMk%K%kJJjl%L%kjL%lLJjjJ
16581F2KkjKk%Kl%jM%JlJ%%J%JlKJlKKlj%jJkKLlMmJKmNljJJj%Jkk%Ll%MmLljL%jjJmOmOp
16565E7KOkjjJnKK%lM%Jjj%Kl%MjoL%lK%JkJKpJ0Jmj1R%j%jN%Kk%lJJjJ%j%KlLkKkkLjJKj
16550F2k%jJ%%Kkj%kJLjlK%KjkJMlKjJjkJjLlkLnNmLJjjJJkMjJjJkJjjj%JkKkKKljJKNqL%
16534F0k%jKJmKNl%LkLmJLj%k%LlJ%%kkMjkPkmKjMmjjJ%klNJ%%JJ%kJ%JkjKk%KJmJJjj%Kj
16519F0kjL%J%Jj%lMj%%JjjMklLmjMjKkKjjKjj%%kK%KjmL%j%%Lj%%LmljN%oLK%%KjkLkJjj
16503E9%jKMlMnjLjjJ%kjLjK%kPnJkLkn%Mj%%jK%mK%jJjK%kK%LljJlJ%JkMjKkJ%JJkjJjLm
16487E9Mk%Jl%JJjK%klN%kkMj%KjjJ%kJjK%mMlKlLj%%OnKKnKjj%%%KjJJj%l%MjjkJKlL%Kj
16471F3Jjj%jKkj%Kl%J%jKjLjk%j%JjjLlK%%j%%Jk%MjlKjJJJj%J%%%kK%%J%nO%J%lJJkj%%
16455F1J%nMJ%Lj%jpPjjLmJKkjkQmKn%%LlkkJ0jLJj0M%LJjk%%jjKlkM%lJkJjJlMmN%lNnJL
16440F2oMJKKkJkKl%KJJmj%KjKkJlMjjKkjjJMmJkLjj%JJjJKlLj%J%lKkKjk%JMmjK%kKjKjk
16424F0KJ%kJl%MlLoMlL%k%KlJKjJ%kKlMk%Kl%OpJjMmLk%JJKkjJ%%%jJkkJJLmMl%Kk%LjmM
16408F1jJjkLjKjLklM%kK%k%J%j%JkkJ%jKkJ%Jjk%KlKj%%%J%%K%Lm%LkLl%JjJKk%kJKJLjo
16393E9JKjLmJJjKoLk%MkJmLk%KKl%Jk%KK%JmJJjK%jkj%LkjJ%%kKkKlOmKJk%jKkKjjJJlJL
16377F1jJJkL%jlMk%KjlJK%JjjjKj%kJjNk%%%lK%Kk%jJJlJ%Mm%K%KlL%jnMk%jKKkjjMk%J%
16361F2kJJKkj%KjmMlkNkjLjkJ%jJKk%%JJl%LjkKk%KKjJljNl%JJlLkMnJ%%jKmJj%Jl%Nj%%
16345F0jJjKj%LlkJlKJJkj%LjjKj%jJk%KjLlJk%KKljMjoKMkjJ%%KqQjJJkjMkKlkPmkNoN%k
16329F0MJlKkklMj%jJ%kk%JLjkLMkMlmkRLKj5JPoKjjJJqMKMoKKkJ%jJJkK%kJLlJKm%JJJjj
16314E9JJjJjJJjjJ%%kK%%%JjJlkLkjK%kLjjkLJJKlJ%jMlK%%j%%%%JjkLjmKjJkJ%%jL%K%l
16298F0kjJjJKk%KJj%Kjj%%%%%JjJ%%Jk%kLl%MklJL%lJJJ%jlJLlJkNmLkkJJj%jMkKj%LmKj
16282F0KkJkJ%JlKmMkL%%jj%jKJkkL%Lk%jkMl%l%MlKlJ%KMkkKmNlJ%KkJ%kKmKKmKkMl%%Nm
16267E9%kLJk%j%JJ%lNojLKJkPn%K%kKl%jJjjJ%JlMkKjkMm%jLk%J%j%JjM%jJl%%LmLKk%j%
16251F0kKKkJlK%KjJjkLlJ%JJ%m%KkJkJKkJ%%%KkkMjjJj%%jLjJlN%m%kJLmL%%%Jk%kK%%Kj
16235F0lLjJ%kK%%JjkJkLJlJJ%lJLjJlMoLJKklLjjlJJJj%KkJ%%JkNm%jMkJk%LmKjKjkKMjk
16219F0KljNnLkLoNkMokPJOo%lmJm%%OLnOqRmlMnMKnJjMjKlLj%kKk%JkK%jNjlJ%LKlpOj%l
16203E8JjJLLnJj%jJ%%J%J%kjJmMjNkjJJmKkJlKLkJ%%k%J%%J%Kk%j%%JlLjlLjKjLmKKjmJj
16188E8KkJJlJ%jJJLnKkk%L%JjjLjjJLk%%jKkKKl%%jkMkJ%jJJkMKmjJKljKk%kjKj%jJ%jKj
16172E7%KJj%jK%JkK%j%KkJk%JjjJKk%%J%%jJ%jjKk%%kNnMKnkNj%kMjJjJkLlK%%mLLkjKjl
16156E8J%NjjpPLnjjL%%%JjjMjlMkJkj%KkKkK%jjMl%mjPmj%jMj%%%jJLmjLnKJjLkK%jjjKj
16140E9LklNnK%JJkKlL%%kLjj%Lk%Jk%K%%%jJJlK%pL%%KmKkKjNlnMJkKk%KJkKJkJ%%jkLjJ
16124F0nM%KjjMkkLkJJj%%k%LjKm%LmLJmjK%JJlL%JlJ%jJjj%J%%KkJ%%KkJ%KLlkMkKj%jkk
16109E9JKjJkJjkjLk%J%%jLlNjkKk%LmlKK%JmMlLl%jJKmMMjmKMoKkLnPoOn%MmJ%L%jnN%lk
16093E7NnLkJ%JLnjJLlLmkOnjnOkMKjj%kjMkJMkjJjkKjKmLjJ%jMjJ%JkjL%kjJkKkJjkMjj%
16077E9JjJJjj%KkjJk%JjKkKkMmKJJ%Jk%j%JKjj%KkKJlJnQllJM%oK%%JjnNJLmKJKjj%JklM
16061F2lkJ%%lJMkLKlj%Kj%JjkJkK%kjJ%JJlJlLjJk%%K%LljKKk%%JJj%%jJkKkK%jk%JJj%%
16045E7%%K%kJK%JmJOnjjKJnKLJ%%kMmkKJjMkOpJKn%KkLmL%kKkLkK%%lJ%JkJjkLJlKLlPpM
16030F3ljjLlJkLjJj%kNjJlLl%K%Kl%%NqKJLmJlLmLKjjj%J%JJmLJ%%jJlJJjKk%JlK%jJLjk
16014E9%jKKk%J%jkJMoN%kjNlJkLj%%k%kjjKJ%JJk%jJJj%JjJ%%J%lKKmLJkKJkMklJjJjjLk
15998F0%%%jkKjLlK%JjjMJmjk%%JkMlLJnL%jMl%%%%kJJJ%JljLkMlmOkLmlNJJJKknPjOj2QL
15983F9mj5J0pQJkKnMLj6PMkRMqKokM%%jJJnNlK%Jkk%Ljk%LjLqMjnLKjMJ%j0J0JnKJjjjkM
15968E9kKk%KmKJkMj%J%lJkkJOmL%jjKjKkJjLjJlKjjJ%KlJL%jlKJmLlKJk%jjJJJlkKLk%jJ
15952E8jK%%JlMJJmLJjjJkLKmLllNlJ%%jJ%jmJKJjJ%J%J%lJLpMl%J%Lk%kKkjNn%JjKLmJK%
15936F0kjjMjmOmJ%jKJ%KmL%kjK%Ll%KkJ%Lkj%JkjLjJkjKkKkLmKkLJLnkkKMmJ%JjMllM%nQ
15920F4pMKjkJ%jJlKJkJkkLJkJlLK%kkJLjjLjjjkL%jK%lJjLJlKkJ%jJjjKkLlJLjJlkL%kK%
15905F0kLjjjjMkjKJJk%%%JjJ%%k%%jkLlkK%kLJjKJjkKLJkjjjJLlKnK%%kKjJkK%J%jKkjKj
15889E8lLJj%KJJlLjlJ%JjJJJl%JkjMjkKjLkj%Lj%jKkKnKKjkKlNlLkmNJlmMJJJlLkjjKkKl
15873E7MjjJl%JJJjkjKjL%JkLkjLlJJJlJJlJ%oRpMNm%lKK%lMqJjJ1JlnjLkK%kL%kK%mKkNl
15858E9nMkQj1MJJLjjlPKj0J2lm%JqJ0jjjJmKkKkJKJmJLkJkmJjMJk%jLJlkJjjLj%kKJJJjk
15843E7jJJMl%%jJK%%%KJknLJjjkJOoLj%nL%lKL%jkKj%lLkJJjKlL%%mLkKnNlLjJ%kK%%J%j
15827E8JjJjKjjkPmmkLMk%JkJj%%JJ%%KmKkJj%jL%JkJLkK%j%kKkKk%%%kJ%j%JKkLlKkJ%jj
15811E7jJJjKjJj%KmOklLLnJjkMlJjKjlLlkNJ%lK%%KMpLJj%jKjKmL%%jL%j%jL%jljMlL%%j
15795F2JlKnKMn%JkjL%%jJjJmLjJj%JKJjk%JJk%%KjK%lKJl%MkjJjjJK%%jJJ%jJkKjkjJ%J%
15779F0JmMkJ%kLlKJk%Jjk%KKkJjlNjK%kJKjjkJ%jkJ%KJkJJkJjJjkJ%%JjjkJ%%LjkK%jJ%k
15764E6%JLlJj%JJJlJNJmMnOmKjjMlljK%JLlJJlJnL%kL%%jlM%mL%JljkLRn%nM%qRKpPPmop
15748E3Qmj0J2nKJ8j8MPOj8OJ2n%j1LoNOJnj0JJ0joMkLmOm%%MKpOjjjJoMJpJ0nKLknK%K%k
15734E8kJ%j%kOm%%LlMmJ%jKkLlK%MkJKlLm%j%j%lOjJkJjLlJ%%jJjjK%k%JjJjJJjJ%JJJl%
15719E9L%oL%jK%KnMlKMojPmlPnJLmqPOkkkMnLJjj%jM%oLjJ%%KjjLlKjJkLkjK%kj%%LkJKj
15703F1JkjJKkkKKkkLkjK%%jKj%j%JKjjjJJ%%jlJKkLkL%nM%Jn%MmL%%JjJ%OpOpMmMlKJjlL
15687F2KmKmjNl%KkKKkKkJk%%Kj%jjKJJkJjjJk%NnkLllJNJmJjLk%%KlJj%%jMm%jJ%JJj%%J
15671E8JKj%k%JkJJjj%LLmJ%jK%jkKjKjJlLj%JKk%k%%J%%jKlJJkMm%%KkJ%kJkK%lKkjLLkj
15655E7KJj%jJjJj%%jK%JjjJ%KmL%%%j%LoJ0oLjJj%Jj%k%Kl%%JJmL%J%j%jJmPkMljJkj%%K
15640F1k%%jj%jKkJ%%j%KkKkjJ%LJl%jMm%K%Lk%j%KnkJ2%qNkK%kjKnkQj3KJ2nJJj%KmKJlJ
15625E8j%%lLlNJjJJjmKK%mKJjRj1RmlK%k%%jkM%lJkMjlJKlLJkkKLmJJJk%K%jkKkJKjJ%jj
15609E7KlNmLjkJ%Jk%K%jKKl%%%%%J%%JmLjjLkjKkKKl%JkJjJKlNjJl%LmjKl%K%JkjKmKjKl
15593E5J%Lj%%KkjJkLJjJLm%%K%%KlkJkM%lJ%%%Kk%kLmNlJLkJkJk%J%%jj%K%%j%KlJj%%%J
15578E8%J%K%%%%LpK%KkJJKmMjlLnN%jj%%jjkM%jMmNkKpMKmJjJlK%%JJkKkjKkjJKjJkJLkJ
15562F1KmlMRj0KjKKnKjJJjk%Kk%Kj%Kk%jKjkJJkJlJJJjjJK%kKjJkJJ%%%Kj%kMkjjJjlJKj
15546E8jkKJjjJJjjmLJlNkJkKkLJ%%jkNk%kKKoKKkL%%%lK%J%lK%JkjLl%Jk%KmLKkJlKJJj%
15530E8%KJlKkKl%KKmK%jjLJLm%k%LjJkKjjJjkLkKjJ%JjjKkKkKl%LmkPl%KmJkLlnKLoJ0lj
15515E6PjkrJM%jPJllQoKQj1mKOnOLj1OMlj%jKkLlJnMkJMlk%kNKl%jjPlKpmNJ%jkLLkLjkL
15500F3mKKlKlKj%%%mMJ%kjKJ%J%Jlj%jKk%j%K%%%%jjKmLjJjjJJkKKkjjLKkKkKjJk%Jj%JM
15484F4mlOJm%jjK%jmPJmj%KKllJKjKl%%%K%JjkJJKJmNoLJl%KnNlJJjjKkK%%j%Jk%L%kKkJ
15468E9jJjJKkKJmJjKlJ%jj%NlJJJmJKk%%Jj%%jjJJMkJjjjJkKJk%%KkK%kKkkJjkKLLmjKjn
15452E3O%KmKjjkL%Jk%KKoLMjl%Ll%Jj%%jJ%L%%mJKKjJ%JmjJkjJJj%kJjJ%J%jJJLklJMkjM
15436F2lJkM%jk%%jjLjkK%%JjJj%%kJLmKj%JkK%%jkJLklNLjkkMjkL%jjJjljNlMnL%jJjJJ%
15421F1kmOkJJlJJ%%Jj%%kMkJLlmMmJLlKK%kjKKjk%%%lK%Lk%%%KjkKjjjMk%kJ%kMjkJ%jLm
15405E7Kl%JjKjJ%jj%LljJ%L%JMoJMnlOjlLkNkllN%mkN%jJkLjJlMjjoOmMlKLlJJklJM%lM%
15389F1mLjlNJ%KoJ%%jLrJ6j5MoRQj1M%jpJN%jKkLmKlNkJj%JlMjJlJkJJlKjLkLmNkJ%%jKl
15374E9jjJJlL%kLljjJkM%JkKjL%Jk%%%jKKkjKKlKjjjL%lJ%j%J%jJLlLkJjjjJ%jKl%JJ%Jk
15358F0KkKjkK%kj%KNpOnL%K%lLLoMjJk%jKj%%k%%JjkLj%jJkKkkL%kJJ%j%jJlJKkJJ%%j%%
15342E8JjjJLlJJjjLj%k%NnJjJJj%%jKkK%KpJQrJLJJ%j%%JkJ%%Jk%JjJj%jJ%%%%KjmLkNkJ
15327F1lKl%JkjKL%kK%%lLkjKJJj%%jj%MjmMjJJj%j%jJjKKk%JkKkJk%J%%J%%j%J%jjK%%lL
15311F1%%Jj%Ln%jJkLkMlJkLjlKKljKKlJmQqLJJkjK%%%%KkjOlJ%%%%kKK%l%%jJ%lJ%KlLjj
15295E9jKjJKl%%kKjLjkJ%%%%jj%LlJJ%kJKk%%%MkjjJJJl%%JKJ%kL%jlK%%LnLjkMKkj0LNj
15279F0k%JlPj0jL%QMp%j7J0J3koJ2j4QkJJjkJ%ljjKkKjJ%jJk%kJLJL%lJ%%%nOoK%jjKKjm
15265E5LJlK%%Lk%%JLkjJlJ%LjjKLnMjlKk%j%jJKkJ%%jKj%Ml%jj%K%nLkLljMLl%lOpKkPl%
15249F0lNjjkK%JjjLlk%OjjkKmMlJJJ%lJ%%Lj%mKJjjJJmJJlL%MoMmLkJj%JJkkJJJJL%kkL%
15233F1kLjjJjJlMjj%j%jJ%KlKj%lLj%jKk%KkKK%lK%JnMj%LjmOlLKmjJ%%mJKj%kKJkM%llk
15218E4RjnMjjkJJ%JmNkJ%jkMkJ%jLk%LmJ%jlKlOoNJnJJJjjLjJJl%KjJjjKJjJkJJ%LjjMlm
15202E9K%LkkJjJjkK%%jJk%J%jKj%J%kKlNkJjlMjkNklMnMJkjJkKkMJ%jjkKjlKKJmjKj%KJk
15186E9JkJjK%jjJK%kJKJkJ%JkJJ%lK%pOKlJjK%j%JmLl%LlJ%%%Jj%%jJJ%JkMkKmLkLjjKjj
15170F1KkjKJlLjkKkJJ%%mPmkKlMlJj%j%%JKoMkPoKjJL%lJmOk%%oNOlLkk%nLjoMLkkkKJ%J
15154E8J%MpL%Lk%KlkQLrj1J8mKpLk%KM%kkJ%JkKkkK%%kK%%%mJKLk%%jjjLlLjjJj%KkKjjM
15139F2ljJjjK%J%%%%kjLkJkNkKmKKmKKjmLlNlJ%jjJ%%%%jL%%kjJ%lNjmK%JjJJ%%jLk%J%j
15123F0jlNlJjKkNnkLKkLk%jJ%%J%Kkj%J%Jl%M%nL%kJmLk%LkJ%JJlJlJLKkLkjj%%J%l%LjJ
15107F0%JjkKlMLmKJm%jKk%jMkjj%KkNmK%%LlMnj%jjNlKkK%JlK%j%JjJjKjKj%J%jjJ%%kjL
15092F1kL%lJlMm%Jk%LjJkJJJkJmNJ%kL%l%Lj%mLkK%LjlJJl%Lj%jJ%%%mL%%kKKkj%KkJ%Jl
15076E7J%lKjO%k%jkLJkJ%J%jMkkKJj%%jkJJ%KmJj%%JJ%KklLj%%JjKkj%LnmLL%mJKjjLkKk
15060E7LjNpJMkk%JNoMlJjJjL%kJkKkKmj%LjJkKJllKLLnPpKoPkqMNNNj5J1j0nJ1LkK0rm8M0
15046F5oj7rM3Nl1L9k1kmj1NKmKjJ2j1RnJjRrrJ1mK%KlJkmKKJkjMjmLnJ1omNjkKJ%lRllJk
15032E8NjmKjlNkOnkNj%%lNlkLMrQkJmMlJl%jLjK%kj%KkJkNjlKK%KmLjjJlNkkKkj%kJ%LKk
15016F2Kk%J%KmJj%kK%jKJjkKKnLkLl%KjK%kJ%%Mp%J%MllJjJJJJkjJkkJJKj%JmJJJ%%LkjJ
15001F0JJjkK%jkKKjjJk%lN%k%j%KJlMl%jJjJL%k%KjKj%jkJ%mMkLjmMj%NlJ%klLkO%JlLpM
14985F2lK%jJjOjlkjj%J%j%K%%%k%JjJK%kKk%K%KkJjjlLLKm%kj%KJkL%kKkLkj%Jjjj%JJ%k
14969E8%K%jKmLJK%j%%kKkjJ%Kj%JkK%JJk%jkM%lKk%LmKJmK%jJ%%JjkMkjJLlJJlJK%kjJlL
14953F0%j%Ljj%jLlkMjJj%jKkjLk%%%Ljj%JjKkJjKkkJJjjj%JMmLJkJlK%jjJKjkjMmL%K%kj
14937E9KmKkJJjkL%Kk%JKk%lNjkJ%JljNlK%%KkKnJMjnQoKlLmQn%%JlkNmJ0j0JlKL%LlkjJm
14922E4MJKmNkKoPjJpK%kJ3nKj0Plo%J0Nm2O9m1J0k4J6OmRpNmMj0KLj%kKLjmLklKKjkJJKm
14909E7MjkJJJ%%j%%K%jjMmKjjkLkLmjKJmK%MkLj%k%%JjkJMljNmJJ%jKkJkJlOjjJ%jJj%jJ
14893F2j%JJkJKk%J%Jjj%kJkMj%Jk%%JkK%lKJLm%JJm%K%%%jLk%KkKmLk%%%J%KjjJjKkJJjm
14877E8K%J%Jk%J%%kK%%kKLjlKJoNKk%lMl%JLLpKLljjjMkj%%JJK%mlMJjm%K%K%%kNjjkJjN
14861F5nJKJlLjJk%JJl%OmmL%Lll%%jLkJlMjLmLkKjJkLljJkJKKnKKlJKkJj%kJ%JlK%kMkKJ
14845F2ljK%j%%jjK%KkK%%kLkLkJJLljKmJ%JJkj%LjjKkjLmLkJ%j%%jJkMkjLjkJjJ%JkMnJJ
14830F0Kk%LoMkJ%kLlMlJjMm%JjJ%%JjK%jKkJKj%kkNkkJJJ%nJJ%%j%jjOknOkJjKj%%jJJl%
14814E9LjjKlMnjOljpKMOKnJ%lJLlkPq%k2L4%qj7K1kkMoJPlkjKmMlJJpQjJ%KljjjLj%lPlP
14799F9omNn%%%JkJmOmKj%K%Kl%%%OnKJlKlK%JkMkk%Kjj%kLjJlLjkLj%Jk%%JlKM%lLj%%k%
14783F0JJjjJnOk%KjjJ%J%JjjjKkKNqK%JjMlNnjJMmKkkK%j%jL%ljJJ%mKJkJKKnLlLJkLlKk
14767F0j%JJjMnLkKJ%KkkJ%k%JKKjjjkKlMjk%Jjj%%JJ%%%JjjkLJklKLlKjKkJj%%Kk%k%kNJ
14752F2lJjjKKj%nkMKjKlKj%jKKkKkkjLKlmM%JJKjkJ%%KmM%ljQj0MKjlJ%Jj%%KmL%%KljKj
14736F0Kj%%kKKlLjkjLj%KjjjjjK%kJK%%kLk%Kj%JjJKjkjKj%%jKkJKkjJj%%j%J%JjjK%%lM
14720F2jKk%%JjjKj%%%Ljj%jKlLJkJ%kK%%jj%lK%jK%lJ%KJ%jJ%jJkkKkJJkKjKkL%J%KlkKk
14704F0k%MnJKjLjmL%%Jm%LJjj%JJjjJjJJkJkmMLljLkJjKj%JjlLNpLKnNJ%jLm%%OlkJjmOm
14689F0kJ%j%%MlJJ%Jj%K%l%%jJk%NjJlNnK%lMo%PljkJMJnL%%jjKjLjl%KlJLJkjJ%%jJ%Kj
14673F3kMkjJlJJ%jLlJKlJ%%LlJLk%%nN%%KmK%mLnNkjJ%k%Mj%kKJlJj%J%l%KK%k%jjKjKKk
14657F1KkJLkj%JmJkMJ%l%K%mPoKKkJJlMmjLkjJ%J%jlKjL%KjjjKjJ%%lLmJK%lKjKlMjjJJ%
14641F2kJJKlLlK%Kl%Jj%Nm%%KmLkjMjkJjj%MnLJmjJjKjKmL%MnKmKj%jJ%kJ%jJkJJLkJJJ%
14625F2%%%kLkLjKjkkJNkjjj%kNkJkMlJkKkMmkJjKjjNnLmLjJ%J%J%%j%j%JJkKjkjK%kLjj%
14610F0JJKlJj%Ljjk%J%%%jKoLKk%LkJKlNoMjKnQj0MK%kJjKj%jJlLmKJJj%J%lKjjjKKlLk%
14594F0kMjjKKlJJlKKjlJkMkK%kLkj%LlNpKKj%Kjj%KjJ%MmjKlKl%kJK%JjJkjjMjMmJjjK%J
14578F4kjJN%nNLlkqJ5j2Mn%%lMj%kKNm%klRkKmjLkklNkLkJkJjK%%%j%%j%L%mMK%Nn%lj%M
14563F3kKjJlMkJ%%Kjj%KJmKjJkjLjKkK%mKJjKljJJk%jKk%Kj%Lj%jjjJkJlNKlLlKlJ%J%mM
14547F2j%J%J%%kJjKkKJpKJK%l%KlL%MJjkjjjNnM%%j%J%j%kNl%jjkMk%%KmJ%JkKlKkJM%lJ
14531F1Jj%KkkKj%KkkKjLk%MklK%kK%jJlM%kjLlK%%%jKjJlKk%%%JjK%jMmjLlKkNjjKkKKnK
14516F3J%jJnJ0olKjMJk%jjkLjLlKjJJpNkjKkLk%LjLojmOkMjj%j%JjJJjKj%j%LjKnJ%LnMJ
14500F4%jkKKlKjk%%LjjJkMmKjKjJkJ%lK%kK%KjjjlKKjjLlKlJjNklJLjMm%%%jKJKnKjLjLm
14484F3KmL%%kJJKmMl%%JJ%j%k%Jk%JlL%jJJkLkJlLj%%KkjJ%JmNjjJJjjjJ%%j%JkjLjKlJ%
14468F1%kK%KjkJ%JJlLk%%%JkJJJlJLkjJjmMjmMLmL%mJj%LMnMkMkmNnLKlkKJ%%K%Kjl%LmJ
14453F3LlJjjNoMllNjKlMkjPpjJ8j6pJRJjlJKoN%kjK%%%k%JmKkJjJJk%JJkj%KKjkJKljJkN
14437F3kj%JJKl%LkkMkJj%JklLJLjkLJ%klKjKjJjjKj%%jJlN%mJ%%L%ljJjjK%jKJjJnK%LkJ
14422F3j%jjjk%L%JkM%jjkKlJJKl%Kj%K%JJjKlJkKJjJk%K%Jk%J%kkLk%J%%%%jJ%lL%jKjL%
14406F5kJKjl%Pmj%JJkkJkK%KlkJLmJ%%K%kMjjNnjLjjKjjJlLjk%%Kk%%KLk%%%%%JlJk%Jjj
14390F0%%j%KP%mK%l%%%%%jLkkJKk%%KJkKJn%mM%jj%JJJkJjjj%NlJkKKljL%jK%JJkMlJmLk
14374F2Jj%%KklK%%%%%%Jl%KmkLNjJjkN%jjkOllMlJk%Mk%j%K%jjKJ%j%JjkKJkJjOqKK%jkL
14358F5%mM%n%MlK%Kkj%K%j%%%LmKJJKkJjJk%%j%jJklKMjkJ%Jk%J%JJjJkJLJoNlNljJjmJm
14343E8J2q%LqRklLjjLJmJqNjnRrJMjQojMnPnMl%KlLKnkLLkkKk%JJjmRJpPrNjLnLJ%l%%j%
14327F0JJkJJjkKjKjKjJlK%MlKmKkJjKJ%k%j%KjjK%%%%jjJJ%Jj%%JlJ%J%kKJl%KmLKjjKjJ
14311F4lLmKjJJJmJNmLl%jJK%KkOomJKLkkJj%kJJ%LjjjMk%mL%%jMnM%kJ%%ljJKJJ%JjlJ%l
14295F0J%JkK%%%kNlJkLJkJj%lJJjKJjjJJmMKJm%Kjk%jJK%jlOjl%JkMkKkjKkJKnLOpLKnKl
14280F1JKjKkLjj%%%j%MljKlJlLjJkJkjNmKoLLLmLKlnP%k%LnJJkJlNkjKkjKjJJk%KJklKLk
14264F2%jK%j%JkKj%J%lKKjkL%jkJ%%%Lj%%JLoKJJJ%KkLkmMKmKjjk%Lm%LmjNn%%LkKjJjjj
14248F1KKmJJ%jJjLkK%k%JjJmMKmLK%jllNJk%jJkjLJ%jkJJkJKj%j%LoM%Jj%kKlKjjJ%jJkj
14232E9L%%J%kJ%JjjjK%JlMlJkKLmJjkOpJNqOmJKOnKk%K%ljNnMKRqoKMoNKllMkl%LjkLjLj
14216F5jKjkKKmKmlNJ1nnJj%kKm%JlNjJkLLlJJlKjJkKkJlM%jjJjkLKk%KkjJ%jL%JljKk%%J
14201F4%J%kKkK%j%%JkjKj%JKjmMJkKjJJlKjLnMlLkj%JjKkk%jLJmJjJj%LJllNlLlKJJkLmL
14185F5kjJjJKkK%j%lK%JJ%mNkj%%Kj%L%jJjkMJmK%jJj%j%kJLkj%j%KmK%%jJj%%%jKkJKlN
14169F6m%jjM%j%jK%%jKjJJj%k%KjJjjL%nOkJkNmkK%jjJj%Jk%JJkjMjLjjkKlKJ%lLl%jJKl
14154F1jMjj%jK%%jKjlMj%kJKjj%Ml%Nm%K%jj%%jJjKkKkKjjJjk%j%JKk%%jNmKj%JJ%jKmKJ
14138F4KkKLnjjLj%KjLnKlLJ%jkKj%JKkJKmKjjJjJ%jkJKl%J%JjJj%LmMn%Mjj%K%Kl%KkJkJ
14122F4KkkLJ%jKJlkKKjkJKj%kJkMm%Ll%KmMmOkKmKL%mMkLkkklPpMjMoOjMj4OJrL%Oj5J5O
14107F9qPK%koRkjk%j0J4JojL%k%lNm%KMoJ%jMlLlJJllJKNjj0OJ%PpMqRoK%%lKJl%NnOkk%
14092F4JkJj%KkJlMJj%lNjk%JkKJl%K%%kjLjj%KjjJkJLJklNlK%%JkKlJ%KllOjKk%JJJklKJ
14076F7K%m%JKnKJkkJJk%O%kk%JjKmLjj%lM%%KmKjKLpMMmlLkKkjjK%LlLjJ%j%LkKlKk%jMk
14060F6JkjJMjj%jJk%JkKjKJjj%J%jJjkK%JmNmKjkL%%KlJlMkmLoRl%%KkLlJjJkNlJJlKj%L
14044F8lNmMmM%lJJj%nL%kjJLJjkJjJMmnPlJlLlMKl%j%JjJlJJkjKj%J%kKj%J%J%K%%mK%kL
14029F6kKjJkJk%LKl%J%k%jKlJLj%kNoJkKJ%%KJjlLjkKJlJLlKjjJjjkMJjkOnKkJ%%lMlJk%
14013F2jLkJLmLjLmJjj%LklKKjMkK%%l%jKkL%JlJKkJkJKjjKjkLkjLjJjjjKkMJjlMkJjkjL%
13997F7kkLlLlJKmKJMlJkKkk%LjjJL%%kpRlKlnO%kK%LOo%pJ2njmNm%KJkkKJ%j%kMm%LkJkK
13981F5LrJ2lnMnojJ4oj1K1krOrRKqOJmKnQnlL%MqPlLlj%JL%kJ%kKjk%JkJK%j%kMjJ%%%jk
13967F4KjJjMlJLoMkJjj%%j%%kNjjjMll%MlLj%lK%jnNKJJ%lLlJJJKjkJ%lJjJj%K%%%kMkjJ
13951F6JkMllNl%JkJLlkJJJ%l%N%jJjjKJ%j%lmOk%jj%JjLkJjJ%J%KkkjJj%%%J%J%jJLjmKm
13935F1JMjKkKkNljLjjk%KmJLjNoJKmLj%%JJlkJMlJjKLkjJjkL%jjjLk%%JjlOj%kjKjlKKjj
13919F5jMmLkJ%%jJjjkL%k%J%K%%k%jLmjLJlKjKj%LJmKkKjJjJkKkLjkKk%LKjl%%%KJkjJlJ
13903F4%jLjkkLJJ%jKjJjJlO%kmjJ%%KkJKjjJJ%kjKk%K%kkJ%%%MlKJkKkL%KlJjLJmKjkkLj
13888F6KjJlKlJKjJkLllKK%lMmJJ%jJKlJmLLj%JmLkjOnNmJlMKlMj3J3mMqLMolLKkJmR%moJ2
13872G1mj0MqJ3mKj6L8qJ2j8k9L2k5K1qNj5J3mPnjJ3j6RkjjmMJjMJJoKKl%%Jn%kOkKNm%kK
13860F7jj%OlmK%kJjjJ%jKjLj%%jlNjJ%k%jJjLlKjKkKKljjJLk%k%LjKLnLkKjmK%%JjjLJlJ
13844F7JkJjOnJjjNpkMjj%KNj0P%JPj2%%MKoj%%LLj%kkK%lOmjLMpNkmMjLkJ%lLjJj%JmjKJ
13829F6%%%%%JjjKjjJjKlKjLm%jJ%LmLk%kjMjJ%jJkLjJjJlK%%j%%JKjjjLJljMm%KJmK%%JK
13813F8ljLkKjjL%KjJl%JkLlMlj%Jk%%jjkNjjLlMmKMjnKOklkJLjjJKkj%J%kKkMlJjJJ%jlL
13797F8%%k%jKk%%jkKJj%J%MnKJJ%kJJkJ%Lk%J%jJJnMkKjkjKlLk%jL%%lMk%kKKj%jlJJJKq
13781F0ML%JljJJlK%JJ%jKjkkLjjlN%J%nKLJlMm%JjKJkjLjJlK%%Jk%JlKkjJJJjKjKlMkKkK
13765F9jkJjKj%J%%%%%J%lKJkJkJkjKlJ%kLlJJJJjOm%jKlLl%j%LlLkMmk%NjNl%mMmJmNK%l
13750F6kLKnKJ%kM%n%lMJjKnMKljQlnjLlmLLJKmkMjKj%KlMkkJKlLjkJlLJjjK%jJ%jJjJkMj
13734F8kKk%JjJ%kKmK%KjJlNj%%kkK%%jJJLpM%JmjK%jjLLkKKmJj%JjLlJm%L%jkJJjJJkj%K
13718F6jkJLmJJJJmKJkkKJk%J%jKLklK%K%lJ%%Jj%%kJJKKj%kjJJjjKjjJ%%%J%jjJJ%%%J%J
13702F9%lNj%lKlJLljLJ%jk%%LlLnJKkjM%lMJmlQpLJkjKj%JkKjJJjjLkLoM%j%lLJKkJJjlj
13686F6J%jKLn%KKmJJKnLkLkJJJ%jJJl%jKKlMljJ%%k%%%jK%%JJjJJl%%kJkMjjJKlKk%JJJm
13671F6jKJ%JkkMl%KJlL%JKkjJjjL%lNm%%jjkLmLJk%jKLkJjJ%%%kKj%JlJk%K%JLqOkJJjL%
13655G1k%lKJlKJkJ%%%jJkJJkLKmL%JkkJJJk%%%jJmOn%J%k%LjkMjJJlKNoMnMnMmjMLqPqP%
13639F9Mj1RJlkK%KqNnPjpKLjLpLJjOmjJ%%jJLmkKj%KlJkLJkjJNoK%jPjoPrJ%JKlNj%JkKK
13623G1%%jkK%k%JJjkKm%L%jJ%j%JJJj%kLk%jMkljKjkK%MjjkkKkNJjk%LkKklKNpK%%KJkKj
13608F9%%JmJJkM%%J%ljKmLk%%Kj%jMjjJ%%kJKmJKj%JkJlKKk%Jjj%JjKkJLkKlLkkJJkj%L%
13592F8lJLnM%%j%JJlJK%kLmK%jJ%%%%%KlJjJ%kJJ%KlJKjJJkkLnMkjMrNKj%kMlJLmJKoPJk
13576F9%k%jKj%%%jNoKKj%%%KlJK%kJjL%llJLMl%%JKjkjJ%jlMnLkK%Jj%LkkJL%kNmlLJ%jj
13560F9Kj%%JkJJk%l%JjJJJ%%LJnMm%K%%mL%%kJjLmNk%KlK%jlLj%LmJMpLjK%lJ%%mNmJkJK
13544F6Lk%KjJkJL%lK%kJj%Ll%KjJjlK%JjkLk%Ll%K%Kj%KlJ%JjJjKjJkJjj%%Jj%jJlJLjkJ
13529F8%%%jK%jKj%%jLjKnLj%Jjjj%KkLKKnMkjkJ%jJm%LKJmPqJjQKmlLlNn%J%%kjJKmNjkN
13513G3oKJnOQj8NPlJ%j2No%J6j3OJLnJjLmJ%jJkL%%k%MmMkLj%kMkKjjJkKJkj%kL%K%Kk%l
13498F8LJk%j%%%LlJNnj%K%j%Lk%JnM%%%kJ%%%jLl%Mjm%LkK%Lkk%L%kjjJ%%Kk%jLjjJkjJk
13482F7JKjlLmNpN%jLJ%j%JJKkJjjLjkLnJK%jJjLkjMlJl%Jj%jLkKjKjJj%kJjkkLj%%jkMkK
13466F9J%kK%kMjj%KLpKkOkkkJ%%%JkMkJjkLKJkl%JKkj%%jJKlJKklKjJ%jJ%%%MnOknNmmJ1
13451G4nkMmLj%KjkJLkMoLKmkMlKkKLnjNmj%K%kK%kJ%%Lk%KJj%%%jkKj%%jjN%mjOjmKK%lj
13435F8%MkkK%kMlL%%%LjmkMl%MlkKjlKKk%KLJJkj%lMk%jlMJlLk%jJ%%JKlKjkL%j%j%kjJ%
13419F8%kKJLlJj%JkKjkK%kKkM%k%jkLjLkJjLjKm%%KjKJlKkJ%lLkNjkJknRmJJlKjQMj0oJ1
13404G7nMllNrK%Jrj0K5j4J7j6KQkJnKNmmPj%jk%J%LJmKkjK%K%%rKL%MoQrLjLjkJMkkKJK%
13389G3jk%%LlkjK%%lMJ%mKJ%%j%%%Kk%lLJ%kJJjJjJJ%%%kNkjkPoJkJkKkjL%JKLkj%%KmL%
13373G4jkjKkKKkkjjLJ%KJlJpO%%jKnOmkKJlJK%%%%%%jj%k%LKk%%jjKjk%M%jkKjMj%%JlLk
13358G1Kl%KklNjjJk%jJ%%JkJLkJ%%%kOmJkLJjjKmJkJJJmKJlL%jJjmLj%JlLj%LlLkjJ1j1N
13342G3mNoLjK%mM%jK%%Kkj%jjJkJ%%JKlJLj%JKmjLj%kJLjj%kL%kLlkKJ%jjMmKjkJmOkmKN
13327G4l%jLk%kMj%%%jJj%jJJk%jKJj%%%JkLkJKjjLjJ%nNjqN%%%J%J%%jJkjKpPoNmLjjj%L
13311G0j%JkJJJ%KjKkJmLljMJKljMkmN%jLm%J%lLjJLljKj%%jJjJj%kJkJ%%JkJKkL%JjLjJk
13295G4jjLmJ%%%Kk%jKjLJjjlJJlLoOjklPpL%%Kk%%Kj%JJmO%%jl%%kKjJjjJL%lLJjlKlNlM
13279G5nKjlMkLlOklJjkLLpOjLkkkJJ%KljkQpJK%mNk%lMLmLjlLj%kJkLJlKk%Kj%JMl%j%%K
13263G4jkJj%kLMoJJJjKkLl%%L%mJM%nJ%lLkKoOnOkjKJ%%lK%JlM%%JjKlJLmJjjLlkJKkKnK
13248G0kLMmJMn%k%JKK%kJjJnJ%KkKj%K%%%%%j%%JlL%J%jJjjJkJ%J%jJ%JJkJJjj%%KkjKjm
13232F8NjLljL%kJJj%%%Lkk%LjmNk%jLKjoMlMjKjj%jLlKmKJkKKklKLjlJ%JkjJlNo%KJLkjk
13216F9%KKkK%%Jjj%JjJjKkJjkMl%JkJ%kKKjkJkK%kJ%LjkNmJKj%j%%%jJJKkkJK%kL%mJJ%j
13200G2%mLJ%JjjMl%%kM%jjKjJmjMJJmKJj%JkJJKJmLkJjkJ%J%lJLjllOKjKkJKkjJjjLnK%J
13184G5jJkJJlK%jJ%LlkK%nMKkjKljMkKJnLjK%LllJNllJNlkJllJ2ok%LljlkRKmOjPJk3K5k7
13169F0QQLnOlJKj3J5om%OlnjQnLjJjJKkjLk%jl%Kl%%N%oMKoKjNmPr%LlkNlKjJMnKjMkJ%%
13154G4jjjLl%JLkMmjJ%%KjjK%KkJk%KkKkKk%kj%J%jLmMkKjJlJ%J%JjkKjLoOjkJJkJjJLkJ
13138G5kKmJjJKJlKlLMmJJjKmLJljKlJ%Jk%%%%jLoOkJkjJ%jM%kjOmKlkNk%%JkJ%KJjmKKjk
13122G2jJKm%Ml%JjjK%KkjJjJ%%JkKj%LlJjJ%JJl%JK%lJ%lNkjkKMm%%jL%JJ%mNmPj1LjKlP
13107G7nJLnK%J%%kL%jJjLjjjJJJkLjjL%JjMq%MkKJm%MmlKjjKj%J%jjJ%JkJkKjMk%%JkjLj
13091G5j%JjjJkKjk%jKJJ%%j%%Kj%kJJKljMk%jLjjKjJmjLjjKkkLLpNlKKKlKlMkjkKlJ%Jjj
13075G1Ml%%J%J%%j%Jj%KjJJjj%jjkJJJJkjJJ%lMk%JJkLjMm%lKKJjJkJ%lLj%lJJkLJlKMmJ
13059G5jJ%j%jKk%%kkKKJk%LllOoKkMmNNoMlLnKNjjKlLmkJLkoMKKpNjJ%jjKJ%l%jKjnOpPP
13044H1lMkk3L3j1j2J1k3J2J0Qj0J4j0pNnj4K8jj4LoRLpj%O%mKlkL%MqJ3j0%JJJmKKJpKKl
13032G1KJJJnLlLLkLmJMjl%Jn%OjlLlKk%%Ll%%NmJjKkjKjLklLjkN%pKNlJm%Kj%JMmkQkjkJ
13016G5LkkJjJ%kkKLJ%JjjKjJ%%jJkK%lLlKj%j%kK%Jj%%kMlJ%%%jJKj%%JkJjJJjjJJnMkJJ
13000G6J%kkLJlJk%LjJ%nMjkNnjNnL%kKjLkjKlJLJ%nOj%MpJ%J%J%Jk%%%jJKLjm%jMjlkJJk
12984G3jMjkMKoOqLkLkL%jkJ%JjjKJkLnLJK%mLJ%kKjjj%%jJ%JJk%kK%kK%JjJ%%J%Kk%lJ%M
12968G9njL%KJoL%%%%lLjkLjLkKJmJ%jkNlk%KJJjj%%k%JkK%Kjk%JJkkK%KJk%jJKJpP%lLmM
12953G7%KkjkLkMkkJKlJJJl%lM%JjkLlj%JKjjjJlKLkkKkjK%jj%KlK%kKLkJjLlK%OokKJlMK
12937G9jLNj1JQj1OkkjPj0lNMJ6k1pOkJ0oJ1mpmRklOlJlLoNJmJlK%JnPk%MkkLpLMl%kLk%J
12923G4jJKJj%oO%kJjJjKkKk%LnL%K%JkjKlJKkJj%JkJ%%jjLj%kL%Kk%JjJmLjjjJJJjJkKJJ
12907G8kJJjJkJJkJjKLllMJlNm%lJkLnNmNknMKnL%JkJ%%jKjjjKjKnNlK%NpMljNmKjJMmkJk
12891G3JJ%JjJjkLlNjlK%%%kJ%%JJ%%K%l%KjkjLk%jJ%KkLj%Jj%lL%JlJ%%lNpLJ%Jj%jJKkM
12875G9kjN%n%LmKkNmLmLj%JJkJJKJj%jjKkJlKkKlLKpM%jkLmLk%L%JKj%kJ%kJJJkJJjJjjK
12859H0%%kjJjJ%JkK%%lJKljMk%%%KlJKjjKj%JkKkLlJkJ%JlMjkJjjL%KlJLkJkKJlK%JjJjK
12844H2l%mL%Lk%jJjKjJMoKj%Kj%jJKklK%jKnMjnM%jK%%j%j%JM%kjjJ%jJjLkjkM%%K%lJJk
12828G8KkJk%LjkJ%kj%MjkJKmJ%%jLmLjj%J%%%jK%KlmOlL%nJKLkkmKjNjLJoM%jj%KkJ%jL%
12812G9k%LkKlJjK%%kkJJMoKjMmJ1p%%mNlKl%%kLMqMLkJjkK%LlKoKjMmNkK%%kJKj%J%kK%%
12796H2kKjj%jJ%jJkLl%%j%KL%mKjJj%J%JJmJL%ljjjjNnJJkLNmJjkMkKk%Lk%jkLjJjmJKlJ
12781G6KkJj%JKJm%K%%KKllKMk%k%%K%kj%jJjJj%jJJkLnOlLjlK%J%KlJ%LkjKJjjK%%jKjk%
12765G9J%jjjOo%kPnJ%%Kj%NkJmMnkJJjKmOjlKOolLJmLmJ%kLJ%j%JjMJkkKkkK%JKlLl%%LJ
12749H2jjmNnjK%%%%%mL%j%%LjlK%%JKkjLjJlMl%JJjj%JLjkKjjLk%K%jjJjkKk%%KlKjj%jM
12733G9%klKK%jJ%kK%kKjJ%%JjK%JkKJmKmLkjKLkk%JkLJkLj%jJ%kLkLjjkKkMmJ%k%J%jMmJ
12718G8%K%LkMlKjlJkLJk%jJLljLkmJkMljKjmPmMj%KlK%JjJ%lKKljLlOjnJLlKJjJnkJ0ol%
12702G6jJ0pjKpJ0pOnkRpoPMlKoRnjMmLJjJkJ%%k%%jLmN%KkLlj%lMLnJNmnNmMmLlJjLjkKj
12687G8kL%mK%k%JjJKmjOl%KjjJKjjK%jJ%j%%jLlJJ%jk%jKjLk%JLlK%%%JKl%J%%kjKMkJJk
12671H2k%%LnJkJ%%jLJljLlkjMJnL%LkKJlPljKnMkKnKjKkJKlKkKjJlNjlLkKJk%JjjJjJ%JJ
12655H2kJkLjlLkNnJ%Jj%jJlKKl%J%%%j%%jLJJlKJKlKJKnJlKjJl%LjjLnK%%%LjlJJK%lOkL
12639H6qMKjoNjJj%j%%KkjMk%%lMJlL%jlJJ%lN%kL%%j%lLkJ%mKJ%jjKJj%KkKmLkKjLkjLn%
12623G9KkJJ%J%%jK%JjJ%jJ%jjjKljJ%JkMm%%KkJ%KmJJL%KoOojKJjjKJkJj%jM%JoMJkkMkK
12608H3lKk%%KmJJL%kJJ%kJJ%KmjjLkKmL%LkjkLkj%MlK%K%mJK%jJkLmj%J%%LljMlJmMm%Lk
12592G8%kKJ%jKKk%JkLJjjkK%k%jKlJ%KLljLn%J%MjkjLkKkJOj0OKkjJm%J%KlLljL%jLj%Jm
12576G8JjNmOkJoNlKMmoJ1KmqKkLLjlKKnLLkJ%mJJKjjjJKj%%%%J%jkJjMmMmKj%jJkK%%J%j
12561H1JjKJkjlK%LkJJkkLj%Jk%LmLKkJnNk%kJLkJnNmLKnJNmJ%jKmM%K%l%JkkL%jJkNj%Jk
12545H2%J%Lk%%J%lKkJJ%J%%kKjlKlJjLlKj%kJjMkJjJkKKkkJkMkJ%jJJmLk%KjLljJJJk%Mj
12529H4nKjLJ%%jjjK%%mKjNljKlL%j%Lk%%KoMj%kKKlL%j%jJ%kK%J%jJk%lMjjJj%%%JKpOKj
12513H4%JkL%j%jLm%Ln%Ljj%jM%jkKJ%Jkk%Kj%jJJjjLkJ%%jJjKlJkLJj%JjKnK%lJJJKlKj%
12498H3JLojKKkKk%JJ%Ll%Kl%%lLlLj%KlJLljNkkK%kJKjlJlM%Ll%kK%%lLkLkJKljJjJj%%L
12482H4lJjKLl%JLlkjKjK%jjJ%KkjJ%k%%JjL%jJKmLkjKJ%kJkMjmMmJjLlnQkNoJOmkMnOJo%
12466H2MjKj%l%kjPRj3KjMjoNnPomN%LjlLkKKnK%%jMlKj%lOnJpJ0j0MmN%LmLJMnkKJJjkKk
12451H3lMkMmLJKpKK%%LkJLk%%k%JkJJ%JkkJk%K%LnKj%kL%jK%lNoKKmKkLJmkN%%l%KlJ%%K
12435H4mNlJKkl%JK%kKkKkLkjKKmLjKk%JKjj%KkKjKklJJLkjKjJjJj%Jk%LkjJj%%LlKlLj%%
12419H5JJ%lK%JJlKlJjJ%JjJKkJj%%jKjlKLl%%j%jK%j%jK%jjJ%kjLJ%%jKl%jkLJjNmqJ1Jm
12404H4KmLkJ%jkMkjkN%%kKlJLjJjK%%jnKJL%nLjkMjLmLk%Lj%%jJj%%kKJjkJK%kKk%jJ%jJ
12388H5jkL%kMKmJ%JkJ%J%%mOl%kJKkj%jJ%jKJj%NnkKLmKLjmMj%%lJKj%%l%jM%JlkJJJkK%
12372H5k%LljLJ%kJjLlK%kLjJkKJk%%j%%%jK%ljjLK%%Kk%JJkjKLkj%J%%%%k%jJJjK%j%jKj
12356H7KJljjJ%jKJLmLk%JjjJ%%mJj%OkjJjjkkMJmKJlMpMKkKjjMjlL%lJLmLJJl%Kk%KlJkJ
12341H5jKjJoNKk%n%jRKnKjLpMkL%k%LlLkkLlLjj%Kj%JKnjLkK%jJjKJjJJjkKjjJjJjkKjjK
12325H6KlJ%jJkK%lJjKkLkMmjJK%Jj%jKkLKjl%Kj%kJJ%j%KjkkLJJlJ%%%JkJjkMklL%LlJ%M
12309I0m%Jjj%JJ%jk%LjjKJkKkJkJJkJk%Nkk%JjKj%%lKJK%jJjjj%JjJJjkM%%jJk%JlKJlMj
12293H7%jJ%LoNj%NmlK%JkjKlkLkMljMljLjJkJMoKJ%kL%kjJjJjKjMmJK%JlKmL%%nNlKJ%%%
12277H8jLjlKjkNnJK%j%Lo%LjKKjmNkKjJjjjKklLLjjKjj%%jLkjjKlJJKlKjjjkMk%KK%mJkK
12262H6lJJ%j%MkJlMk%MpL%JJjJKlKjJjjjLjmJ%J%Lk%J%jjJJ%%kJ%%JkJjJKjLjjkJjMmKJk
12246H8Jj%%kLJ%jkjL%Kk%%jJ%k%JJjKj%jjLj%jKkJkjJkNojPK%jmJjKJjj2J5mmRknlOmKjM
12230I0jlpLjJ1qJ0oKmKlMlJlOqNk%%JjlMKJ%KklJ%jOl%Kj1J1m%KkKlOjJk%JJkJ%kk%KJkK
12216I0nKmMkLJk%JkMkJjJJljMJlJ%KkjjjJ%%Kl%KkjLJKmjJ%JljLj%%%jJkMmL%jLjk%%%MJ
12200I1KpOJjlJlK%j%%LjjljJJjJ%kMkKlK%%KlJLl%kK%kJLjj%jL%kLkK%j%jjJJkKJjj%%kL
12184I0lJKj%kjLjJ%Jk%JjJ%j%JKnMk%JKkJjKljLJkNoJKkLmkOkJ%lKj%LnMJkjJJJlLkj%%j
12168H8KmKj%JlJMkLkLkjK%lkKJKJkLjlKkLJkJk%%j%kL%kJJkMklNjkkKJjJmLjJjK%KjkKJl
12152H9MjkKkLkjJ%JJ%lK%%k%jj%JKjJJ%jkKmLkL%kj%%JJmKLoOmLoLjJ%KkJJkJJKkkK%jKl
12137H7LmK%%%%j%LkLjJ%lJ%KkJkj%jN%%JkJjj%KkJjlL%MJmjJ%%LmL%JjjK%kJ%%j%J%kKlL
12121I2jJJ%lLmLK%kJJlk%JJMlNoKjlL%k%MqMj%jJQkmLnMlj%kKkMK%jjNl%llMOlLnj%JKlR
12105A00j2JLJJ3j3Mm%jOqoLLmM%l%KlKLJJlJjKkkM%%kLmKjJJjJjJmKLjjK%j%jlMjJjLlJ%
12090I2JklKJ%j%%kKjMmmLKjJJ%lKkKjMlLjkjK%%jOk%kJJ%%J%%%Jjj%KlKJj%mjMj%l%K%jK
12074I3kJk%%%%JkL%jjJ%LpL%L%lKJ%jkKkKjJkJkJKjLkJlLJljKkJJ%%Kkj%j%Kj%J%mKkJKj
12059I0KlLJjkMnKKkjlK%KKmNpKKKlKLjjKjJkJJjKkjJkLnLJ%JkkLjlLjKn%NoPoKJj%jKk%L
12043I3nJJK%Lj%k%%jKlJKkjLjJk%KjjK%jKKkKkjj%LlkJKjjJK%LjJkJj%j%kLkJlLk%%J%kK
12027I3%kKjjLkj%NnKkOl%%Kkj%%%JlKKm%%%LmM%kJjjNoKLjK%lKjjLk%JLoKJ%j%lLlJk%LJ
12011I4jk%Kk%KlLjM%pMj%NjJjlJLkjjM%mNl%JJl%jJJk%%MnOmJl%KKl%m%jMLj2J2qQo%NrR
11996I4Mj4J2k4J5J5lrOj1J3j2PlM%Pj3O%K%mKoLNoJMoJlPMqOkjkPjmL%mLlLLlj%JLmKkjK
11982I5jj%JJKjj%%KlK%jjK%JmKJjjK%jKJkk%KkKlKJKlkLk%JKmJ%KljKJKlJjlJJkJjLmMjj
11966I2KKrJ0pKJJLJkoOkKkQko%JJJlJjKlJkKkKmOmLkJNqMlJjLmNl%JJ%kLJkj%L%jJjlKjJ
11951I5NlkK%l%%M%jkKjLj%JjkjkL%%%jJj%%j%JJkJjjKjKjjJlLKjKk%%jjLkJKJllKkLk%kN
11935I7JjJkJj%jJkjjKlLJKjj%Jjj%%kL%mQJljjMjnKKlKlJKjJJlJJj%kLkjkKkK%jK%jM%kj
11919I4Mk%%J%kKkjKj%kLjKk%Kj%Ll%%Kk%J%kNnJ%jkOpJMkJKkkJ%kJNm%KkJ%JjJkJJK%kMn
11903I6Klj%%j%JJjjKlLjK%kJJJlK%j%J%%jJ%%jLkKjj%J%%jJnJNjlLjlJ%Lj%K%lJJ%%jJ%l
11888I4jLJkjL%lJJJJmjNkjLkJLnMoLj%LkKKnJ%%Jjm%NKjmM%kQoMnLlOoKjl%KkJKjJlJLJn
11872I5MoMMn%mJ0Kj2LllJ1ljKnMKlmLjKkjJKjJKlJJ%JJ%j%jjJLkKkJJlKJlj%KjkLjJ%j%K
11857I9kJLlMljkj%JKk%%L%jJlkJJjJJLmJk%%JJJJ%JKnMlk%KJK%kkJ%J%KnJJJjJKk%jlNm%
11841I6Mm%JjKk%JjJkJJKmK%kKjJJkKjJjKnLkL%nJKjL%kMmJLmLJk%%JmJjK%jJJjkJJlLkMl
11825I6KlLJjj%%LjjMpLk%JjjO%lJoLkPlJkLlJjKjJ%%nLkKJkKj%KlJjJ%kJlNJJmJKkMkkkP
11809A02jkKjjKk%kKjK%kjMljMlMnJJJj%%jjK%mKLjkJ%J%KmK%jk%jKj%%KjK%J%jjL%jj%kL
11794A00Klj%Lm%OlmJK%kKkkL%kMk%JL%%kKkk%%J%kJ%kJ%J%%jJ%%KkkMn%LkMlJjJ%lJNlKk
11778I8%%%J%kMlJ%%klLkL%J%%J%%KjjLjjJkjjjLkjLJJklL%m%M%kJmOkMjllNLkJnNj0jLJ2
11763A07j1OjJllJlJ3j5jJ7mmKmMlL%k%jJ%jJkKlMkjNjlJ%%mKlJPlJKNpjmNJlMkmMJ%lJJj
11748A00kLJj%kKjlNk%%mLj%JlNklL%%%K%JkLkjjLkJj%j%J%KlNmJkJKj%j%jJjKKjjJl%Ljj
11733A00KkJlJ%KLn%LkJk%Kk%%Jj%K%jjJJJjJj%KkLmMjJkKjjkJ%lMjJkjkJ%J%kKlLkKkKLn
11717I7L%KJj%kK%kKJk%JJk%JJlLjkJLlLkJj%mM%kjMmj%KkNkKmMJkjj%KjMlkJKjLJm%mOoM
11701A02%mLj%JjJ%j%JJJ%kkMk%lLk%MoMlKJ%%jOmLmjK%KjJ%l%JjKjjMl%%JlKj%%Jj%kjKj
11686I9Mk%KJjj%JJjLjj%kKJl%Lj%%%%l%kM%j%%%J%lLlJLkJlMkjJ%%%%%jLmlLkMJj%jJKkK
11670A04lJ%%jJKmJKJJkLj%%jJ%mOmKmK%JjJlKKlL%%nLjJ%kJlNjkLjKkJJ%lJjK%jkKKl%Lk
11654A03Jl%J%JjKKJl%JKnN%nKKjJj%JkKmNjKl%lJM%klLk%JkjKKlNJo%MnjJj%KlLjJjJ%J%
11639A03kNkJnLMmnRRj2jPj0J2j9J1qMNl%KmOJ%jj%k%kMoLJjJJK%m%MlkKlJkL%Jk%%JJ%%K
11624A05KnL%kL%lLnLlNoLjKkJ%%%J%LnJJjNoLJ%%mKkLkKmMkJJlLmLKjk%Kjj%Ml%mLKmK%%
11609A03%kL%%JjK%nNKmJ%KmLkKkJJkjkJkKjJj%KkK%JkLjjJjJKjKkj%jj%jJJj%JKjJjMkjJ
11593A06%j%%kMmJ%%JjLkJJjkKjNoMnLJ%%lJjKJjlNpLkMJmMkJk%JJjJjjJ%%Kl%%j%JlK%kJ
11578A02KKklKjlNjJk%K%jLj%%lO%k%kL%lJjKj%Ll%Jl%%Kj%kNmJjK%kJ%J%jJK%%j%jkLjkk
11562A01LkkM%jKlLJJ%kKLpK%K%%JkJKlOmk%J%Kl%lK%mKM%lJKkkMk%%jJKjJ%J%lNpNJqPKn
11547A05K%%%JjjJMlJlJJjKkjKmKlL%JlLJj%%jjJjJj%Lk%jLjm%J%%%jKJjKLpOlkLj%LnLMn
11531A06%kLnKmPj1LQJ%jNjOqlRj4J6j4J4j6PmPoOn%%%%kNjlKjJJ%j%JJJjjkJjjJKJjlKKl
11517A06NoKKkkM%kJLmjJj%LlKkKJKkLj%%%%j%%%k%KmKkL%%kjKjJjlMjj%%%Lj%jjK%jKJlJ
11501A08%JmJJJjKkJ%LllJJKlNkJmJj%%LJmjKJKJJmJkJ%kKLl%%%LjkJ%Okm%Kjk%%%%%JJjj
11486A08LkJ%K%kjJkKl%KkJ%%k%NkJjJkLljKJkKmMkjJ%jKjJj%KlLkjKlL%%%J%KkjKj%lKjk
11470A06kKNjljJLkJNj0O%jjKl%Lkjj%jLJJljJLkLjkJkJ%JlMmJ%kNKj%JlL%lJKjJlK%%jJl
11455A08LKkJKmKJj%lJjKkJkKkJjmKK%jLjKjjL%%j%jkJJKnKJlLkMmK%%k%Kl%LKlLkKmOm%%
11439A10JnOjJkLk%kMk%jKklK%%JJJk%jJjJj%jJJJkK%jK%%jJJjkLk%jJlNkKkJkK%jJ%%jkJ
11424A10JjKjj%%%%j%KJJkKJ%lK%jJ%jJKlKJjkkKJj%LjjKlj%JkQnkKMn%k%KLnLJjlMjj%kj
11408A09%L%KlNlKkJkK%jkK%KkJlK%lJNoQonKm%OnLKkjM%lKMlJlLlJlKJ%%%%jJ%KkJkLnLk
11393A09JjJ%Kj%J%JlMjjJlLlJ%%Llj%%kLJ%jKJkkJJ%jjJlJJLkkNjjKJkJK%jj%jjLmKKkkJ
11377A12KkL%j%j%jK%KkJ%%%k%jJlNmJ%kLJk%%%JLjkJmLJkKlKJlJJJlLjj%KkkKJl%K%K%%j
11361A13JJ%%JlJkKJjKkjkOj%kKl%jjJKmMjJjLl%jJjJ%lLJ%JnOmmJNKnKJlJJjlJK%jLjJlL
11346A14%jjLjKmJ%LkJm%jJJLjjjJlJKjJkLk%%JJj%JJ%Jj%KlLjkKklKJJ%%%KJjLmJjKlLlJ
11330A16jJk%J%k%%kLJk%KlK%jLkJjkNJkkJlLk%KjlMjKjkkKJKnLkK%jJKoQl%KJlJjJ%LkJj
11315A17lLlJj%KJKmKjkMJk%k%kJ%jJLlj%kJKMjjjKmNkJjMkljLJjlKmjL%kKK%lMjjJm%jJN
11299A17qKKlLJkoNkOOj4KJ9j6oj7J2L3k5NJ3j9PqRqNKoLJ5klpjJ3mqLkK%KjlLjkLJmLJoL
11286A17Km%JL%jNj0Lk%%LkjjLlMLlJjJnOlKLlJjKlJj%KkMqLJjLoMjLlLlKkJj%jKkJjLkKj
11271A17jjKKkj%%JjMmkLjJlMkLmJKkj%KkKjJ%%jKLjlLjJjmNkJjkJjkK%jK%%jjJ%%K%k%%%
11255A16%kJKKjjLJJlJmJ%KlLk%JlMljLKkkLKnKJjJk%%JkKlJ%K%JlKJJj%%Ljkj%%jlLk%%%
11240A15KJKlJ%KlKJkLlJjK%jjk%L%JLnQlrMJLlJkLl%JKjkJK%j%%jkJKk%JKjlMlMlMnlM%k
11224A17%JLk%jKmKk%JKjKj%j%KjJ%%JkLkjj%J%kLjjKjJlLjKlLjjj%%LljK%jK%mJjK%JJJk
11208A19%KkNnJ%kJj%jk%KlMJKmLlKkJ%Kk%MlJkLjkLj%JjJkJ%j%%Kj%%klKLmM%jJkJ%%Jj%
11193A19J%kKlNmKjKjJk%k%NJjjlJLJ%kKkJJjkJLoMjKk%%jKlMmJ%NnJ%K%j%K%kKljJLlj%M
11177A24kj%jPqJLkRj3MkL%KlNlJkKmPqOjJoK%jJMqOmLqKPjJ%k3J9j4K2no%L1l5qJ1LjMnp
11164A09QPmoK%OmKlmRjjlOJmJLjkQmmMnMnKjMkkLkJkLllJJ%k%JjJL%j%MkKk%%JJkmOJlJl
11148A20%%%jKjJJJl%%KjlMKjk%JKKl%J%JlLk%Jk%LmKj%%%Km%LjJJjJl%LjjLjjjKJkKjj%%
11133A23JkjKjkKKj%JjJjkK%Jj%K%k%JjKlKK%jj%JjkK%%kK%kJKjk%%J%kLKkjMjL%klKLjj%
11117A27%nKJ%%LoJLj%%jlOlJJ%JnLlLJkJlKjKlKLjlJlLpJ3qLjk%JjKKmJ%kMlJ%lKjJJ%kM
11102A25kjJKkJJjj%MnLjkJ%jKkK%J%Jj%%Jjj%LpLJJlK%kK%KJlLj%%mM%mKKkJ%%KmJKlJ%k
11086A22Nk%%%J%JKjkKkJjjjJ%jMlJJJjkJjkOjjKmLJljJ%%jJj%%K%%kJ%kJ%%jKKjlJnQk%J
11070A27JJJlK%jkJKljjJLkjKkKlkKK%kkNJl%LJ%kmLjKLqJlJ4j1kLmRqJ0qpJ7pjj4L2j5j1
11057A17J1OjLj2jPjJkJk%MoKJ%JJljLoOJ%nLoNNpLpJMkKJmL%jMnLj%%jLjKkj%%%j%Lj%%%
11042A27%%JlJ%jjKjMl%J%lMkjJLlK%%Lj%%%jJjJ%Jk%KmKKjj%%jjJL%jlJJlK%mKLjoOjkKL
11026A30qLQloLM%JmnPjJlLkJ%%jLlKjJ%jOljkMk%kJ%jJJl%J%j%J%jK%JkJkKlJK%jJ%kK%%
11011A30Kl%%%JlM%kJjjK%JkK%LmLJkJkKjj%KlJj%J%kMpNjmJLlLjKjMj0NkMkjK%j%kKKljJ
10995A28jKKkJ%j%J%%jkMJkJj%JknOLkjMmNp%Lk%%JJmKJkjj%JLl%KJjJjLlJjK%%jJ%Kj%jj
10980A30%K%KlKkJJkLlJKmKKlLJ%jLm%J%kjJ%K%lLj%kKj%LmkKJjK%lLkKJ%%%%kLlkJLjkKj
10964A32%kLjjKj%%jJLl%JmK%kJJJJjJkj%%JKkJ%jLlJkKKkLmkPmkK%J%kKjJ%j%%Kj%JlLjK
10948A35lKj%%kMmJLmKnOj%%mNmMpN%KLnjJl%N%JKrMPpJNjmKjK%KjKmjj%Kk%LkJkjKJkLlk
10933A31Oj0J2njmKoQkPpMl%JjjKkLlMjKkJ%j%jjL%%%J%lj%JJkK%kK%kK%k%kKJjKlJK%%jL
10918A36kjJkJlL%jKjJKlkL%lNj%jJLjjJkl%KJK%%jk%KkkLLl%kKLlJjJJjkJJk%lKjK%NlJj
10902A36%jKj%%Jj%J%lLjJ%jJ%jkJ%jKmMj%JLlJkJjjkMkKlKJj%%j%JJjJjJ%jlK%JkLJlKJj
10887A36Jk%JkJj%J%KKjjJjJJknNNKp%%lLjJk%Mkk%jJKJlj%%jLk%Lj%jLKjmL%KKqJJ%lOjj
10871A37kJLjl%LlJKjJjJkKkLjmkJJJJjjLj%L%k%%MnJ%%j%Lk%%J%lJJ%%kJLlLJkJjkKj%Jj
10856A37Kj%kK%%jJ%jK%jnJJjLkJ%KmM%pPkL%kJjK%Jj%j%%Jj%J%oOlKMkjlKJKjkJ%jkKkKL
10840A41jkKj%J%%kLnLkJLkkkKLjJ%lKjjjJKJkLk%%jJK%n%JLJnNkLjjlkNpJKKJNj5J0nJLm
10825A34QnjLlJMnJPLmjm%JMnKjjKKLmlNkj%kNjkNnKkLKnKOpjMpKJL%lkMljK%J%j%J%%JjK
10809A43kJlLJjkKJ%lMmjJJjk%L%%mLkMjJJ%%kM%lKlJKlJjJ%jjKl%j%KjKlLlLJ%%jkMlLoP
10794A44mJJ%%%%k%jJNml%JJ%JjJJJkJJ%JlKKjlLkKjJJlJ%%%Jjj%%%%Jj%%lNmJ%J%JJjJlN
10778A46l%KjljMkJj%Jj%l%MkjK%kJ%J%jM%mL%%%jMklMmJLlNmMo%KlJOmj%%kLj%MnJjJkK%
10763A43jJ%JkJjKljkMkJKjj%JKjlNkkM%lOpNlNll%%jJjJkMjl%jMjJkKjL%kK%jjK%%KlJj%
10747A44K%Jk%jjJ%j%Kj%j%%%Kj%JkKJjjMkJj%KJkJmLnMlLjj%LJlKkj%jJjj%%LjjJ%%%J%l
10732A42L%JkK%%J%K%kJJklNlJl%NjkjkL%kKJ%jJ%J%KkJ%JmMjjm%%jLJjjLk%jkjMlJJJ%j%
10716A45j%Jl%K%jMmKjJ%JkJjKJkKkKJjMOnljKLlKnKkmLpOnJMMJkllOlLl%Jj%JjJ%kK%KkK
10700A48mjNlK%JlOj5J2NqPmJmlO%lJJnOkkNlJJj%%%KmKjK%jLjkKj%%%lKjJJKn%L%%lJkMk
10685A46Mlj%K%kJJJ%J%jjK%j%KnLjjLJmJJjNljJkMkkMkmNnM%%%lKkj%KJkJKkLk%%JJjlL%
10670A50jkKkOmKjJ%%JkK%%jJk%%jKk%J%KjjJjjLkLm%LmjL%%%j%J%KjkjKjK%jjJjjJNjjjj
10654A50%%lM%j%%Jk%%%%jJ%MnJLljMmKJjlKJk%%K%Kk%j%%KJj%%K%lKk%%j%LjjJj%jKMjm%
10639A50%K%lJ%%JjKLlLj%jJ%k%%%KLlKmkL%%%%%%Jj%kLlKlLJmJJl%%JJjjLJ%kJJj%JJ%%J
10623A55%jmKJkj%L%mLJ%jjJLlLj%jkL%kjJlLjjJkKJj%%%Kk%%JKl%jkLJ%%lRojNk%lL%jkJ
10607A52jkL%KlK%j%K%%k%j%kNj%jLkJkLjjL%mKjKj%%JjjKk%jKjJlN%JlJKlJLnJJnOjmLkL
10592A55Kk%n%LlJ4j0QqjLmKkJ3j3mKL%kNLJmkMkkKkKjJk%K%kJj%lOk%lPpNm%KNkkkKJ%Kk
10577A57lKjJJjjKjKkLlKmJKkjLjKj%Jk%JKj%K%kKJk%klJJlNmLkLkM%lKjlKJ%k%KlLpN%%j
10562A55%MljJkNmLKnLljLklRkjKnPjqM%JkLjJlMk%%kjLnL%MpO%JlL%jkJjJjK%kj%Jj%J%k
10546A55K%J%kjJJJlKjK%jj%Lj%j%%JmLJ%k%LkJ%Jj%jJKlNlkJJ%%kMmL%jJJjkMjkJJkLkJj
10531A60oM%KkJj%jKJjKkJjjLJkKjjJjkMlLlJ%kjNnjKLJoKJl%OnKjKJk%Jj%mLjLlMm%K%KJ
10515A62%m%kKK%jLkJ%lKkKjKJJkLkj%K%JnJ%%jjKkJJjLlMmK%kLlMjjKJk%%J%j%k%KjOkjj
10499A63jLjKj%%%jkJJ%kJkL%%jJJjj%%%mLL%lJ%jKjJ%jjJk%%kMkJ%%%%jKjkKl%L%MlJk%K
10484A64kK%klLKkJK%jJlK%KlKkJj%LmJJKjm%JMjlLkJlPpJJJkjjM%jJ%mNPj2MoQpJLk%%Ml
10469A62JJkJ%j%LjKkJjjLKmjMnjOpJJ5j4JMrPKjjJjJJlJkMj%k%J%kkMkJKkJlMj%JKl%LkK
10453A68kKnKJjjL%%jjKkLk%JLmKmKKlK%JkkJJKo%MlJKjLmLMnJJoMkNl%JJj%kL%Kl%%jJK%
10438A69Jk%JKmJKlkNpOkKlJ%%JKmJkLkLlJmLJJjLlJjKkMkjKkjMlj%j%Mkj%JkKkKj%JJjJk
10422A67j%LjkJJ%jJJj%%KjJ%%Jk%Ljk%%L%lLjK%lJl%LKjJmjNjkkJ%JJljNnLKkj%%Km%%Lk
10407A68%kLkMmLnkOlKlNlJKkLkJJkKmLKjJjjK%%jKkJmNlMkjL%kKkk%jKJjjLkjK%lKjK%jJ
10391A72kLkJlJK%J%kJkjLmM%Kj%jKkjk%LlKKkKjjL%k%Kk%JjJJJlLmKkJ%%kJ%%%jJJ%%lMJ
10376A74K%KnJK%lJjjj%kKj%JkJ%j%K%JjjMk%k%L%jJ%%Jj%%%mNk%JmJK%kM%%%KkJ%jKjK%j
10360A76lPojPjj1K3rnnKLKoJ%JNjj4JQlLpNlRmLJnjMmLkJKmL%LljKlQllj%kMmKKjloOL%J
10345A76kkKkKJJk%Lj%lLKk%%Km%KjlKKkKJkJjj%%K%%%jjKlKKkKjJKlKlKJ%nMlLkLjJkKjJ
10330A78kJj%LmKLkJjlJKJl%KKmJ%jK%jLjjJ%mMjJ%JklJ%KKlK%KklM%j%KnM%kKjjJ%%jkMj
10314A79kJ%JjkKjJjkMjKjjkLj%jKJjlLj%JlJ%%%JJ%%jJjKlKjMoLLKlJkjjKkKjkJKkjLJ%l
10298A78%LjkjLkKl%kPnKLpK%JjJLJj%%jK%Jj%j%jLJjjjKmjK%Kl%LLmJ%llK%KjJj%kLJ%J%
10283A82kJKlKJjKl%Mm%JkJ%Jk%J%KjkLkJk%JJ%j%J%%j%jKlKkJ%%JJkKLklKjjJ%lNjlJ%Lm
10267A79KLkKl%JjLJJk%JjJJkj%Kj%%%J%kKj%%lJKLmk%MkJL%m%JkKlKJjJkJ%kLJmLJ%%kLk
10252A84K%lMJmKkjJ%KkkjLj%JJ%%jLjjJ%kJkMmKJJlKK%l%%K%Jj%JljLj%lNkjJllNJlJJkN
10236A88jkJ%jJlKjlOqK%%NkJJJoLNn%MolLRj0RJ9j5Jj1JJ1oj%KLlo%LnjLlJL%LjkMknLMk
10222A88KnLlKjLjj%JjjL%kK%jjjJLk%%JJkLLmJjJ%j%J%lKlLkKJlKkMnJjMkK%mLJJJk%jjj
10206A88JKkLkk%KjkJL%ljJ%KkJJjJlKjJNoKjjMlJJk%kNoJKKJkkKkKlMkjKkKMkjJKjlKKmK
10191A92j%%%kLjj%JJKljK%j%jkKkJ%kKL%%Jk%KjJnNk%NmKkjMlLmOjKoj%jLlNljKlJJlKJk
10175A90L%KkKlKmKjK%%jJj%LmjNrQjk%KKlNkKjjjjjM%jj%j%JkKlLlJjKj%jLjKkKj%kM%Jj
10160A96%jKlLmLjJJJk%%Km%KjlL%Jkl%MpO%LkJkJjJKjkJLkKjlNjkNm%Kk%JkjL%kkK%%jjK
10144A96JkL%mLJ%mLKlJlJLk%KkkjKjMnMljKJJmLJkJ%lOmLmL%JJkjNnKjMkLlMlpLJkjKMm%
10128A96LnLjkJ%KrLMj%Ll%L%Qnl%mKj2OR%MPj9jJ8mK6j03O4k2mM8k8M1l1J0jmjmkJ1mmQr
10116A94lKkQmLjM%lMJlkLpMLjKoOpPmL%LnlK%JJ%LjjkKjkjPl%JJlNmMmjKjjJMmJ%kMJ%mJ
10100B02%KkJ%kKMlJl%jJkKjKlJL%jkjN%j%LoJj%kMlMKqOljOLk%LnJjPj9J1oJ0jnlJPqL%K
10086B04KmL%jjKKkjmN%Jj%KlkLjJJKnj%LJkJj%%LjmK%K%kjJj%%MnKJ%JkJ%JkkKj%JkkM%m
10070B00JMl%%%lOmNnJKkLlJJj%Lkj%%MklLjKjJlMj%jJJ%j%jlJMmMj%JjjKJk%KkJ%%kJnN%
10054B06jjJ%%JjlLJ%MlMjjjKjjjJj%KjKkJj%%Kkj%Jk%J%%jJJJjJj%jJJj%j%KjKk%%JkLJK
10039B13n%Ljk%JJkjLJJJ%KnKjjjMk%lJK%kkjMKjjjLlLJ%%jJlMjj%%kJjJ%%JjjkNlnNKlLj
10023B11jkMlKKlJkMl%%JjLk%%j%kJk%K%%KJlLjj%kMJjJlKLk%jMjJlLljLKklLKljJKpMJlK
10008B13J%lPoMljkNJjjJkJLpJQlmjlQj1J0jJmKkJkMj%kM%kJ%%ljLMnOmJj%%KmOkJnJlNoN
9993B14lLlLjJ%J%Kj%LmLkLljJkkK%JJ%mLKlKJmKjKj%kK%lL%JjMkj%j%jjKJ%kLnLj%%LlNk
9977B17j%J%J%JKkkjKJllNl%K%jJ%j%LkJj%jLl%JMmL%jjKkLkJlLkLj%Jk%kLmLkjKjK%%MjK
9961B24m%KjJjk%KJ%k%KJjJkJJ%j%%%jJjkjNk%%JkNlJk%%jJ%JjJkKJmK%j%JJ%%jjMljK%kM
9945B24%jkjLL%nL%Jj%JjjJJLnJ%JjJ%jlLkjLk%J%KjJLoKJjJkKK%kJ%%JJl%J%JkMpNk%%kK
9930B25mKK%jkjM%JJjKlkK%k%LjlKj%J%JJkJ%k%Mj%jKmkJK%j%L%%jkJjKJ%jJ%j%JKjjJ%Jm
9914B24KjM%lKjjjJ%kKKkkLJ%%jK%J%jkJLjKkkjJjj%JlM%%KjJkJ%KkLj%lJJKnKlJ%Mjj%lK
9898B28%jJj%J%JKj%JJ%jjlKjjK%jKMlKllMnOjrJ0oJ0lokjQjlPnjKlMj0PlkQoJ1rPrM%Mjj
9883B32jKlj%Lj%kL%KkJlKkKM%lLmNoKkMkJlJ%lJMkjkK%jMk%%j%LljJJklKM%jKjJlLjL%k%
9867B34KnLJjJj%Jj%jJJjj%kJMjkJj%KkJ%m%%O%%jjkJ%J%Ljj%JkJJkkKK%kKKjklNjJnOmNk
9851B37K%nK%%jjKjJJJmLlJkLk%KJlKj%LkJjLkjKjjj%KjkJK%JJ%kJ%j%%KjkKJjkL%jKk%JJ
9836B40jkLjjjLkLjjJlLJmJKJlKjlLJmKJ%lKj%LjJjkJJjjLlK%kKJjlNjJlLk%kM%LkJk%K%%
9820B43LqMnJJKkLlKlJ%K%jLmL%kJJJlLljMjKj%j%jJ%JJlKK%kjKlLkJj%jJ%Jk%%JJJj%%Kj
9804B44%Jj%%%L%lLlKJjk%jJkJ%jLKnJJMk%j%lNJjJkMljKlKJk%Jjj%J%j%KjmLJjJ%%lJLlK
9788B46j%%J%KkKlLkjK%%JJmMk%kJ%lMj%JkMjKj%%Jk%jMkkJjkK%%jlKKj%Jj%LKklMj%K%kK
9772B51Qq%Jk%%%kJNm%%L%lJJKj0J0mj%OJmJkJ%Jj%lNj%njNKoJM%qjMQ%j5K4j8KNJmNnL%r
9758B45J1jnOoKLkjKmNmMKnLj%kK%LnJkMjJJj%J%kJ%%J%j%%%%%jJjJjjLnKK%JjjkKLkjjJ%
9742B54LjJJkLkjJjKJlKlPpJ%%lLkLmMkjjLl%M%JkJjMkm%LjkKKkJlJLjLJljjK%jjJj%%Lmk
9726B53Ok%kJJKmJMk%%jJkLJ%%jJj%KlJKnMnLjKjJjJkMmMmJkMl%jLkK%KkLmjLJkNjjkK%J%
9711B63jJlM%JoNJkkNmLkLmKjJkj%%kKkKJ%MnNjmJJLj%KnJJJkJJjJjJl%KlKk%j%JKjJJ%%k
9695B62KJjKlKJ%lJJjJjjLkjK%j%JJjjKJlLkLkLjJjkJjjJ%JjjjMkjJjKlKLl%jkJnP%lMjMm
9679B66jMJkKlLlMlJJljLKkjJ%%mJJkL%KkK%Km%J%kJJ%%%JlKlKJkJjJjJKjJnKjMJJlMlKlK
9663B71jK%kJ%kMm%%%LJ%jJlJlMLkJk%JnPklM%%oOrJ%PmOmQj1KN%lkJNj3JJ7j1kJPJmMnPn
9648B74kK%J%nOmJjKKlLpL%KKmMkKnlRNnmkLJkJLjjJK%JJjjkJjKkjKJ%kLmJK%jKmK%%JljM
9633B78l%%KjJ%jJKjKkJ%JkKjlK%KkJ%JJmLkLnMjj%Kj%jK%jj%%%KkJjMlJJMlNplLlMJJ%%j
9617B82JjJ%KlkJ%%NJlMmLlKJkj%J%jJlJJjJjJj%%%%lLJjJkK%kj%LklMj%%jLjJ%J%kJ%kKJ
9601B85kjMkMmLjMlkkLkK%JmkLKLkkMm%JJJjj%%k%MqRjKlKklNkJ%%%j%JjKjJkK%jjJjj%Ll
9585B86KjOqkOLlkJMkl%KKl%kOkjkJLk%jlLkJKkKJ%j%JKlKkkNlLkjKkL%jKmKkJKj%KjkKjK
9569B93JkLk%%JkkLJ%%KpLjMkJJKpKkLjJkJjKKjjJj%M%k%jJJj%kJKl%JkK%LkkJK%Ll%jKjj
9554B95%JkJjLlKKmK%k%%J%J%jMmJlNj%%jKkjLj%Kk%%JjJkKkjLjJkLlkKJjKlKJKjjJJKjJl
9538B99jJL%o%LkjOkm%KOmlNjJl%J%Mk%Kj%Jjj%JkKkJKm%jM%%%jjNlJqnQJQrMkKj%JjkLLm
9522C02LjLlJLklKjKkkLkKl%JJkLljKLkKjj%KlKJkKjJJjLjj%JjjkLKljJJkJ%KlLjmJK%Nlk
9506C06MmJJjjK%%kNmLjjJ%KjkjJKklKLn%KjKjJ%jKkNmLjJ%%jJj%Jk%%J%%J%%jkJjJK%jKm
9491C08J%%Lk%J%%jjJkJKjK%kKKk%%KmMk%%jOl%jLlJkKKj%LlJ%jJKk%Jj%j%jJj%mKK%Ljk%
9475C14MkkJJJJlMlj%JJJjJ%jkMlKjJ%jkJJNpNkkj%%Lj%jLjkKJ%kK%lKJ%%k%LmKlK%kMJlM
9459C21kjKjMmKJkjjJ%J%%j%%KjkMjk%JJj%jKkLjj%JK%%jLoLlJM%lKkjMlK%Kk%%Kk%jJkLj
9443C23KkL%%lKJkkOklKjJkLLjmMjjjKJmKj%K%LoNkLj%j%J%kK%kKkJNl%jLjjJJkjK%kKJJj
9427C32lJ%Nljk%jlNm%JlMMjjnJQolJ1Kj9K0Oj6j3J2QqpMRk%MrMOpoJ2j0L%kkQ%%jlNkL%J
9413C36j%%kMkjjLjjjMmjLNn%mOJojJ%LjkL%%%%%kjKjJmLjLk%KjJJk%%KKjKkjMkjJ%%j%Jj
9398C37jJJ%kJKk%j%jKkMjlL%Kk%j%KK%jj%LlKJJl%JjkLJ%lJJkKJJkJKnjMlkL%jjL%jKj%%
9382C41%J%jK%KoLJ%k%KjJkL%k%%Jk%JKKkJJJjJj%jkLkKk%KjJLlKj%kK%JkJKjj%KKllM%k%
9366C47%jKkK%JJ%J%lKkj%jlPl%kNkK%lK%kNmLJpkPnLK%%KlKjLJlJkKKk%%%jjLkNpMjJJNo
9350C53oP%%%Jj%jJ%kM%Jl%JjJj%K%jjJkJkKLKlkOl%JjJkJKj%Jl%%KKj%%%JlKlMnLj%Jj%J
9334C58kjJJj%%MoQmJ%LlJJjJjKKkMnLJ%JljJlNkkKkJjJ%JkKlJJJ%j%jK%kJlMjjLJk%KlLj
9319C64j%K%KjKk%%J%%%KljLlPm%jKlLjLnLjnL%%mJKj%L%%kJ%kJj%%%LMoMkkJLlM%%nPk%%
9303C70%JKjlKJkKjPpj0RJJLljj%NMj1KmJ1jqJNoOPj0JrMQnlMPnMj4j3M1j8j0L6o1L1L7k5
9290C81k2jK3j2QjLRj2JjKp%QKmmJ4j1lRp%LkKkmQ%pLOmmM%kjkMJj%kJ%jNoLKmK%jJJNmj%
9276C78JjKjkJKJ%jJKm%LjkJjL%jJ%nMmKL%%lOoOkLJlKJkjkKjJjK%JJl%jKKlMmLmLjlJ%JK
9260C86j%mK%nMLlL%JjKkLKoJMjjJljL%jJKjJ%%JjKKmJJJkJjlKJKmJLjkMnM%kJ%%kJ%JjJj
9244C90lMkKkLlL%%%JKkpOLJmJnNl%JJ%kL%lKJ%LkJ%J%jL%%kPoj%KK%oLMmJkK%kj%OmJ%lJ
9228C96Jj%JjOljK%mL%jjJ%J%J%jLkK%j%KjjKk%KjjJ%KmLjkMjjjKkJjKkJ%JkLkJkjMJjLmK
9213D05%jJlLkjNlKjLjjjJ%JKmMkjJ%JkKJl%Jj%JkJLoKLkJJjJ%JJjkNllJLlK%jMJlL%j%jk
9197D09JKJj%Lk%lMkj%NjjjMn%JkLl%LjKkJkLjJ%lNl%kNnPmmKNLlnRqMnNqJ2m%llKnRpJ3k2
9182D02K0olJ0jjkjMJmJkjNlKk%L%k%%LNmmKOlpPkmL%kJ%J%%%LJoKJ%%%%%Ml%Kl%%%LkJ%K
9166D27jkJ%j%Kk%Jj%jL%%%%jLj%JLmJ%JlOkj%Lk%%lMj%%%jKkMljK%%kkN%m%%jL%kONj0JP
9151D37njL%k%KjLj%%lMkJJlKmKjjKMkl%LjjJKJmJLjkJMkjjMjkjKjl%L%JkKjjjK%K%jjjLL
9135D41kJ%jjJKjJkK%jlLKkKJlK%%%KnJK%jjMLlLoKjJLlkL%KkOpnP%%lMlLkJlLlMlKjJkL%
9119D46J%%J%jLlJmNKkLoOlJj%%lKJlLlLkjJJjK%Kj%Ljj%LnJ%JJ%JjKjJ%%JJlJJ%jK%kLJj
9103D57%jJ%kJkKj%KkJ%j%JJjJKJlJnOmMkKkKkkLkMLoJjN%lKlLjLJljJLmMm%K%jjJJk%kKj
9087D59K%jKKm%KjMk%JJjJJ%JkKJkLJj%lKJ%%Kl%JkjJJjJJj%jK%%%JJ%jj%J%Mm%%Kk%kNJn
9072D69LjjKkLjmK%kKOpPkLo%Lk%jNnMlKMqMmP%lLlLKkjKkJJ%mLKKj%LjlK%%KlnQkrOjJPm
9056D81KKlJmLkMnKKjjKKnK%kL%kLjJJ%lJKj%kJJJjjJjMjjKlJKjKkKlMlKjjKjJ%%%kJJkL%
9040D89j%KjJjjJjKmMKmNnJjJLJjLk%Jj%KjLklLkKjKJk%J%jJJ%j%lLjkkLjLjNkjJjJjJkLl
9024D96kLJlLlLjJjMlJJnKJ%kKKkKKJk%%jJjJ%JkJJJjJJKjlLmLJ%LjJjJ%kk%kMk%OnJJ%%K
9008E09jj%%lLJjKjjkkOMlKk%Kj%jKk%KlJKjlKJK%JkJj%K%kOklM%%lJ%lNk%jKkK%jKjKkj%
8993E15KJlMmLJjLJjj%k%J%%%JlKjkJK%%L%%kL%Jj%%JlKJ%kKKk%lLl%L%kjJKJ%%%kJMk%Lk
8977E27%jkM%K%JjjjM%kjJJ%K%l%JJ%Kk%MllKkLk%KKl%%JlKJjJJ%JJLl%KkjMjjjjJJjjLJk
8961E37%K%jJLkJkJ%jKjJ%k%Ll%jJ%jLMkjJMkPoL%q%lKLMj3MJ0qOrPjjMJrQQkrMQrJJOll%
8946E48JjMmOnKjKlkLJ%jLjlMoPllMKjJ1j5JJMmKLJjlL%jJ%JjlKKkjLJjKlNk%mMlLK%jjkM
8930E61j%%%KJjKjjkMjlJ%lJKjJ%j%%JK%KJjKjKlLJl%J%k%%KLlkJL%kLjl%JJmONlkL%jjJ%
8915E72J%jJkKj%jM%jkMkJk%LJlL%lJLjJlKJj%%%%kJj%%kLJjKJkMlKjKJjKkj%M%kjJJjjJ%
8899E82Km%K%JJkJJjJKkKJ%kjL%JmKlO%JjjjMlMkJkJoNLmKKkKlKkMJ%lL%Jjj%jJk%%jN%j%
8883E94KjjJKnLnPjlNjLnLJKkKjKlL%Ll%K%j%J%lKkJJJj%KlK%jKj%J%JkjMjkKjKjJJJjlLK
8867F10%mJJLnNjk%Nk%kjOoJM%klJMk%JkMn%OlJkMjj%jL%jJJjJj%J%%%K%JlK%KJlKlLjKLo
8851F18%MJ%lKjkNlLjKkJlLjK%%jKl%%jKOnKjkKj%KkLJjK%J%kK%lJJKjkMjj%%OoLMmKjJLk
8836F37%kjjN%J%ljKKjKlM%jOnkLkKlJjJKJpMJ%LkJJJjj%nK%%LJJlJKLpRqQRj4KJKNj3Rl%
8820F48LoPmMlJJk%jM%kjKJjJ%kJJKJKk%Lj%J%%jJk%Lj%K%j%kL%lOljKkKJMmJlLlL%J%lLk
8805F62jJJjJK%%KjjKjJlKlKLkJkKJ%K%j%jLjJjJkMlJJ%%JJjj%%KJjlMkJKk%L%kJKKKjlMj
8789F81KjJkJJJ%kLlMk%jMJlKlKKk%kMlKjjK%j%JMkJjLj%KjkmNmLlQmlJJOpKLl%jMk%Nm%l
8773F90KMm%OlLKm%K%JJ%l%J%%JJ%%%%JjKjJJJnMK%jMKlKjKjJ%KlJnMkLkKjLlJKlKjlLJkL
8757G12k%%%L%J%KkJJ%LkjJkJKj%KkjJ%jMkLlJJMk%%Jj%kKK%%%kMk%%K%k%MlLjNkmLJlMj%
8741G30KkJj%%KlKjKkJ%J%%K%JmJjOj%LkmJjKjMJJJ%j%jJLjJjJ%jJJlJ%JNlJ%jLl%K%J%j%
8726G47JJ%%jK%mMJlLJlLmKLJkJJJl%J%KjjOnJjQon%lOQm%lMkjkJ5mJoNj3J7j2MmOJ%lJ%O
8711G68Kl%mK%KjJJjJjKjkM%%J%NonOLjljNjjMkLjlJ%%Kkj%%J%JlPmNmLj%%JJKlJlNkJjKk
8695G80J%KJ%J%KjJjkMkJ%lKkK%LJ%kKj%LmMnKLkK%%KkMKk%kL%jJ%NljkKjNk%jNjLl%jjJK
8679H04kMpOJj%OnM%kKmJKkK%Jj%JJk%JK%kKKlJ%%J%JLjmLkKLlKJ%%KmLjMkjL%Kkk%JjN%j
8663H24KkKk%MJlJJlMJmMLkkJMkLjlL%JkKKJlKjLNojMlKKl%K%JlJKkKkLKk%J%JJJ%%jJkjk
8648H42OljMj%%KjJ%KkLjKJKkKJjKlM%ljLj%j%K%j%jJKjKjJjLlMk%JJ%jLKl%%%LlL%%kjMJ
8632H69%KlJ%JK%jPqM%JkKJjJ%K%J%kKKjjKkK%KkK%kJ%JMkJk%%%JJL%%lKKLmjKlMMm%%%%J
8616H92JJKJ%kKLkJ%jLj%%%%KkL%jKJ%%j%KlJjLkJ%j%LKl%JJjK%%%%%JKKj%J%kL%jjJ%LMj
8600I20kKoMJlNkKK%lOJ%KrPnJNnM%LlM%kNoKJ%KJjJjJ%k%lMlRj%RpJm%%KjMjkKJJj%%lMJ
8584I44kLkMmKJ%%Kj%kL%LJjJ%jKj%LkJJ%%JJKkKj%JjjMK%nMkLlMkJjjMKkjJ%KLlJJJKjlM
8569I72JjL%jnOJkJJj%JJ%J%%kMjjJLkK%NmJ%LjjK%JJj%jLJjKkLkJ%%%LmJjJKj%JKjLjJJJ
8553A000Kk%KjKkK%kJKKk%KlMJkNkJkKKkjLKkJ%%KlMJkKKkJJJJkkJMjjJKJjJlLLJk%MkkjL
8537A028KKjLnJKKlJ%MkjJK%JLkKkJ%MljjN%kL%jJ%KlLKLlK%K%%J%kJLkJJjJ%M%jkjMjK%J
8522A061lLjJ%JKJ%JkKj%J%JjJ%%K%J%jJOJlJKkJ%lJM%%JlKJ%JjLJkLkJKjKlOJpN%L%JkKM
8506A096m%KjJjjMjLJjjLJj%J%Kk%%L%JKkMlKJK%%Kjj%K%%JK%Jj%jJjJJLlMjK%kLjLkKjMn
8491A123PlJ%JkK%kMjjkNJKnNKkJMLp%KJJLNm%lj%PLkqRj0NMPlj0J6okKJm%JLLmOkLnK%%L
8476A159jJKj%M%kKkLKJjlPmJ%MkKRpJoQj%LlKKlLJJLlLkJ%%%L%Kj%J%jM%J%lK%KJjKJjjK
8460A197LkKJJ%jLjjLJ%%JLjjlOk%KLj%LjkJjMkjKL%%%K%NJkJk%KjL%JjjMjJ%K%j%KKkKJ%
8445A237jKKjLkKKj%KmKMkJLkJJJJLjJk%%LKkJj%JK%KnLJKLmNjJ%KJjJJkLJjK%JLjJ%L%%j
8429A278jMjLjJJK%%kNlMjKkjPjkjNlL%%JMpMj%MoJMLmJJLK%J%KjJJJK%k%KK%J%LlJjLJKl
8413A319JNoOnQlJ%%MjJJJJlKKjL%JMk%jJMJmKKKlMjjLJkM%kL%KkKKKjKkKLlK%LJkJMl%%J
8398A366LjJKJJ%LjK%jL%jKL%lKJK%j%LjNkK%JJ%JJJ%LjMlJLKjjJLmM%%LjkLmJMkKkMj%%N
8382A417j%LKJjJKlKjN%%mOJKkKJJ%kMJJMkJjKK%KjJJkLj%JLk%KkLL%%MnOklOk%NkLJJ%%%
8367A467%%KNMmJjk%LmN%JJ%NJlJPnJK%KKNjnMmOmKN%kNlKJJpLLkmJ8j2oJ5PRk5mJ9nMNKj0
8352A513J0%oLJKKlPjMlkKKkMjMmMKkL%JLjK%jNkKJkKKJ%J%J%JKJKJ%Kj%jM%JkMkLKkK%JK
8337A574MkJMlNj%JKj%KkNkNkKKLmLJkM%jJJJ%%OjkM%jM%%%LJJ%%L%JKLlMjJJjNkMkjKJnK
8321A630PjKjJKjL%J%MkJLKjKJ%KLjJ%JJkN%%%%OkMlLJ%J%%JJOk%KLJKkL%JLjJ%JKKlNjKj
8306A699M%J%kJJLJPqPJkjN%JJkLJjJLK%JK%JJLjLjLkK%JJjM%M%J%LjKLJjMkM%kLJJMjLjJ
8290A770jJ%MJJ%KJNlLjM%JlLJjJKJjKKL%K%JJkLLmLL%MlM%JJJjM%%JKKkL%JKJLjMJKJ%%M
8275A843%%KMmkJ0kMlKKKkNj%OlMjJJMkJKJJKLjkN%K%MJJkL%JJJjJKOjKJjKLjJLJjJJKJ%O
8259A922jK%LkKLKlM%KjLKjJJ%JjMLMkKNkKLjKLLllRj%%%KPjmJ4oRjPnmLNj3K7j8MRqqJ7k3
8245A980L8pMkrOlm%J0JMqQpMMpNLJJjN%LJkLJjLlMlOLl%QmNJNlN%K%JKMjMjNlKJJ%JLLjL
8230B081JMlMjLKjK%J%M%LKLJ%JJLKJJKLjKK%%MLk%KJKJK%LK%M%LjQmLJ%JLj%%QmMJ%KKNl
8214B173M%OJknQ%OkKNkjMjLJJJJKKJ%N%LJJ%LJMmOkLLjLLJKLjK%%N%JKMj%KKK%M%JKLKKk
8199B273LJMjLMjJJLJJKJ%LKJLjN%LKjMj%JNKjKLKN%lPJLMnNKJ%K%JJMLmRLmNJ%KKLJ%jMJ
8183B383LjKK%KLKjJMLKKJKKLLpRlKP%KKK%NkKNjKMjJLJMJJLLKjLLjMjLKLjLjJOKJKjMK%L
8168B501LKKJLJLJKM%%LjMKKLlOJJJL%M%M%L%MjLjMKKKMKJjMNKjjPJ%LKkLLJNL%KJNLL%JK
8152B629L%%ML%N%JMLK%KKJKJjNLJkMKLJM%LKJ%KKLNLjL%Oj%NMjMJMJJLJK%LKJLLKK%MLLJ
8136B762L%MjL%LJOKL%JLKMLjQkMjNlNN%L%KJ%Q%ML%jPJLL%LLNjLKLJJMKNkPjKNjMNlLKMK
8121B911JKOqLNJQN%LLjNLjNKK%NJjNMJMJKLMmNKMKKJNKKKNJL%LLJLLMkMMKJJMLjLOjNjO%
8105C067LMML%NJLM%NjMjLO%JJOLJN%O%MK%KO%PlOjKLLMJPJJLOjPkNMkMNJOJNJLJOlMM%JN
8090C242KJNKLNMKJMNKJJLLKMKLML%OjOJNKLL%OJMJNKLMK%NJOJNKKKNJMJO%LMJLOjJPkNMK
8074C431MKNKJRk%OKLLMNJMKPkOjMKKP%LMNL%JONLLLKNJLNmOLKOJOKLLR%LK%MJ3mKOJjON%
8059C633KLPK%NNJMKMLMMMJNLJNMJNJOLLJLOLLLLNLMLNJOKLKMJOLLLOK%NKOOKKNKPKOJKPL
8043C863J%PKKNLOJLMLJJ0JOjONJP%NNKMNJMNKOJMMOKKKR%MMLNJOO%QLJKOKPL%O%QJLLQMK
8028D101LOKNNLMMMKPJNMPMLjQMNKLLMMMNLMLOLLONKOLLNNPLMMMOJLLLONjJ1pJ6mJ1K%J0m
8013D351J1N%KPPNLjQM%J0J1KJOOJPLLQ%PNKOLMKOOPLNMJOKPNkR%J0MNMNJMJ1mJ2kJ0PNjN
7999D624PNNOMMLLPMLMLRKMONMMONPKOKQMPNNMNLOMOMLNPOMONLNJQLNOOLQKPOLPMOPKMOPN
7984D955KPMOOOJQKNQONOJOPNNNNRJONLJ0KMJ0JNRNNONQKOMRJRJQLJ0NKOPLJ0JQOKRPNNMQ
7969E296OPKRLNOOONMOLJ0ONPMQQJRNNQLROOONMOOPPKQOONRNMRPNMQQNOPMRNNNR%J5KNJ0L
7954E681RMQPMROJPQLOJ1RJNJ0PPMQJ1LOONJ0PNPQLQQOPLRPMQJ1KJ0MRQLRPQNNRMJ0PMNJ0
7941F076RNRPOOQQJ1KQPOQQQORRKJ1NORQPROOPRPOPPQOOPRROROQROJ0LPJ2OQOQQOJ0PQQQJ3
7926F545LJ0NRPQPQRQNRNRJ1RQPRQOJ0RQPJ0MJ0RORQJ0J0OQQNQRJ1J0J0PRJ1NOQJ5MQNRJ0
7914F987J0J0QQJ2NOJ1NRRRRRRQRRJ1QQJ2J0PQOJ3J1MJ0J1J1QRRRJ1PJ1QRRJ0J0QRRJ0J0J1
7902G439QJ0RJ0RPJ1J0PJ2PJ4QJ3OQJ1J0J2J1RJ0J1NQJ4J0QJ0J0J0J2J0OJ7MJ4NJ8PRJ1RR
7892G868J2RJ3PJ5OJ5NJ1J3J4OJ3J1J0RJ3RJ5NJ1J1QPK3KJ8RJ4J1NJ6RNJ6J2RJ2J2J4PJ2J3
7882H335QJ5J2RJ2J0J2QJ3J2J0J1J3QJ5J0J3J0J2J1J4J1J2J1J3J1J0J4J1J2J2J3J4J2J1J2
7874H752J3J2J4J2J1J5J0J3J0J5J0J3J4RJ6J1J3RJ4J1J3J5J1J4J3RJ7J4J0J1J4J1J5J3J2J6
7866I205RJ6J3J2J5J4J0J3J4J2J2J2J5J2J5J1J5J5J5J0J4J4J6J4J3J2J5J4J6J3J2J4J6J1J5
7858I674J3J7J5J4J5J1J6J8J7J0J3J2J5J2J8J4J4J5J4J8J4J2J7J3J7J4J4J6J4J3J7J5J4J6
7850A0171J6J2K1J0J8J6J4J4J7J6J3J8J6J4J6J7J7J5J5J5J5J7J3J6J5J6J6J9J5J6J8J6J6J7
7842A0706J7J6J4K1J7J3J6J9J6J9J5J3K2J9J3J9J4J9J8J5J6J6K0J6J5K2J9J3J9J8K2J4J4K4
7834A1289J8J3K0J8J6J9J6J9J9J6K0J7J7J9K0J8J9J8J7J8K0K0J6K3J6J8J9K0J4K3J9K3J9J9
7827A1915J9J6K2J9K1K1J5K4J7K1J4K6J8K4J9J7K0K0K2K0K0K0K1K0K5J9K1J7K0K3J8K0K0K2
7819A2596K1K2K1K3K1K1J9K3K1K0K4K0K2K2K2K1K1K4K0K4K1K4K1K0K5K1K2K2K2K8K0K2K1K4
7811A3341K1K4K2K2K6K0K6K3J9K6K5K4K4K3K3K3K4K6K0K5K4K0K9K7J9K7K2K4K6K5K4K6K6K5
7803A4151K2K5K6K7K3K8K3K7K4K9K3K4K8K7K6K4K8K9K3K7K6K4L1K8K1K5L2L0K1K9K5K8K8K7
7795A5039K6L0K6K7K8K6K6K9K8K8K8K9K9L0K7K9K9K9L0K9L2K4L0L0K9L1K9K8K8L1K8L1L3K7
7788A6013L2L0L0K9L3K8L1K9L5K9L2L0L2L1L1L5L2L0L0L0L2L2L2L5L3L1L5K5L6L3K9L7L7L2
7780A7091K3M2K7L6L1M2K8L6L6M0L1L0K6M8M3J8L1L7M1L7L3L6L5M0K6L8L9L3L7L5M3L3L6L3
7772A8271L7L8L3M1L7L8L9L8L6L4M1L6M2L7L8M0L7L5M8L7L3M3M1L5M0M0L9M0M2M0M0L9L8M4
7764A9587M1L9M1M4M1M0M3M2M1M3M4M1M5L9M1M5M2M5M1M2M6M1M4M5M4M5M1M7M6M4M8M6M1M5
7757B1050M6M5M8M6M4M7M4M9M6N0M2N1M3M9M7M9M6N2M8M7M8N0N0N0M7N3M5N2M8N3N0M8N2N2
7749B2687M8N2M8N4N0N5N2N3M9N5N4N3N1N6M6N6N4N5N4N4N3N8N5N4N5N8N4N6N5N6N7N2N7O1
7741B4517N5N9N6N8N8N6O0O1N8N8O2O0N8N8O2O3N7O5O1N9O2N9O6O0O5N8O5O0O6O3O5O3O3O4
7733B6580O3O6O3O8O7O3O6O8O6O9O7O8O6P0O5O9O7P0P0P1P0O8P2O9P1P0P2P0P2O9P5P4P3P2
7725B8919P6P1P4P5P5P6P7P0P6P9P3P5P7P9Q0P6P7P7Q1Q0Q0P5Q0Q1Q3Q1Q2Q1Q4Q0Q5P7Q1R0
7718C1583Q3Q1Q5Q8Q1R0Q5Q5Q7R0Q4Q7Q9Q8Q4Q8R4R1Q8R0R2Q9R1R2R3R4R3Q9R6R9Q9J00R2
7710C4530R9R9R5R1J02J00R7R9R7R9J03J00R8J04R9J00J04J06J00J02J07J06J05J06J04J10
7704C7162J07J06J07J08J13J09J10J08J13J11J10J12J18J11J13J15J14J16J15J18J16J17J18
7699C9747J18J22J16J22J20J23J19J20J23J27J22J24J25J25J29J25J30J23J30J30J30J28J35
7694D2613J27J35J32J33J35J34J35J39J32J41J34J39J37J42J39J44J39J43J44J46J44J44J47
7688D5798J45J46J52J46J50J53J48J51J57J52J47J59J57J56J57J57J59J56J60J62J62J63J63
7683D9356J66J64J67J64J68J68J70J68J73J71J73J70J77J71J76J79J82J76J82J80J82J82J84
7678E3349J83J84J91J85J89J87J91J93J91J92J95J97J93J97K00K02J98J99K06K03K06K07K09
7673E7847K07K06K12K13K11K13K17K16K18K19K16K25K20K26K25K27K25K27K33K31K32K34K36
7667F2936K38K35K43K39K44K39K47K47K47K48K52K49K52K58K55K56K62K57K62K66K61K71K69
7662F8733K66K72K74K72K77K78K79K82K85K86K86K91K93K88K94K95K90L00L00L06L04L05L11
7657G5367L09L12L15L17L19L18L21L25L25L29L28L32L34L35L41L37L49L41L52L49L50L51L60
7651H3016L57L60L65L68L61L77L65L77L80L80L82L83L91L91L89L99L97M02M01M12M07M10M17
7646I1887M18M20M22M27M30M31M37M34M45M45M47M49M55M52M64M62M68M68M73M77M80M85M86
7641A02262M91M97M95N04N04N10N11N18N19N23N28N31N38N39N41N47N53N56N58N69N65N70
7636A13929N78N84N85N92N93O02O03O08O14O17O21O30O31O36O44O46O56O58O63O70O74O79
7631A27713O85O96O90P07P06P12P19P28P31P34P46P48P55P61P71P73P83P86P95Q03Q04Q20
7626A44166Q21Q30Q35Q43Q53Q55Q66Q75Q82Q85Q97R05R13R18R32R36R48R52R64R70R82R89
7621A64017R96J008J014J025J035J044J057J062J078J083J094J104J113J127J141J141J161
7617A82300J168J183J189J208J215J226J242J252J261J278J289J302J317J329J342J356J369
7613B03826J382J400J413J423J440J457J473J484J502J522J534J547J569J581J600J617J635
7609B29405J649J675J688J708J725J743J764J784J804J822J843J866J886J907J928J953J972
7605B60122J995K020K042K066K096K112K139K164K194K213K246K272K298K323K355K385K414
7601B97456K436K479K503K526K564K604K628K667K696K732K769K806K836K878K911K957K990
7597C43438L028L073L116L151L199L237L286L328L375L419L470L518L565L616L669L718L771
7594D00977L824L884L936L996M055M108M173M234M300M358M428M494M561M637M702M774M851
7590D74292M927M997N085N160N245N325N413N502N590N680N778N868N968O070O168O275O378
7586E69721O490O600O712O834O950P075P198P326P457P592P731P867Q013Q163Q315Q469Q630
7582F97143Q793Q958R128R309R486R671R862J0059J0260J0462J0675J0892J1114J1346J1578
7578H48736J1818J2073J2328J2589J2855J3138J3425J3719J4022J4338J4655J4990J5330J5681
7575A039697J6049J6417J6807J7202J7615J8038J8479J8926J9396J9878K0375K0890K1423
7572A281192K1977K2544K3133K3746K4383K5034K5710K6418K7151K7903K8685K9500L0351
7569A617727L1228L2139L3085L4076L5099L6167L7280L8436L9641M0899M2205M3577M5003
7566B106562M6485M8047M9671N1372N3148N5009N6960N9003O1144O3390O5743O8220P0821
7563B855575P3556P6436P9466Q2657Q6017Q9571R3318R7276J01464J05897J10582J15559J20834
7560D088208J26434J32385J38718J45458J52642J60309J68496J77247J86621J96659K07434
7558E880611K19004K31456K44868K59329K74967K91866L10185L30067L51673L75219M00907
7555I170152M28979M59744M93502N30647N71607O16877O67053P22798P84913Q54337R32163
7553A6232772J019700J118510J230459J357791J503228J670089J862461K085355K345056K649413
7551C3074834L008395L434680L944690M559771N308112O227322P368312Q800922J0622566
7548H6349604J2971347J6046672K0141988K5697715L3388095M4263231N9977156Q3121060
7547C81956868J17566525J68143029K36791996L06857839L09603817J41646591j41646697
7545A520919968l09603711l06857839k36792049j68142976j17566552q3121059n9977130m4263231
7543A94595421l3388095k5697715k0141975j6046685j2971354j0622566q800915p368306o227328
7541E3330482n308112m559764l944690l434681l008394k649420k345056k085357j862457j670089
7539B2462462j503230j357786j230459j118512j019700r32159q54339p84917p22799o67053
7537A2271508o16878n71602n30650m93506m59734m28985m00907l75225l51670l30071l10186
7534G402094k91869k74954k59323k44871k31455k19012k07431j96655j86625j77250j68495
7532D944154j60305j52646j45459j38714j32388j26434j20831j15562j10586j05891j01466
7529C533872r7277r3317q9571q6017q2659p9462p6434p3559p0820o8220o5745o3392o1140
7526B526259n9003n6957n5008n3153n1369m9673m8043m6489m5005m3572m2207m0897l9641
7523A895242l8438l7280l6166l5099l4074l3089l2139l1226l0348k9501k8689k7904k7144
7520A474145k6419k5714k5033k4380k3745k3135k2547k1974k1426k0891k0376j9874j9399
7517A179232j8927j8478j8037j7618j7199j6807j6420j6043j5685j5330j4987j4658j4335
7514I64708j4020j3719j3426j3135j2865j2585j2326j2071j1820j1583j1339j1119j0892j0677
7511G93131j0460j0261j0053r868r670r490r307r132q956q791q624q472q313q162q016p871
7507F47685p730p591p457p332p195p071o951o830o713o605o489o378o274o170o066n968n873
7503E32992n772n680n589n501n415n325n248n159n081n004m927m847m773m701m634m564m494
7499D46278m425m362m300m232m175m111m054l994l938l879l824l775l717l666l618l565l517
7496C79126l469l420l375l330l283l241l198l153l112l070l032k993k950k917k875k840k803
7492C26065k766k734k697k666k628k600k563k536k504k471k446k409k383k355k325k299k266
7488B83417k252k209k195k165k138k121k087k071k040k019j995j976j947j931j905j891j862
7484B48613j839j826j802j781j771j743j729j699j693j669j655j632j619j598j583j567j552
7480B19855j531j521j500j488j472j454j442j425j414j401j379j371j352j343j327j317j302
7476A95816j289j280j260j250j241j228j213j210j189j181j171j156j151j129j131j113j106
7472A75518j097j082j074j066j055j043j034j026j017j005r99r92r77r73r61r55r45r35r30
7468A56352r22r12r04q97q87q83q73q65q60q49q46q32q29q25q15q06q02p95p86p81p77p66
7463A37840p63p55p48p43p37p32p27p18p16p03p00p01o88o85o82o74o64o67o58o51o49o46
7458A22433o37o33o29o19o20o16o10o01o00n96n92n86n79n77n71n71n63n61n56n54n44n46
7453A09472n38n35n29n28n25n21n15n15n05n08n00m97m93m94m86m82m81m77m73m67m70m65
7448I8468m59m57m54m53m47m42m40m39m36m30m31m25m23m23m13m17m14m07m07m02m01m01l95
7442H8652l92l89l90l84l81l84l77l75l73l70l67l68l63l60l59l57l52l53l51l46l42l45l39
7437H0235l38l38l34l32l30l26l25l27l25l15l16l18l12l13l12l07l07l04l02l01k99k98k96
7432G2960k90k96k91k89k84k83k85k80k83k75k74k75k76k74k62k72k70k63k59k66k63k59k53
7427F6638k59k50k57k52k55k44k52k45k39k50k35k44k32k43k38k40k26k38k26k32k30k29k23
7421F1099k31k20k21k21k17k17k22k15k18k02k25k13k08k01k18j86k31j98k05k24j59k03k04
7416E6240j95k18j90k19j83j84j95j92j85j86k01j75j87j88j87j81j84j82j77j80j84j72j85
7411E1910j70j74j75j72j72j74j70j77j63j68j69j66j67j62j67j61j65j58j60j61j60j59j58
7406D8082j56j57j52j56j57j52j52j49j54j49j51j46j48j48j49j44j43j46j43j44j47j39j41
7400D4659j41j40j42j35j39j34j34j41j32j32j39j32j32j35j30j32j31j28j30j26j29j28j25
7395D1592j29j25j26j22j28j20j29j18j19j22j21j18j19j21j18j17j16j15j18j15j18j13j16
7390C8829j15j12j12j13j14j08j12j13j07j11j07j08j09j06j11j04j08j07j04j04r9j06j04
7385C6335j03j04j00j04j02j00r8j02j00r8j02r8r6r6r6r9r5r6r5j00r2r2r4r6r2r4q9r6r0
7378C3516q9r3r1r0q9q8q9q8r0q8q6q8q6q9q6q5q7q2q6q5q1q6q5q6q2p9q4q2p8q3q2q2p9q0
7370C0612q2p3q1p9p9p5p9q1p4p6p9p6p5p3p7p2q1o6q0p0p7p5p1p4p3p3p1p4o9p5o5p5p0p1
7362B8071p0o8o8o8p1o7p0o8o9o9o4p1o4o4p0o5o7o4o5o2o3o8o7o4o1o4o5o5o0o4o4o0o4o3
7355B5835o1o1o2o0o1o1o2n9o1n8o0n9o0n8o0n5n9n9n8n5n8n7n9n6n3o1n5n7n5n5n8n4n3n8
7347B3857n4n3n5n6n3n3n3n5n5m9n5n1n2n3n1n1n2m9n2n3n0n2n3m8n1n2m8n0n4m7m6n0m7n1
7339B2103m9m8m8m9m7m9m8m8m5n0m6m9m5m6m8m8m6m5m7m4n0m3m4m5m9m3m4m1m9m4m4m2m5m5
7331B0530m4m3m3m2m6m0m3m3m2m5m3l7m8l8m1m3m3l8m5m0m0m0l9m3m0m0m2l9l8m2l9l7m2l8
7323A9124l8m0m0l7m2l8l7m0m0l4m2l4l8l7m1l6l8l5l9l7l6l7l6l8l6l2l8l8l4l6m0l4l4l3
7316A7859m0l3l6l4l6l2l7l4l8l2l4l3l8k8m4l3k5m1k9l2m1l1k3m0l8l0l7k3l0l5m1k5m3j4
7308A6719l7l8no2k0l3l8l9j6l3l1l3k3l7l3l2l1k6l0l4k8k5l3l4k4l1l5k9l2k2l0l2l2k2
7300A5679l2k9k8l2k5l5k5k5k9k7l1k9k7k9k7k6l0l0k6l0k5k7k9k6k7k8k5k8k3l3k4k7k6k8
7292A4731k5k5k8k7k6k8k2l0k5k4l0k2k5k1k7k6k5k6k3k5k5k5k7k2k9k3k5k7k3k5k6k3k9k2
7285A3870k1k3k4k6j9k7k2k5k3k5k4k2k8k0k6k1k1k5k4k3k1k4k5k2k1k1k7k3j9k1k1k5k2k0
7277A3089l0j1l1j2k9k1j8k3k3k1k0k0k6j8k3k2k1k3j9k5j9k0j9k2k1j8k3k5j7k3j9j8k0k2
7269A2367k0k0k2j9j9k3j8j8k3j7k1k0k3k1j7j7k3j8k0j9k3j6j9k0j9j9k0j8j9j9j9j8j8k1
7261A1701j8j7j6j7j9j8j8k0j9j9j7j9j8j8j8j9j7k0j5j6k1j5j8k0j5k1j8j6j7j7j8j9j6j7
7253A1095j7j9j5j5k0j7j5j9j6j6j7j7j2k2j4j8j7j8j7j0j6j8k2j3j6j5k1j5j5j6j7j5j8j6
7246A0531j5j7j6j4j6k0j2j4j7j7j5j6j4j6j2j9j7j4j4j6j6j6j0j9j2j7j0j8j2j4k0j4j4j4
7238A0014j2j7j5j4j7j1j6j6j5j3j4j5j4j4j4j5j2j8j4j8j0j5j2j4j3j6j4j3j4j4j4j5j0k0
7230I526j1j6j2j3j4j2j3j6j3j3j4j1j6j2j1j4j5j2j1j4pj9j0j5j3j3j5j0j5rj7j1j4j5j1
7222I069j2j2j3j4j2j4j2j1j5qj5j1j0j4j4j3rj4j2j2j2j1j3j1j4j2j2j1j1j4j2j2j0j3j4
7214H640j0j4j2j0j2j2j3j0j2j0j2j1j3oj7rj3rj4rj4j0j2j1j1j2rj3j3j1j0j2rj1j1j3rj0
7205H211j1j1rj6pj2j1j2j0j1qj3j1qj2j2rj1rj1j0j0j1j0j1j1rj0j0j2j1rj0j0j1j0pj2j3
7196G800qqrj2rj2j0j1qpj0j0j2oj4j0j0qrj1j3pj0ok0nqj0j2rj1npj3j3pqj2prj1rrqrrj1
7186G348rpj2rqqrj0pj1oqj9jj0j1j3Lk0q%j7oj3qmj1rrproj0oj2pj2qj0pj2mrj0pqj0nj0
7174F919pj1oj0orj0rnj1pj2mrj0orroj0qpqprpj0rppj1roj0nj1nqoqppj0mj1pnj1mj1ppr
7162F495pqpqj0nqpj1lpj1qnj0nnprororooopj1npj0qnqqrnpkj3qnpj1nqmrppnqnqqrmqrm
7149F062oqnqpqpqnkj0pnj0oqoonqopqqlppompoqpppronopmj0mpopqkrmqoorokj0opkqpqk
7134E648qloj0noqjrpojoj0qkponqpopoononqjpnnqnmnqpmlpqpmrkj3Kj1ojkrmponlj1nno
7120E279lppnqloopjj0lmrnkooonoommpnpkqnmmkrnmmomoooolnrokrlqkommoop%mpnj0lkp
7104D932okplr%pplppljoololnmqlplmnnpjoolpmlnmonmmmpqjnonmmjplrlonmknnomnnnok
7089D610lp%qjqoKj0mnlnmnkmnonllonmlpmlnommnlnmjrJmmpoojoLj0Jj1Knrlnl%j0lm%kk
7074D343pj1Jnlj2NrkooJoojlnknrjlmloljnjj0jplllnmKpnqllmmjommknnllmojnln%lpkm
7059D084mmkr%lkqkmlllmlmnjpjln%opjmnknoljlllnmno%nlkn%omkonjmkmmlmlrjkjoojll
7044C840knjmmmjmnmjnk%j0JmnmnklllmjomlJlp%nmnkjmomklnjjo%mjkomln%o%olkn%lmjn
7028C624jnlln%nknjknkmlmlljokmlJnmjkmkjolllkmknkmkmn%kjlmpmklmjmk%rMlnlm%mlm
7013C421jklkmlkqjljKolJpljmJnjn%olJlrJ%qKq%nl%olk%%mnjmjkq%lljm%mklmkkojklmj
6997C238mjlnkJjn%mnjlkkljkmjpKmqjj%mllkllmKnnljlJnjl%jjqKonOj0MnllnKmjjmnkLq
6982C071JnkllkjmjmjmlKmmJn%nJm%mln%klkjnjjnkm%Jnjmklj%lmjkmkkn%ll%Jmkmjjlljm
6966B917j%mlk%oJkknkJkojjm%l%lJrJnkl%pMj0jMjojm%loLkplkLpKnk%JmmklmkjKqNknkl
6951B772%JojKnkml%pMpJ5j7j2MKKj0Kjjkk%kmk%oKmlkJjJoJmljjkmlJkpJkjnjkKnjklkkn
6936B645Lm%jkl%ljkkkjklmLlkjlkjkklpLkjl%ljn%k%lkljnMmp%%l%k%n%Jljjkmj%lkljjj
6921B528lkkjjjmjJ%okk%n%jkljmJllJk%pKjkj%mJo%nJjlljjjl%lJmk%klkjjmlJjmJjk%mj
6905B412Jkl%koLkkJpKjlkmjJjljoLkkjlJok%Mnm%jLlqKkn%kljKmmLm%ljljkJmJl%l%nJpJ
6890B302%%JrOkpMmLmkjlmMpLn%%nlK%mJlljj%jkJmkjjljjjlj%kjJl%lk%mjjl%jmLoj%Kmk
6874B206j%kJmlKml%jjJnJlk%jkjlJljKjrKjj%%kkj%llKkmJklJl%lJljlj%%n%J%ljrKJ%lj
6859B115lJmKjkjkJnkkjJkklj%kjlMnjjkJ%ojJlLkl%ll%jJl%%jnLnKn%%m%j%mkJkllOkljl
6843B027JlJJkkkknNpKjom%Ok0%J6jLqoK%kJKjl%lkKjmJ%njmMk%mJl%%lKo%N%n%qMkkmKlK
6828A953mkjJjJn%%mj%jl%kLlLlnJnLlj%jmlJkl%%%mJ%kjjjKlm%jljKNpjlKljmjJjmJkjlL
6812A874J%kmJlkjKlmLj%%lkLnLnLm%j0LKkjkJlKnLl%mjKkmKlKmLnkLkl%jkLk%jkjJnK%m%
6797A806kkJj%ljl%lKlJl%k%kJJnLn%Kk%lkLnJlkJjmKl%kjjJ%lj%j%jkmLjlj%Lmk%lJj%kJ
6781A740%mKjmjJlMkkjljkLkkJkj%kl%JoKjlLkkkJj%nKJmMn%mJlKkMnlKjjkjKm%kJlKjJmJ
6766A678nkLlj%JnLjmJ%lj%%jjk%KjlkkjkJ%ljKjjLmjJmLmjk%kk%%k%jl%Kl%%jLkk%jlLmK
6750A620JnJl%jj%JmKm%%kjJk%klk%%J%jkkKkkJj%jlJkKmjKjjJm%kk%jkJjkkKk%jjjKjmKm
6735A560Jjk%%nJLjljKlJk%kJjjjlj%JjkllKJJjjJjm%%KpQkmjjlOm%kkmj%KmjNoLljnKkJK
6719A510klLljjJmJKjmjKnOmmJMmjjmJNkmJkKkjKlLkmkJLnkKjjk%JjJlmJJjmL%ll%KkKjJm
6704A460%%jjk%k%kjlLjk%KklJjjjjkK%jk%LrOjkkJm%JJkkkjKlJjLjlkJkKlkKjKmj%%jj%j
6688A413kjjLjjmNkkKjj%nJjJjjkJjjj%k%Jkjj%l%kjkK%jkj%JkJkjJlkKlJ%kJ%kJJjkj%kJ
6673A369jkJjjjj%%jJoM%nLJk%jLkjoOkkoKKjjjKlLkJ%mKoLKkKlJlkKljKj%kjLlnjJKkjj%
6657A328mKkMm%jj%jjNokjjJmLjJ%jmkMkJlkjJJJjjKkjkKJkkJlk%jKlKjjKlJJjmjLl%kJkj
6641A287jJj%kkJjJj%KlJklKKllK%jk%Kk%kMllKpM%lNl%ljjLmLjljJk%ljK%JkjlJ%%jKk%j
6626A251kjLjkk%KlKkj%j%kKkJljJjlJJmMnK%kJJj%%lj%jjk%kj%Jjk%%%jk%KLoMKnkmMlJJ
6610A214OnnNkn%mMmMj1LJ1mNjLj0Nj1J0nOoq%NLjkjlKpPoLj%pJ0pMlKKm%%k%%MmlkkMj%m
6596A181PplMnjOmjJKjlj%JJ%lJkMl%%JkjkMnJj%JlkLkj%%%jjKjjkkJJjJl%%J%%kk%jJ%mJ
6581A152k%jKk%lLpMkJ%%JmKkkL%jJnKkKkj%kMLp%KqMkMjjlL%%%JjlJjJKlJjkjjmMoJ%k%j
6565A118%jJLlk%kL%kJl%lJJJ%%lJJ%lKk%jJ%kKkk%%Jk%%%%kkkK%jjj%JlkMJk%lJjkJ%kKj
6549A091K%kkJ%kKlKj%k%Ln%%m%KjKl%jjJjj%J%j%jkJJk%LjjkKlLoNoMJoKjNoKlJjk%l%%%
6534A061KjjKkKjjkLmMlJlKj%lJjJ%JkJkLlJkjJ%mMl%k%JllNjkkKKjkJ%jjjJj%LlJmjKjkJ
6518A038lLjKljjkJjjJlKj%%lJLjmJkMmL%kJkJk%Jjj%JjJkKl%k%JjMok%%kKjJlK%%jJl%%j
6503A010j%%%KKjkmMkKmJj%jKkjJjlLkJkLmK%jJLoNpOoMmKkLm%%KjlK%oPnljJKJkjpPjkKK
6487I90mNjljjL%ljKKjkmOjnLJm%J%KlqNMKppJPjK5m1J0RMj5mRmKjLJmjMKpKlkNkmL%kj%%
6472I65%kmLKm%K%Jk%jKlJlJ%KjjJjj%KmKjjj%KkJjJnLnLjJJjJk%lKkK%JlJJ%kJJoMoMkJ%
6456I44jJjkJ%%%%%kKLnk%JkKjjjKlKklNljKJl%lLkKjlK%jJjlLjLm%JmJjkPl%mKkjJJmJ%%
6441I21k%%%%JjjJjJj%jJj%%j%JJkJjk%jKkKkklJLkJKlJlMlJ%mjJPnjJmOn%%Jk%j%kJJjLj
6425I04mjKkK%klLklJKnNLrNoOJoKlJJjJ%%lMjmKkJJkjKk%LkMlkKjl%KlKkJ%kKJkLnKlJj%
6409H81%KlLkkLlKmKjJmJJlNjkjJ%%jKkJnKJKlj%KkmK%jjK%kLlMmMmKjl%LkLl%jjkKLnkLl
6393H61%lMk%J%LjmNjjj%J%n%K%%KlJjKjk%%lJ%KJlMnJjJj%lKlLk%lMjJkjjMkJ%ljkNlk%L
6377H48lJLJjoLj%KnlM%nJLrMnLKOnmQJ4Mp%j9L4j9Jl3RJ1JrQoNPj3NM%j1NMLLmnNqLlMk%
6364H33kkkJ%OoQmjLqJnOk%mKKmJNmJKlm%MJJoK%oQj%jKkJlMlJkKkk%KlKkkjK%jKj%jmJ%J
6348H13lMlJkLkjK%kkOoMpN%lKLkkLkljKKKnKJ%lJ0pnkNRkMmLrKmlK%KnLkkjKmL%jMn%JmJ
6332G97JjkK%lKk%jJlLMkkLLlkk%JkkLlMlJ%%lJjjJkJjjLkkJJjJj%KkKjjjJjMl%jKl%JKnL
6316G85kKm%N%j%k%Kj%J%nK%jmRlrLjJJlMjkJjK%k%%%j%Jl%Ll%j%K%mkQmmKmJ%LJkM%k%%%
6301G71mLjnMlJj%%jMnKKJmjMkjJlNkmKkJJk%jKlJ%%J%kj%jJJkKjJj%jKjlJMoLJ%kj%JjlL
6285G55KlJ%lJ%Jj%KkjJJlj%jKj%%lJJLJm%J%k%J%kLm%LjjJjkLlKJk%jjJl%LJk%kJJnK%jJ
6269G41kK%JJkjkkJJj%JJjkLkJjkk%jK%JJkLk%%%J%JJjjJkK%jmMkkJjjJLqNjJLln%Mm%M%K
6253G33mjjlQ%oMl%%Kl%k%MkJkjLj%jjJ%%%JljMmlJ2j0J2rJnNoKKl%%%Jk%kKKkjJmK%Lkkj
6238G15JKlJjKk%JjlMj%%%j%kK%%j%kJK%jkJjjJKnL%k%j%%jl%J%%KKjJ%kKkLjKlkjOlm%Lk
6222G05JjMnJkKJjjjKkKmKj%kK%KnLjkJk%%kNljLl%%kKJkKlLj%JjkJjLjjkMkKlLkLoLkjKk
6207F93JkLkKklMjjJlLjj%KlLmKK%%jKkJjlM%kjk%JkMk%mKLm%%JLmNjoMk%MoLJjk%%JjKkm
6191F81L%%JlLmJkjLl%%KkJkKoO%LpMjKlK%JjjJkkKjjJkKlJ%%%%%%kLkMmKJ%k%kMk%%%%jk
6175F72Ll%KmJ%j%%%JjlNnLmL%J%Jl%%kJKkJJjJjJj%JkJ%%JnK%k%KJjj%JjjMjklKjMmKjkK
6159F64JkJ%%JjjKljJJJjJ%%kJJ%ljJj%%L%ljjkMkkJKkmNkLlLlJlKjK%JmJkK%%%%%%jjKLm
6143F54%kjMmKknKlLKj%%nMQj4%%J1JnNl%jjMJpLKqNqRJlmMllOkkkLlMkMjKk%k%j%KlJJjj
6128F43LqJLKlPmjJkjMl%%jLJoMjk%JjJ%J%lJj%Kj%Kj%lKJk%JkJkJjjKjJ%Jkj%Lmj%%Kjj%
6112F34kL%lLKj%%JlKj%JjJkL%lLk%%ljL%jjKmKKlkLJ%ljLkJ%%KjjJkjJ%jKj%jKnPlJjJj%
6096F30%ljJlK%J%j%K%kJj%k%KjjjJjMm%LlJ%jJ%JkMjJjkL%jj%jjkJLljJnL%jKkL%KjJkKn
6081F19KLmj%JmOjmJlLJkKlKjMmLjkJ%kjJkKjk%MlJkK%JlKlKmNjKnLLkJnjMnKK%j%JmNkJj
6065F12jMmK%LkkjjJj%jKj%jJ%lK%%jkLJlK%kJjjj%K%kLmKkKkKJj%JlLk%JJlLj%%jjJKjjJ
6049F06%JKmLp%KlPmjKk%%KkJkKk%kKJkjK%jKmLjjLlJkJjlQlkkKkMJ%j%%kJJjjJ%l%KJjjk
6033E95MjmKjKlJJJ%lLJkjJ%jLk%%Jj%jJkkjKKJnLjkMjJn%LlJk%oJ0nLkJK%kjMlJkmlQPkr
6018E86MjLo%MkkNl%JjK%llK%Nn%Jj%JLNrlNJrKjLRlklmMMljO%mkKoN%%k%lLNkjjJJmJ%%%
6002E84j%Jk%J%kJjJJKmjKJjjJjk%KjK%lkNk%%LmLjJkjk%JjKj%%KkjJjkKoLJKjJkJlMlMlK
5986E77lLjLlMmKj%J%lKkKjjJl%JjMjj%K%l%jLmJ%kKKkJkJ%Jk%jKjJl%MlJKl%Jj%%j%%%Jj
5970E70jk%JKkJ%%%%KkjlLK%kjKkJ%KJlKjKjK%mjJkJJ%lOl%JJkJpPmLmMkLkjlK%%K%nLjj%
5955E63J%JjLn%mPkK%lMjkjlNk%jKlLlJLJmKl%j%JlKJ%KjJlLjjJ%mL%JJkkKjJmJLkj%J%kj
5939E55M%kjKjKnM%lK%kL%J%%%lKjKKkjjKljkNoKKnM%lLkK%Ln%KjJkJjjLKjjjK%Jl%jKj%j
5923E53KnNJlKkJkJjLl%LkjKjjJjjJLkkJ%jJJkJk%MkjLkKjj%%%jJJk%%kJMpLjJ%KnMkLk%%
5907E50lL%JmNmlLPlmM%mJJKnKOmj0kK0k3PJRqkkOLkn%Mk%jJJmOJmJjLjj%mNkk%LkllPnK%
5892E42%KKjkKjkKlKjJj%%lKjKLlj%%kjjNl%KjKlKj%KkkJJ%JJ%%jKj%%jJlK%lLKjjkKjJk%
5876E39%JLkjJ%Jk%lJLK%kjkkjJK%LoMqLNklL%%%MnJJjjKk%J%jjjNj%KnlLjKJl%%jJJJKkk
5860E34%%JKljJMoK%Kn%M%mLjkKJnJJj%JLm%%Kjj%KJkKJk%Kj%LnLmJkLKj%%mJKj%%jJJ%jJ
5845E32kMoMj%lMlKJkKjJLkmMJkm%Mk%lJMm%jLljM%%kK%oKMkKmjJJjj%kJK%jkkM%J%%LnJ%
5829E25JJ%nK%%L%JlLkk%Kk%%Ml%j%JkkjLjj%LkK%kKJLkmLlJ%KkjJj%Ml%kLkJKlK%%K%mkN
5813E25nKkjK%JKJjJkkjKJkjKjlK%j%%JkMJjlMjmJMklJMmNm%jjLjk%%jJjMmJJj%KnNjlJKj
5797E18jJKkjJjKKl%kJjjJJmJJKjKmKKJj%JJkLmLklM%nNmnOkPmlKkjL%K%KnmKj%JjLljjKl
5781E09KJKjlN%jkK%JJmLpNlK%kPnKLnMKllLjl%KoMKKmKJ%lLJkJjJm%kNljjNmJ%%j%JkNmJ
5766E10jjKJKJ%%mMkJjJkKkJjKlLkjJkjKkJjMnPkoMjkJ%%K%lLlKJJjj%j%%MmJJj%KlJJlKJ
5750E10%mJ%KkjJjMpLjLjkjMlLkJkL%J%J%%lJ%%Kk%k%JjKl%LkjlL%j%%Kj%kLJj%k%JjLjkj
5734E03KkJjLj%JjKjKmKjkJk%MllJLlJjKk%%%JJkMkj%lnQ%j%jJj%Kk%KkLJj%JJ%lKjjKkJK
5718E05k%KmJLnlOjk%KkjJjKj%%KkJj%jK%%jjjJJkJKjkK%jJjJ%jJ%jjK%j%LjlMJmjKJl%jO
5703E03kjJkkKJJkjJ%k%K%kJj%JkKJJoJLo%OlKj%JJ%jjMkkKkKJlKjJ%jLmLlKljJ%nKLJlJJ
5687D95%KlJJKlNmjK%%lKkLkKkKmNoLjKLmJJjjJmJ%JjJJKK%oK%%JLjmkNkNpkJjj%Mk%oQj7
5671D77Rk%MNkK2k5J8k1QoMJMnMkrjJ2mPmljMpJKL%mK%JjjLlJ%%JM%lKmQJkm%KkjJJjoMJk
5657D91lOpMJkkKKklJKkJJJ%kKJJl%jJKJm%%JKk%KkjMmJKlJkkKjKjLjJJjkMjlMjJm%JK%k%
5641D90%jL%Jl%JjJlMpMKl%JJkJjjk%K%LmLJnK%j%%JKlK%kJjK%NmKjmJMoJjJJj%KJjJJj%J
5625D90j%JkjJJ%jLmJmLjJ%kJ%%KnJkJ%JkKK%kJ%lKjlMjLmJJkKjJ%JLJmjjLlKkJkJJj%J%j
5609D83LmjNmJ%%Mj%%lJk%Jj%K%Jj%jjKlKj%LJjmMoMlOlLkJJjjKkjKj%kJKk%%%J%jKmMmNo
5593D80MjKk%j%kjJ%J%jJlKJJkJj%KkjkL%mOj%kL%%J%lK%J%kJkLlK%jlM%jj%K%%kJj%jJJk
5578D79K%%Ln%KJkjjK%JkJJkkJ%KkKJljL%KmjKJjM%m%JJKmkJ%K%JjJJ%klMJJjklLJjLjl%J
5562D80mJJJJkLJk%Jjj%J%jNmjJJ%jJ%Jl%oRnJJkj%%MKlj%Mjlk%NJLj0kJ1j2QlKjjj%jPl%
5547D79lNmmRllMLnkoJ0qkN%qK5qmj9JNJ8kl5N4k7Pn%%kPqML%kkkJjJkLlOoMpNkJkK%lKJM
5532D79jlJ%J%jJmJJlL%jjKjJlJjNjmJJOojLlJmO%%jLk%lLMl%%Jl%mKj%JJjkJLKljNkj%kJ
5517D74lM%JjJJj%kKkkOjnJKjmKMlJ%kJjkM%JkJKjjKjNl%j%KJkj%%%lNkJkJJ%KljJk%J%jk
5501D72%L%%kLkJ%%JKj%lJ%%JkJ%%kkMlJlOkLk%kJJ%MqPJnKk%KoJkNkKk%%JkLlKlKjJJk%%
5485D71K%jK%JlkMoOLplOkJJlKjJ%j%KjKk%%J%Jk%jKLmK%j%jKKm%Kjj%%K%%%jLoLJlJ%kjj
5469D68KKj%J%jkNmLkjLmK%%%j%JkLJklLjKmKJkLJ%kj%%k%JLkkL%JlLj%kMklLLm%NnK%Kkl
5453D69L%lJJjk%JJ%jKjKlJJjJk%%jNkkjK%jJ%MljjLj%%Jj%LkjjlMjlMj%%%jMmLmlOmPjqL
5438D68jLLjkJ1j2pPJJjLoPnLlqK6mj3j7J3mJ2Nm%Lj3LOoJ0rJ%JjljMkMkKmLkkMjkKNn%nL
5424D68PnlMjlJLjKj%kJmKLk%%kJ%%K%k%KlkMj%JjKjJ%%JkjJkKKkJjJjJjKk%jJKjJMljJJk
5408D71jJJmJ%KKkkMkJ%ljLKmjJj%JnKMl%Pj0O%jOnj%Jk%kKJK%kKkJkMnJjKK%rPl%JjJKlL
5393D69jMkJk%jJ%%kJ%jJJlMmLkMlKjKkKk%Kj%Jj%Jjj%kLjKj%jJkkKJkjKJkjJjJkOjJoJPm
5377D69lKJ%%KjjmNmOpRpNlkJL%jKl%KmL%kJJjk%J%%jJJ%JjKnJKjMJrPmLmMjJlL%%kKkjK%
5361D69KlJjMjlKj%jJlLkJj%KkJKJJlL%k%kJJlJ%%%%J%jj%%MoKlMjMl%KlKjKJkjjJjJJjjJ
5345D68%kJ%jJkKKLnKjjlK%JLlk%Mk%K%kJJkJJJJjnJKlKjLjjLkJjjLk%jMoJJkK%kJLljJJ%
5329D67jJ%J%%kJjJjj%Kjj%LJjKj%JKkj%%JkjJ%%j%JK%lLJjoRj0OjJoP%lKKm%J%KoO%kKj%
5314D69MjklJ%KkjLnMmKjJjKkLl%%nR%jmLKoRmMjnjMmJKjJLoKjKJlJj%%JkJ%kKkLkLj%jJJ
5298D69j%LkjLJkkJJ%jkNkjjJ%kK%JlK%J%JjkKlKjJJlj%Kj%LjkjJjNjmMljKjj%JkLJj%j%L
5282D70mK%K%kKJlMlKk%%kJJkl%NnLjKJkJ%jMjkLjjjKjj%JKkjkLmKLlM%JmJkL%lK%%JjKKl
5266D70jjLjj%kJKkLmLjL%kjK%kMjJpM%j%jJ%%kLJ%JkJKoL%MpLJjJ%%%lLkJ%%%%%LjklKLj
5251D71%%jJJjJ%%KoM%JlJJj%%lJKj%jjJKjKl%jMk%J%jKjJ%jj%jLjLjJjl%K%jjjj%%L%j%j
5235D69KjjM%lLlJkJjj%KnJJkOkK%%kkJLlkOnKJlLjJJj%jjJJJJjjJ%KjJ%%jjKjJjkLlJ%kM
5219D73j%kj%%M%j%%l%kKMkKjjkLj%lNjjJ%jKjKljKjJjkMl%Nn%jKjK%kK%JlMJoKlOkjMJkL
5203D77nMjnLPrrJ4mPjoKm%JJ2okkJ%lkMnOk%J%LljlOkjlMJlJ%mJM%kKmKKJpLlJ1lJk%%lL
5188D74kJJk%JjJ%JJ%jLk%jLkJlM%lkjL%%J%%jJlJJJjj%%KjK%kJjK%jJjkMklNkJj%j%%%%J
5172D75lJ%%JJJ%ljK%lLJj%Jj%kK%LlMnK%jK%%lK%J%lJJ%%l%Mlj%jJLKNlm%jJjkMj%jJKj%
5157D76LkkKmMkJkLkjJjJjLlJJ%JKmMkkJjJlL%kJLkj%J%LkLlJ%Lkj%l%%JJjNk%%oJLKk%jL
5141D79lkLKmkLJJmKKlJK%%JJjjJjJNm%%kKklMjj%kkjM%lO%kKJk%jK%k%%jLkJJjJ%kK%%%J
5125D80%Jkj%jJjJ%%jLkMlkKjljJKlJ%JjjJJjj%JKjLj%%K%JmKKjKlLjlJJjjj%j%MlJKkJKl
5109D78M%kKj%kLjKkjKjJkKJk%LjjKm%k%%NmnO%Lm%%%Jk%JJkmNKljKJkJ%NkJlKkKkLJJlKj
5093D83%k%LlKkJkKkjMkJjJ%jJMk%JjJlKLl%JlL%kmNMqk%L%KlL%lLJjLmkMqR%jljJjlJMlK
5078D81kJ%kNJ%jJjlNjKoJNr%KNOj5RmLpLMjkQlkK%jjJ%kLmMoLLlJLlJkNlJkJJlkO%mLjJk
5062D83Mm%JjJ%k%MkjmNJmMjJj%%jKJJlLkK%lJ%%LljJjJlJ%M%lJJNnkJJ%mKJkJMk%mLJJkj
5046D84JLlKjJlKjLk%KJmKmNlK%jJJk%%j%J%J%KljK%jJMmJmjKJ%KkLkkKJkJjKkJJ%JJlL%m
5031D86O%mJKkjL%kKlK%KmJ%LlkJ%%Lk%KlJJ%lMllMj%lN%kKJjlJ%J%jjLjjMlkJLj%KmMnOJ
5015D94mlKjjMJjjj%%kLJkkMJlJJkKlMjkJ%JnJJjJkLK%kj%jN%jj%KjKjmMJ%%kKj%kKJ%JjK
4999D95lj%%%K%J%kLkK%kjKmKlMKmKJkJkLlJLJkJjnL%JJkL%k%%JjJjjKJjJKkKk%JkjJjKlM
4983D96%lJ%jJ%jLmMjjJjJjjJKnNKk%jK%kKjJlJjJj%LkkK%JkJJ%l%j%%NkLlJ%KkljJLlQqQ
4967E01nJmPnjKMjoJ0Jnj1J8j3J2j5jjMKLkMjJklKKkLmLJjjJjOljKkJJlMmMj%joQjJlLmJk
4953D97jJKkKl%jLkKLl%L%kjlOjlLJj%L%jJjkjJJ%jK%lKJkjJLk%lM%jKJJk%%lK%lMk%JJl%
4937E00J%Jj%Jk%jMJjjmMkK%%KlOk%oOKnJkKjJJj%J%Kk%%JljJMklLJ%jkL%KkKlLjKk%JkJj
4921E05jJ%jJ%JJjjLjj%%j%kL%%j%jK%%Kl%J%%%jJ%JkJlJMoK%%K%%%jJj%%JJ%jJ%KkjMnJK
4906E08JmNkkL%kjJjJ%KjkKKkjKjJlKLlJ%kJJ%%nMKK%jkKmLlJkKjLlJJkLlMjjkJKlKkJjJk
4890E06MlL%Jj%%j%Kl%MLlJ%kKj%%%%kjJJj%%LoLjJjJ%JKkjJj%lLJ%KJjJkJkkkMJljQmjLJ
4874E15lK%Jj%Kl%JkJjjKkJLmLkJJJkL%pN%jJJ%JjKjjLkkLJjjKj%kjKJkJkNlkJjLkJ%%kKk
4858E14lL%%LjJj%%%%KlNl%k%JjJJ%%kL%lMkmNlK%mKRojLnJNkJlkNj%MpLJoLMJpNj%jKj%J
4842E20jkLKkLlM%lKlJLrPlmPJlkJJmLJmMJKkjKKlLl%JJlJ%Klj%LkkKJmLJLj%j%jL%jJ%j%
4827E23kJJl%LjjLKm%%kKJJkJJJKklJKnMkMlK%jKkKlKklMLjlMJmJL%%kjjkPoLJ%%jKjkK%J
4811E28mjOkk%NnjMlJJJ%jLJl%MmLklLmLMlj%MljjMlKjJl%Lk%%kJ%%jL%kj%LkL%%lKKlLJ%
4795E32%%lKjJ%%k%JJlMl%%jL%kJ%JlNkjKNkpMjK%%lKJ%lKJ%%kKJjJJ%lK%%kjJMmjJJnJOM
4779E39pLj%%%%J%%k%JkJJkMl%kNmLmJkJJK%JlJJJj%%JJjJkkLKl%JJjkLkkjKKjJKjj%KJJ%
4763E39%J%%nOlKlMmjM%lKkjkKJ%JjLj%%J%lL%%kK%JjJjKkK%jjKJjjKkKlKlLkJJj%J%jJJ%
4748E43jKljKJmKJ%K%lL%kMpK%jkNjjjM%%Jj%j%J%K%Jk%lKKmJLlKJJnJpJN%NnL%jJ2k1jJ3
4733E47%mJ2nLlnMKlMmKoNlLJjjjKjJnOm%LnN%kLJkjjJ%KjJJjJlLjojRkkklMMpNjKjMqM%%
4717E49jJJjJJkKnJKj%kMLl%j%KkL%%%k%J%kMljMjjKjJ%J%%j%JJ%JkJlK%%jjMjlKJkJ%%jj
4701E52%KkMmMnMlj%jNjLmLkKk%jMklKLkK%jK%jJ%lJKk%%kLJJj%lLj%%%JjKlKk%JJlMjKlJ
4685E58jLkJ%kLj%%%KlL%%kJ%jJJ%%k%%jKJJJ%j%nQnL%kLljL%jLknPKJoJ%kJJKkj%KNoJJK
4670E67ljjK%jjNnJKKjjKj%lMjjmM%kLLklL%kLlLlKjK%%jj%%Kj%%jLkjJKjkMjjjJK%m%J%j
4654E66JJkNjJmKLl%Jk%Kj%MlLoKLJk%JKljJJJkMl%MljjK%Ll%KmKJoNnNKk%%kK%j%KlLjj%
4638E72Jj%jjK%J%%k%J%JkJjK%Mm%JJj%lK%JJKkL%jkJ%JJkj%KJjJKjmJkNlKjJKlJJjjkKKm
4622E75NklL%jJK%lJlKJKnKk%kMKjJNjoMoQkjJj%NnjLKjKoKjJ1qjMnmMLkMJlL%lJk%j%MKk
4607E86rJ0joOjlMj2OmQLLnOj2mJ0k%Ooj%LMmmQ%jlJ%KJlKjkM%k%KJjj%%J%%%%KnLlKj%JJ
4592E89%kKJkjKk%LlKJmJKK%jJjKjKj%Jk%j%kLKJlMmM%kJk%%JJ%kJJj%jKJlKjJ%%%jJ%JmM
4576E95%%J%j%J%%mNkjKj%kLJkKJ%kJKJjkKl%jMkJkKjlJkM%J%lK%J%JLljKkkJLkjK%%KmMJ
4560F02%LljJ%%kKJ%KnKJjJoMKkLKnkQmkklMj%KKljK%JJ%LkkPpK%Jk%Kk%L%jjljQpJKKKkJ
4544F07%jL%%%mJ%LjJn%MmNj%%JkkL%jKoKLjJj%JkKjKJj%Jj%JJJjjjlM%JJ%jJjjJKkjJ%JJ
4529F13jl%K%J%%LjJj%%MpPoPojOlj%%KjJjk%KjMkKlK%J%%%jLkkL%kJ%%%LlJjKlJjMklNJn
4513F17NkkKJlKK%l%JKKjmKJmLKmK%%KmJjKJlMKlJJKmJJmjJMjkLJmOojMmMKjj1POn%OmOj6
4497F14J4oKMJqJ6j6KJ4rJ4m8K5oJ4Oj3NjJNjpRKj0PKl%j%JjOjlMoJnLJMlj%KjQqLjJ%%k%
4484F30mOkKj%%JkLlKJkMkJJnLj%K%jlJ%NjjjkNkjK%jJkLj%jJJjjKKklL%j%JJk%Lk%jLkLl
4468F36JkLJlLlJJJlLkKKlMjkjLlkRlkmLkLMl%KKl%jJjL%l%jk%MjkKJJj%jMlLlMk%kJKm%J
4452F42kKJJjJKJlJLlLlLlLlJJ%JjJ%KmKkMJkkOlk%%JKJjj%JKmLkJjlLjkLjJL%kKkJKl%%L
4437F54j%nQk%j%JKlMlJkKK%jjj%%KkJLlLjkJKjMolMOqMmLKkJ%%KlK%jK%kJ%J%Jj%%%Lk%M
4421F65nJKkL%jkJJMmLkKkjKj%K%kjk%KlKKk%K%Jj%%kKjJlMlMJkMl%jJ%Lj%jJ%jJJMmJmKj
4405F67%K%jJ%jjjKJ%%JjjjK%%%lL%jNjklN%lLj%j%MlJjLjJlKJlJ%JLkjKjKJkLm%L%mL%j%
4389F75%KlJjMl%%KkLjJlLJjkMlJ%Jk%KLmL%KoLKKl%j%l%M%jLkLNj2lNJOmJ%%LkkO%oKj%%
4374F83KjkL%lMmLjKPpkPNj3KNj0P%LkjkJNnKJkJl%LjkM%kMmKJJ%L%nJK%%jK%jjJJmjLKnK
4358F90JLk%%JkK%JlJKKmKLj%%%JkJjjJ%jmOJjJlMm%%LJjKjJjJKj%%%%jNknOk%KnKjJj%K%
4342G01%%KlKJjjNnJL%kjJjLkJkJ%%MmjMj%%JmMJk%kMjJlLJj%jlMjkLJkkJKjJ%%%k%KKk%M
4327G11mKJkMkMJmJJ%jJJ%kK%l%Mlj%M%kLm%JM%jpOl%%Nk%%kLlL%kJj%%JjKjKJkKlKLjljL
4311G18KJJljKKm%JjJJjjJKlLLk%kLkJkMmMkJKmJJ%L%lJLj%JJk%%%%%JJj%%kLKlJ%%KlJ%J
4295G29J%jJmNLoLkJKjjJ%KjJJnPnMjkLljJ%J%%KKkJJKj%Kl%KmK%Jj%KjkLmK%%J%kJjJJK%
4279G40j%JjLlL%Jk%kJJjLJJmLjKlJJjkLkK%kJ%jKjj%L%k%KJjjjKLlK%%kLklKNrNjLo%RoK
4264G47j1J0NmKlJ1nLJpLLqRmrJ6p%LlK%MjlLkJJ%jkJKk%JJk%%LKjpMMpRJjnjLkLJlLlLlJ
4249G59mOnLJlL%jjL%mMKjKk%Jj%JkKKmjKj%KkLkK%JKjKlKJmJMmLjlMlLkMlJLn%L%jLjJ%J
4233G72jKKJnJkMmLkJkjjJkRmjJkKJkMl%JK%JkK%%kKJjKmkLjJJKnM%kJKJj%JJjKljJ%%JJJ
4217G81kJKjJ%%j%KjJjKmJK%LkJ%j%%%LmKJkJK%LmLkjlLjL%Jj%%jJ%LKl%j%jMkjLjLLlkkL
4201G93J%lJ%Kj%J%LljK%kJkKJ%jKk%%OkjlOjJkJLkkMjjK%JjJj%JJkjkKLoKJJjJjMnKj%JK
4185H04kLjJlJ%%jJjK%K%J%lMkKJj%jJkkKLjJ%%Jkj%MjmLKkJkMJLmJKkJKl%JjMjkK%jJJjM
4170H20nJJjJlKjjkKJ%K%kKj%LlLKlKJkKkJj%LjjjJ%jJjKjLlKJJJKmNk%k%JL%jK%j%JlKkj
4154H25JJjJ%KjK%jjLklL%%%K%kLKkkJKkLmJj%LJjKmKLk%LkKqMkPMj1QMoKkKkmOKm%JJJlK
4138H39KJk%MjoPlkllJ2o%OlMLj1PlkL%NKoKMoMLmNjjjjKklPk%kJ%k%%%MljKKJk%%MkKkJk
4123H51LjK%jJlKj%Qkk%Km%%JK%kLJkKlLKl%J%%K%%lKjLjmLjJ%KkLk%K%JlL%JkMjkJjMk%J
4107H68j%KmN%%JmNkjKjK%jJ%%%kjjOmK%JkK%JJlJJJ%LkJkKjJJ%%JkLjk%K%JjJJ%Jjj%%kL
4091H81mJJjKLkLlNnMk%KmKKj%N%lKj%LkMpMKjJlKkLjl%LjJjL%%%%%KkMj%KkJ%%MmlO%jkJ
4076H97k%j%%K%MJjlO%nLKkKjmKjLkKkLj%KK%kKj%%%JJk%%jKkMjjJjMjmJK%lJJJjKKkKJk%
4060I10%jLlOk%k%KK%LnJjJMlJlKLlJKkJ%%mMkNlJj%%LJJjJKm%KJJ%jJmKJlMlNjjNkj%jj%
4044I24K%JjJjKJjK%%JkKkKJ%%mLKjJjjKj%jKjNmL%J%%JkLK%qQmOnJLmMjLnPj0Mj2J2pNkO
4029I42JoJ1kjLjMnklJ2JrJJkLjjmMLJj%lNjk%jJL%KmKoOJj%%%oJ4rO%kKljMlKLKj%jLkJj
4014I59%Jj%LkJjJjKjJlJJ%Jjj%KjKJJLmjMl%MkK%%%KkMlLkKkJlJLk%NnLjNk%kKkKjK%%%K
3998I78kK%JjKJjnKLmkO%JmLjLjj%J%%JjJ%KjJjJl%%LLLm%JL%lLkJj%JJkJJJlL%%jkMkKjL
3982I94KjMmjLmJL%%jJ%J%J%%KjJjjMk%kMkKl%%KlKKJjLjKlLJ%oJkOmLLkk%K%lMJkKmLL%K
3966A013j%L%kJJjJjJ%%jK%%L%%kMmNlLmjJjKJ%JlM%kKjJLlMjKkKKkjkLjjKjLkkNj%LkJjJ
3951A031%jJKJkjKjJJ%%J%Jj%KKkj%Ml%M%Kk%k%%Kj%j%OmjLKk%KkLjKjlKj%%K%Kk%KJkJJL
3935A052jjjK%LkJKlMj%KJl%jKLljJOjjkKkKKjkLlJ%kKJ%JkNmKK%%JkLJj%JjKkJJjJJmK%M
3920A072l%KJjJ%K%%%lK%j%Lk%LlL%jJ%mOl%KJqRJOnkLlJJKJm%J2m%nL%JJlOnMJJ%mjL%kK
3904A090jJmN%mLJkOmLmJQj2%J2oJLMmLmM%jLlKjK%l%NkKJjjKkKJjjkOkJJJjKkMlJj%%MlK
3889A112jMjj%%JKJmKjjK%JjLj%JK%L%Ll%kJ%JJjkJKjjLKlM%%kK%jMJjjMjl%JKkJ%%j%jJK
3874A133kLKkKjKkK%%KmNlK%jLkLjKjkjLjjKJkJ%LJJ%%JkJMnKLjjJ%%KlLjLkLjkNj%%%JJj
3858A157Jk%Nl%jL%jLJ%JKmKLjKljL%JJjkNmJKLpPmMm%JMjKlKj%jJJL%JjJk%jK%KJkjKlLj
3843A178OlkMLmKJJkKlKkKMlkMjMjj%jJK%J%lLLlKj%JKK%%jJk%%jNmK%%MjJJ%jM%LlkJKkJ
3827A206%KjK%k%LJkkK%jKLjjMJjkJJjj%LjjK%JjJ%MmMkKkK%K%jJLkKjjLJkjKMmLKlLjjKK
3811A234jlLjMj%JjkJKlJLjNmkLJkL%k%NlNkkN%l%KLj%LjnOjmKJKkLJNkkkOl%mMmJ2j5J6j6
3797A247lK3rkJ8k3J2kRkJ5k9Qk%%JJQk%jpRj5J1rJ2%jMkjJJK%mOkJLkJ%kNmMnNLnkLJKlj
3783A276kMK%LjjKjJkNj%LjKjKJnNjLjj%jKkJKKJ%j%jLj%KkJK%%%JLj%K%Jj%KjlOkJ%kLK%
3768A310jJJkKkJOkjJKlJ%KnJLJLnJLkMJlKLkJ%LLljNkJjLjJjjKKkKmOjkLkJM%l%Mj%KLk%
3752A340MkJLmKjK%jjMlJLJ%KjJkJlL%KkKjJLjKKnKj%KKjJJJjKjJJK%%%kQnlKL%kKKkLjmL
3736A368JLkLlJJJjKLlOjnkOlMlM%LkLjjKKj%KjjJJJKlKKjJ%kJK%kJjMKmjJKLj%KKLkKkjL
3721A403K%JJjK%JjjJL%mKMk%jMj%KJ%k%KJ%%J%jJLjjJKKjJK%k%JKKkjMmJKKkLl%JK%KKk%
3705A434MkjKJNm%Kk%MjJ%%%%KlKJJj%LjLjJjJJKjK%kMlNLjlJK%lMkKKK%kLj%%LK%L%%kjM
3690A474lL%%kK%Kk%Nj%JjKkLLlLJkJkKLlMkJMmMNmkMlLJjJLmJ%KK%nRmJ%jK%%%kPmRj4Pl
3674A501NqJ1jJnQjk%MJOmLJmLlMKKmjK%pK%oKJ5j1K3k3lJ7QqmPpJmOMRmpOJk%NLmlLJjJk
3660A539NKk%JjkJM%LljN%jNmKJkJKkLJjKlLKLmM%Jk%KlLLlMmKKkJ%LLnMMlKjLj%KkJMkJN
3645A585p%MJjJJ%lLKkMjJJ%%NnN%JJJjLmMKjMmK%jLkLjLjMlKjJJLk%Kj%JKkL%JLk%jkN%j
3629A619JLj%KjMj%KJJj%KJJJ%LJlJlNK%kOj%KkJJjKJJkJLjK%JJJ%jJJ%KkNoMMjqPLJk%K%
3614A664L%jLlLkLKJjKjKJJjLjMkjP%klNnjKLJlJJ%K%JMjkKKKkMJ%J%NKkJ%jJLkjLJjL%JJ
3598A713KlLjjKJJJJ%JJJ%JKJj%J%jLJLkJjKjNmKJ%jLjL%%%KjK%LkJJkJLJK%%JK%%JjM%%K
3582A759jjJMjkLkkLKJJkJOm%OlJKJ%%KJLj%%KM%KlL%J%jNkL%jkL%K%jKjJjMJJkMJ%LkJ%K
3567A807K%LJ%%%%%MlMjKmkPjK%MOpnLKJ0rR%olLkLMNlpmPRnJ2j7J4pKJOlJ%lJ0jjjkOj%J
3552A852LKLpLPqK%K%JKO%JlQnJKNlk%MLjJLm%KKJj%K%JL%j%JJOlJJJKJkLJjK%%JK%KKmLJ
3537A908KKjMkJKKJJ%jkLkPjjLkMlLKlKLlK%MkLLjJ%jOjjKj%LMlMJlKLjN%lLkKkNLlKLLlK
3521A968K%jJKl%NjLkJK%KJLLkkJKjjMjJKJ%KJJK%L%%%KK%JKJL%JKlKjL%%jKKj%JKJjK%Nj
3506B025%KJLkJ%JkOlNjNoMLMjjmOjKjNlkJ1nJkLNlLjKlMJJjLJ%JKKjJKJKjLLmLJKjNjjlP
3490B089jJjJJjJ%JL%KKKjJ%MkJKKjJJ%KlKNjLJKjJjLJK%JJKKlMJK%NnOkJKjMK%%%JJKMJl
3475B152PmL%K%%NlKjNjjK%J%%KKjPkKJKJjJJ%LKk%KNJ%JJ%KjKJ%M%KkJNJJJjNjjJjJkKJK
3459B220jM%%L%JN%JJJJMlKKKJMnNkLjLkLkKLJJ%JKK%LJjJKkMjjMLlLKlP%%JJ%LJ%%JMMlM
3444B297pKRlNMlnO%kNnJ1%Oj2J1LpOlMK%J%KjOkOjkKKJKKoNKk%OKnMKoJ1JmKjQj%L%JMlN
3429B370KkJMJjMlJNmMLKlLL%JJM%%%KKJkMjJK%LKjM%%M%LjLJjLkKJMKjJKMjKLJM%nKLJ%K
3413B450LkJMJJKJjLJkNLmOJ%J%LJJjKLkJM%%NjJKKjM%N%JJkPKmNjKJ%JKLJjKLJKMk%MjK%
3398B536LJjL%NmKLKLkJMj%KJKj%LKJLjLJMKkKMjKKJjJNjJNkKK%%KJ%LK%LMjJMjjJLKL%jM
3382B626nLPLkPjjJJLLKkJK%J%NLjKM%KKKjN%LKkLjKL%JLmNKMkLKJ%JKjLK%L%JJM%KLkLLJ
3367B723LjK%MjL%JL%%JM%KKKKjMKKkNJJJKLJJJjNKJjML%JLKKjKKKkNLK%LK%JKKkJP%JkMM
3351B828kLLJjNJKjLJJKL%%KLJKKKJL%JKjLPmJMJM%JK%LJKM%KjKN%kMLKkLMmLKLJKM%KKKL
3336B936JKJKJLKKKkLL%KKJJKMMjjPmKOmKOkLJL%jOkJ2JPpmRmK%MNjKKjM%%JL%MLM%KKKjO
3320C050jKkPK%KJ%OLjNjJjNLkNMMllLPKkLNjKLMkMJ%KLKLJLJKLKMkJPjKKLJJLJJLk%NjMN
3305C174%LjNjKLKKJjMLJL%MNK%%N%Oj%LJMM%JlMKLKKKLJMjKNL%%K%LKLMLJKkJR%%NkL%PJ
3289C305JJLLKKKL%MKJ%Q%LkLKN%JKLKKNJJJNjLKkLLLKKJO%LKM%JMKjMLKKK%JLLL%MkMLMJ
3274C445M%LJLJLKNjMLjOkLM%KMMjKOJKkLKMJJLKLMMKmPjKJJ0lMLkOjML%KPjMjLMKLjOK%N
3258C594%MkNNJkQ%NJNkLMjMKNK%%LJPjLML%NJMjPKKjPKOmOMJJNjJMLKKJMJLKKLJOLKKNLK
3243C759jMJL%N%MKJLKPjKJKKMNMJJNjOK%OjMOmOKNKKKKLNJKNK%KKPKJLKKM%NNJMK%LJMNK
3227C930JJNKL%MNLjOJLJKPkMKJMNLLJJO%ONjLKJNM%OJKPkMOKKKLOjKMLKNJLLLMKKLLJNLL
3212D116LLLLMKOLJJjKNNKLJ0lNKQlLjMQMJJMN%JNJPLKMMJNJMM%%PMKJMLMMjKJRJJ0kmJPP
3196D311NLKKJNjJ1KM%MN%MN%LLJ0jK%NOJNKJMKMMMLN%LLMLOLMNJJPLJMJNMKLOJJNNKLKML
3181D521MMLOjNNLNJNLMKP%MKLOJKPJQjMNMkMQJP%ON%OJLOKPKMMLJPMKL%PLP%MKMPJMNLNJ
3166D760MLKLLOKNKMOLOJMPJLQMKNJNMNJOJOLNKKMLOLKLMNJNOLKNMOJPMPMkMNMKOMJOLO%Q
3150E017K%RjNNLPkJ0NkPMLOMMMMNLLPJNP%OMLNLLNNMNKRKMO%KQLMNONKjJ2JPLNJOOMMMKL
3135E283ONNMOKNMMPKKR%OKLPMMNMPLOLKOMNMLNPJMNLOPLOMMMKQOKONJNOOPKNKQKMQMOMJP
3120E588PMMOJJ2JLO%J1MLOLNMMPPJNNMOLPOLNOMNONNNMNONLOPLKQMQKMOMLNQOMNOOjJ1KO
3105E905NONLNMQNQLMPKONMQPJPNNPMQLMOJ0KOLOPONKQOPMNNQOJRPPN%OJJ3%MJ2LONLJ5kN
3090F246QP%J7kJ2J8j1PkJ2%NJ1OLQLOOKJ1KQMRKRLONMQRMOJJ0QMRJNOROPOQMOONMJ0LROQ
3077F593NNONMQPPPRJNNPOQOPONQMQKJ0MQMPNPPNQNPQMJ1MQKROQOOOOPPPJ2LMJ2NOOPNRNQ
3062F998PNJ0MQRKQPJ0%J0RKRQRLQPPRP%J1QPMQNOQRLRQPOOQNJ1OPOORRQNLRRRPQNPOJ1OO
3048G427J0OPJ0MRPOQOJ0ROJ0QNQROJ0NQJ0OQOQPQJ0RNRQQRPQOQNJ0QNJ0RNRLJ3RRQPQROP
3034G874J2NQJ1RNQQRQRRNJ0NJ1QNJ5NJ3NJ0QQPRPOJ2RORQPJ1RPRJ0OJ0QRJ1QJ1RMRJ2QQR
3022H331PJ2ORRJ1QOJ0QJ0J1ORJ1J1NJ0J0RPRJ1QRPJ0QJ0J1QJ1RJ2PRRJ1QJ1RJ0PJ2QJ3RP
3011H769J1J1QJ2RQJ1RRJ0J1RQRJ2PJ0J3MJ2QJ0J5OJ0J4QQJ2J1QPJ4RRJ1J1J0RJ3J1QJ0RJ3
3001I216PJ6J0QJ1J0J3QRJ1J0J0J0J2QJ5RJ2J0PJ4J0RJ2J2J0J3J0RJ0J3PJ1J2J3J0J5RJ2J0
2992I643J0J5J2QJ1J4RJ2RJ2J2J1J0J3J3RJ0J0J4J2J1J1J5J0OJ5J0J1J3J4J0J3J3RJ3J1J0
2983A0064J3J4RJ5J0J1J6J3J0J3J3J2J2J1J4J0J2J5J2J5RJ0J6J1J1J3J3J6J1QJ6J0K0J0QJ7
2975A0513J1J4J2J0J3J5J4J1J0RJ9J2PJ6J6J7J5NJ8PJ9J2J2J3J4J3J1J3J6J6J4J4J2J6J0J3
2967A0982J8J0J8RJ6J2J2J9J0J5J4PK3K1J5MRJ9J5J4J5J3J7J1J4J4J0J6J7J5J1J5J5J7J0J8
2958A1490J5J5J3J3J7J5J7J5RJ9J4J6J5J5J6J5J7J5J4J5J7J4J5J4J6J5J6J4J5J7J3J7J6J3
2951A2002J9J3J7J7J4J8J3J9J2J4K1J4J6J7J7J5J7J6J4J8J3K0J6J3J9J6J7J5J7J8J4J9J2K0
2943A2552K0J3J9J6J7J6J7K0J8J6J9J7J5J9J9J3J7K0J8J8J4K0J5J8J6J8J8K0J8J8J9J6J5J8
2935A3142J7K2J8J6K2J6J7K0K1K0J3K1J9K0J5K2J8K2J4K1J6K2J8K0J7J9J8K2J7J8K2J8J8K3
2927A3784J9J6K4J8J9K0K0K0K0J9J9K0J8K2J8K1K0K0K1K0J9K4J8K2K0K1K0K2J6K6J7K3K0K3
2920A4469K1K0K2K2K0K1K4J9K0K2K2K2J9K6J7K2K3K4K0K0K5K3J9K5K0K2K0K0K8K5J8K5K2K2
2912A5209J8K3K4K3K4K2K2K5K0K6K2K5J8K4K5K3K5K4K2K9K1K8J9K5K4K9J7K5L2K0K2K6K0L0
2904A6011K3K1K6K6K5K5K6K3K8K3K7K4K5K4K8K5K5K4K6K7K1K7K9K3K8K6K8K4K3L1K7K7K2L0
2896A6878K6K6K8K4K9K5K8L0K6K7K6K7L0K7K7L0K7K5L1K5K9K8K6L0L1K8K8K4L3K7K9K7L2K7
2888A7821L2K9K7K9L0L0L0K9L0L0L0L1K6L3K9K8L1L4K7K9L0L3L3K6L4L4L2K9L0L3L2L0L1L2
2881A8854L1L2L2L3L1L2L2L4L2L2L2L1L5L2L1L3L5L1L6L0L5L3L4L6L1L1L7L4L3L7L2L6L6L4
2873A9980L3L7L4L6L3L4L7L6L3L7L3L7L6L7L7L2L7L9L5L1L8L6M0L6L4L8L8L8L7L4L9M2L6L8
2865B1208L8L9L7L9L9M0L7L7M3L8L4M2M0M1L9M3L4M4M1L6M2M2M3M4L6M4L7M3M0M2L9M1M1L9
2857B2562M5M1M2M6M1M4L5M8M7M1M7M7K5L5O6M4L5M6M8L9M8M3M4M6M6M3M8M7M1N0M4M4M6M6
2850B4060M6M8M6M8M4M7M5M9M6M8M8M5N0M8N2L8O0L9M9N7M7M6N4M8N2M7N1N2M6N3M7N3N2N1
2842B5712N2N1N1N0N0N4N3N4N5N1N2N2N3N3N2N9N2N2N3N5N6N2N7N5N3N7N6N7N2O0N4N6N6N8
2834B7545N9N7N6N9N7N7O2N5O2N5O2N6N7O0O3O1O1N5O3O0O3N8O4N9O1O5O0O2O2O1O4O7O0O7
2826B9595O4O1O2O7O7O1O4O6O2O7O9O3O7O7O6O6O6O7O5O9P0O9P0P3O3P0P2O9P3O9P0P1P0P2
2818C1882P0P7P3O6P3P3P4P0P2P6P1P5P6P5P3P5P6P7P6P6P9P3P8P8P7P7P9P7Q1Q0P7Q1Q0P6
2811C4449Q6Q0Q0Q2Q1Q2Q3Q1Q5Q0Q6Q3Q5Q2Q8Q2Q6Q6Q8Q4Q8Q7Q7Q7Q7Q9Q7Q9Q7Q9R1R3Q7R3
2803C7360Q8R5Q7R2R3R5R5R3R4R4R1R9R6R5R5R6R6R8R7J00R6R9J00R9J00R7J05R8J01J03J03
2796D0350J02J03J03J02J06J01J07J06J09J03J07J07J08J09J09J05J14J08J10J11J10J10J14
2790D2814J09J14J11J16J18J13J14J11J15J16J23J16J11J22J19J18J20J22J22J22J19J24J25
2785D5514J22J25J26J24J23J26J31J26J25J29J30J27J31J31J30J32J31J31J32J33J35J37J31
2780D8482J40J36J36J37J39J39J40J40J41J43J44J39J45J44J44J44J44J47J49J45J50J48J50
2775E1766J48J54J50J54J53J52J58J54J57J52J58J58J58J57J59J64J60J63J61J66J63J64J69
2769E5398J65J66J69J70J66J73J69J75J71J73J77J73J75J81J75J80J78J80J81J81J83J85J84
2764E9428J84J89J85J88J90J90J91J95J86J97J95J95J97J96K00J98K01K01K03K04K03K06K06
2759F3928K10K04K11K09K15K09K17K12K19K15K16K19K23K16K27K25K22K26K28K27K29K30K32
2754F8969K33K36K31K36K39K37K41K42K48K44K41K47K46K50K50K52K50K56K57K55K57K62K60
2748G4639K64K62K65K67K66K73K71K73K74K77K75K78K81K85K81K86K84K91K87K91K94K92K96
2743H1052L00K99K98L05L03L07L07L13L12L07L18L15L25L15L21L25L28L29L28L29L36L34L40
2738H8346L38L37L51L42L46L48L52L54L55L54L65L53L70L63L70L69L78L70L84L76L81L86L88
2733I6676L89L87L99L95L95M08M00M07M15M04M11M24M13M07M45M32M40M19M23M41M43M41M48
2727A06262M43M51M63M51M72M54M65M73M73M77M80M82M81M94M90M95N00M97N10N09N09N16
2722A16847N17N29N20N29N35N35N41N43N47N49N56N62N61N67N70N77N76N84N90N89N95O02
2717A29121O00O10O10O19O21O21O33O34O40O46O46O55O59O60O67O73O75O79O92O88P00P03
2712A43452P09P10P23P23P24P38P44P42P51P62P60P69P73P86P85P94Q01Q02Q10Q23Q24Q30
2707A60335Q37Q45Q52Q59Q62Q70Q82Q83Q95Q99R05R17R20R31R36R45R53R62R69R76R85R96
2702A80414R99J011J019J027J033J045J052J060J078J078J093J100J107J118J132J134J153
2698A98653J155J167J180J188J202J208J224J233J243J255J267J279J288J302J314J327J338
2694B19823J349J362J375J387J405J411J429J441J458J465J484J496J515J523J542J555J572
2690B44592J585J603J618J634J651J664J682J701J715J736J749J770J790J808J823J847J861
2687B73829J878J902J921J942J958J984K005K024K043K066K092K114K137K157K182K206K229
2683C08669K256K281K303K330K353K380K414K439K461K491K523K548K578K610K640K666K700
2679C50642K739K759K801K828K870K896K933K972L001L043L080L119L150L194L235L273L316
2675D01851L356L398L444L485L526L577L623L670L716L765L813L867L915L964M026M073M132
2671D65201M183M242M312M352M423M481M544M606M669M736M810M868M942N014N085N158N239
2667E44865N311N392N470N553N635N718N805N896N982O076O171O264O361O463O561O671O772
2663F46966O883O992P107P219P339P461P584P709P837P971Q103Q242Q383Q525Q673Q826Q980
2659G80800R136R300R464R631R809R986J0166J0354J0544J0739J0936J1148J1357J1574J1793
2656I36737J2020J2262J2488J2739J2996J3249J3516J3786J4076J4357J4653J4960J5271J5591
2653A128701J5921J6260J6610J6970J7342J7723J8108J8516J8937J9358J9804K0257K0724
2650A365231K1212K1709K2222K2752K3301K3865K4456K5046K5678K6323K6979K7677K8387
2647A684838K9119K9887L0671L1491L2337L3212L4122L5063L6043L7057L8108L9200M0339
2644B131487M1515M2735M4014M5340M6717M8156M9645N1207N2825N4519N6282N8127O0051
2641B782620O2058O4165O6350O8653P1057P3568P6218P8970Q1882Q4922Q8121R1479R5012
2638C785075R8727J02645J06760J11111J15694J20539J25651J31058J36780J42841J49263
2635E126144J56076J63310J71001J79179J87886J97165K07071K17632K28950K41049K54020
2633G329483K67935K82886K98965L16288L34972L55156L76997M00656M26335M54251M84655
2630A1328579N17835N54108N93830O37442O85420P38330P96803Q61607R33622J013844J103522
2628A9764942J204038J317113J444745J589343J753811J941669K157204K405676K693586L029043
2625C9301170L422158L885826M436481N095204N889710O856311Q043635R517403J1367858
2623I7815756J3720810J6754665K0726946K6016721L3192888M3126309N7173343P7470425
2622C85997863J07364693J51856791K17184678L05856350L96358056L99904735J82960481
2620B147483647j82960481l99904842l96357843l05856456k17184678j51856738j07364693
2618C85997916p7470478n7173343m3126269l3192901k6016721k0726960j6754651j3720797
2617I7815796j1367865r517396q043636o856317n889696n095211m436468l885846l422155
2614C9301206l029036k693586k405676k157204j941651j753812j589341j444743j317115j204039
2612A9765003j103520j013836r33623q61605p96804p38325o85408o37447n93829n54104n17834
2610A1328668m84652m54254m26333m00654l76989l55161l34971l16284k98964k82886k67927
2607G329593k54019k41048k28944k17640k07064j97162j87885j79177j70994j63312j56073
2605E126275j49263j42838j36779j31057j25645j20538j15694j11108j06763j02641r8728
2602C785221r5009r1472q8120q4918q1882p8974p6204p3574p1055o8649o6352o4161o2055
2599B782796o0049n8124n6282n4519n2823n1202m9644m8155m6713m5334m4016m2738m1513
2596B131684m0333l9199l8105l7054l6039l5063l4124l3211l2331l1488l0672k9882k9125
2593A685058k8382k7669k6983k6317k5675k5051k4451k3862k3301k2748k2224k1705k1206
2590A365484k0720k0256j9803j9363j8919j8524j8109j7722j7340j6965j6616j6254j5912
2587A128981j5593j5263j4968j4644j4360j4069j3785j3516j3244j2995j2738j2490j2255
2584I49061j2020j1794j1569j1349j1150j0937j0739j0541j0355j0160r983r807r629r463
2581G99565r297r133q979q826q670q525q379q237q105p965p836p708p581p458p338p218p104
2577F61206o990o877o773o671o561o458o364o259o168o072n982n893n805n719n632n548n467
2573E55967n388n310n235n159n082n013m941m870m803m737m672m602m542m476m422m356m298
2569D74061m242m183m129m075m019l965l916l862l811l765l713l668l616l577l527l484l441
2565D09068l399l356l307l277l229l190l156l113l073l040l006k966k931k895k864k834k795
2562C56637k757k730k698k676k634k607k572k549k521k486k465k437k405k382k354k327k304
2558C13733k279k251k227k205k178k156k136k108k088k068k040k024k001j983j956j939j920
2554B78174j899j874j863j840j823j807j786j765j749j735j713j699j681j662j649j630j617
2550B48382j599j584j569j552j538j525j511j494j482j468j452j440j427j410j400j385j376
2546B23170j361j347j334j325j309j300j289j278j263j255j241j228j223j207j197j186j180
2542B01647j165j159j145j137j128j113j107j098j088j079j069j062j053j042j031j025j017
2538A83129j009r99r91r85r72r68r59r52r43r34r28r19r16r02q96q96q81q76q69q63q55q47
2533A62769q43q35q29q28q14q07q00q03p90p87p79p72p65p61p57p45p49p36p35p26p22p16
2528A45670p12p05p00o94o92o85o82o75o70o65o63o56o47o49o36o39o34o33o19o21o15o07
2523A31171o04o00o00n93n90n81n81n75n77n66n65n64n55n52n49n45n43n39n36n28n26n22
2518A18780n23n18n10n10n08n01n01m94m94m92m87m82m81m77m71m71m68m63m65m59m57m50
2513A08098m51m43m48m41m35m35m34m30m28m26m23m17m15m17m13m06m07m02m04m02l97l91
2508I8833l92l87l86l85l86l78l79l74l72l78l64l65l65l62l58l62l53l53l51l45l49l46l41
2503I0402l46l36l36l37l35l28l28l29l25l24l22l21l18l16l14l11l14l08l08l04l05l02k97
2497H3038l00k99k97k92k94k88k85k88k94k81k81k75k82k90k64k80k74k70k75k68k64k65k62
2492G6570k64k66k55k63k57k57k53k54k51k50k47k51k47k45k42k44k44k42k35k39k40k36k30
2487G0858k33k33k30k29k30k29k26k23k23k22k21k22k16k20k18k12k14k16k11k12k09k11k10
2482F5788k06k07k03k02k06k00k02j97j99j97k00j96j95j94j94j93j89j92j89j90j90j84j86
2476F1277j84j84j82j81j81j82j82j75j80j80j72j78j74j69j76j69j71j69j74j68j69j66j66
2471E7245j63j69j62j66j60j61j60j63j61j60j56j63j53j54j58j51j57j53j49j52j55j49j51
2466E3619j50j50j47j45j46j50j42j47j43j42j42j43j45j38j40j40j39j39j34j38j40j35j34
2461E0350j34j36j32j31j34j30j31j32j25j33j26j28j31j27j26j30j22j27j27j21j24j21j22
2455D7400j23j22j22j21j21j18j19j20j18j18j15j19j12j17j12j18j13j12j13j16j12j15j07
2450D4717j11j13j05j10j10j08j08j08j07j06j02j06j04j12j04j04j02j03j02j04j03j04r8
2445D2283j01j00j00r9j07r7r6r5j01r4r7r7r9r6r5r2r8r3r3r2r5r2r1r3r1r4q7r5r0r1r0
2438C9332q7q7r1q6q7q9q3r3q5r1p8q9q7q1q7q4q5q0q2q7q1q3q2q0q3q0q4p8q1p8q1p7q1p9
2430C6485p7p8p6p8q0p6p7p4p7p5p6p4p5p4p8p3p4p5p3p4p2p3p2p1p1p3p1p0p2o7p4o7p2o7
2422C3979p0o6p4o6p3o4o7p0o6o7o6o6o7o5o4o7o3o8o6o2o5o3o5o3o6o0o6o1o2o4o1o3o1o1
2414C1761n9o6n9o1o0o1o2n9o1n9o0n5o0n5o3n5n9n7o0n5n9n6n6n7n8n8n6n2n9n5n5n5n5n4
2407B9790n5n2n5n9m8n8n1n4n3n0n2n8m8n1n5n1n2n2n0n0n4m7n3n0m9n3m8n0n2n1m8m8m8m9
2399B8036m7n2m6m9m5n3m7m7m5m8m7m7m3n0m5m7m8m4m6m5m7m4m8m3m3n1m0m5m0m9m1m7m2m2
2391B6473m3m3m7m2m1m9m1m4l4m4m2l1n3m3m3l9m7l9m1m0m7k9m1m3n3l5l3m3m1m3l5m1l6m1
2383B5066l8l5m1m1l6m1l7l6m1l7l8m1l5m1l5m1l4l6l5l7l2m1l4m4l5k9l7m1l1l4l8l4l6l9
2375B3805l1l6l5l3l3l7l7l2l8l1l4l3l6l2l2l6l2l4l0l3l4l3l2l4k9l2l6l1l0l3l2l2l2l4
2368B2676l1l3k9l2l2l0l4k9l1k9l1l2k8l0l2k8l1l1k7l2k8k9l0l0k7l2k9k7l0l0l0l0k8k4
2360B1660k8l2k7k7l0k5l0k6k8k7k8k8k7l0k5l0k8k4k7k8k4k8k7k7k9k2k9k5k6k5k9k5k6k5
2352B0738k7k4k4k6k9k4k6k4k5k5k3k7k5k6k5k4k2k5k5k2k5k7k1k8k2k5k1k4k5k1k4k4k3k4
2344A9906k2k4k3k1k5k2k1k6j7k3k5j8k4k1k7j9k2k3k3j9k2k5k1k0k2j8k4k2k1k1k2k2k1k1
2337A9159k1j8k3k2j8k1j9k2j6k1k2k0j7k2k3j8k2j8k3j7k1k2j6k3j6j9k0k0j7j8k0j8j7k2
2329A8487k1j6j9j9k2j7j8j9j2k6j5j9j8j5j9j8j8j8j9j8j9j7j7j5j7j9j7j9j5j7k0j8j8j5
2321A7878j7j7j7j6k0j6j5k2j2j4k0j3j8j9j3j6j7j4j8j8j4j7j6j7j3j8j4j5j7j4j4j7j6j3
2313A7331j7j2j6k0pj9j4j8j6j4j5j6j3j3j6j6j3j4j2j5j3j7j5j4j4j7rj7j3j3j5j6j3j3j3
2305A6823j4j1j3j5j7j4j0j4j3j5j1j3j4j1j2j5rj7j1j3j5j6pj3j3j3j1j6j1j3qj8j3j5qj0
2297A6361j5j5rj2j5j0j1j2j2j0j3qj3j3j0j2j1j2j0j4j1rj0j2j2j2j0rj3j2j0j2qj5j0qj1
2289A5940j0j1j4j0rj1j1j0j0qj6lj6rrj2j0j0j1rj1rj0j4oj3oj2j0rqrj2qj0qj0pj3j1mj0
2279A5521j0j0qj1rrorj1mj1j1roqj3prpj0rrnj2prj0oj1j0kj0j0oqroqooj3qjj3j1nqopr
2267A5103pnprpnj0pmorrmqqqrnrrnoqnnj0j0jnjpj8j0%mrjrj1lqnoqpj0%pompormnpqokl
2254A4712oopooopkprknrlnnolloonnmnpknnmmrln%rmmlonnmnqmjqkloojpojojojpmnkklr
2238A4390Kolkkmmmllolmmkmn%nkolkkmJoljn%oklkom%%nlklmnKllmm%mnjjlmkkkklj%oJj
2223A4202llJmjmj%jmjkkl%lj%n%jjkkJkmJj%kk%j%l%%%kknL%j%JnMj%jKlmKmOpjLJkJ%k%
2208A4129j%lKJk%JKJmKJkLkkNk%KjJJkjkPmNmMlJMlJKjMJJ%J%KjKJ%J%MKkMKKlKLjJL%KK
2192A4169JKKJK%N%jM%JKKKKLK%N%L%MLL%LMKN%%LMKN%OJK%OjMLM%N%NjMNJOLKLLMLOjMPk
2177A4327NJOKNLMPJLNMOKMJKMOjQLMJNKOKLPNNMNMLKNPNJNMRMKQN%ONQKQLNOKPONMPKNNM
2162A4611PMOPLPNMNRMNLQLJ1KPKJ0MPNMJ0KJ0MOJ1JNPLNJ3jOKJ9MNJJ1J4R%MNMQKJ0J0NQ
2149A4946MQPNJ2ORKJ1NQNQJ0NRNJ2LRPJ0QONQJ3NJ0MMJ1LQQRQJ1RNJ0RNJ0OJ0J2PPRJ0PQ
2137A5351QJ2PQRJ1MQJ0J3OQJ2QRROJ4PJ1NJ2QRJ0J1RQJ0QJ2QJ3QQJ3OJ4NJ3J1OJ1J2QJ4P
2126A5790J1J1J0QJ1RJ2J1RJ4RPJ3J0J4PJ6QJ0J0RJ6MJ4J3RJ1J2J1PJ7J1J3J0J1J1J1J1J3
2117A6214J0J1J0J3J4J0J3J3J1J1J4J1J4J2J1J8QJ5QJ4J2J1J2J0J4J4J4J0J3J5J3J3J3J1J6
2109A6646J3J0J5J3J2J3J6J2J3J4J7RJ7J2J4J4J5J3J3J4J2J7J3J6J7J4J4J1J6J6J5J3J6J3
2101A7118J8J4J2J7J3J2K1J6J3J4J3J7J5J4J7J4J5J5J5J5J8J3J5J8J7J5J8J5J6J6J8J4J8J5
2094A7644J5J7J3J7J9J6J8J5J6J7J4J6K0J9J6J7J6J5K2J5J7K0J7J7J7J7J7J7J9J7K0J4K4J3
2086A8223K0J9J9J3K2J9J6K0K3J6J8J5K3J8J8J9J9J9J6K2J9J7K0K1K0J8J9K1J7K0K3J8K2J6
2078A8868K2K1J9K2K2J7K4J9K0K2J9K1K2K0K2K2K2K0K0K2K1K1K0K2K0K4K0K2K1K4K0K2K4K4
2070A9591J9K6J9K4K1K2K4K5K0K4K1K4K2K4K3K2K5K2K0K6K3K3K4K4K4K5K4K4K7J6K8K8K3K6
2062B0383K3K9K0K8K5K4K4K9K1K7K4K6K6K5K6K6K5K7K4K7K7K5K6K5K9K4K7K6K6K8L1K4K6K8
2055B1261K9K8K9K4L1K6L0K7K9K5L2K7K9K6L0K9K9K9K9L1K7K7L2K5L1L2K8K9L1K9L0K9K8L1
2047B2239L0L1K8L3L0L3L0L1L2L2L3L1L0L2L0L2L3L2L1L2L2L2L2L4L2L3L1L3L7K9L4L4L5K9
2039B3322L5L6K8L8L6L2L9L1L4L2L8L5L1L8L4L5L5L7L7L1M2K9M4L5L3L7L4L6M3L4L8L5L9L4
2031B4527L6L7L8M0L7L7L9M1L8L8M0L7L9L8L8M1L5M0M2L9M0M1L7M1M8K6N2M1M3M3M1L7M0M2
2023B5869M5M1M6L8M3M3M0M3M3M3L9M6M2M5M2M8M2M3M3M3M4M4M8M6M3M6M4M7M5M7M7M7M4M8
2016B7367M7M5M8M4M9M9M7M5N0M9M8M7M7N1M6N0N3M6N1M9M8N3N2M7N1N0N1N0M8N4N1N1N5N0
2008B9039N4N2N2N4M9N4N3N3N5N3N3N5N8M9N4N9N3N4N7N2N7N8N6N7N8N1O0N5N4O3N6O0N8N8
2000C0913N7O2N7O0O2O0O0O1N9O1N8O3O2O0N9O1O5O3O2N9O6O2O5O5O2O4O4O8O0O8O5O2O6O5
1992C3026O5O8O6O6P0O5O8O6O9P1O7O9O9O7O7P3P0P1P0P1P0P0P1P4P0P3P6P0P4P1P4P5P2P5
1985C5409P6P5P4P4P7P6P7P8P4Q1P5P8P7P8Q1Q1P8Q1P9P8P9Q1Q3Q4P9Q1Q4Q5Q2Q5Q0Q5Q3Q7
1977C8115Q0Q6Q6Q7Q2R3Q5Q8Q9Q9Q2R2Q7R3Q5R3R0Q9R4Q8R5Q9R5R0R5R1R5R2R5R7R3R7R7R6
1969D1190R8R4J01J02R4R7R8J02J01R5J02J05J00J02J04J01J06J02J04J06J07J03J04J09J03
1963D3730J08J09J08J10J08J08J11J12J06J11J12J13J13J10J18J11J15J13J15J18J17J17J15
1958D6308J20J21J18J20J17J21J21J22J22J22J23J26J26J24J24J26J26J27J28J26J29J28J30
1953D9155J30J31J29J34J29J35J30J36J33J38J35J37J36J34J41J41J38J39J42J44J43J40J44
1947E2294J45J43J43J47J49J44J48J45J48J55J48J52J52J53J54J51J56J58J56J54J60J59J62
1942E5776J57J62J58J66J60J63J64J65J65J65J68J69J70J69J71J71J69J76J71J77J74J75J78
1937E9639J81J78J79J80J82J81J85J85J82J87J87J86J91J89J92J91J91J94J95J93J97J98J97
1932F3960J97J99K03K02K05K02K05K06K11K04K08K15K10K11K17K09K19K15K17K19K21K20K23
1926F8798K23K25K24K30K27K32K29K27K36K34K38K36K38K33K46K41K45K41K46K47K50K49K55
1921G4250K47K51K63K51K49K64K64K72K44K72K68K67K60K70K82K70K76K71K78K70K96K86K68
1916H0389K90K90K91K89K91K95K96K97K99K99L11K95L09L04L13L09L14L11L19L18L19L19L30
1911H7397L24L28L30L29L30L42L30L43L37L50L38L48L49L51L58L49L63L55L66L64L62L72L70
1905I5385L69L77L77L83L81L84L86L90L93L91L98L99M03M04M08M06M13M15M16M19M25M24M27
1900A04573M30M31M36M36M46M46M43M52M50M57M59M63M64M67M70M76M76M79M82M88M89M93
1895A14706M96M98N03N11N02N14N16N25N23N25N35N34N35N45N47N45N56N54N60N63N70N74
1890A26437N76N80N83N87N95N93O06O05O10O12O23O27O25O27O44O38O45O52O58O61O66O72
1885A40122O73O75O89O93O93O99P08P11P14P23P25P33P38P43P49P60P58P66P76P77P89P88
1880A56202P97Q03Q13Q12Q25Q29Q34Q38Q55Q54Q63Q67Q79Q82Q93Q96R06R13R22R24R40R38
1875A75285R54R59R65R73R88R90R98J008J015J027J034J041J054J061J068J078J089J097J107
1871A94791J118J125J138J143J157J165J180J189J199J208J219J232J242J251J265J276J286
1867B15184J300J311J326J335J349J359J373J386J400J409J431J436J452J468J479J495J510
1863B39003J527J535J557J566J588J599J613J632J650J663J681J697J718J730J750J771J783
1859B67063J801J821J843J862J876J903J916J942J957J981K001K023K043K067K087K112K132
1855C00430K155K180K205K227K250K278K304K328K353K381K408K436K462K489K517K547K578
1851C40528K608K634K668K697K737K757K799K830K861K896K931K965L006L036L081L113L152
1847C89299L192L232L274L313L351L398L442L484L528L572L621L669L712L765L813L858L916
1843D49439L965M018M078M123M189M238M299M357M422M477M541M606M667M737M799M873M940
1839E24768N011N089N157N233N308N389N467N552N633N718N802N893N984O072O164O265O363
1836F20868O457O564O663O772O880O993P104P219P337P460P578P710P835P966Q103Q241Q380
1832G46130Q524Q672Q824Q975R134R300R458R629R811R977J0166J0350J0545J0737J0940J1144
1828I02316J1354J1571J1789J2024J2251J2491J2740J2993J3248J3513J3788J4072J4355J4652
1825A083157J4957J5267J5587J5921J6257J6609J6969J7339J7719J8110J8516J8932J9357
1822A304697J9803K0256K0730K1199K1709K2221K2753K3290K3864K4450K5051K5676K6316
1819A602015K6982K7673K8382K9121K9884L0671L1489L2338L3209L4120L5061L6042L7051
1816B014038L8106L9201M0332M1513M2737M4010M5337M6719M8147M9644N1206N2827N4515
1813B608332N6280N8125O0050O2058O4155O6353O8653P1055P3568P6206P8977Q1877Q4917
1810C510606Q8122R1476R5009R8730J02637J06763J11107J15693J20537J25649J31055J36778
1807D834162J42841J49261J56073J63309J71002J79174J87885J97161K07068K17630K28957
1805F834523K41040K54018K67934K82889K98956L16289L34975L55158L76986M00652M26331
1802A0389751M54253M84654N17834N54101N93832O37442O85413P38314P96806Q61612R33616
1800A7647628J013853J103514J204042J317105J444749J589343J753806J941661K157203K405670
1797C3578574K693589L029027L422168L885836M436464N095214N889710O856311Q043622R517410
1795H6447925J1367851J3720817J6754624K0726974K6016747L3192848M3126309N7173343
1793C08527438P7470452J07364719J51856738K17184731L05856297L96357949L99904842J82960268
1791B147483434j82960268l99904842l96357949l05856350k17184731j51856738j07364693
1790C85997863p7470425n7173370m3126269l3192914k6016721k0726973j6754625j3720823
1788I7815743j1367851r517403q043636o856311n889709n095218m436465l885829l422175
1786C9301146l029029k693580k405682k157204j941669j753816j589335j444747j317117j204043
1784A9764924j103519j013846r33615q61615p96795p38330o85419o37443n93832n54101n17833
1781A1328576m84666m54252m26336m00653l76995l55159l34968l16290k98966k82886k67932
1779G329473k54019k41048k28948k17640k07068j97166j87885j79174j71001j63316j56074
1776E126134j49261j42841j36783j31056j25653j20536j15694j11111j06763j02641r8732
1774C785063r5013r1477q8121q4919q1881p8975p6214p3572p1056o8651o6357o4153o2064
1771B782610o0049n8123n6292n4519n2825n1202m9648m8151m6720m5340m4014m2737m1514
1768B131476m0337l9200l8108l7055l6044l5064l4122l3214l2335l1491l0674k9884k9123
1765A684825k8383k7676k6983k6321k5678k5052k4453k3867k3299k2749k2219k1711k1212
1762A365222k0727k0255j9806j9356j8937j8513j8115j7718j7341j6972j6613j6261j5921
1759A128687j5593j5269j4958j4653j4357j4070j3791j3516j3249j2995j2741j2495j2256
1756I48744j2020j1793j1575j1357j1144j0940j0741j0543j0353j0166r982r810r629r465
1752G99226r299r139q979q823q675q526q383q240q107p969p837p710p581p463p338p221p104
1749F60832o994o881o773o669o563o463o360o266o170o078n982n892n808n719n635n552n472
1745E55555n393n308n232n168n081n015m938m876m804m738m671m610m542m481m420m363m301
1741D73614m241m185m130m078m016l973l911l868l813l764l715l670l622l577l529l487l437
1737D08598l404l354l316l274l233l192l157l118l077l042l005k967k936k902k861k828k801
1733C56131k764k732k700k670k640k609k579k549k522k491k464k434k414k379k357k331k303
1729C13193k280k252k232k207k181k158k139k109k091k068k043k026k002j983j960j941j924
1725B77597j902j879j864j843j825j804j788j770j752j734j718j699j684j665j650j634j620
1721B47766j601j586j572j553j541j526j509j500j481j468j458j442j427j415j401j386j376
1717B22524j362j352j336j325j318j301j288j277j265j257j244j233j221j212j200j190j179
1714B00964j171j156j148j139j129j120j103j099j097j079j071j061j054j044j039j023j021
1710A82410j007j005r91r83r81r66r62r54r44r37r31r19r19r04r03q91q86q78q72q65q57q52
1705A62003q48q33q31q23q17q18q00q03p93p86p83p72p70p64p59p49p49p42p38p26p24p16
1700A44859p15p05p02p01o91o86o83o79o72o64o65o57o53o50o41o40o35o28o26o21o19o10
1695A30316o06o05n98n97n91n86n81n81n74n70n67n63n57n55n52n48n43n39n40n31n28n29
1690A17875n28n09n16n12n12n03m99m97n02m84m94m85m83m76m76m73m68m77m53m69m57m54
1684A07148m58m41m46m45m36m46m30m40m35m19m14m28m12m26m12m09m05m18m02l94m02l96
1679I7834l94l92l86l91l77l84l83l77l76l72l71l68l64l67l62l56l60l57l51l49l49l51l46
1674H9351l39l49l32l38l39l32l28l33l24l28l25l23l17l20l17l14l12l13l09l08l07l06l01
1669H1937k99l01k95k96k98k91k92k87k88k82k88k83k81k81k78k79k74k76k70k71k73k67k68
1664G5419k63k68k59k63k58k60k55k56k56k51k52k49k49k49k45k42k49k40k44k41k40k36k37
1658F9657k33k36k33k32k31k28k28k22k29k25k23k23k23k20k17k20k13k18k19k09k12k08k09
1653F4546k15k08k08k05k03k09k05k00k04k00j95j96k03j89j99j98j92j90j93j90j91j90j89
1648E9974j89j85j85j84j82j84j80j83j80j79j80j78j75j77j78j72j75j69j75j68j75j67j69
1643E5885j70j64j70j66j62j67j61j65j62j60j62j59j61j59j54j60j54j53j60j54j55j53j50
1637E2204j54j49j51j50j47j48j48j47j48j45j44j47j40j41j43j43j40j40j40j42j38j39j35
1632D8885j37j40j35j34j34j35j33j32j36j30j32j29j30j31j29j29j32j29j23j28j24j27j30
1627D5866j20j24j19j24j22j24j21j22j18j22j20j19j19j15j13j25j14j15j15j15j14j16j14
1622D3136j13j10j12j14j10j11j09j10j14j08j10j09j08j09j04j08j07j04j06j04j06j05j04
1616D0641j04j06r5j02j01j02j00j03r9j00j00r6j01j00r7r6j00r4r8r7r4r5r4r5r6r2r5r5
1610C7894r1r1r2r1r2r2q9r3q9r0q8r1q8r0q9q8q4q8q7q7q4q7q5q6q4q7q3q8p9q6q1q6q0q1
1602C4927q1q5q0q1q4q3p4q0p9q0p7q0q0q0p7p8p4q2p5p7p8p4p6p7p4p5p3p4p8p1p5p0p1p7
1594C2297p0p7o9p4p0p3p1p1o7p2o9p1p0p1p0o9o9o8o9o9o7o7o7o8o6o8o2o8o6o4o3o8o7o3
1587B9964o5o6o0o6o3o6o5o3o1o4o0o5o2o3o1o1o3o2o0o3n7o2o3n8n7o2n9n8n7o3n7n9n9n9
1579B7875n7n7o1n4n6n8n9n5n4n8o1n2n6n3n8n7n4n6n5n5n2n7n2n5n2n3n2n4n2n8n1n0n2n4
1571B6005m9n6n0m8n4n0n2n2n2m5n4m9n5m7m8n0m8n2m8n0m7m8m9m7n5m4n3m7m5n2m5m6m7m7
1563B4324m9m1n2m8m6m4m7m7m4m8m1m9m4m4m6m5m4m6m4m3m3m3m7m5n2l7l7m9m7m5l4m6m1m0
1555B2806m6m0m2m1m6m2l9l9m4m2m2m0m0m0m2l9m4m0m2m0m0l8m0m1l6m3l7m2l9l9l8m2l5l8
1548B1428m1l7m0m0l7l9m0l6l8l7l9l7l7l8l7l7l8l4l7m0l6l4l6l8l4l8l7l6l7l3l5l4l6l5
1540B0170l4l5l3l5l7l7l5l2l8l2l6l1l4l4l1l7l3l2l7k9l3l4l2l2l8l1l1l1l3l6l1l3l3l1
1532A9029l3l3l2l3l2l3k8l4k9l2l1l1l0l1l0l2l1k9l4l1l1k7l5k6l1l1l0k9l2k7l1k9k9l0
1524A7982k9l0k8k9l0l1k7k8k9k9k6l1l0k8k8k5k9l2k5k9k8k8l0k6k8k9k7k8k8k8k6k7k8k7
1516A7021k6k7k7k6k8k7k5k7k7k6k6k6k6k8k4k7k9k5k2k8k6k6k3l1k4k2k6k9k0k6k5k3l0k2
1509A6141k6k4k1k6k7k3k4k3k4l0k5k1k3k6k9k2k3k4k4k5k4k2k3k5k2k4k4k2k4k4k0k4k2k6
1501A5325k3k2k2k2k4j9k5k5k1k1k2k5k1k1k5j9k5j9k3k4k3j6k4k1k4k0k3j9k5j9k4k2j9k1
1493A4577k2k1k2k1k0k3j6k5k0j9k4j9k3j6k1k1k1j8k0k0k2j9k2j9k1j9k0k1k1j6k5j9k0j8
1485A3883k0k2j8j5k3k4j5j8k1k0j9j8j7k1j9j8k0k1j8j7k2j7k0j6k1j8j9j9j7j7k2j8j6j7
1478A3240k4j5j7k0k0j7j6j4j9j9j6k1j8k3j4j9j5j6j8k0j6j9j7j9j5j8j7j6k1j5j7j8j6j7
1470A2638k0j8j8j3j6j8j6j6j8j5j9j6j5j7j9j5j7j7j5j5j3k1j6j6j7j7j8j5j5j7j3j7j5j7
1462A2078j4j7j4j8j4j6j4j4j6j5j6j7j8j2j7j4j5j7j6j3j6j8j2j6j3j7j4j6j3j4k1rj9j6
1454A1557j7j1j6j3j5j6j5qk6oj1k0nk0j6j0k0j6j6qk0rj8pj5j2j4j5j4j6j9j3j3j5j1j5j8
1446A1028oj4j6j3j4j5j1j6j3j3j6j2j2j4j3j4j5j5qj3j0k2qj7j4qj1j2j9rj4rj8j3j4j3r
1437A0545j6j2j4j4j2j1j2j3j3j3j3j2j2j5j3rj3pj6j4j1j2j2j4j2j0j4j1j4j1j4qj5j2j3
1429A0108j3j1j2j2j1j3j1j1rj5j0j0j6qj4j2rj3j3j1j2j0j1j0j3j1j1j3j5rj3j1rj1j3j1
1421I691rj3j4rqj1j6rj0j1j4pj1j2j0j0j1j3qj3j1j2rj3rj2j1j1pj5rqj2j0j0j2j0j1j0j2
1412I258rrj1j1j1qj1j2qj2j0j0j1pj4qj3qj2j1j0j1rqj0j1j1nj1j2j0rj1j0j0pj1qj0j2r
1403H847j1j0pj1j1pj2qj2rqj1qj0rj1rj1prj2rj0j0rpj1j1j0ppj0j0rqqj0rj0j0pj1orj0
1392H426j0j1oqj2nj2pj2kj3pj1prqqj1rnj4oqqj2j1prprj0qqrqrrqppj1ropj3orj2mrj1p
1380G975nqoj0j1mrqj0nqj3poqqqj0proqrqprpj0rpqpproqqmj0j0rorproqprooj0opj0prn
1367G522prqlj4popqj0npnqqromj0pj0pnpj0qnooj0rlrqlrroqppnqnrnj0oqroprlj1nrmpr
1353G087nnrqlj2mooppnpqqlpqqmqrlmj0qqmqmqqoqlqooonrrmpqpmqpmqnqqoomqnoqmonqp
1338F658nqnnpnoorqmlqkj0mpjj3mpnmpqokoqj3mKj1Jj3jj0nnnqlorlj1%rnqlqnnpqjj2ol
1324F301kpmr%nj0lrppJ3j7pnqqokj0klqq%qmopkqolpnrlnppmnpnlomqkqlnpnmoonlrlpmm
1310E957qlmqkpj0Lpmqqknnnnopqjnpkomplnqllqmnomlmqomlomnmmppnmnnnlmpnlqmkompm
1294E621jnqoklrlmnnkomrlnkj0klmoonollokoplnkrjojnonlplookojmomqjnmnlmmomnkpm
1279E317kmmpmqjnknr%o%lrlqkmjqlnjolrknKrkmoKqmmnlolonlnjpnmjmmmqJnqllkomnkq%
1264E036mjpko%pmmj0KlommkommkolnmmkoknlnknmlokklmnloJmnmnnkmomlojol%ollom%no
1248D778jomjplmjommklpjokmko%Jj0mJokkqlkolollnjnn%knlmkokkmojmlqm%qJqjjlnjoJ
1233D545qjlnlkjnnkmmklokmnkmmKmpkkkqjmkknmjnknlnjmnkllmkllllqjklklpkJn%pmmOq
1217D323pnKkkrpOpLnlj1Nnjj0J%nnjllpjmlr%KpoJllkmm%onMmo%ojllKknj4Nllkmlknjln
1202D124nmLmnJmlmkkmjmmkmKolmnkkllklkn%lmkklmoJmjnjlkllnjklnmlJo%mkkkmlmJmln
1187C933%lkll%ojjo%ojknlKoklkkljqmJkjo%njq%kkknjkojjJpjn%mlkj%nkm%lljmlmkn%l
1171C757kkklkkjn%mjkk%nn%kkmllmkkln%lllkmjjlm%mmKlkn%jmjknjk%ojkmkmlKkllklll
1156C594jmKj0MmkjnJjmmjmkmJmlkkjmJnjlm%m%lnmMmLplkmKqjkk%mojJnkk%klkm%m%mllL
1140C446nkJqm%kl%nKmljjkjmjlmj%m%nJmJqKljmKllmkjl%mklkkjmkJoJkkkmkjmj%njkklJ
1125C302mj%oj%jml%jonjJmllJkl%kjlm%mKj%j0%%jkkjkjjokjl%mjjmj%mkjkkjmjJnkjmjl
1110C168j%ljmjlkjmk%ljkjkjkjkkkjmlmKlnj%kmk%lJ%oJrNkjmk%lJmJlnJ%j0%NpLnn%J%o
1094C044%mkjm%kl%njkjlJlnk%lKoMklJj3PJ0j3%ll%llKLmlljjmk%mJmjkoMn%oJlJmKmjjl
1079B931nJJlkjknJKmkkjjljkjKmjkl%%ojjjlk%jlkJll%nKl%llKmlkjlJkkJmKnjlJkjn%mL
1064B824nl%JnJklJkoJj%ojj%jnKmjkjljj%nJklk%lkJklJk%knKlk%kk%mj%k%lkjk%jkjkjk
1048B717jmLn%%mkkjKl%Jll%njkljJmjJllk%Kn%kk%%km%JpKKkkqLoMmjlJlkjj%JlkjmKkkj
1033B620kjmJkmk%%llK%%q%Km%kKpJmKml%Kn%mKkjk%lKjl%jmjkjkkj%mj%l%j%mkJkj%lkjk
1017B523Lm%lkkk%JkJjmJl%k%ljmkJk%kkJljJjmmMjjklKnKlmKjmkkjjlJl%kl%%kk%jkjkj%
1002B437jkJlKoJ%%mj%klJljjJ%jjjjlJjnJ%nk%jJlJnjkj%kjmJMpk%lJJmjmJjmJ%lLmmJNq
986B353Pnkm%MplNq%%j2Pkj9K1KpMkj2QmjL%qPMj6MRj0kKjjnJplOjlljKlkNmjkjjjkKmjqN
972B282%%oOokjkJm%LkrOljJmjKm%jjkj%%kJmJjjkjlkKllKlLoKkjkjjj%JjkmKj%kj%jlMmk
956B209%kljj%k%%lmmKk%j%jJkmmKLmKjmjJjJn%Mp%JnKnLk%kj%l%kJJmljkKljmLjkJlj%k%
940B135lLlk%jkjJojjkKlKkJlLn%jj%mjKmLnjjJlmJJk%JJl%mk%JnLlMmk%l%ljOo%%%jjlkL
924B069mJ%n%kKm%JpL%%jJmmjLjJlm%Jl%kKkKoKnjLjlJkLnJjKmMp%Nr%%klJjj%Kljjk%jkJ
908B003%jJljjjk%kJoLmJjj%kjjKkl%jjjlMmJk%kKm%k%k%j%jkJkkJkJjk%JlKllLkkjk%mjJ
893A940%lLo%%JJljKlJp%Kjl%%o%JkJlJj%lLjkjjjlKlKjjnkM%lKJllLojLjj%%jkJjlKnKmM
877A885%knNn%kJjljJm%%k%%kJlkJ%Jjk%jk%%k%kKm%jlJlj%ljKqLlOnjL%KmmKlKmPpmjJJJ
861A826JjmJkKlmL%nMn%%%JnMq%nQmkjnNj4J5PJ5k8lKKllM%LrJ%JjkLmljjJlNJnKmkLmKJl
846A776lKlLmk%jj%lKk%%nL%l%kKkjjkKkjJlLjJnJ%MpJkLnKkj%%jl%kJkJ%l%jnK%%l%jlJj
830A722jk%jMlKljJk%jj%nMljLnkJJ%jk%lKjkkKjjmKJkkJkjkLm%JJ%lkj%oNkj%J%JljJllM
815A677%jlKjjk%jj%kk%LkmKkLklKlJmjLkJm%MnjLjkkKlk%jJkmkKJJ%kljLmJ%kJ%Jjm%jJK
799A633mjJk%KkLpL%jkLn%kjKj%lJ%kmLjkmNjlkL%jlk%k%kJlJj%kJJkK%jmKljJJkJkKj%km
783A584JkkKjJpNoNkKkKmK%jmLoJJkJljJk%kKjJj%jKmjJkmLlLl%JkJlJl%kK%lLn%k%KmNnK
767A544k%lMlKlJn%JJjlKnkKjKl%lLm%JJjjkNnKjjlNklKkJl%j%%%KnkLkkKlJkJmNnJnN%nP
751A508nkL%m%Mj0%%mJ1nqJ0j0PrOLnpJ2jjlJOQm8M7k1OqNnKLj0OkLj0PkjkJlNqLlJl%Kkl
738A465PKjrK%Lk%lLkjk%%k%mKklMkkJjJ%jk%LlnLmJLpK%j%%kJk%Kk%%kKmKJlJj%Kl%k%jJ
722A433jJl%jl%Mk%klNpMkkJjKmm%%jLjLkoLKnjPj2MJkMknOMolmLKj%jkj%%kjKjkK%kjlKj
706A395nMjjKl%%KlLk%Jm%%jjlLmJ%kJ%kJj%nLJjkMnLoKKkkLl%j%jKmJkJmJJJlkK%kKjlKk
691A360%lJLl%j%%%mJJKlklJmKJJjJk%%%j%k%%kJlJ%%%k%JJjj%%mOpKKmj%mjkOlKkJkJkj%
675A327KlKm%lKJkjKjjJlJJkKljjJkJjJl%Jk%jjLlJmJLmjJjjJkMmKlj%lJKm%%%jlLjKjlKM
659A300lkjjJkLoOknJKnj%%%j%JkJJjjJjjk%%kKjjJ%jJ%lkkKjJ%%JjnJKjjJMoJ%%k%jjMnl
643A262LJkJjkjLkjJk%%llM%kkLmj%MmKkJjjlJKlJkjkkKLj%mLkmQlKqNoMLkmLl%JlnMlKLn
628A232KkkOoMpK%%%%mLjmL%lJkjkOmKmKJmnPJNLj0lJ1rpjQlLkJlKmLlJjLkJlJkJJJmKnKj
612A207%JmjJj%%j%jl%%%JkJKk%%kJkK%mKkkJjk%%%Lk%%%JjmJNoJjKm%JJlmNmJjMk%kkNlJ
596A181%jkKmKKlJ%lJ%Km%kKjj%jlK%kLlJj%k%KmlLJlJjjmKKjJK%k%jKl%J%lJjJj%%k%KnK
581A154Jkj%jkK%%j%LljjjJlJ%jj%J%jjjJLkk%nJPpLmlKK%jkk%KnKjLklLoKNlJkLJkmKkLl
565A127kJ%jJjJk%lNn%%k%kOklL%ljJlJkNnJ%kKlkMjjJkjJl%JjJkKjlL%kJkLkkJ%jkKJjJl
549A102Kl%%Jj%nKlKLnLkJjJljLk%j%JjlJjkJ%J%%klMjjNkkJjj%kJ%lKlJKkJKlj%%k%%jjM
533A082mLlKnPlJkKknjKkjKk%%kLmJkJJJkjKjkkJj%kjKLj%Jj%mjK%kJKkkkMkjlLlKoNkjKo
517A049JJKKj%kLLljLJjpkQrjKJLkj%k%qNnQjlKMmJpOmjOlJkK%%kl%JlJkLmJj%%k%N%rKQn
502A034%kKlJj%J%lK%j%%ljKj%jkjJkK%jkJjJj%KjJlj%JJjkkNnJJjLkkKj%%jl%J%JmKMoJK
486A014jjkkLlMj%KjmKmLkljKjKjlNljJmMk%jjK%lK%jlJKJ%Kmj%jkk%%KlK%%jJkJjJjK%jl
470I90LmLjJjkJkJ%j%k%jjJKjj%kJ%jlJ%%%Jj%JjJk%j%KkLlkJJmKjjJk%%jkKKjlJjlLmKJJ
454I71jkM%k%ljjoJ1%l%%%kKkkjK%JkJjjkKkKkLk%%kK%mLjlKoQknNlKj%JmlLj%Kk%jJ%lKj
438I50J%mjLjJkMnKlJkLjLlKnKj%jk%KlK%j%%jKjj%LjLn%l%kLkj%kK%%lL%kjJ%jK%k%%KJk
422I33JnKJk%%K%%klMnJ%Jm%LkLmK%lJj%JKk%%KmKKkk%JJ%j%mKlMljkMkKjJJjk%%Jj%KnLl
406I15Kk%j%JjkKmjJJjjkKjjjKJnL%%kj%Kj%kJmMjjlKL%oJNoM%jjkjkNnRkj%mMl%MnKkkLl
390H95K%lKlkK%jjlNKmlLKLmmQ%j2MnqQLkJJjJKmJnOlL%%kJ%%jJ%jj%LmJkKmLj%jJj%j%%l
374H76J%%%%JJl%JjK%%%%lmK%JjKjjkJ%%kMlJk%%%jlJjj%MnNlkK%JlKjjJjlKLmj%kMl%Lkj
358H60JJkKj%Km%%mKLjLlKjnLjkj%Lk%mKkL%KlJkKkLkjkjJJ%Jj%j%%jJJlJk%kNl%JjkjkKj
342H43Ln%%%LjJj%JjlLn%LJjkLmKjj%KlJL%m%%jKk%KkjJjlLjJmJjKlJJ%%k%KjJmL%k%kPoN
326H33mjL%nL%kjJjkJ%K%JnL%kJjjJnL%lL%jjJKlKJjj%Jk%jJ%%kJ%kLj%kLjkmKKljM%lJjL
310H17jjJjjJj%%%%k%JkJjMmKkJjJkKjljJjJJ%kkKljMkJj%%lKjlMkJkmOmLjLk%lK%%jKjmJ
294G98jJkj%%JjJjL%%kJ%j%%%JjJmLjkjLl%%KjKoLjjjjKj%Jk%OmJm%%%KJj%kKkmqNMLlmJM
278G85%j%kJNj4J7j4ljQjNkK%%oMjjk%JmNjnJ%kKKlMnKJmKJjLpKNJjllKkjjKJlLJkkJKK%%
263G75klJ%kKkj%JJJjJkJk%J%jkjKjmMk%K%%%%jjjLlKkjjkOmLjj%%jJjLmk%jMkkJlKmLl%O
247G59ljjJMkJJnNl%NpMlK%mKjjj%JjlM%lkLkjKjkM%%kjLk%lKj%lLKk%jkNnKlKjjMjk%%j%
231G43%jLJ%JjlJJk%kK%jkJ%k%K%kjJ%%oKMJ%lK%jjLJlMmkLlKjmJLkJ%k%k%MkMmk%LkjkjK
215G31%KlJKKk%kJKjj%lJjLkMnJ%KKlJjklLj%%%mJKkJlL%%j%lKmKjK%%jkk%%K%j%Kk%KkJj
199G19%JkJ%JjkJ%jJKljKkJjKmKk%LljJ%jmMjKkJ%kJj%j%%JKoKJj%J%JnLjJj%lLJkj%JJkK
183G08lK%%JjJlLjk%kLNpJK%k%%l%%J%%%%l%%jJJ%kJJkkLjLk%J%jkMjk%lLJj%%jJjjLlkKj
167F96%j%L%j%%k%JkkJJJKj%qPoJJjLmKKnjMj%KrNMljlMjjLjkJJJl%KjjJjmM%nOmJnOkjMJ
151F88nJ%Mj4J2oJKmKoMkMJk%KkKlKjJ%jjMnLm%KkjJ%JjkKKlJkkKmL%Jj%%%jJ%J%l%JkL%j
135F73kjKLn%%LlJKmJ%J%%%%JjJJn%K%jKk%%jjk%J%Mjk%kKl%%jjJ%%k%jK%%jKkLk%kKjjKJ
119F63lLjkLjk%%lKJj%%jJ%Jj%Kk%%jJ%j%jJj%%LmjK%%%jJkK%%%%kKkJKo%jKK%jLJlmjJ%K
103F53l%JjkJjLKkJnNl%kjLJlkKJjjL%lkMjjKkj%j%%%JlOknjJkJKjMlJlKj%LkJjkK%%jkNl
87F41J%lLJnJJlKJJkJ%kJ%J%%lJ%%j%Kk%Jkj%Kk%kLmKKl%jK%kK%%jlJ%%JKkLklKkJJjmKjK
71F30j%%%JjkOnKkJ%JlJjJkjJLk%lLjJkK%%%KkmKKKllM%J%%k%jlKkK%j%k%JkLklKMlMoJ%%
55F20KnQnJlJmMljMjk%kPmLoKlOQmNj7J1%nRj0Nj0KRJ4m8L5Mm3L4qRJ4k2j4J7mJ3pqJ0lJ2
42F27k3J4j4QpPpOn%L%nMj%KJpMKjKkJkJMqOJPj2%%J%QrKlL%kMlMmJmKJkKjk%JKll%%NlK%
27F05lKlKJkJJ%jK%jkKj%%%jkJjJk%KjjjLJjLkk%Kk%lLjJl%MmjKKnJ%MljJlk%KJ%kJjlLKm
10E91%JMqMMnLkjM%jj%%KkJ%kkLlMlkjLnLkJ%%KlkMmKMj%%kJ%jjKkj%Kj%lKJJ%jJ%kJJj%K
-6E89JlJ%jnLkLk%%jLmjKjJKl%%J%%kkJKkNmMk%KmkLkMn%%NklMkkMlJjk%J%%j%j%Kl%jK%K
-22E79JjjKmJkJKnMkKLjpNjjJlJJkJljKK%k%JkJLlj%jKkLKnJJ%%%kkLjJkKkJlLjjK%j%jkJ
-38E67KlJKk%%Jlk%KkJ%kLkjKMljkOlKlkLkJlMm%%JlKLj%jJkKkkL%%JjLm%K%mLJKj%KoJKJ
-54E64o%JJk%%JlJKjkJKJjlMmKjJ%jk%LlMnMmKj%J%kJkK%%mKkKkKlK%j%JJlJKkLkjJ%JjLo
-70E49L%mLLoMoPlL%kJ%mjKnQq%MJkKkkL%%jKJkl%MKkkMjpLrJ1NqmJRjj6J5k5M0k2j2j7L3
-84E46j1OJ6k0nK0noKqRJoJM%mKJNllQojjkKJkLkKklK%%KlKlJJjJ%m%%kJjNm%lMkLKklJJJ
-99E38%%jKjj%jNqLJlJ%kLjKoMJlKjkMlKjJJ%JjJk%j%KmJKl%JjJjJjjjLJkK%LmmLjlKJj%j
-115E29J%%mjKj%jNk%%kJjkLjKjkjLLk%kKj%jKJJlJ%%%kJl%NnKlM%lKKnOoNlJLljJoLjJLl
-131E23k%JMn%MkkKnNmMKJoKJJ%Jk%kkJJl%%Jk%JkJ%jJ%lJJkLk%M%%lL%j%klJKkKmKKkJjj
-147E13%%j%J%NklJj%K%jmJL%j%jjj%KjjjKkkMjKk%LkjJjJjMkjjK%kLk%jjLk%JlL%jj%%k%
-163E07%LnKLnKJj%kjK%j%%jJK%jlMkK%jkK%%Kl%%kJKJl%JkKjJ%kL%kJkjlLKl%KkKkKkjKl
-178D99JJlMkJkjJkJLkJj%MnKjjLk%J%jKkJmJPpJ%jJkLjJlQnpPmJ4j0OjqJpQ%mrK1j3lROo
-193D99Poj3NOjjmkPkk%%JKpLjLl%LKl%mkM%%nJ1pjMlLm%MlKjJjJmKJmKjJ%JlK%kkJJJJjK
-209D90Jj%j%j%%JmMk%jKkjjKJJmKJmL%%mKjJkK%j%%%NlkJ%%jjJjKlJjJkOnNlnJM%jjJjlQ
-224D86mKJlLkkJnLKkKlLlK%JkKjJj%nPjJklLjJ%Jj%jk%J%KkJk%Mk%lLjjkJJ%k%J%j%J%jJ
-240D77jJJllL%kJKkJJ%%lJKkKk%kJLjnKjMjjNo%JkK%lJJjkM%JnOjJm%K%lkjJ%Jj%kLKk%J
-256D70jKJkj%jJjLlNmNlmOnJjMmMkj%JlJjMk%k%J%j%JjjKjKjkKk%%jJJjLjKjljLkjJ%jjj
-272D63Mk%%JljKkJJjJ%lM%mMm%lKJKkJlJjkLJmL%kJLlK%jLmKjjK%lNmj%K%jKk%LklK%jlK
-288D57Kk%MoLK%lJjKkKkjJlL%k%%Jj%%j%KjJjmLLj%JjJkjJjK%%lKJljJjJj%%j%KlLkKJ%l
-303D51MkJl%J%%Kk%qNLjJk%JlJJJj%RpljqN%KJlJKKJl%J%K%%kjJJjk%JLkjKjjJlOnoPkjk
-319D43JLmLklKkMkKjMmJLmjK%jKjJlLljj%LjJ%%%JkK%kKk%%J%kjJ%JLnLJkJmOlkKj%kLkJ
-335D42%kJKjm%L%j%J%kJjmLjjKlMkkLjjLJ%jjjMkJjLlKlLj%JkjkPo%%K%lK%%j%lKkLjJkJ
-351D36%%%j%KJ%j%jjLk%j%KkkJ%JkJ%j%JLljJ%Jkk%KjjjMjJlKkL%j%%kjK%j%jk%Lm%LKjK
-367D33kmMJjljNoOnJjKK%kOo%Lkl%LKkj%LlkJkJkK%jlMoOmJLJKm%LlkK%jJj%%%J%%JlMkJ
-382D27JjjMlkJlKJJjj%%JmJ%jJj%%J%%%%Jj%%%KjJnKJk%JLnKjKk%%KkMl%lK%kKljM%%%K%
-398D23j%jmPknMjkK%kKjK%k%Lkj%JjmM%kLmJJMpK%Lmj%jLj%Jn%JMk%J%JkkM%kK%JklKjLk
-414D15%JkjKjJJjkjJJJlM%nLjLkkKKnOkjKjnOlNljjKnMmKmN%oQokLkMKrPljjk%M%JjllK%
-430D05KKmL%JklNlL%kkK%JlLkJLPj4JkPj%%JnKkJjJJJk%JKJ%lKjkLllLJ%jjJ%JkKkJ%kKl
-445D02JJkJJjjK%jjK%%%kKLk%J%JjjLm%Ljk%KnLjkK%jJkjK%JkjJjKkJjJjjK%l%KMn%Kj%%
-461D00kM%jjjKlJLllMJ%kLjKkjKoJMj%jkJKjJJjk%%J%jKkj%%JkKJl%JjjJjKkjL%kLklKkN
-477C98m%%K%%mLJl%%jJjKJKjlMmLmLLoLKllMkMmlJKkNJm%J%%lKlJkJKLlLlJlLkJkJjJjLJ
-493C94jJJlNkjnNkmLjJj%JjJJl%KkJ%%jmJLKk%%MkjjKJJmJl%%Lj%j%%JjkLJjJjjkJ%JkL%
-508C89jk%%J%%%jKk%KKlKlJKmLk%%nPlLl%LkjJlJJjLlKkLlKmLkJJjkLlK%KljKlKKJjkKkj
-524C82lN%lJ%KlMjkKkJkjjJjkJ%jLkJ%J%Jj%JkMkJ%%%jJJljjJKnL%%JlLnJJMlKlLkNnLJ%
-540C82nLljNLpLJkj%njMoJ2j2j%J0lLJmMlkjJKlLmMj%kMk%jLj%lJm%JMj5PNOkj0NjJ1j3P
-554C76kMnkjNmJKl%K%J%k%KkJKl%JlK%JmNk%jMmkKMljJJ%%jLkJkKJllNknJJ%jkL%lKLk%M
-570C73jJjjKjkLmLmKKlJj%LpLKkJJljLkjJJj%kLnKK%jlJL%j%LoKJKnLjjkK%LkL%mLjJJj%
-586C67jJKmKkKjKnJM%j%jkK%%k%J%%JmJJ%lJK%k%Jj%%jJk%KkLk%JKKk%JlLJLklL%kkKkjk
-602C60JlNlQpKkKJ%j%Jj%kJjjLj%jJ%%kJ%%%J%lNlJljK%LklNm%%JkjJ%jJ%%JJKjkJ%%KpL
-617C58J%%kL%kJlLj%jJ%j%JkkK%%K%JmKlMlJkLljKkLlKj%KjjKKjkj%%%%Kl%JJ%KKpJNlKj
-633C56JkLmKjjjLljjJ%%JjjKk%%J%JJ%lJjmM%LjmMmJJKmKj%KjjjJ%jjJK%jKj%lNkl%Lj%j
-649C49jL%Jj%mLJkJkJKl%%JjjJLkkOnKJmKkKkKjkJRmpQKj0J0rNpNnRj4J1%k1ONNlPJpKlN
-664C47JmNkjKjj%K%nMjl%%NnLjjjmPKn%LJJnJJkjLKjjJl%N%lJLj%jl%kNnNkJ%m%%%KkJk%
-679C41%jJ%JjJ%%j%JjJkMnNjkNljK%KnMjj%Km%Jl%j%K%J%MjjKJlJlKkJKjkkJKj%kkJJJLk
-695C41%%k%%KjJjlkKJlK%N%kjJ%jKj%J%%JkJJk%kMkj%%%lOmJk%%%jJkJJjLklLj%K%mL%jK
-711C38kK%jjK%JnJlKjMl%jjKmMLl%mMjKjKj%jJmPqLJj%JjJkJ%%JJoN%kMl%Kl%JJKkLkkKL
-727C38mmNlKKpJJ%jLnKJjJ%kKjKjJmNKnLJ%%k%KnJ%%jjK%J%kJJkJkK%%JkLkK%KjkJ%kKjj
-743C30KjKkjKjKl%KJjkjKkKJJl%K%jJkkjKk%kKjjKkJK%Jk%JJ%k%%%j%%KjMkLojkM%%%lLj
-758C26%J%k%KlKKkJ%JjJkJjkJ%%%lL%kjKJk%KJkJ%JJlMmKl%%j%LmJJKkJ%%JjKkJ%%OojMl
-774C25jjOq%J%kOkjJl%jK%JjKlMmLkNn%jK%kLkKmJ%lJJj%LKjmkMm%PlqJ3kj%%lJkJjJ%%j
-790C19%jJjKj%%kMmKjK%%jKjjJ%lLkJK%%Jl%%jKJkjj%JKk%jKkJl%jK%jKlKJkKmOmJoOKlk
-806C13jKkMkLlK%pO%jL%J%KlL%%k%mMjJjjKkJk%KkjLk%mJMnK%mMJjLjjj%JKkjJMmK%JmKj
-821C14LjkKlKj%LljKkKjjjLkK%jjKKmjJ%J%Kk%kkKLmJmNjkLjkKkMoLMkjlQo%LmkNjKlMo%
-837C09%K%NllKl%KnJKjjK%JmNJlK%%%k%%KjJj%lLJjk%JKmJ%%%KljJJ%%Jj%jKmKK%jlLJnK
-853C06jJj%LJl%%%jKjK%%JjKl%Ml%JKKnKjjJl%Jk%MlJ%%jlL%Jl%LJjk%%jL%%jJj%KmKJJ%
-869C08kjLmLj%j%%k%Kk%JkJ%kKjL%k%%jKjJJjkLlLj%kJjJlLJlJjLlKkjNj%jjjKkJJ%JljM
-884C04lKJlKjLljKjJkNo%jKjjkPjlkJNkmj1J9j7MKJ4qrJ3l%koLJ%KnjOj2OoJ1jjLJk%%lM
-899C00lKmLj%JK%j%jLlJ%KmlM%m%LLJkmKkNjjkkNjKjkkkM%%KJj%jlMlJ%JlKlLlK%j%j%Kj
-914B95jjLj%Kk%Jjk%KOqLkL%mM%k%Jl%kQlj%KJkkJlJKKKpLmLjLoM%k%K%KJpJLJJ%jJlkKK
-930B95lKKjlL%JnL%%jKkKkjJj%%JjJjJJk%JjJj%%j%%kjKJJkJlLk%jJJKmMJlKJlK%jKkLjl
-946B90%jK%k%%j%Kk%Ll%JJk%Kk%%LlJlKKjj%kKJj%kMnLjKl%KjK%%kLmNkjKlLkjKjjKjKlK
-962B89k%MoMjjK%JkKlJlLMkjjjJJJjjJlLjJlMmlJKkKjKkKjjJ%lK%jK%%%mL%JJKmKkKj%Jj
-978B86%k%Lkk%KjlN%jj%LlkL%%jlOjkLpK%K%%KjLk%lkjjJJ%%j%%NlL%%jjjJJ%jjNoKjKjJ
-993B84k%%KJJkJmMlKk%%JjjKjkJk%kNkJJjmLj%jK%K%Jkj%j%L%lLl%OmKKjkl%KKmL%kNkLo
-1009B80JKkkJJKkMoOnOoKnJlMJklM%KJkJJkkPl%J%JJoJKJnOk%mOomoJ9rJ5k8PNkMKn%LNj
-1024B83nNl%joJLJk%jJkM%ljJ%jJjOm%jJKjk%JKjmJjLmKjJJkJKljNnKjJKllKJjjMJljjJ%
-1040B72jKJjJMlJjJKJnOoj%%LlLk%jK%%jK%k%lLJmJJj%J%%llLMnjKJKl%kPklMKj%kJk%Kj
-1055B73k%K%%lJjMklLLnKjjJ%kMjLlj%%MklJj%%J%j%%KjkKJJ%lM%kjjkLjKjkKj%JkKKn%Q
-1071B76nJJpL%LkkKKkjLmKJj%JlJJJ%jJJ%lJKkj%NpjJMJlJ%nN%jlNmjK%KJkKmJJJjJm%jL
-1086B68ljNkJl%Jj%J%jJ%KkJ%%jJJ%%jjJJ%%k%JnL%KjjKJlKjLmK%Jkj%Lj%jJjkLLmlOm%j
-1102B64kL%%jjNmJmKkMkK%j%%jJJlL%jJmKJLpNjkK%JKlKlL%lKJj%LjJjmMlJjkJJjnKJKJ%
-1117B64kkJKjLmkKJ%J%%%JJlLkLKmKJpLM%rPmJjQqLnK%QlNqj0J2mRj0Lj3PlM2n0M1n4L3l
-1131B63j0JJ3jlLj3J0mkJ2qnKjMJo%PkJqLLjQlpKRnpMLl%KjlLKkMkKjjkJL%mK%jlJ%KkMn
-1145B59%%K%lLKl%%JJ%lKkJkNnMkkKlK%jJjJJkj%jLkJ%kKJkJMpj%JKmLLJjnLJjj%%JlPj5
-1161B46JMJ1nqQJJlkJK%oOJjLoMkKJjk%JKJkJlKljJKmL%jM%kKmKkJKj%MkjJjjlLjj%JlKj
-1176B54K%jJj%%j%JlLjjJKlKJlLjLmJkjkMnKLJjjjJJk%%Kk%KkjL%%jklQl%mJLkJj%KjK%k
-1192B52kJJ%mLkjKJ%%Lk%kJ%JJljkQl%jkPlnNLmjJ%nNJj%%JkKk%jMj%k%%Jj%JJk%%%Kjjk
-1207B49JjJ%%JkJjMjjJMlk%Jj%JJ%j%%jkLlNnmOJljKJj%%%%%JkLm%J%JkKJmJ%%KlKj%J%j
-1223B48%Jj%lJk%KjkMJk%kJKKkKlJjjL%lM%JjJkj%KjjjKlOpOmjKjkL%%kKkJlM%lKjKk%JJ
-1238B47k%jMl%jKJk%jMlk%LjKlJk%KLljNjJl%NmOoKmMpQkJlJJjlLj
-1250B46
##$OBSERVED MULTIPLETS=	(I, X, Y, Hs, Vs, An, H, C, N, (J))
$$ I: Multiplet Index
$$ X: Strt Coordinate
$$ Y: End Coordinate
$$ Hs: Horizontal Chemical Shift
$$ An: Normalised Integral Area
$$ H: Hydrogens
$$ C: Category
$$ N: Name
$$ (J): Coupling Constants
(1, 170.66313890827734667, 170.78433242294408956, 170.72373566561071812, 0.41666625188298944682, 0, s, 2)
(2, 60.307982263930057343, 60.429175776579398871, 60.368579020254728107, 0.99999900065603863908, 1, s, 5)
(3, 20.901181649257761563, 21.022375254501650232, 20.961778451879705898, 1.2916673880252624862, 1, s, 1)
(4, 14.272034469662708389, 14.39322808421822053, 14.33263127694046446, 1.2916673594357095389, 1, s, 6)
##$OBSERVED MULTIPLETS AREAS=	
(1, 0.50491747187496427429)
(2, 1.2118019278185538923)
(3, 1.5652465951291019142)
(4, 1.5652465604841918623)
##$OBSERVED MULTIPLETS PEAKS=	(I, X, Y)
$$ I: Multiplet Peak Index
$$ X: Peak x Position
$$ Y: Peak Intensity
(1, 170.72373566561071812, 0.048570238053798675537)
(2, 60.368579020254728107, 0.11656857281923294067)
(3, 20.961778451879705898, 0.15056785941123962402)
(4, 14.33263127694046446, 0.15056784451007843018)
##$PREDICTED PEAKS=	(X Y T A)
(20.958676998699967697,  , 3, <1>)
(170.7051302351457025,  , 3, <2>)
(60.362374290676946487,  , 3, <5>)
(14.330675366818143246,  , 3, <6>)
##$PREDICTEDCOUPLINGCONSTANTS=	J(A,B)	$$ (Hz)
127.88(1, 1)
0.59(1, 5)
6.73(2, 1)
3.58(2, 5)
0.36(2, 6)
0.59(5, 1)
143.46(5, 5)
3.7(5, 6)
3.7(6, 5)
126.64(6, 6)
##END=		$$ NMR SPECTRUM
##TITLE=	Predicted 13C NMR Spectrum
##JCAMP-DX=	6.0	$$ MestReNova 17.0.0-41178
##DATA TYPE=	NMR PEAK TABLE
##DATA CLASS=	PEAK TABLE
##BLOCK_ID=	4
##ORIGIN=	Mestrelab Research S.L.
##OWNER=	ctheodore
##CROSS REFERENCE=	NMR SPECTRUM: BLOCK_ID=3                                     
##.OBSERVE FREQUENCY=	125
##.OBSERVE NUCLEUS=	^13C
##NPOINTS=	4
##FIRSTX=	14.33263127694046446
##LASTX=	170.72373566561071812
##XFACTOR=	1
##YFACTOR=	1
##FIRSTY=	0.15056784451007843018
##XUNITS=	PPM
##YUNITS=	ARBITRARY UNITS
##PEAK TABLE=	(XYW..XYW)
14.33263127694046446,0.15056784451007843018,0.012119361455551039969
20.961778451879705898,0.15056785941123962402,0.012119360524389216974
60.368579020254728107,0.11656857281923294067,0.01211935126493415664
170.72373566561071812,0.048570238053798675537,0.012119351466676659551
##$MNOVA/PEAK_DATA_TABLE=	(T,F,A,ST,SP,APT,APC)
$$ Complementary to PEAK TABLE
$$ T: Type
$$ F: Flags
$$ A: Annotation
$$ ST: Shape Type
$$ SP: Shape Parameter
$$ APT: Attached Peaks Type
$$ APC: Attached Peaks Count
Compound,None,,0,0,0,0
Compound,None,,0,0,0,0
Compound,None,,0,0,0,0
Compound,None,,0,0,0,0
##END=		$$ NMR PEAK TABLE
##END=		$$ LINK
